<?xml version="1.0"?>
<VTKFile type="UnstructuredGrid" version="0.1" byte_order="LittleEndian">
<UnstructuredGrid>
<Piece NumberOfPoints="30578" NumberOfCells="10723">
<Points>
<DataArray type="Float64" NumberOfComponents="3" format="ascii">
-0.5 -0.5 0 -0.47439485679867832 -0.48072581506667478 0 -0.5 -0.44765434486020428 0 -0.5 -0.5 0 -0.47439485679867832 -0.48072581506667478 0 -0.43702443379937372 -0.49999999999999922 0 -0.47439485679867832 -0.48072581506667478 0 -0.45530669598391149 -0.47718009944797551 0 -0.43702443379937372 -0.49999999999999922 0 -0.47439485679867832 -0.48072581506667478 0 -0.45530669598391149 -0.47718009944797551 0 -0.4597353119515426 -0.45943449384344293 0 -0.45530669598391149 -0.47718009944797551 0 -0.44381084376742141 -0.47114793899167112 0 -0.4597353119515426 -0.45943449384344293 0 -0.45530669598391149 -0.47718009944797551 0 -0.44381084376742141 -0.47114793899167112 0 -0.43702443379937372 -0.49999999999999922 0 -0.44381084376742141 -0.47114793899167112 0 -0.43702443379937372 -0.49999999999999922 0 -0.45059725373546922 -0.44229587798334291 0 -0.4339166039271336 -0.43498117536117131 0 -0.43309128002320102 -0.45351235807576151 0 -0.44381084376742141 -0.47114793899167112 0 -0.45059725373546922 -0.44229587798334291 0 -0.4597353119515426 -0.45943449384344293 0 -0.44381084376742141 -0.47114793899167112 0 -0.45059725373546922 -0.44229587798334291 0 -0.43309128002320102 -0.45351235807576151 0 -0.44381084376742141 -0.47114793899167112 0 -0.45059725373546922 -0.44229587798334291 0 -0.4597353119515426 -0.45943449384344293 0 -0.47505511338101108 -0.44868394208069429 0 -0.46517432262153441 -0.43649963461163338 0 -0.45059725373546922 -0.44229587798334291 0 -0.4597353119515426 -0.45943449384344293 0 -0.46517432262153441 -0.43649963461163338 0 -0.47505511338101108 -0.44868394208069429 0 -0.47820614292347569 -0.42776699273468149 0 -0.46517432262153441 -0.43649963461163338 0 -0.47505511338101108 -0.44868394208069429 0 -0.47820614292347569 -0.42776699273468149 0 -0.47439485679867832 -0.48072581506667478 0 -0.47505511338101108 -0.44868394208069429 0 -0.5 -0.44765434486020428 0 -0.47439485679867832 -0.48072581506667478 0 -0.4597353119515426 -0.45943449384344293 0 -0.47505511338101108 -0.44868394208069429 0 -0.47505511338101108 -0.44868394208069429 0 -0.5 -0.44765434486020428 0 -0.47820614292347569 -0.42776699273468149 0 -0.5 -0.44765434486020428 0 -0.49656450065014057 -0.42151023988558672 0 -0.47820614292347569 -0.42776699273468149 0 -0.5 -0.44765434486020428 0 -0.49656450065014057 -0.42151023988558672 0 -0.50000000000000089 -0.37904661106745707 0 -0.49656450065014057 -0.42151023988558672 0 -0.48135717246594062 -0.40685004338866881 0 -0.47820614292347569 -0.42776699273468149 0 -0.49656450065014057 -0.42151023988558672 0 -0.48135717246594062 -0.40685004338866881 0 -0.48135717246594062 -0.40685004338866881 0 -0.47820614292347569 -0.42776699273468149 0 -0.48135717246594062 -0.40685004338866881 0 -0.47820614292347569 -0.42776699273468149 0 -0.45738366370351707 -0.41344381697501481 0 -0.49656450065014057 -0.42151023988558672 0 -0.48135717246594062 -0.40685004338866881 0 -0.50000000000000089 -0.37904661106745707 0 -0.50000000000000089 -0.37904661106745707 0 -0.48466894952205442 -0.38486603086372417 0 -0.48717439863114548 -0.36823452950912272 0 -0.48135717246594062 -0.40685004338866881 0 -0.50000000000000089 -0.37904661106745707 0 -0.48466894952205442 -0.38486603086372417 0 -0.48466894952205442 -0.38486603086372417 0 -0.48717439863114548 -0.36823452950912272 0 -0.50000000000000089 -0.37904661106745707 0 -0.48466894952205442 -0.38486603086372417 0 -0.48135717246594062 -0.40685004338866881 0 -0.48466894952205442 -0.38486603086372417 0 -0.46593083509403682 -0.39197871725165279 0 -0.48135717246594062 -0.40685004338866881 0 -0.48466894952205442 -0.38486603086372417 0 -0.48135717246594062 -0.40685004338866881 0 -0.46593083509403682 -0.39197871725165279 0 -0.48466894952205442 -0.38486603086372417 0 -0.47195833844942919 -0.37959069520904498 0 -0.46593083509403682 -0.39197871725165279 0 -0.48466894952205442 -0.38486603086372417 0 -0.46593083509403682 -0.39197871725165279 0 -0.48466894952205442 -0.38486603086372417 0 -0.47195833844942919 -0.37959069520904498 0 -0.48717439863114548 -0.36823452950912272 0 -0.46593083509403682 -0.39197871725165279 0 -0.44890944387521442 -0.39029302340116001 0 -0.45132291774153199 -0.37789636588759368 0 -0.47195833844942919 -0.37959069520904498 0 -0.46593083509403682 -0.39197871725165279 0 -0.45132291774153199 -0.37789636588759368 0 -0.46593083509403682 -0.39197871725165279 0 -0.45132291774153199 -0.37789636588759368 0 -0.48135717246594062 -0.40685004338866881 0 -0.46593083509403682 -0.39197871725165279 0 -0.45738366370351707 -0.41344381697501481 0 -0.46593083509403682 -0.39197871725165279 0 -0.44275815558040038 -0.40077469311046232 0 -0.45738366370351707 -0.41344381697501481 0 -0.46593083509403682 -0.39197871725165279 0 -0.44275815558040038 -0.40077469311046232 0 -0.46593083509403682 -0.39197871725165279 0 -0.44275815558040038 -0.40077469311046232 0 -0.44890944387521442 -0.39029302340116001 0 -0.44275815558040038 -0.40077469311046232 0 -0.44064580868350911 -0.39542861624611658 0 -0.44890944387521442 -0.39029302340116001 0 -0.44225344557501872 -0.38376649822575309 0 -0.45132291774153199 -0.37789636588759368 0 -0.43671500038902772 -0.36381401452353412 0 -0.44890944387521442 -0.39029302340116001 0 -0.44225344557501872 -0.38376649822575309 0 -0.45132291774153199 -0.37789636588759368 0 -0.44064580868350911 -0.39542861624611658 0 -0.44225344557501872 -0.38376649822575309 0 -0.43040194378266172 -0.3881600185019185 0 -0.44064580868350911 -0.39542861624611658 0 -0.44890944387521442 -0.39029302340116001 0 -0.44225344557501872 -0.38376649822575309 0 -0.47820614292347569 -0.42776699273468149 0 -0.46517432262153441 -0.43649963461163338 0 -0.45738366370351707 -0.41344381697501481 0 -0.45059725373546922 -0.44229587798334291 0 -0.45738366370351707 -0.41344381697501481 0 -0.45059725373546922 -0.44229587798334291 0 -0.46517432262153441 -0.43649963461163338 0 -0.45738366370351707 -0.41344381697501481 0 -0.44275815558040038 -0.40077469311046232 0 -0.45738366370351707 -0.41344381697501481 0 -0.44164244492799948 -0.42121090558557039 0 -0.45059725373546922 -0.44229587798334291 0 -0.45738366370351707 -0.41344381697501481 0 -0.44164244492799948 -0.42121090558557039 0 -0.45059725373546922 -0.44229587798334291 0 -0.44164244492799948 -0.42121090558557039 0 -0.4339166039271336 -0.43498117536117131 0 -0.4339166039271336 -0.43498117536117131 0 -0.42355654769347711 -0.414558964497861 0 -0.41671115160429401 -0.44095791049380378 0 -0.44164244492799948 -0.42121090558557039 0 -0.4339166039271336 -0.43498117536117131 0 -0.42355654769347711 -0.414558964497861 0 -0.44275815558040038 -0.40077469311046232 0 -0.44164244492799948 -0.42121090558557039 0 -0.42355654769347711 -0.414558964497861 0 -0.42355654769347711 -0.414558964497861 0 -0.41056920252370888 -0.3963363404412637 0 -0.40050668374064252 -0.41734442193795029 0 -0.42355654769347711 -0.414558964497861 0 -0.41671115160429401 -0.44095791049380378 0 -0.42355654769347711 -0.414558964497861 0 -0.40050668374064252 -0.41734442193795029 0 -0.41671115160429401 -0.44095791049380378 0 -0.44225344557501872 -0.38376649822575309 0 -0.43040194378266172 -0.3881600185019185 0 -0.43671500038902772 -0.36381401452353412 0 -0.43040194378266172 -0.3881600185019185 0 -0.43671500038902772 -0.36381401452353412 0 -0.44064580868350911 -0.39542861624611658 0 -0.42355654769347711 -0.414558964497861 0 -0.43040194378266172 -0.3881600185019185 0 -0.42355654769347711 -0.414558964497861 0 -0.43040194378266172 -0.3881600185019185 0 -0.44275815558040038 -0.40077469311046232 0 -0.44064580868350911 -0.39542861624611658 0 -0.42355654769347711 -0.414558964497861 0 -0.44064580868350911 -0.39542861624611658 0 -0.43040194378266172 -0.3881600185019185 0 -0.42355654769347711 -0.414558964497861 0 -0.43040194378266172 -0.3881600185019185 0 -0.41056920252370888 -0.3963363404412637 0 -0.43040194378266172 -0.3881600185019185 0 -0.4079689369259607 -0.37224253963894771 0 -0.43040194378266172 -0.3881600185019185 0 -0.41056920252370888 -0.3963363404412637 0 -0.4079689369259607 -0.37224253963894771 0 -0.41056920252370888 -0.3963363404412637 0 -0.39195929229331972 -0.37982250283040359 0 -0.4079689369259607 -0.37224253963894771 0 -0.41056920252370888 -0.3963363404412637 0 -0.39195929229331972 -0.37982250283040359 0 -0.39357845321732049 -0.39746174547711199 0 -0.41056920252370888 -0.3963363404412637 0 -0.39357845321732049 -0.39746174547711199 0 -0.40050668374064252 -0.41734442193795029 0 -0.39357845321732049 -0.39746174547711199 0 -0.38114412328536468 -0.40833987260765031 0 -0.36544727141479139 -0.39026932065168712 0 -0.39195929229331972 -0.37982250283040359 0 -0.37549160074202448 -0.3732971907138336 0 -0.36544727141479139 -0.39026932065168712 0 -0.39195929229331972 -0.37982250283040359 0 -0.39357845321732049 -0.39746174547711199 0 -0.36544727141479139 -0.39026932065168712 0 -0.40050668374064252 -0.41734442193795029 0 -0.3944977858259317 -0.43926335073686201 0 -0.41671115160429401 -0.44095791049380378 0 -0.40050668374064252 -0.41734442193795029 0 -0.38028594703985957 -0.42392304976487449 0 -0.3944977858259317 -0.43926335073686201 0 -0.39357845321732049 -0.39746174547711199 0 -0.40050668374064252 -0.41734442193795029 0 -0.38114412328536468 -0.40833987260765031 0 -0.40050668374064252 -0.41734442193795029 0 -0.38114412328536468 -0.40833987260765031 0 -0.38028594703985957 -0.42392304976487449 0 -0.38114412328536468 -0.40833987260765031 0 -0.38028594703985957 -0.42392304976487449 0 -0.36590226101420908 -0.41270082520662749 0 -0.38028594703985957 -0.42392304976487449 0 -0.3944977858259317 -0.43926335073686201 0 -0.3723601590800425 -0.44005613486137668 0 -0.3944977858259317 -0.43926335073686201 0 -0.38265619596279349 -0.45813348326120767 0 -0.3723601590800425 -0.44005613486137668 0 -0.40093272222703252 -0.45142790024540502 0 -0.3944977858259317 -0.43926335073686201 0 -0.38265619596279349 -0.45813348326120767 0 -0.40093272222703252 -0.45142790024540502 0 -0.3944977858259317 -0.43926335073686201 0 -0.41671115160429401 -0.44095791049380378 0 -0.38265619596279349 -0.45813348326120767 0 -0.40986575551511062 -0.46735685648974662 0 -0.38265619596279349 -0.45813348326120767 0 -0.39389470715733632 -0.47355095168427308 0 -0.40986575551511062 -0.46735685648974662 0 -0.40093272222703252 -0.45142790024540502 0 -0.38265619596279349 -0.45813348326120767 0 -0.40986575551511062 -0.46735685648974662 0 -0.38265619596279349 -0.45813348326120767 0 -0.38272382101637098 -0.47243968377412587 0 -0.39389470715733632 -0.47355095168427308 0 -0.38272382101637098 -0.47243968377412587 0 -0.38859428369766791 -0.48614630665141417 0 -0.36652141413456929 -0.48474993749143802 0 -0.38272382101637098 -0.47243968377412587 0 -0.38859428369766791 -0.48614630665141417 0 -0.39389470715733632 -0.47355095168427308 0 -0.37500484199342449 -0.5 0 -0.38859428369766791 -0.48614630665141417 0 -0.40140120367436599 -0.49999999999999611 0 -0.37500484199342449 -0.5 0 -0.38859428369766791 -0.48614630665141417 0 -0.36652141413456929 -0.48474993749143802 0 -0.38859428369766791 -0.48614630665141417 0 -0.40140120367436599 -0.49999999999999611 0 -0.40563347959473789 -0.48367842824487117 0 -0.40140120367436599 -0.49999999999999611 0 -0.40563347959473789 -0.48367842824487117 0 -0.40563347959473789 -0.48367842824487117 0 -0.39389470715733632 -0.47355095168427308 0 -0.40986575551511062 -0.46735685648974662 0 -0.38859428369766791 -0.48614630665141417 0 -0.40563347959473789 -0.48367842824487117 0 -0.39389470715733632 -0.47355095168427308 0 -0.40563347959473789 -0.48367842824487117 0 -0.40986575551511062 -0.46735685648974662 0 -0.42809744812538553 -0.47353695305504512 0 -0.40986575551511062 -0.46735685648974662 0 -0.4199949121527507 -0.4855396040697898 0 -0.42809744812538553 -0.47353695305504512 0 -0.40986575551511062 -0.46735685648974662 0 -0.40563347959473789 -0.48367842824487117 0 -0.4199949121527507 -0.4855396040697898 0 -0.40986575551511062 -0.46735685648974662 0 -0.40563347959473789 -0.48367842824487117 0 -0.4199949121527507 -0.4855396040697898 0 -0.41921281873686977 -0.5 0 -0.40140120367436599 -0.49999999999999611 0 -0.40563347959473789 -0.48367842824487117 0 -0.41921281873686977 -0.5 0 -0.4199949121527507 -0.4855396040697898 0 -0.41921281873686977 -0.5 0 -0.43702443379937372 -0.49999999999999922 0 -0.4199949121527507 -0.4855396040697898 0 -0.43702443379937372 -0.49999999999999922 0 -0.42809744812538553 -0.47353695305504512 0 -0.44381084376742141 -0.47114793899167112 0 -0.43702443379937372 -0.49999999999999922 0 -0.42809744812538553 -0.47353695305504512 0 -0.42809744812538553 -0.47353695305504512 0 -0.42194140881699782 -0.45884101952858919 0 -0.43309128002320102 -0.45351235807576151 0 -0.44381084376742141 -0.47114793899167112 0 -0.42809744812538553 -0.47353695305504512 0 -0.43309128002320102 -0.45351235807576151 0 -0.4339166039271336 -0.43498117536117131 0 -0.43309128002320102 -0.45351235807576151 0 -0.41671115160429401 -0.44095791049380378 0 -0.42194140881699782 -0.45884101952858919 0 -0.43309128002320102 -0.45351235807576151 0 -0.41671115160429401 -0.44095791049380378 0 -0.42194140881699782 -0.45884101952858919 0 -0.41671115160429401 -0.44095791049380378 0 -0.40986575551511062 -0.46735685648974662 0 -0.41671115160429401 -0.44095791049380378 0 -0.40986575551511062 -0.46735685648974662 0 -0.40093272222703252 -0.45142790024540502 0 -0.41671115160429401 -0.44095791049380378 0 -0.40986575551511062 -0.46735685648974662 0 -0.42809744812538553 -0.47353695305504512 0 -0.42194140881699782 -0.45884101952858919 0 -0.40986575551511062 -0.46735685648974662 0 -0.45828666285701658 -0.26028432573271792 0 -0.43487007995442373 -0.25384069753834382 0 -0.45658005330295048 -0.2439827770756183 0 -0.43864273500925549 -0.2751587481676856 0 -0.45828666285701658 -0.26028432573271792 0 -0.43487007995442373 -0.25384069753834382 0 -0.43864273500925549 -0.2751587481676856 0 -0.45645423860141388 -0.27827293425430932 0 -0.45828666285701658 -0.26028432573271792 0 -0.43864273500925549 -0.2751587481676856 0 -0.45828666285701658 -0.26028432573271792 0 -0.45645423860141388 -0.27827293425430932 0 -0.47869064668718631 -0.2683854874950159 0 -0.47091363495918082 -0.28947603344621109 0 -0.45645423860141388 -0.27827293425430932 0 -0.45828666285701658 -0.26028432573271792 0 -0.47869064668718631 -0.2683854874950159 0 -0.45828666285701658 -0.26028432573271792 0 -0.47793059070477772 -0.24540990329775009 0 -0.45828666285701658 -0.26028432573271792 0 -0.47869064668718631 -0.2683854874950159 0 -0.47793059070477772 -0.24540990329775009 0 -0.4872249908214738 -0.25598993182963242 0 -0.47869064668718631 -0.2683854874950159 0 -0.47793059070477772 -0.24540990329775009 0 -0.4872249908214738 -0.25598993182963242 0 -0.5 -0.25006354863638108 0 -0.5 -0.27586016112259643 0 -0.4872249908214738 -0.25598993182963242 0 -0.5 -0.25006354863638108 0 -0.49068252501969761 -0.24549971615663649 0 -0.4872249908214738 -0.25598993182963242 0 -0.5 -0.27586016112259643 0 -0.47869064668718631 -0.2683854874950159 0 -0.5 -0.27586016112259643 0 -0.47869064668718631 -0.2683854874950159 0 -0.48721788021035761 -0.2882082846164955 0 -0.47869064668718631 -0.2683854874950159 0 -0.47091363495918082 -0.28947603344621109 0 -0.48721788021035761 -0.2882082846164955 0 -0.47091363495918082 -0.28947603344621109 0 -0.48721788021035761 -0.2882082846164955 0 -0.48161809245015419 -0.30465866835107641 0 -0.5 -0.27586016112259643 0 -0.48721788021035761 -0.2882082846164955 0 -0.5 -0.3016567736088116 0 -0.48721788021035761 -0.2882082846164955 0 -0.5 -0.3016567736088116 0 -0.48161809245015419 -0.30465866835107641 0 -0.5 -0.3016567736088116 0 -0.48161809245015419 -0.30465866835107641 0 -0.5 -0.32745338609502678 0 -0.47091363495918082 -0.28947603344621109 0 -0.48161809245015419 -0.30465866835107641 0 -0.45879166701778518 -0.3036258058313378 0 -0.48161809245015419 -0.30465866835107641 0 -0.45879166701778518 -0.3036258058313378 0 -0.47638885418803739 -0.32253493654140952 0 -0.45645423860141388 -0.27827293425430932 0 -0.47091363495918082 -0.28947603344621109 0 -0.45879166701778518 -0.3036258058313378 0 -0.45645423860141388 -0.27827293425430932 0 -0.45879166701778518 -0.3036258058313378 0 -0.43905227881958647 -0.29505920944709452 0 -0.43864273500925549 -0.2751587481676856 0 -0.45645423860141388 -0.27827293425430932 0 -0.43905227881958647 -0.29505920944709452 0 -0.45879166701778518 -0.3036258058313378 0 -0.43905227881958647 -0.29505920944709452 0 -0.4399695753826649 -0.31139282438396382 0 -0.4399695753826649 -0.31139282438396382 0 -0.45223868162566522 -0.32343332413938758 0 -0.42808850906329299 -0.32433171173736591 0 -0.45879166701778518 -0.3036258058313378 0 -0.4399695753826649 -0.31139282438396382 0 -0.45223868162566522 -0.32343332413938758 0 -0.45223868162566522 -0.32343332413938758 0 -0.42808850906329299 -0.32433171173736591 0 -0.45223868162566522 -0.32343332413938758 0 -0.44207286924452832 -0.33783824796895978 0 -0.46140244920768408 -0.33754740415941759 0 -0.44207286924452832 -0.33783824796895978 0 -0.46140244920768408 -0.33754740415941759 0 -0.45117994904742642 -0.3486532256997657 0 -0.45223868162566522 -0.32343332413938758 0 -0.44207286924452832 -0.33783824796895978 0 -0.42808850906329299 -0.32433171173736591 0 -0.45879166701778518 -0.3036258058313378 0 -0.45223868162566522 -0.32343332413938758 0 -0.47638885418803739 -0.32253493654140952 0 -0.45223868162566522 -0.32343332413938758 0 -0.46140244920768408 -0.33754740415941759 0 -0.47638885418803739 -0.32253493654140952 0 -0.45223868162566522 -0.32343332413938758 0 -0.47638885418803739 -0.32253493654140952 0 -0.48161809245015419 -0.30465866835107641 0 -0.47638885418803739 -0.32253493654140952 0 -0.5 -0.32745338609502678 0 -0.47638885418803739 -0.32253493654140952 0 -0.5 -0.32745338609502678 0 -0.48104103145021149 -0.34129537751375599 0 -0.5 -0.32745338609502678 0 -0.48104103145021149 -0.34129537751375599 0 -0.5 -0.35324999858124201 0 -0.46140244920768408 -0.33754740415941759 0 -0.48104103145021149 -0.34129537751375599 0 -0.46549330969023639 -0.35152931309322771 0 -0.46140244920768408 -0.33754740415941759 0 -0.47638885418803739 -0.32253493654140952 0 -0.48104103145021149 -0.34129537751375599 0 -0.48104103145021149 -0.34129537751375599 0 -0.48025743214923627 -0.35616585996071459 0 -0.46549330969023639 -0.35152931309322771 0 -0.48025743214923627 -0.35616585996071459 0 -0.46757842097458802 -0.36652008110622503 0 -0.46549330969023639 -0.35152931309322771 0 -0.48025743214923627 -0.35616585996071459 0 -0.5 -0.35324999858124201 0 -0.48717439863114548 -0.36823452950912272 0 -0.48104103145021149 -0.34129537751375599 0 -0.48025743214923627 -0.35616585996071459 0 -0.5 -0.35324999858124201 0 -0.50000000000000089 -0.37904661106745707 0 -0.5 -0.35324999858124201 0 -0.48717439863114548 -0.36823452950912272 0 -0.47195833844942919 -0.37959069520904498 0 -0.48717439863114548 -0.36823452950912272 0 -0.46757842097458802 -0.36652008110622503 0 -0.48025743214923627 -0.35616585996071459 0 -0.48717439863114548 -0.36823452950912272 0 -0.46757842097458802 -0.36652008110622503 0 -0.45132291774153199 -0.37789636588759368 0 -0.46757842097458802 -0.36652008110622503 0 -0.45216690816074923 -0.36231126303824313 0 -0.47195833844942919 -0.37959069520904498 0 -0.45132291774153199 -0.37789636588759368 0 -0.46757842097458802 -0.36652008110622503 0 -0.46757842097458802 -0.36652008110622503 0 -0.46549330969023639 -0.35152931309322771 0 -0.45216690816074923 -0.36231126303824313 0 -0.46140244920768408 -0.33754740415941759 0 -0.46549330969023639 -0.35152931309322771 0 -0.45117994904742642 -0.3486532256997657 0 -0.46549330969023639 -0.35152931309322771 0 -0.45117994904742642 -0.3486532256997657 0 -0.45216690816074923 -0.36231126303824313 0 -0.44599028472907742 -0.35554349803526408 0 -0.45117994904742642 -0.3486532256997657 0 -0.45216690816074923 -0.36231126303824313 0 -0.44599028472907742 -0.35554349803526408 0 -0.45117994904742642 -0.3486532256997657 0 -0.44228407783080631 -0.34851364977492799 0 -0.44207286924452832 -0.33783824796895978 0 -0.44228407783080631 -0.34851364977492799 0 -0.43394442261003058 -0.34546672586134508 0 -0.44228407783080631 -0.34851364977492799 0 -0.43858436747801349 -0.35660488883003821 0 -0.43394442261003058 -0.34546672586134508 0 -0.44207286924452832 -0.33783824796895978 0 -0.45117994904742642 -0.3486532256997657 0 -0.44228407783080631 -0.34851364977492799 0 -0.44599028472907742 -0.35554349803526408 0 -0.44228407783080631 -0.34851364977492799 0 -0.43858436747801349 -0.35660488883003821 0 -0.44599028472907742 -0.35554349803526408 0 -0.43858436747801349 -0.35660488883003821 0 -0.43671500038902772 -0.36381401452353412 0 -0.43858436747801349 -0.35660488883003821 0 -0.43671500038902772 -0.36381401452353412 0 -0.44599028472907742 -0.35554349803526408 0 -0.45216690816074923 -0.36231126303824313 0 -0.43671500038902772 -0.36381401452353412 0 -0.45132291774153199 -0.37789636588759368 0 -0.43671500038902772 -0.36381401452353412 0 -0.45132291774153199 -0.37789636588759368 0 -0.45216690816074923 -0.36231126303824313 0 -0.43671500038902772 -0.36381401452353412 0 -0.43040194378266172 -0.3881600185019185 0 -0.43671500038902772 -0.36381401452353412 0 -0.4079689369259607 -0.37224253963894771 0 -0.43858436747801349 -0.35660488883003821 0 -0.43671500038902772 -0.36381401452353412 0 -0.41901032175007979 -0.34674631764622038 0 -0.43671500038902772 -0.36381401452353412 0 -0.41901032175007979 -0.34674631764622038 0 -0.43858436747801349 -0.35660488883003821 0 -0.43394442261003058 -0.34546672586134508 0 -0.41901032175007979 -0.34674631764622038 0 -0.41901032175007979 -0.34674631764622038 0 -0.4079689369259607 -0.37224253963894771 0 -0.40160491304204049 -0.35527610236370899 0 -0.43671500038902772 -0.36381401452353412 0 -0.41901032175007979 -0.34674631764622038 0 -0.4079689369259607 -0.37224253963894771 0 -0.4079689369259607 -0.37224253963894771 0 -0.38553593006925752 -0.3563250607759802 0 -0.4079689369259607 -0.37224253963894771 0 -0.38553593006925752 -0.3563250607759802 0 -0.40160491304204049 -0.35527610236370899 0 -0.39195929229331972 -0.37982250283040359 0 -0.4079689369259607 -0.37224253963894771 0 -0.38553593006925752 -0.3563250607759802 0 -0.39195929229331972 -0.37982250283040359 0 -0.37549160074202448 -0.3732971907138336 0 -0.38553593006925752 -0.3563250607759802 0 -0.37549160074202448 -0.3732971907138336 0 -0.38553593006925752 -0.3563250607759802 0 -0.38553593006925752 -0.3563250607759802 0 -0.36666079927166728 -0.34293209489202431 0 -0.38553593006925752 -0.3563250607759802 0 -0.39342078659019603 -0.34300184077244372 0 -0.38006824781918919 -0.33243312042550199 0 -0.38553593006925752 -0.3563250607759802 0 -0.38006824781918919 -0.33243312042550199 0 -0.36666079927166728 -0.34293209489202431 0 -0.38553593006925752 -0.3563250607759802 0 -0.39342078659019603 -0.34300184077244372 0 -0.41901032175007979 -0.34674631764622038 0 -0.40160491304204049 -0.35527610236370899 0 -0.39342078659019603 -0.34300184077244372 0 -0.38553593006925752 -0.3563250607759802 0 -0.40160491304204049 -0.35527610236370899 0 -0.39342078659019603 -0.34300184077244372 0 -0.41901032175007979 -0.34674631764622038 0 -0.40130564311113259 -0.32967862076890581 0 -0.39342078659019603 -0.34300184077244372 0 -0.40130564311113259 -0.32967862076890581 0 -0.39064670272592411 -0.32967160323888278 0 -0.39342078659019603 -0.34300184077244372 0 -0.40130564311113259 -0.32967862076890581 0 -0.39342078659019603 -0.34300184077244372 0 -0.39064670272592411 -0.32967160323888278 0 -0.39342078659019603 -0.34300184077244372 0 -0.38006824781918919 -0.33243312042550199 0 -0.38006824781918919 -0.33243312042550199 0 -0.38935907146989862 -0.31816186479418052 0 -0.37140736883531977 -0.32183989730859341 0 -0.38935907146989862 -0.31816186479418052 0 -0.38351210912712752 -0.30253866195360818 0 -0.37140736883531977 -0.32183989730859341 0 -0.39064670272592411 -0.32967160323888278 0 -0.38006824781918919 -0.33243312042550199 0 -0.38935907146989862 -0.31816186479418052 0 -0.38935907146989862 -0.31816186479418052 0 -0.401514660155255 -0.31819685637317691 0 -0.39554973675391708 -0.30949047449279188 0 -0.40130564311113259 -0.32967862076890581 0 -0.38935907146989862 -0.31816186479418052 0 -0.40130564311113259 -0.32967862076890581 0 -0.38935907146989862 -0.31816186479418052 0 -0.39962023335203928 -0.32539073298322901 0 -0.38935907146989862 -0.31816186479418052 0 -0.39962023335203928 -0.32539073298322901 0 -0.401514660155255 -0.31819685637317691 0 -0.40130564311113259 -0.32967862076890581 0 -0.39064670272592411 -0.32967160323888278 0 -0.38935907146989862 -0.31816186479418052 0 -0.40130564311113259 -0.32967862076890581 0 -0.39962023335203928 -0.32539073298322901 0 -0.4039383365009207 -0.3252300993353433 0 -0.39962023335203928 -0.32539073298322901 0 -0.4039383365009207 -0.3252300993353433 0 -0.39962023335203928 -0.32539073298322901 0 -0.4039383365009207 -0.3252300993353433 0 -0.401514660155255 -0.31819685637317691 0 -0.40130564311113259 -0.32967862076890581 0 -0.4039383365009207 -0.3252300993353433 0 -0.401514660155255 -0.31819685637317691 0 -0.4088463285069534 -0.31693695448250642 0 -0.4053668684804122 -0.3086126184714344 0 -0.4039383365009207 -0.3252300993353433 0 -0.401514660155255 -0.31819685637317691 0 -0.4088463285069534 -0.31693695448250642 0 -0.4039383365009207 -0.3252300993353433 0 -0.42808850906329299 -0.32433171173736591 0 -0.4088463285069534 -0.31693695448250642 0 -0.42808850906329299 -0.32433171173736591 0 -0.41503252140001728 -0.31110728079830707 0 -0.4039383365009207 -0.3252300993353433 0 -0.4088463285069534 -0.31693695448250642 0 -0.42808850906329299 -0.32433171173736591 0 -0.4039383365009207 -0.3252300993353433 0 -0.41609663568284688 -0.33258428014908531 0 -0.42808850906329299 -0.32433171173736591 0 -0.4039383365009207 -0.3252300993353433 0 -0.4088463285069534 -0.31693695448250642 0 -0.40130564311113259 -0.32967862076890581 0 -0.4039383365009207 -0.3252300993353433 0 -0.41609663568284688 -0.33258428014908531 0 -0.41901032175007979 -0.34674631764622038 0 -0.40130564311113259 -0.32967862076890581 0 -0.41609663568284688 -0.33258428014908531 0 -0.41901032175007979 -0.34674631764622038 0 -0.40130564311113259 -0.32967862076890581 0 -0.41901032175007979 -0.34674631764622038 0 -0.41609663568284688 -0.33258428014908531 0 -0.42777047674672519 -0.33763052508657909 0 -0.41609663568284688 -0.33258428014908531 0 -0.42777047674672519 -0.33763052508657909 0 -0.42808850906329299 -0.32433171173736591 0 -0.43394442261003058 -0.34546672586134508 0 -0.41901032175007979 -0.34674631764622038 0 -0.42777047674672519 -0.33763052508657909 0 -0.44207286924452832 -0.33783824796895978 0 -0.43394442261003058 -0.34546672586134508 0 -0.42777047674672519 -0.33763052508657909 0 -0.44207286924452832 -0.33783824796895978 0 -0.42777047674672519 -0.33763052508657909 0 -0.42808850906329299 -0.32433171173736591 0 -0.4399695753826649 -0.31139282438396382 0 -0.42808850906329299 -0.32433171173736591 0 -0.42349591428063971 -0.31031667424466408 0 -0.42808850906329299 -0.32433171173736591 0 -0.42349591428063971 -0.31031667424466408 0 -0.41503252140001728 -0.31110728079830707 0 -0.43905227881958647 -0.29505920944709452 0 -0.42349591428063971 -0.31031667424466408 0 -0.41899880716149451 -0.29003317060265321 0 -0.43905227881958647 -0.29505920944709452 0 -0.4399695753826649 -0.31139282438396382 0 -0.42349591428063971 -0.31031667424466408 0 -0.43864273500925549 -0.2751587481676856 0 -0.43905227881958647 -0.29505920944709452 0 -0.41899880716149451 -0.29003317060265321 0 -0.43864273500925549 -0.2751587481676856 0 -0.41899880716149451 -0.29003317060265321 0 -0.41649742047364408 -0.2919272257303569 0 -0.41502826726935188 -0.28951283527362931 0 -0.41151645216318689 -0.29124877083691719 0 -0.41899880716149451 -0.29003317060265321 0 -0.41649742047364408 -0.2919272257303569 0 -0.41502826726935188 -0.28951283527362931 0 -0.41899880716149451 -0.29003317060265321 0 -0.41649742047364408 -0.2919272257303569 0 -0.41899880716149451 -0.29003317060265321 0 -0.41502826726935188 -0.28951283527362931 0 -0.41310038927908221 -0.28484217392458988 0 -0.41310038927908221 -0.28484217392458988 0 -0.40629814920556201 -0.2872410904076857 0 -0.40433064532645308 -0.27892106023783952 0 -0.41502826726935188 -0.28951283527362931 0 -0.41310038927908221 -0.28484217392458988 0 -0.41151645216318689 -0.29124877083691719 0 -0.41310038927908221 -0.28484217392458988 0 -0.40629814920556201 -0.2872410904076857 0 -0.41151645216318689 -0.29124877083691719 0 -0.41649742047364408 -0.2919272257303569 0 -0.41151645216318689 -0.29124877083691719 0 -0.41283916949633909 -0.29890888486812428 0 -0.40629814920556201 -0.2872410904076857 0 -0.41151645216318689 -0.29124877083691719 0 -0.4052488046064433 -0.29379102377099447 0 -0.41151645216318689 -0.29124877083691719 0 -0.41283916949633909 -0.29890888486812428 0 -0.4052488046064433 -0.29379102377099447 0 -0.42349591428063971 -0.31031667424466408 0 -0.41899880716149451 -0.29003317060265321 0 -0.42349591428063971 -0.31031667424466408 0 -0.41649742047364408 -0.2919272257303569 0 -0.41283916949633909 -0.29890888486812428 0 -0.42349591428063971 -0.31031667424466408 0 -0.41899880716149451 -0.29003317060265321 0 -0.41649742047364408 -0.2919272257303569 0 -0.40711072979061191 -0.30081998795009107 0 -0.41283916949633909 -0.29890888486812428 0 -0.4052488046064433 -0.29379102377099447 0 -0.40711072979061191 -0.30081998795009107 0 -0.41283916949633909 -0.29890888486812428 0 -0.41256685577174013 -0.30556786269479153 0 -0.42349591428063971 -0.31031667424466408 0 -0.41283916949633909 -0.29890888486812428 0 -0.41256685577174013 -0.30556786269479153 0 -0.42349591428063971 -0.31031667424466408 0 -0.41503252140001728 -0.31110728079830707 0 -0.41256685577174013 -0.30556786269479153 0 -0.4088463285069534 -0.31693695448250642 0 -0.41503252140001728 -0.31110728079830707 0 -0.4053668684804122 -0.3086126184714344 0 -0.41503252140001728 -0.31110728079830707 0 -0.41256685577174013 -0.30556786269479153 0 -0.4053668684804122 -0.3086126184714344 0 -0.40711072979061191 -0.30081998795009107 0 -0.41256685577174013 -0.30556786269479153 0 -0.4053668684804122 -0.3086126184714344 0 -0.401514660155255 -0.31819685637317691 0 -0.4053668684804122 -0.3086126184714344 0 -0.39554973675391708 -0.30949047449279188 0 -0.4053668684804122 -0.3086126184714344 0 -0.39799597453689262 -0.29994237087155962 0 -0.39554973675391708 -0.30949047449279188 0 -0.40711072979061191 -0.30081998795009107 0 -0.4053668684804122 -0.3086126184714344 0 -0.39799597453689262 -0.29994237087155962 0 -0.40711072979061191 -0.30081998795009107 0 -0.39799597453689262 -0.29994237087155962 0 -0.4052488046064433 -0.29379102377099447 0 -0.39799597453689262 -0.29994237087155962 0 -0.39554973675391708 -0.30949047449279188 0 -0.38351210912712752 -0.30253866195360818 0 -0.38935907146989862 -0.31816186479418052 0 -0.39554973675391708 -0.30949047449279188 0 -0.38351210912712752 -0.30253866195360818 0 -0.38351210912712752 -0.30253866195360818 0 -0.3950660262777419 -0.28803976586637831 0 -0.37433096522584453 -0.28132989654828328 0 -0.39799597453689262 -0.29994237087155962 0 -0.38351210912712752 -0.30253866195360818 0 -0.3950660262777419 -0.28803976586637831 0 -0.39799597453689262 -0.29994237087155962 0 -0.3950660262777419 -0.28803976586637831 0 -0.4052488046064433 -0.29379102377099447 0 -0.40629814920556201 -0.2872410904076857 0 -0.3950660262777419 -0.28803976586637831 0 -0.4052488046064433 -0.29379102377099447 0 -0.40629814920556201 -0.2872410904076857 0 -0.3950660262777419 -0.28803976586637831 0 -0.40433064532645308 -0.27892106023783952 0 -0.40433064532645308 -0.27892106023783952 0 -0.39374553591587069 -0.27251425727467649 0 -0.41316010660589619 -0.2636986180010682 0 -0.39374553591587069 -0.27251425727467649 0 -0.41316010660589619 -0.2636986180010682 0 -0.3950660262777419 -0.28803976586637831 0 -0.40433064532645308 -0.27892106023783952 0 -0.39374553591587069 -0.27251425727467649 0 -0.39374553591587069 -0.27251425727467649 0 -0.37433096522584453 -0.28132989654828328 0 -0.3950660262777419 -0.28803976586637831 0 -0.39374553591587069 -0.27251425727467649 0 -0.37433096522584453 -0.28132989654828328 0 -0.39374553591587069 -0.27251425727467649 0 -0.37648826808451968 -0.27741199289956509 0 -0.37433096522584453 -0.28132989654828328 0 -0.39374553591587069 -0.27251425727467649 0 -0.37598097480723441 -0.26745556380373348 0 -0.38363075469537122 -0.26088114511686322 0 -0.39374553591587069 -0.27251425727467649 0 -0.37598097480723441 -0.26745556380373348 0 -0.37648826808451968 -0.27741199289956509 0 -0.37598097480723441 -0.26745556380373348 0 -0.37648826808451968 -0.27741199289956509 0 -0.37277902062147272 -0.27405557492128901 0 -0.37648826808451968 -0.27741199289956509 0 -0.37433096522584453 -0.28132989654828328 0 -0.38363075469537122 -0.26088114511686322 0 -0.37393540655460039 -0.25504906339868932 0 -0.38258347849844832 -0.24967798674395081 0 -0.37598097480723441 -0.26745556380373348 0 -0.38363075469537122 -0.26088114511686322 0 -0.37393540655460039 -0.25504906339868932 0 -0.38363075469537122 -0.26088114511686322 0 -0.3945867816951415 -0.25828321704239809 0 -0.38258347849844832 -0.24967798674395081 0 -0.3945867816951415 -0.25828321704239809 0 -0.3933004523496676 -0.24484402304582939 0 -0.38258347849844832 -0.24967798674395081 0 -0.39374553591587069 -0.27251425727467649 0 -0.3945867816951415 -0.25828321704239809 0 -0.41316010660589619 -0.2636986180010682 0 -0.3945867816951415 -0.25828321704239809 0 -0.41316010660589619 -0.2636986180010682 0 -0.40847937369743209 -0.24258689873782929 0 -0.39374553591587069 -0.27251425727467649 0 -0.38363075469537122 -0.26088114511686322 0 -0.3945867816951415 -0.25828321704239809 0 -0.41316010660589619 -0.2636986180010682 0 -0.42931567121415071 -0.25028064732030619 0 -0.40847937369743209 -0.24258689873782929 0 -0.41316010660589619 -0.2636986180010682 0 -0.40847937369743209 -0.24258689873782929 0 -0.41899880716149451 -0.29003317060265321 0 -0.41310038927908221 -0.28484217392458988 0 -0.41316010660589619 -0.2636986180010682 0 -0.41310038927908221 -0.28484217392458988 0 -0.40433064532645308 -0.27892106023783952 0 -0.41316010660589619 -0.2636986180010682 0 -0.41899880716149451 -0.29003317060265321 0 -0.41316010660589619 -0.2636986180010682 0 -0.42551969657153998 -0.27199364899169498 0 -0.41899880716149451 -0.29003317060265321 0 -0.41316010660589619 -0.2636986180010682 0 -0.43864273500925549 -0.2751587481676856 0 -0.42551969657153998 -0.27199364899169498 0 -0.43487007995442373 -0.25384069753834382 0 -0.43864273500925549 -0.2751587481676856 0 -0.41899880716149451 -0.29003317060265321 0 -0.42551969657153998 -0.27199364899169498 0 -0.41316010660589619 -0.2636986180010682 0 -0.43487007995442373 -0.25384069753834382 0 -0.41316010660589619 -0.2636986180010682 0 -0.42551969657153998 -0.27199364899169498 0 -0.43487007995442373 -0.25384069753834382 0 -0.41316010660589619 -0.2636986180010682 0 -0.43487007995442373 -0.25384069753834382 0 -0.42931567121415071 -0.25028064732030619 0 -0.32316489217708799 -0.25890650528201359 0 -0.32888695585781391 -0.26910619260742191 0 -0.31032083431566337 -0.26180085087236171 0 -0.32316489217708799 -0.25890650528201359 0 -0.32888695585781391 -0.26910619260742191 0 -0.33131030172746923 -0.25321851497678438 0 -0.32888695585781391 -0.26910619260742191 0 -0.31032083431566337 -0.26180085087236171 0 -0.32316489217708799 -0.25890650528201359 0 -0.33131030172746923 -0.25321851497678438 0 -0.32202724095639168 -0.2495658441092535 0 -0.32316489217708799 -0.25890650528201359 0 -0.31032083431566337 -0.26180085087236171 0 -0.32202724095639168 -0.2495658441092535 0 -0.31032083431566337 -0.26180085087236171 0 -0.32202724095639168 -0.2495658441092535 0 -0.31283906540333922 -0.25031215033235238 0 -0.31032083431566337 -0.26180085087236171 0 -0.32202724095639168 -0.2495658441092535 0 -0.31480478096024378 -0.27564718726691712 0 -0.32888695585781391 -0.26910619260742191 0 -0.31032083431566337 -0.26180085087236171 0 -0.31480478096024378 -0.27564718726691712 0 -0.32888695585781391 -0.26910619260742191 0 -0.32507396769595592 -0.29410449247197662 0 -0.32888695585781391 -0.26910619260742191 0 -0.3381311227387106 -0.26238754928509761 0 -0.34453036853746388 -0.27526151563856671 0 -0.32888695585781391 -0.26910619260742191 0 -0.34453036853746388 -0.27526151563856671 0 -0.33279411355556121 -0.28213246275860349 0 -0.32888695585781391 -0.26910619260742191 0 -0.34453036853746388 -0.27526151563856671 0 -0.34453036853746388 -0.27526151563856671 0 -0.34450588037081892 -0.28462367662190302 0 -0.33279411355556121 -0.28213246275860349 0 -0.32888695585781391 -0.26910619260742191 0 -0.33131030172746923 -0.25321851497678438 0 -0.32888695585781391 -0.26910619260742191 0 -0.3381311227387106 -0.26238754928509761 0 -0.33131030172746923 -0.25321851497678438 0 -0.3381311227387106 -0.26238754928509761 0 -0.34897267059429732 -0.25990550268967838 0 -0.3420777495351906 -0.24844208584564559 0 -0.3381311227387106 -0.26238754928509761 0 -0.33131030172746923 -0.25321851497678438 0 -0.3420777495351906 -0.24844208584564559 0 -0.34897267059429732 -0.25990550268967838 0 -0.35255150303394622 -0.24812522560144931 0 -0.3420777495351906 -0.24844208584564559 0 -0.34897267059429732 -0.25990550268967838 0 -0.35751050643918753 -0.2560897164936603 0 -0.35722060467742811 -0.26762499714769428 0 -0.34897267059429732 -0.25990550268967838 0 -0.35751050643918753 -0.2560897164936603 0 -0.35255150303394622 -0.24812522560144931 0 -0.35751050643918753 -0.2560897164936603 0 -0.363557814049559 -0.2486896754833777 0 -0.35255150303394622 -0.24812522560144931 0 -0.35751050643918753 -0.2560897164936603 0 -0.36561260290989678 -0.26128521942254013 0 -0.363557814049559 -0.2486896754833777 0 -0.35751050643918753 -0.2560897164936603 0 -0.36561260290989678 -0.26128521942254013 0 -0.35722060467742811 -0.26762499714769428 0 -0.37598097480723441 -0.26745556380373348 0 -0.36561260290989678 -0.26128521942254013 0 -0.37393540655460039 -0.25504906339868932 0 -0.36561260290989678 -0.26128521942254013 0 -0.37393540655460039 -0.25504906339868932 0 -0.363557814049559 -0.2486896754833777 0 -0.37277902062147272 -0.27405557492128901 0 -0.36654922363893422 -0.27215591673696138 0 -0.37433096522584453 -0.28132989654828328 0 -0.37648826808451968 -0.27741199289956509 0 -0.37277902062147272 -0.27405557492128901 0 -0.37433096522584453 -0.28132989654828328 0 -0.37598097480723441 -0.26745556380373348 0 -0.37277902062147272 -0.27405557492128901 0 -0.36654922363893422 -0.27215591673696138 0 -0.37598097480723441 -0.26745556380373348 0 -0.36561260290989678 -0.26128521942254013 0 -0.36654922363893422 -0.27215591673696138 0 -0.36561260290989678 -0.26128521942254013 0 -0.36654922363893422 -0.27215591673696138 0 -0.35722060467742811 -0.26762499714769428 0 -0.36654922363893422 -0.27215591673696138 0 -0.35722060467742811 -0.26762499714769428 0 -0.36017378121711419 -0.28141683866971062 0 -0.36654922363893422 -0.27215591673696138 0 -0.36017378121711419 -0.28141683866971062 0 -0.37433096522584453 -0.28132989654828328 0 -0.34453036853746388 -0.27526151563856671 0 -0.36017378121711419 -0.28141683866971062 0 -0.35722060467742811 -0.26762499714769428 0 -0.34453036853746388 -0.27526151563856671 0 -0.36017378121711419 -0.28141683866971062 0 -0.34453036853746388 -0.27526151563856671 0 -0.34450588037081892 -0.28462367662190302 0 -0.36017378121711419 -0.28141683866971062 0 -0.34897267059429732 -0.25990550268967838 0 -0.35722060467742811 -0.26762499714769428 0 -0.34453036853746388 -0.27526151563856671 0 -0.3381311227387106 -0.26238754928509761 0 -0.34897267059429732 -0.25990550268967838 0 -0.34453036853746388 -0.27526151563856671 0 -0.34450588037081892 -0.28462367662190302 0 -0.34891652205724832 -0.29286991805537971 0 -0.36017378121711419 -0.28141683866971062 0 -0.37433096522584453 -0.28132989654828328 0 -0.36105831684996031 -0.30543451277817618 0 -0.34891652205724832 -0.29286991805537971 0 -0.37433096522584453 -0.28132989654828328 0 -0.34891652205724832 -0.29286991805537971 0 -0.36017378121711419 -0.28141683866971062 0 -0.37433096522584453 -0.28132989654828328 0 -0.38351210912712752 -0.30253866195360818 0 -0.37433096522584453 -0.28132989654828328 0 -0.36105831684996031 -0.30543451277817618 0 -0.34891652205724832 -0.29286991805537971 0 -0.37433096522584453 -0.28132989654828328 0 -0.36105831684996031 -0.30543451277817618 0 -0.38351210912712752 -0.30253866195360818 0 -0.36105831684996031 -0.30543451277817618 0 -0.37140736883531977 -0.32183989730859341 0 -0.36105831684996031 -0.30543451277817618 0 -0.3496688877197569 -0.30429177800002122 0 -0.34586440994984541 -0.3145735322147622 0 -0.34891652205724832 -0.29286991805537971 0 -0.36105831684996031 -0.30543451277817618 0 -0.3496688877197569 -0.30429177800002122 0 -0.34891652205724832 -0.29286991805537971 0 -0.3496688877197569 -0.30429177800002122 0 -0.33956299038192078 -0.30735077663143923 0 -0.3496688877197569 -0.30429177800002122 0 -0.33956299038192078 -0.30735077663143923 0 -0.34586440994984541 -0.3145735322147622 0 -0.34891652205724832 -0.29286991805537971 0 -0.33956299038192078 -0.30735077663143923 0 -0.32350207888865212 -0.30440993956247547 0 -0.33956299038192078 -0.30735077663143923 0 -0.3301339810941622 -0.31110503031331638 0 -0.32350207888865212 -0.30440993956247547 0 -0.34891652205724832 -0.29286991805537971 0 -0.32350207888865212 -0.30440993956247547 0 -0.33956299038192078 -0.30735077663143923 0 -0.3301339810941622 -0.31110503031331638 0 -0.33675509785737662 -0.31655799101612769 0 -0.34891652205724832 -0.29286991805537971 0 -0.33611461648670682 -0.29143764798725502 0 -0.32350207888865212 -0.30440993956247547 0 -0.32888695585781391 -0.26910619260742191 0 -0.33279411355556121 -0.28213246275860349 0 -0.32507396769595592 -0.29410449247197662 0 -0.34450588037081892 -0.28462367662190302 0 -0.34891652205724832 -0.29286991805537971 0 -0.33611461648670682 -0.29143764798725502 0 -0.34450588037081892 -0.28462367662190302 0 -0.33611461648670682 -0.29143764798725502 0 -0.33279411355556121 -0.28213246275860349 0 -0.33279411355556121 -0.28213246275860349 0 -0.33070524953878982 -0.29012978506972142 0 -0.32507396769595592 -0.29410449247197662 0 -0.33611461648670682 -0.29143764798725502 0 -0.33279411355556121 -0.28213246275860349 0 -0.33070524953878982 -0.29012978506972142 0 -0.33611461648670682 -0.29143764798725502 0 -0.32742439802278828 -0.29462709162158601 0 -0.32350207888865212 -0.30440993956247547 0 -0.33611461648670682 -0.29143764798725502 0 -0.33070524953878982 -0.29012978506972142 0 -0.32742439802278828 -0.29462709162158601 0 -0.32507396769595592 -0.29410449247197662 0 -0.30234930147786221 -0.28905184696057518 0 -0.32507396769595592 -0.29410449247197662 0 -0.32350207888865212 -0.30440993956247547 0 -0.30234930147786221 -0.28905184696057518 0 -0.31480478096024378 -0.27564718726691712 0 -0.32507396769595592 -0.29410449247197662 0 -0.30234930147786221 -0.28905184696057518 0 -0.32888695585781391 -0.26910619260742191 0 -0.32507396769595592 -0.29410449247197662 0 -0.32507396769595592 -0.29410449247197662 0 -0.32742439802278828 -0.29462709162158601 0 -0.33070524953878982 -0.29012978506972142 0 -0.32507396769595592 -0.29410449247197662 0 -0.32742439802278828 -0.29462709162158601 0 -0.32302725724223008 -0.30752291379569302 0 -0.32350207888865212 -0.30440993956247547 0 -0.2999756881373381 -0.31509264677165549 0 -0.3301339810941622 -0.31110503031331638 0 -0.32302725724223008 -0.30752291379569302 0 -0.32422013968378288 -0.31561436227230438 0 -0.32302725724223008 -0.30752291379569302 0 -0.32350207888865212 -0.30440993956247547 0 -0.3301339810941622 -0.31110503031331638 0 -0.32302725724223008 -0.30752291379569302 0 -0.32350207888865212 -0.30440993956247547 0 -0.32507396769595592 -0.29410449247197662 0 -0.32742439802278828 -0.29462709162158601 0 -0.32350207888865212 -0.30440993956247547 0 -0.32507396769595592 -0.29410449247197662 0 -0.32350207888865212 -0.30440993956247547 0 -0.32302725724223008 -0.30752291379569302 0 -0.31656029902357641 -0.31849097864348519 0 -0.2999756881373381 -0.31509264677165549 0 -0.32265466046617669 -0.32198754646013139 0 -0.33127214989488979 -0.33008610863815152 0 -0.32872450059276898 -0.31896534214889599 0 -0.32265466046617669 -0.32198754646013139 0 -0.31892782856615448 -0.32825501756413727 0 -0.33127214989488979 -0.33008610863815152 0 -0.32265466046617669 -0.32198754646013139 0 -0.32422013968378288 -0.31561436227230438 0 -0.32872450059276898 -0.31896534214889599 0 -0.32302725724223008 -0.30752291379569302 0 -0.32422013968378288 -0.31561436227230438 0 -0.31656029902357641 -0.31849097864348519 0 -0.3301339810941622 -0.31110503031331638 0 -0.32422013968378288 -0.31561436227230438 0 -0.32872450059276898 -0.31896534214889599 0 -0.32265466046617669 -0.32198754646013139 0 -0.32422013968378288 -0.31561436227230438 0 -0.31656029902357641 -0.31849097864348519 0 -0.32265466046617669 -0.32198754646013139 0 -0.31656029902357641 -0.31849097864348519 0 -0.31892782856615448 -0.32825501756413727 0 -0.31656029902357641 -0.31849097864348519 0 -0.31892782856615448 -0.32825501756413727 0 -0.30936258926988919 -0.3261434941065412 0 -0.31892782856615448 -0.32825501756413727 0 -0.31208723605418232 -0.33616024018399832 0 -0.30936258926988919 -0.3261434941065412 0 -0.31892782856615448 -0.32825501756413727 0 -0.32183099473442811 -0.33958013728355868 0 -0.31208723605418232 -0.33616024018399832 0 -0.32183099473442811 -0.33958013728355868 0 -0.31234840654553953 -0.34764506024843322 0 -0.31208723605418232 -0.33616024018399832 0 -0.31892782856615448 -0.32825501756413727 0 -0.32183099473442811 -0.33958013728355868 0 -0.33127214989488979 -0.33008610863815152 0 -0.33127214989488979 -0.33008610863815152 0 -0.34778566847407638 -0.32953912900806931 0 -0.33412452318830171 -0.35434929914508079 0 -0.32183099473442811 -0.33958013728355868 0 -0.33127214989488979 -0.33008610863815152 0 -0.33412452318830171 -0.35434929914508079 0 -0.34778566847407638 -0.32953912900806931 0 -0.33412452318830171 -0.35434929914508079 0 -0.33127214989488979 -0.33008610863815152 0 -0.34035549841598117 -0.32426700585474 0 -0.34778566847407638 -0.32953912900806931 0 -0.34035549841598117 -0.32426700585474 0 -0.33427681169025408 -0.32246911191447869 0 -0.33675509785737662 -0.31655799101612769 0 -0.33127214989488979 -0.33008610863815152 0 -0.34035549841598117 -0.32426700585474 0 -0.33427681169025408 -0.32246911191447869 0 -0.33127214989488979 -0.33008610863815152 0 -0.33427681169025408 -0.32246911191447869 0 -0.32872450059276898 -0.31896534214889599 0 -0.33427681169025408 -0.32246911191447869 0 -0.32872450059276898 -0.31896534214889599 0 -0.33675509785737662 -0.31655799101612769 0 -0.3301339810941622 -0.31110503031331638 0 -0.32872450059276898 -0.31896534214889599 0 -0.33675509785737662 -0.31655799101612769 0 -0.33956299038192078 -0.30735077663143923 0 -0.33675509785737662 -0.31655799101612769 0 -0.34586440994984541 -0.3145735322147622 0 -0.34035549841598117 -0.32426700585474 0 -0.33675509785737662 -0.31655799101612769 0 -0.34586440994984541 -0.3145735322147622 0 -0.36105831684996031 -0.30543451277817618 0 -0.34778566847407638 -0.32953912900806931 0 -0.36105831684996031 -0.30543451277817618 0 -0.34586440994984541 -0.3145735322147622 0 -0.34778566847407638 -0.32953912900806931 0 -0.34035549841598117 -0.32426700585474 0 -0.34586440994984541 -0.3145735322147622 0 -0.34778566847407638 -0.32953912900806931 0 -0.34035549841598117 -0.32426700585474 0 -0.34778566847407638 -0.32953912900806931 0 -0.36105831684996031 -0.30543451277817618 0 -0.37140736883531977 -0.32183989730859341 0 -0.34778566847407638 -0.32953912900806931 0 -0.38006824781918919 -0.33243312042550199 0 -0.37140736883531977 -0.32183989730859341 0 -0.36666079927166728 -0.34293209489202431 0 -0.37140736883531977 -0.32183989730859341 0 -0.36666079927166728 -0.34293209489202431 0 -0.34778566847407638 -0.32953912900806931 0 -0.34778566847407638 -0.32953912900806931 0 -0.35170181166344461 -0.34709871950800919 0 -0.33412452318830171 -0.35434929914508079 0 -0.36666079927166728 -0.34293209489202431 0 -0.34778566847407638 -0.32953912900806931 0 -0.36666079927166728 -0.34293209489202431 0 -0.34778566847407638 -0.32953912900806931 0 -0.35170181166344461 -0.34709871950800919 0 -0.36666079927166728 -0.34293209489202431 0 -0.35170181166344461 -0.34709871950800919 0 -0.35823625571973289 -0.36157435498686258 0 -0.35170181166344461 -0.34709871950800919 0 -0.35823625571973289 -0.36157435498686258 0 -0.33412452318830171 -0.35434929914508079 0 -0.38553593006925752 -0.3563250607759802 0 -0.36666079927166728 -0.34293209489202431 0 -0.35823625571973289 -0.36157435498686258 0 -0.37549160074202448 -0.3732971907138336 0 -0.38553593006925752 -0.3563250607759802 0 -0.35823625571973289 -0.36157435498686258 0 -0.37549160074202448 -0.3732971907138336 0 -0.35823625571973289 -0.36157435498686258 0 -0.35302350150803719 -0.38208755235937009 0 -0.35823625571973289 -0.36157435498686258 0 -0.34413293857164062 -0.37054757780120701 0 -0.35302350150803719 -0.38208755235937009 0 -0.35823625571973289 -0.36157435498686258 0 -0.34413293857164062 -0.37054757780120701 0 -0.33412452318830171 -0.35434929914508079 0 -0.34413293857164062 -0.37054757780120701 0 -0.33412452318830171 -0.35434929914508079 0 -0.33519042443293379 -0.3802220457599616 0 -0.33412452318830171 -0.35434929914508079 0 -0.33519042443293379 -0.3802220457599616 0 -0.32046337790252549 -0.37915946928209171 0 -0.32183099473442811 -0.33958013728355868 0 -0.33412452318830171 -0.35434929914508079 0 -0.31234840654553953 -0.34764506024843322 0 -0.33412452318830171 -0.35434929914508079 0 -0.316806384823896 -0.36257585725837499 0 -0.31234840654553953 -0.34764506024843322 0 -0.316806384823896 -0.36257585725837499 0 -0.3002892316592175 -0.36914960035789463 0 -0.32046337790252549 -0.37915946928209171 0 -0.33412452318830171 -0.35434929914508079 0 -0.316806384823896 -0.36257585725837499 0 -0.32046337790252549 -0.37915946928209171 0 -0.33412452318830171 -0.35434929914508079 0 -0.32046337790252549 -0.37915946928209171 0 -0.3002892316592175 -0.36914960035789463 0 -0.32046337790252549 -0.37915946928209171 0 -0.3002892316592175 -0.36914960035789463 0 -0.31234840654553953 -0.34764506024843322 0 -0.29527517448125451 -0.36666176000398298 0 -0.316806384823896 -0.36257585725837499 0 -0.3002892316592175 -0.36914960035789463 0 -0.31234840654553953 -0.34764506024843322 0 -0.3002892316592175 -0.36914960035789463 0 -0.29527517448125451 -0.36666176000398298 0 -0.3002892316592175 -0.36914960035789463 0 -0.29403121103535113 -0.38030922419454549 0 -0.31234840654553953 -0.34764506024843322 0 -0.29527517448125451 -0.36666176000398298 0 -0.2976254313092957 -0.34087720338781918 0 -0.3002892316592175 -0.36914960035789463 0 -0.31234840654553953 -0.34764506024843322 0 -0.29527517448125451 -0.36666176000398298 0 -0.26926364122666091 -0.35375553660024128 0 -0.28048823453243299 -0.34080574413418752 0 -0.29527517448125451 -0.36666176000398298 0 -0.2976254313092957 -0.34087720338781918 0 -0.29527517448125451 -0.36666176000398298 0 -0.28048823453243299 -0.34080574413418752 0 -0.2976254313092957 -0.34087720338781918 0 -0.29527517448125451 -0.36666176000398298 0 -0.26926364122666091 -0.35375553660024128 0 -0.29527517448125451 -0.36666176000398298 0 -0.27994264201103719 -0.36323993691456841 0 -0.26926364122666091 -0.35375553660024128 0 -0.29527517448125451 -0.36666176000398298 0 -0.28588261091775702 -0.37268605543787447 0 -0.29403121103535113 -0.38030922419454549 0 -0.29527517448125451 -0.36666176000398298 0 -0.29403121103535113 -0.38030922419454549 0 -0.3002892316592175 -0.36914960035789463 0 -0.29527517448125451 -0.36666176000398298 0 -0.29403121103535113 -0.38030922419454549 0 -0.29527517448125451 -0.36666176000398298 0 -0.28588261091775702 -0.37268605543787447 0 -0.27994264201103719 -0.36323993691456841 0 -0.28588261091775702 -0.37268605543787447 0 -0.27994264201103719 -0.36323993691456841 0 -0.2742629371717063 -0.37916463673385931 0 -0.27994264201103719 -0.36323993691456841 0 -0.26568404082974961 -0.36651666061706623 0 -0.2742629371717063 -0.37916463673385931 0 -0.27994264201103719 -0.36323993691456841 0 -0.26568404082974961 -0.36651666061706623 0 -0.26017799311385281 -0.35268912854855933 0 -0.26568404082974961 -0.36651666061706623 0 -0.25909124390184018 -0.37475905286733341 0 -0.2742629371717063 -0.37916463673385931 0 -0.26568404082974961 -0.36651666061706623 0 -0.25909124390184018 -0.37475905286733341 0 -0.25494538795031141 -0.36273054802101118 0 -0.26568404082974961 -0.36651666061706623 0 -0.25494538795031141 -0.36273054802101118 0 -0.26017799311385281 -0.35268912854855933 0 -0.25909124390184018 -0.37475905286733341 0 -0.25494538795031141 -0.36273054802101118 0 -0.24748772700216881 -0.3717564301773445 0 -0.26017799311385281 -0.35268912854855933 0 -0.2404133442166683 -0.34213832018255058 0 -0.26926364122666091 -0.35375553660024128 0 -0.24325210797206609 -0.34084931319650169 0 -0.26017799311385281 -0.35268912854855933 0 -0.26926364122666091 -0.35375553660024128 0 -0.24325210797206609 -0.34084931319650169 0 -0.25494538795031141 -0.36273054802101118 0 -0.26017799311385281 -0.35268912854855933 0 -0.24808760514302669 -0.3536558827211943 0 -0.27994264201103719 -0.36323993691456841 0 -0.26017799311385281 -0.35268912854855933 0 -0.27994264201103719 -0.36323993691456841 0 -0.26017799311385281 -0.35268912854855933 0 -0.26926364122666091 -0.35375553660024128 0 -0.28048823453243299 -0.34080574413418752 0 -0.2621599680271573 -0.33226375772155409 0 -0.28106782808224812 -0.3236782022466056 0 -0.26926364122666091 -0.35375553660024128 0 -0.28048823453243299 -0.34080574413418752 0 -0.2621599680271573 -0.33226375772155409 0 -0.2621599680271573 -0.33226375772155409 0 -0.24518994726652291 -0.33234415230164399 0 -0.24308922262768951 -0.32099342612622928 0 -0.2621599680271573 -0.33226375772155409 0 -0.24325210797206609 -0.34084931319650169 0 -0.24518994726652291 -0.33234415230164399 0 -0.2621599680271573 -0.33226375772155409 0 -0.24325210797206609 -0.34084931319650169 0 -0.26926364122666091 -0.35375553660024128 0 -0.2621599680271573 -0.33226375772155409 0 -0.24325210797206609 -0.34084931319650169 0 -0.2621599680271573 -0.33226375772155409 0 -0.25915672867891859 -0.31415112243359272 0 -0.24308922262768951 -0.32099342612622928 0 -0.2621599680271573 -0.33226375772155409 0 -0.28106782808224812 -0.3236782022466056 0 -0.25915672867891859 -0.31415112243359272 0 -0.28106782808224812 -0.3236782022466056 0 -0.2709678639136075 -0.30238435136382452 0 -0.2621599680271573 -0.33226375772155409 0 -0.25915672867891859 -0.31415112243359272 0 -0.28106782808224812 -0.3236782022466056 0 -0.28106782808224812 -0.3236782022466056 0 -0.2999756881373381 -0.31509264677165549 0 -0.28453315598845252 -0.30841843357299598 0 -0.28106782808224812 -0.3236782022466056 0 -0.2976254313092957 -0.34087720338781918 0 -0.2999756881373381 -0.31509264677165549 0 -0.28106782808224812 -0.3236782022466056 0 -0.2999756881373381 -0.31509264677165549 0 -0.28048823453243299 -0.34080574413418752 0 -0.28106782808224812 -0.3236782022466056 0 -0.2976254313092957 -0.34087720338781918 0 -0.31234840654553953 -0.34764506024843322 0 -0.2976254313092957 -0.34087720338781918 0 -0.31208723605418232 -0.33616024018399832 0 -0.2976254313092957 -0.34087720338781918 0 -0.31208723605418232 -0.33616024018399832 0 -0.30936258926988919 -0.3261434941065412 0 -0.2976254313092957 -0.34087720338781918 0 -0.2999756881373381 -0.31509264677165549 0 -0.2976254313092957 -0.34087720338781918 0 -0.30936258926988919 -0.3261434941065412 0 -0.2999756881373381 -0.31509264677165549 0 -0.31656029902357641 -0.31849097864348519 0 -0.30936258926988919 -0.3261434941065412 0 -0.2999756881373381 -0.31509264677165549 0 -0.32350207888865212 -0.30440993956247547 0 -0.2999756881373381 -0.31509264677165549 0 -0.30234930147786221 -0.28905184696057518 0 -0.2999756881373381 -0.31509264677165549 0 -0.30234930147786221 -0.28905184696057518 0 -0.2999756881373381 -0.31509264677165549 0 -0.30234930147786221 -0.28905184696057518 0 -0.29239547880504652 -0.30127313523009702 0 -0.32350207888865212 -0.30440993956247547 0 -0.2999756881373381 -0.31509264677165549 0 -0.30234930147786221 -0.28905184696057518 0 -0.29006270545698909 -0.29189763306700739 0 -0.29239547880504652 -0.30127313523009702 0 -0.30234930147786221 -0.28905184696057518 0 -0.29006270545698909 -0.29189763306700739 0 -0.28742262680475061 -0.28573302172180548 0 -0.30234930147786221 -0.28905184696057518 0 -0.28742262680475061 -0.28573302172180548 0 -0.29006270545698909 -0.29189763306700739 0 -0.28742262680475061 -0.28573302172180548 0 -0.28158089536532038 -0.29680102193740848 0 -0.29006270545698909 -0.29189763306700739 0 -0.28158089536532038 -0.29680102193740848 0 -0.29239547880504652 -0.30127313523009702 0 -0.28158089536532038 -0.29680102193740848 0 -0.29239547880504652 -0.30127313523009702 0 -0.28453315598845252 -0.30841843357299598 0 -0.2999756881373381 -0.31509264677165549 0 -0.29239547880504652 -0.30127313523009702 0 -0.28453315598845252 -0.30841843357299598 0 -0.28106782808224812 -0.3236782022466056 0 -0.28453315598845252 -0.30841843357299598 0 -0.2709678639136075 -0.30238435136382452 0 -0.28158089536532038 -0.29680102193740848 0 -0.28453315598845252 -0.30841843357299598 0 -0.2709678639136075 -0.30238435136382452 0 -0.25915672867891859 -0.31415112243359272 0 -0.25718459078837252 -0.29759752524363881 0 -0.24047089863443691 -0.30798947189970438 0 -0.25915672867891859 -0.31415112243359272 0 -0.2709678639136075 -0.30238435136382452 0 -0.25718459078837252 -0.29759752524363881 0 -0.25718459078837252 -0.29759752524363881 0 -0.25108388684634803 -0.28956965662021522 0 -0.26792751193251091 -0.28139844079955562 0 -0.25108388684634803 -0.28956965662021522 0 -0.26792751193251091 -0.28139844079955562 0 -0.2484323970602714 -0.27706385987730509 0 -0.2709678639136075 -0.30238435136382452 0 -0.25718459078837252 -0.29759752524363881 0 -0.26792751193251091 -0.28139844079955562 0 -0.28742262680475061 -0.28573302172180548 0 -0.26792751193251091 -0.28139844079955562 0 -0.28158089536532038 -0.29680102193740848 0 -0.2709678639136075 -0.30238435136382452 0 -0.26792751193251091 -0.28139844079955562 0 -0.28742262680475061 -0.28573302172180548 0 -0.28158089536532038 -0.29680102193740848 0 -0.26792751193251091 -0.28139844079955562 0 -0.26792751193251091 -0.28139844079955562 0 -0.27965676560653041 -0.27550351800418249 0 -0.27506057922854799 -0.26523935036500679 0 -0.28742262680475061 -0.28573302172180548 0 -0.26792751193251091 -0.28139844079955562 0 -0.27965676560653041 -0.27550351800418249 0 -0.26792751193251091 -0.28139844079955562 0 -0.26170023695288303 -0.26848976391570201 0 -0.27506057922854799 -0.26523935036500679 0 -0.27965676560653041 -0.27550351800418249 0 -0.27506057922854799 -0.26523935036500679 0 -0.28821634446031208 -0.2696432591303618 0 -0.26792751193251091 -0.28139844079955562 0 -0.2484323970602714 -0.27706385987730509 0 -0.26792751193251091 -0.28139844079955562 0 -0.26170023695288303 -0.26848976391570201 0 -0.2484323970602714 -0.27706385987730509 0 -0.26170023695288303 -0.26848976391570201 0 -0.25309751137434572 -0.26289123234143091 0 -0.2484323970602714 -0.27706385987730509 0 -0.2565674865322034 -0.25340195958415102 0 -0.26524553468775469 -0.25886506807255583 0 -0.27383001930629169 -0.24744255459442921 0 -0.2565674865322034 -0.25340195958415102 0 -0.27383001930629169 -0.24744255459442921 0 -0.2565674865322034 -0.25340195958415102 0 -0.25309751137434572 -0.26289123234143091 0 -0.24233717299785959 -0.25960849866204011 0 -0.2565674865322034 -0.25340195958415102 0 -0.25309751137434572 -0.26289123234143091 0 -0.26524553468775469 -0.25886506807255583 0 -0.26170023695288303 -0.26848976391570201 0 -0.25309751137434572 -0.26289123234143091 0 -0.26524553468775469 -0.25886506807255583 0 -0.27506057922854799 -0.26523935036500679 0 -0.28942662192718172 -0.25357945894426132 0 -0.27383001930629169 -0.24744255459442921 0 -0.26524553468775469 -0.25886506807255583 0 -0.27506057922854799 -0.26523935036500679 0 -0.27383001930629169 -0.24744255459442921 0 -0.26170023695288303 -0.26848976391570201 0 -0.26524553468775469 -0.25886506807255583 0 -0.27506057922854799 -0.26523935036500679 0 -0.28942662192718172 -0.25357945894426132 0 -0.29569431645386429 -0.26311293363000732 0 -0.28821634446031208 -0.2696432591303618 0 -0.28942662192718172 -0.25357945894426132 0 -0.27383001930629169 -0.24744255459442921 0 -0.27506057922854799 -0.26523935036500679 0 -0.28942662192718172 -0.25357945894426132 0 -0.28821634446031208 -0.2696432591303618 0 -0.28942662192718172 -0.25357945894426132 0 -0.29569431645386429 -0.26311293363000732 0 -0.30502322454807101 -0.25971636329409542 0 -0.29569431645386429 -0.26311293363000732 0 -0.28821634446031208 -0.2696432591303618 0 -0.30425539613548452 -0.26814017253042433 0 -0.28742262680475061 -0.28573302172180548 0 -0.27965676560653041 -0.27550351800418249 0 -0.28821634446031208 -0.2696432591303618 0 -0.28742262680475061 -0.28573302172180548 0 -0.28821634446031208 -0.2696432591303618 0 -0.30425539613548452 -0.26814017253042433 0 -0.28742262680475061 -0.28573302172180548 0 -0.30425539613548452 -0.26814017253042433 0 -0.31480478096024378 -0.27564718726691712 0 -0.30234930147786221 -0.28905184696057518 0 -0.30425539613548452 -0.26814017253042433 0 -0.30234930147786221 -0.28905184696057518 0 -0.30425539613548452 -0.26814017253042433 0 -0.30234930147786221 -0.28905184696057518 0 -0.28742262680475061 -0.28573302172180548 0 -0.30425539613548452 -0.26814017253042433 0 -0.31480478096024378 -0.27564718726691712 0 -0.30425539613548452 -0.26814017253042433 0 -0.31032083431566337 -0.26180085087236171 0 -0.30425539613548452 -0.26814017253042433 0 -0.31032083431566337 -0.26180085087236171 0 -0.30502322454807101 -0.25971636329409542 0 -0.28942662192718172 -0.25357945894426132 0 -0.30538593138510828 -0.25573712372202267 0 -0.29948497002523827 -0.2483657822867901 0 -0.28942662192718172 -0.25357945894426132 0 -0.30502322454807101 -0.25971636329409542 0 -0.30538593138510828 -0.25573712372202267 0 -0.30425539613548452 -0.26814017253042433 0 -0.31032083431566337 -0.26180085087236171 0 -0.31032083431566337 -0.26180085087236171 0 -0.30502322454807101 -0.25971636329409542 0 -0.31032083431566337 -0.26180085087236171 0 -0.30502322454807101 -0.25971636329409542 0 -0.30538593138510828 -0.25573712372202267 0 -0.31283906540333922 -0.25031215033235238 0 -0.31032083431566337 -0.26180085087236171 0 -0.30538593138510828 -0.25573712372202267 0 -0.31283906540333922 -0.25031215033235238 0 -0.30538593138510828 -0.25573712372202267 0 -0.30623861516307299 -0.24935013043731349 0 -0.30502322454807101 -0.25971636329409542 0 -0.30538593138510828 -0.25573712372202267 0 -0.28942662192718172 -0.25357945894426132 0 -0.30502322454807101 -0.25971636329409542 0 -0.30538593138510828 -0.25573712372202267 0 -0.29948497002523827 -0.2483657822867901 0 -0.30623861516307299 -0.24935013043731349 0 -0.30425539613548452 -0.26814017253042433 0 -0.30502322454807101 -0.25971636329409542 0 -0.29569431645386429 -0.26311293363000732 0 -0.30425539613548452 -0.26814017253042433 0 -0.30502322454807101 -0.25971636329409542 0 -0.33143192801526428 -0.45396038638140679 0 -0.33152258580119082 -0.46633970128806979 0 -0.34296165509457921 -0.45730971557378147 0 -0.34069406563311189 -0.44566521365826578 0 -0.32492704317595772 -0.44077768091168912 0 -0.33812272201467081 -0.43047089330918592 0 -0.33143192801526428 -0.45396038638140679 0 -0.34069406563311189 -0.44566521365826578 0 -0.32492704317595772 -0.44077768091168912 0 -0.33143192801526428 -0.45396038638140679 0 -0.34296165509457921 -0.45730971557378147 0 -0.34069406563311189 -0.44566521365826578 0 -0.33143192801526428 -0.45396038638140679 0 -0.32492704317595772 -0.44077768091168912 0 -0.31987457796333868 -0.4551426725204325 0 -0.32492704317595772 -0.44077768091168912 0 -0.31987457796333868 -0.4551426725204325 0 -0.31015853372433788 -0.44544301337781073 0 -0.33152258580119082 -0.46633970128806979 0 -0.30592196819360068 -0.46328971004504182 0 -0.33152258580119082 -0.46633970128806979 0 -0.31987457796333868 -0.4551426725204325 0 -0.30592196819360068 -0.46328971004504182 0 -0.33152258580119082 -0.46633970128806979 0 -0.32094261384274558 -0.46854088973335889 0 -0.30592196819360068 -0.46328971004504182 0 -0.33143192801526428 -0.45396038638140679 0 -0.33152258580119082 -0.46633970128806979 0 -0.31987457796333868 -0.4551426725204325 0 -0.33152258580119082 -0.46633970128806979 0 -0.32094261384274558 -0.46854088973335889 0 -0.32966732857214198 -0.4835879285261328 0 -0.32094261384274558 -0.46854088973335889 0 -0.32966732857214198 -0.4835879285261328 0 -0.31208929727375578 -0.48491526738579699 0 -0.32221211863154181 -0.5 0 -0.32966732857214198 -0.4835879285261328 0 -0.31208929727375578 -0.48491526738579699 0 -0.32221211863154181 -0.5 0 -0.32966732857214198 -0.4835879285261328 0 -0.34860848031248309 -0.5 0 -0.32966732857214198 -0.4835879285261328 0 -0.34707385437868848 -0.48052394199199022 0 -0.34860848031248309 -0.5 0 -0.33152258580119082 -0.46633970128806979 0 -0.32966732857214198 -0.4835879285261328 0 -0.34707385437868848 -0.48052394199199022 0 -0.33152258580119082 -0.46633970128806979 0 -0.3571232034087809 -0.46938969253109791 0 -0.34707385437868848 -0.48052394199199022 0 -0.3571232034087809 -0.46938969253109791 0 -0.34707385437868848 -0.48052394199199022 0 -0.36652141413456929 -0.48474993749143802 0 -0.34707385437868848 -0.48052394199199022 0 -0.34860848031248309 -0.5 0 -0.36652141413456929 -0.48474993749143802 0 -0.37500484199342449 -0.5 0 -0.34860848031248309 -0.5 0 -0.36652141413456929 -0.48474993749143802 0 -0.38272382101637098 -0.47243968377412587 0 -0.3571232034087809 -0.46938969253109791 0 -0.36652141413456929 -0.48474993749143802 0 -0.38272382101637098 -0.47243968377412587 0 -0.3571232034087809 -0.46938969253109791 0 -0.38265619596279349 -0.45813348326120767 0 -0.38272382101637098 -0.47243968377412587 0 -0.3571232034087809 -0.46938969253109791 0 -0.38265619596279349 -0.45813348326120767 0 -0.3571232034087809 -0.46938969253109791 0 -0.35544663641047641 -0.4489101100326689 0 -0.38265619596279349 -0.45813348326120767 0 -0.35544663641047641 -0.4489101100326689 0 -0.34296165509457921 -0.45730971557378147 0 -0.3571232034087809 -0.46938969253109791 0 -0.35544663641047641 -0.4489101100326689 0 -0.33152258580119082 -0.46633970128806979 0 -0.3571232034087809 -0.46938969253109791 0 -0.33152258580119082 -0.46633970128806979 0 -0.34296165509457921 -0.45730971557378147 0 -0.3571232034087809 -0.46938969253109791 0 -0.34069406563311189 -0.44566521365826578 0 -0.35544663641047641 -0.4489101100326689 0 -0.35372302635176472 -0.43532257313283612 0 -0.34296165509457921 -0.45730971557378147 0 -0.34069406563311189 -0.44566521365826578 0 -0.35544663641047641 -0.4489101100326689 0 -0.35544663641047641 -0.4489101100326689 0 -0.3723601590800425 -0.44005613486137668 0 -0.35372302635176472 -0.43532257313283612 0 -0.38265619596279349 -0.45813348326120767 0 -0.35544663641047641 -0.4489101100326689 0 -0.3723601590800425 -0.44005613486137668 0 -0.38028594703985957 -0.42392304976487449 0 -0.3723601590800425 -0.44005613486137668 0 -0.36423780173753523 -0.4264797532188066 0 -0.3723601590800425 -0.44005613486137668 0 -0.36423780173753523 -0.4264797532188066 0 -0.35372302635176472 -0.43532257313283612 0 -0.38028594703985957 -0.42392304976487449 0 -0.36423780173753523 -0.4264797532188066 0 -0.36590226101420908 -0.41270082520662749 0 -0.36423780173753523 -0.4264797532188066 0 -0.36590226101420908 -0.41270082520662749 0 -0.35147677323475168 -0.42035333371671318 0 -0.36590226101420908 -0.41270082520662749 0 -0.35147677323475168 -0.42035333371671318 0 -0.35184044830027089 -0.40346733636007898 0 -0.35147677323475168 -0.42035333371671318 0 -0.35184044830027089 -0.40346733636007898 0 -0.33675831632547681 -0.41105613646481343 0 -0.35147677323475168 -0.42035333371671318 0 -0.35372302635176472 -0.43532257313283612 0 -0.33812272201467081 -0.43047089330918592 0 -0.34069406563311189 -0.44566521365826578 0 -0.35372302635176472 -0.43532257313283612 0 -0.33812272201467081 -0.43047089330918592 0 -0.36423780173753523 -0.4264797532188066 0 -0.35147677323475168 -0.42035333371671318 0 -0.35372302635176472 -0.43532257313283612 0 -0.37549160074202448 -0.3732971907138336 0 -0.36544727141479139 -0.39026932065168712 0 -0.37549160074202448 -0.3732971907138336 0 -0.36544727141479139 -0.39026932065168712 0 -0.35302350150803719 -0.38208755235937009 0 -0.36590226101420908 -0.41270082520662749 0 -0.36544727141479139 -0.39026932065168712 0 -0.35184044830027089 -0.40346733636007898 0 -0.38114412328536468 -0.40833987260765031 0 -0.36590226101420908 -0.41270082520662749 0 -0.36544727141479139 -0.39026932065168712 0 -0.35184044830027089 -0.40346733636007898 0 -0.35302350150803719 -0.38208755235937009 0 -0.34082557137486691 -0.39523504024196021 0 -0.36544727141479139 -0.39026932065168712 0 -0.35184044830027089 -0.40346733636007898 0 -0.35302350150803719 -0.38208755235937009 0 -0.34413293857164062 -0.37054757780120701 0 -0.35302350150803719 -0.38208755235937009 0 -0.33519042443293379 -0.3802220457599616 0 -0.35302350150803719 -0.38208755235937009 0 -0.33519042443293379 -0.3802220457599616 0 -0.34082557137486691 -0.39523504024196021 0 -0.33519042443293379 -0.3802220457599616 0 -0.32808226850220168 -0.39240284671641351 0 -0.3247168406287716 -0.38559411673624039 0 -0.33519042443293379 -0.3802220457599616 0 -0.34082557137486691 -0.39523504024196021 0 -0.32808226850220168 -0.39240284671641351 0 -0.34082557137486691 -0.39523504024196021 0 -0.32808226850220168 -0.39240284671641351 0 -0.33675831632547681 -0.41105613646481343 0 -0.32808226850220168 -0.39240284671641351 0 -0.33675831632547681 -0.41105613646481343 0 -0.3206477944579052 -0.41019310838576051 0 -0.35184044830027089 -0.40346733636007898 0 -0.34082557137486691 -0.39523504024196021 0 -0.33675831632547681 -0.41105613646481343 0 -0.32808226850220168 -0.39240284671641351 0 -0.31437491003333667 -0.39021680895226152 0 -0.3206477944579052 -0.41019310838576051 0 -0.32808226850220168 -0.39240284671641351 0 -0.3247168406287716 -0.38559411673624039 0 -0.31437491003333667 -0.39021680895226152 0 -0.31437491003333667 -0.39021680895226152 0 -0.32046337790252549 -0.37915946928209171 0 -0.30588070030683939 -0.38181824174751872 0 -0.3247168406287716 -0.38559411673624039 0 -0.31437491003333667 -0.39021680895226152 0 -0.32046337790252549 -0.37915946928209171 0 -0.31437491003333667 -0.39021680895226152 0 -0.32046337790252549 -0.37915946928209171 0 -0.33519042443293379 -0.3802220457599616 0 -0.3247168406287716 -0.38559411673624039 0 -0.32046337790252549 -0.37915946928209171 0 -0.32492704317595772 -0.44077768091168912 0 -0.33812272201467081 -0.43047089330918592 0 -0.32670905357880831 -0.42305010768611329 0 -0.35147677323475168 -0.42035333371671318 0 -0.33812272201467081 -0.43047089330918592 0 -0.33675831632547681 -0.41105613646481343 0 -0.33812272201467081 -0.43047089330918592 0 -0.33675831632547681 -0.41105613646481343 0 -0.32670905357880831 -0.42305010768611329 0 -0.33675831632547681 -0.41105613646481343 0 -0.3206477944579052 -0.41019310838576051 0 -0.32670905357880831 -0.42305010768611329 0 -0.3206477944579052 -0.41019310838576051 0 -0.31307232924124478 -0.42559811140412351 0 -0.32670905357880831 -0.42305010768611329 0 -0.32492704317595772 -0.44077768091168912 0 -0.31307232924124478 -0.42559811140412351 0 -0.31015853372433788 -0.44544301337781073 0 -0.32492704317595772 -0.44077768091168912 0 -0.31307232924124478 -0.42559811140412351 0 -0.32670905357880831 -0.42305010768611329 0 -0.31307232924124478 -0.42559811140412351 0 -0.29907098912325059 -0.43374406761790368 0 -0.29851577765410048 -0.41098608612968202 0 -0.31307232924124478 -0.42559811140412351 0 -0.29907098912325059 -0.43374406761790368 0 -0.31015853372433788 -0.44544301337781073 0 -0.3206477944579052 -0.41019310838576051 0 -0.31307232924124478 -0.42559811140412351 0 -0.29851577765410048 -0.41098608612968202 0 -0.3206477944579052 -0.41019310838576051 0 -0.29851577765410048 -0.41098608612968202 0 -0.29851577765410048 -0.41098608612968202 0 -0.27638376085029581 -0.41177906387360241 0 -0.29851577765410048 -0.41098608612968202 0 -0.28520748594282241 -0.3960441440340734 0 -0.27638376085029581 -0.41177906387360241 0 -0.29851577765410048 -0.41098608612968202 0 -0.28540276919059199 -0.42535658303670731 0 -0.27638376085029581 -0.41177906387360241 0 -0.29907098912325059 -0.43374406761790368 0 -0.29851577765410048 -0.41098608612968202 0 -0.28540276919059199 -0.42535658303670731 0 -0.28540276919059199 -0.42535658303670731 0 -0.27848929033898201 -0.43669604725877897 0 -0.28902284908971709 -0.44016681433255572 0 -0.29907098912325059 -0.43374406761790368 0 -0.28540276919059199 -0.42535658303670731 0 -0.28902284908971709 -0.44016681433255572 0 -0.3002892316592175 -0.36914960035789463 0 -0.32046337790252549 -0.37915946928209171 0 -0.30588070030683939 -0.38181824174751872 0 -0.3002892316592175 -0.36914960035789463 0 -0.29819443980788141 -0.38001079285233907 0 -0.30588070030683939 -0.38181824174751872 0 -0.3002892316592175 -0.36914960035789463 0 -0.29819443980788141 -0.38001079285233907 0 -0.29403121103535113 -0.38030922419454549 0 -0.31437491003333667 -0.39021680895226152 0 -0.30588070030683939 -0.38181824174751872 0 -0.30232780815510779 -0.39560758766926629 0 -0.29819443980788141 -0.38001079285233907 0 -0.30588070030683939 -0.38181824174751872 0 -0.29681739610749358 -0.387616864260033 0 -0.30588070030683939 -0.38181824174751872 0 -0.30232780815510779 -0.39560758766926629 0 -0.29681739610749358 -0.387616864260033 0 -0.31437491003333667 -0.39021680895226152 0 -0.3206477944579052 -0.41019310838576051 0 -0.30232780815510779 -0.39560758766926629 0 -0.3206477944579052 -0.41019310838576051 0 -0.29851577765410048 -0.41098608612968202 0 -0.30232780815510779 -0.39560758766926629 0 -0.30232780815510779 -0.39560758766926629 0 -0.28520748594282241 -0.3960441440340734 0 -0.29681739610749358 -0.387616864260033 0 -0.29851577765410048 -0.41098608612968202 0 -0.30232780815510779 -0.39560758766926629 0 -0.28520748594282241 -0.3960441440340734 0 -0.28520748594282241 -0.3960441440340734 0 -0.28484606126690931 -0.38205101510008821 0 -0.29403121103535113 -0.38030922419454549 0 -0.28520748594282241 -0.3960441440340734 0 -0.29403121103535113 -0.38030922419454549 0 -0.28520748594282241 -0.3960441440340734 0 -0.29681739610749358 -0.387616864260033 0 -0.29403121103535113 -0.38030922419454549 0 -0.28520748594282241 -0.3960441440340734 0 -0.28484606126690931 -0.38205101510008821 0 -0.2742629371717063 -0.37916463673385931 0 -0.28588261091775702 -0.37268605543787447 0 -0.28484606126690931 -0.38205101510008821 0 -0.2742629371717063 -0.37916463673385931 0 -0.28588261091775702 -0.37268605543787447 0 -0.28484606126690931 -0.38205101510008821 0 -0.29403121103535113 -0.38030922419454549 0 -0.29819443980788141 -0.38001079285233907 0 -0.29681739610749358 -0.387616864260033 0 -0.29403121103535113 -0.38030922419454549 0 -0.28520748594282241 -0.3960441440340734 0 -0.2742629371717063 -0.37916463673385931 0 -0.26755910350718881 -0.39582792531461569 0 -0.2742629371717063 -0.37916463673385931 0 -0.26755910350718881 -0.39582792531461569 0 -0.26281209396899169 -0.38517470131063508 0 -0.28520748594282241 -0.3960441440340734 0 -0.27638376085029581 -0.41177906387360241 0 -0.28520748594282241 -0.3960441440340734 0 -0.26755910350718881 -0.39582792531461569 0 -0.27638376085029581 -0.41177906387360241 0 -0.26755910350718881 -0.39582792531461569 0 -0.25033509129523179 -0.39094719032673231 0 -0.25487024651921952 -0.41254988102096568 0 -0.26755910350718881 -0.39582792531461569 0 -0.25033509129523179 -0.39094719032673231 0 -0.26281209396899169 -0.38517470131063508 0 -0.25909124390184018 -0.37475905286733341 0 -0.25033509129523179 -0.39094719032673231 0 -0.26281209396899169 -0.38517470131063508 0 -0.25909124390184018 -0.37475905286733341 0 -0.25033509129523179 -0.39094719032673231 0 -0.24748772700216881 -0.3717564301773445 0 -0.25909124390184018 -0.37475905286733341 0 -0.2742629371717063 -0.37916463673385931 0 -0.26281209396899169 -0.38517470131063508 0 -0.26911429951178012 -0.42474234074800371 0 -0.27848929033898201 -0.43669604725877897 0 -0.26690007516498948 -0.44242471351124879 0 -0.28540276919059199 -0.42535658303670731 0 -0.26911429951178012 -0.42474234074800371 0 -0.27848929033898201 -0.43669604725877897 0 -0.27638376085029581 -0.41177906387360241 0 -0.25487024651921952 -0.41254988102096568 0 -0.28540276919059199 -0.42535658303670731 0 -0.26911429951178012 -0.42474234074800371 0 -0.27638376085029581 -0.41177906387360241 0 -0.26911429951178012 -0.42474234074800371 0 -0.27638376085029581 -0.41177906387360241 0 -0.25487024651921952 -0.41254988102096568 0 -0.26755910350718881 -0.39582792531461569 0 -0.27638376085029581 -0.41177906387360241 0 -0.25487024651921952 -0.41254988102096568 0 -0.26911429951178012 -0.42474234074800371 0 -0.27638376085029581 -0.41177906387360241 0 -0.26911429951178012 -0.42474234074800371 0 -0.25908880606166329 -0.43064529781943001 0 -0.26690007516498948 -0.44242471351124879 0 -0.25487024651921952 -0.41254988102096568 0 -0.25908880606166329 -0.43064529781943001 0 -0.2468605885266735 -0.43014712497011809 0 -0.26911429951178012 -0.42474234074800371 0 -0.25487024651921952 -0.41254988102096568 0 -0.25908880606166329 -0.43064529781943001 0 -0.25908880606166329 -0.43064529781943001 0 -0.25479397652280911 -0.44050862113911837 0 -0.2468605885266735 -0.43014712497011809 0 -0.25479397652280911 -0.44050862113911837 0 -0.2546108597688766 -0.45375703833677078 0 -0.2450571310604201 -0.44414202720417628 0 -0.25479397652280911 -0.44050862113911837 0 -0.2546108597688766 -0.45375703833677078 0 -0.26690007516498948 -0.44242471351124879 0 -0.2546108597688766 -0.45375703833677078 0 -0.26838297633475061 -0.45652413347846638 0 -0.26690007516498948 -0.44242471351124879 0 -0.25908880606166329 -0.43064529781943001 0 -0.25479397652280911 -0.44050862113911837 0 -0.26690007516498948 -0.44242471351124879 0 -0.25109629719050858 -0.46406488014867903 0 -0.2546108597688766 -0.45375703833677078 0 -0.26079873433517492 -0.46936342421069649 0 -0.2546108597688766 -0.45375703833677078 0 -0.26838297633475061 -0.45652413347846638 0 -0.26079873433517492 -0.46936342421069649 0 -0.27799569035848881 -0.46687050799545499 0 -0.26838297633475061 -0.45652413347846638 0 -0.26079873433517492 -0.46936342421069649 0 -0.27799569035848881 -0.46687050799545499 0 -0.26838297633475061 -0.45652413347846638 0 -0.28160952204622303 -0.450204983338161 0 -0.26838297633475061 -0.45652413347846638 0 -0.26690007516498948 -0.44242471351124879 0 -0.28160952204622303 -0.450204983338161 0 -0.27848929033898201 -0.43669604725877897 0 -0.26690007516498948 -0.44242471351124879 0 -0.28160952204622303 -0.450204983338161 0 -0.29907098912325059 -0.43374406761790368 0 -0.28902284908971709 -0.44016681433255572 0 -0.29708038679871529 -0.44973292283788502 0 -0.27848929033898201 -0.43669604725877897 0 -0.28902284908971709 -0.44016681433255572 0 -0.28160952204622303 -0.450204983338161 0 -0.28902284908971709 -0.44016681433255572 0 -0.28160952204622303 -0.450204983338161 0 -0.29708038679871529 -0.44973292283788502 0 -0.27799569035848881 -0.46687050799545499 0 -0.29150619976335518 -0.46129715127825488 0 -0.29492343141974797 -0.47638763217473168 0 -0.27799569035848881 -0.46687050799545499 0 -0.28160952204622303 -0.450204983338161 0 -0.29150619976335518 -0.46129715127825488 0 -0.28160952204622303 -0.450204983338161 0 -0.29150619976335518 -0.46129715127825488 0 -0.29708038679871529 -0.44973292283788502 0 -0.29150619976335518 -0.46129715127825488 0 -0.30592196819360068 -0.46328971004504182 0 -0.29708038679871529 -0.44973292283788502 0 -0.31987457796333868 -0.4551426725204325 0 -0.30592196819360068 -0.46328971004504182 0 -0.31015853372433788 -0.44544301337781073 0 -0.29150619976335518 -0.46129715127825488 0 -0.30592196819360068 -0.46328971004504182 0 -0.29492343141974797 -0.47638763217473168 0 -0.29907098912325059 -0.43374406761790368 0 -0.31015853372433788 -0.44544301337781073 0 -0.29708038679871529 -0.44973292283788502 0 -0.30592196819360068 -0.46328971004504182 0 -0.31015853372433788 -0.44544301337781073 0 -0.29708038679871529 -0.44973292283788502 0 -0.31208929727375578 -0.48491526738579699 0 -0.29492343141974797 -0.47638763217473168 0 -0.29581575695060047 -0.5 0 -0.32221211863154181 -0.5 0 -0.31208929727375578 -0.48491526738579699 0 -0.29581575695060047 -0.5 0 -0.32094261384274558 -0.46854088973335889 0 -0.30592196819360068 -0.46328971004504182 0 -0.29492343141974797 -0.47638763217473168 0 -0.32094261384274558 -0.46854088973335889 0 -0.29492343141974797 -0.47638763217473168 0 -0.32094261384274558 -0.46854088973335889 0 -0.31208929727375578 -0.48491526738579699 0 -0.29492343141974797 -0.47638763217473168 0 -0.29492343141974797 -0.47638763217473168 0 -0.26890424899675031 -0.48423437461610452 0 -0.29492343141974797 -0.47638763217473168 0 -0.28441593737837417 -0.48860776134254891 0 -0.26890424899675031 -0.48423437461610452 0 -0.29492343141974797 -0.47638763217473168 0 -0.28441593737837417 -0.48860776134254891 0 -0.29581575695060047 -0.5 0 -0.28441593737837417 -0.48860776134254891 0 -0.29581575695060047 -0.5 0 -0.26941939526965919 -0.5 0 -0.28441593737837417 -0.48860776134254891 0 -0.26941939526965919 -0.5 0 -0.26890424899675031 -0.48423437461610452 0 -0.27799569035848881 -0.46687050799545499 0 -0.29492343141974797 -0.47638763217473168 0 -0.26890424899675031 -0.48423437461610452 0 -0.27799569035848881 -0.46687050799545499 0 -0.26890424899675031 -0.48423437461610452 0 -0.26079873433517492 -0.46936342421069649 0 -0.26890424899675031 -0.48423437461610452 0 -0.26079873433517492 -0.46936342421069649 0 -0.25379328426056558 -0.48205965705463422 0 -0.26079873433517492 -0.46936342421069649 0 -0.25379328426056558 -0.48205965705463422 0 -0.250874604213362 -0.47391739130808008 0 -0.25109629719050858 -0.46406488014867903 0 -0.26079873433517492 -0.46936342421069649 0 -0.250874604213362 -0.47391739130808008 0 -0.26941939526965919 -0.5 0 -0.26890424899675031 -0.48423437461610452 0 -0.2544134183364497 -0.49413622749019132 0 -0.26941939526965919 -0.5 0 -0.2544134183364497 -0.49413622749019132 0 -0.2430230335887178 -0.5 0 -0.26890424899675031 -0.48423437461610452 0 -0.2544134183364497 -0.49413622749019132 0 -0.24288506657375261 -0.49208111705747781 0 -0.26890424899675031 -0.48423437461610452 0 -0.25379328426056558 -0.48205965705463422 0 -0.24288506657375261 -0.49208111705747781 0 -0.26890424899675031 -0.48423437461610452 0 -0.24288506657375261 -0.49208111705747781 0 -0.2544134183364497 -0.49413622749019132 0 -0.2430230335887178 -0.5 0 -0.24783534725336881 -0.49436564577737419 0 -0.2544134183364497 -0.49413622749019132 0 -0.24783534725336881 -0.49436564577737419 0 -0.24288506657375261 -0.49208111705747781 0 -0.2430230335887178 -0.5 0 -0.24783534725336881 -0.49436564577737419 0 -0.24288506657375261 -0.49208111705747781 0 -0.24783534725336881 -0.49436564577737419 0 -0.24288506657375261 -0.49208111705747781 0 -0.24288506657375261 -0.49208111705747781 0 -0.24429345028001889 -0.4821559175287794 0 -0.23457410743521059 -0.47899140825596259 0 -0.25379328426056558 -0.48205965705463422 0 -0.24288506657375261 -0.49208111705747781 0 -0.24429345028001889 -0.4821559175287794 0 -0.25379328426056558 -0.48205965705463422 0 -0.250874604213362 -0.47391739130808008 0 -0.24429345028001889 -0.4821559175287794 0 -0.24429345028001889 -0.4821559175287794 0 -0.2443912550005416 -0.47194307759761112 0 -0.2395637252682277 -0.47605318874815389 0 -0.25109629719050858 -0.46406488014867903 0 -0.250874604213362 -0.47391739130808008 0 -0.2443912550005416 -0.47194307759761112 0 -0.250874604213362 -0.47391739130808008 0 -0.24429345028001889 -0.4821559175287794 0 -0.2443912550005416 -0.47194307759761112 0 -0.2443912550005416 -0.47194307759761112 0 -0.2395637252682277 -0.47605318874815389 0 -0.23499608835713959 -0.47112235161026261 0 -0.2395637252682277 -0.47605318874815389 0 -0.23499608835713959 -0.47112235161026261 0 -0.23457410743521059 -0.47899140825596259 0 -0.24429345028001889 -0.4821559175287794 0 -0.2395637252682277 -0.47605318874815389 0 -0.23457410743521059 -0.47899140825596259 0 -0.23457410743521059 -0.47899140825596259 0 -0.2250369990674011 -0.47003999804886298 0 -0.2204246459600448 -0.48171575006642248 0 -0.24288506657375261 -0.49208111705747781 0 -0.23457410743521059 -0.47899140825596259 0 -0.2204246459600448 -0.48171575006642248 0 -0.23499608835713959 -0.47112235161026261 0 -0.23457410743521059 -0.47899140825596259 0 -0.2250369990674011 -0.47003999804886298 0 -0.2430230335887178 -0.5 0 -0.24288506657375261 -0.49208111705747781 0 -0.21662667190777651 -0.49999999999999939 0 -0.24288506657375261 -0.49208111705747781 0 -0.21662667190777651 -0.49999999999999939 0 -0.24288506657375261 -0.49208111705747781 0 -0.2204246459600448 -0.48171575006642248 0 -0.24288506657375261 -0.49208111705747781 0 -0.2204246459600448 -0.48171575006642248 0 -0.21662667190777651 -0.49999999999999939 0 -0.2450571310604201 -0.44414202720417628 0 -0.23716380350122879 -0.45645441389937441 0 -0.23280677558438309 -0.43386548686292281 0 -0.2546108597688766 -0.45375703833677078 0 -0.2450571310604201 -0.44414202720417628 0 -0.23716380350122879 -0.45645441389937441 0 -0.25479397652280911 -0.44050862113911837 0 -0.2450571310604201 -0.44414202720417628 0 -0.2468605885266735 -0.43014712497011809 0 -0.25109629719050858 -0.46406488014867903 0 -0.2546108597688766 -0.45375703833677078 0 -0.23716380350122879 -0.45645441389937441 0 -0.25109629719050858 -0.46406488014867903 0 -0.2443912550005416 -0.47194307759761112 0 -0.23716380350122879 -0.45645441389937441 0 -0.2443912550005416 -0.47194307759761112 0 -0.23499608835713959 -0.47112235161026261 0 -0.23716380350122879 -0.45645441389937441 0 -0.2250369990674011 -0.47003999804886298 0 -0.21844010846223411 -0.44206575668227449 0 -0.2250369990674011 -0.47003999804886298 0 -0.23716380350122879 -0.45645441389937441 0 -0.21844010846223411 -0.44206575668227449 0 -0.23499608835713959 -0.47112235161026261 0 -0.2250369990674011 -0.47003999804886298 0 -0.23716380350122879 -0.45645441389937441 0 -0.23716380350122879 -0.45645441389937441 0 -0.21844010846223411 -0.44206575668227449 0 -0.23280677558438309 -0.43386548686292281 0 -0.21844010846223411 -0.44206575668227449 0 -0.21054881561508179 -0.46151962797655111 0 -0.19087809923939161 -0.44242625200982799 0 -0.2250369990674011 -0.47003999804886298 0 -0.21844010846223411 -0.44206575668227449 0 -0.21054881561508179 -0.46151962797655111 0 -0.21054881561508179 -0.46151962797655111 0 -0.19087809923939161 -0.44242625200982799 0 -0.1979642253463372 -0.47135038307536692 0 -0.19087809923939161 -0.44242625200982799 0 -0.1979642253463372 -0.47135038307536692 0 -0.17550380473262961 -0.46098501608431119 0 -0.2039060436575347 -0.48788306012054039 0 -0.21662667190777651 -0.49999999999999939 0 -0.191185415407293 -0.5 0 -0.2204246459600448 -0.48171575006642248 0 -0.2039060436575347 -0.48788306012054039 0 -0.21662667190777651 -0.49999999999999939 0 -0.2250369990674011 -0.47003999804886298 0 -0.2204246459600448 -0.48171575006642248 0 -0.21054881561508179 -0.46151962797655111 0 -0.2204246459600448 -0.48171575006642248 0 -0.2039060436575347 -0.48788306012054039 0 -0.1979642253463372 -0.47135038307536692 0 -0.2204246459600448 -0.48171575006642248 0 -0.1979642253463372 -0.47135038307536692 0 -0.2204246459600448 -0.48171575006642248 0 -0.21054881561508179 -0.46151962797655111 0 -0.1979642253463372 -0.47135038307536692 0 -0.2039060436575347 -0.48788306012054039 0 -0.1979642253463372 -0.47135038307536692 0 -0.18170511770794731 -0.48283447360099019 0 -0.2039060436575347 -0.48788306012054039 0 -0.191185415407293 -0.5 0 -0.18170511770794731 -0.48283447360099019 0 -0.191185415407293 -0.5 0 -0.16574415890680941 -0.5 0 -0.18170511770794731 -0.48283447360099019 0 -0.16574415890680941 -0.5 0 -0.18170511770794731 -0.48283447360099019 0 -0.1559270581970803 -0.47678838232572268 0 -0.18170511770794731 -0.48283447360099019 0 -0.17550380473262961 -0.46098501608431119 0 -0.1559270581970803 -0.47678838232572268 0 -0.1979642253463372 -0.47135038307536692 0 -0.18170511770794731 -0.48283447360099019 0 -0.17550380473262961 -0.46098501608431119 0 -0.1979642253463372 -0.47135038307536692 0 -0.17550380473262961 -0.46098501608431119 0 -0.19087809923939161 -0.44242625200982799 0 -0.17550380473262961 -0.46098501608431119 0 -0.16487953686040341 -0.43668708651363358 0 -0.17550380473262961 -0.46098501608431119 0 -0.15866236735209521 -0.45377864165300308 0 -0.16487953686040341 -0.43668708651363358 0 -0.17550380473262961 -0.46098501608431119 0 -0.15866236735209521 -0.45377864165300308 0 -0.1559270581970803 -0.47678838232572268 0 -0.15866236735209521 -0.45377864165300308 0 -0.14280129841846509 -0.46103953978105727 0 -0.1559270581970803 -0.47678838232572268 0 -0.15866236735209521 -0.45377864165300308 0 -0.14280129841846509 -0.46103953978105727 0 -0.1438484805828521 -0.43705968193712769 0 -0.15866236735209521 -0.45377864165300308 0 -0.1438484805828521 -0.43705968193712769 0 -0.16487953686040341 -0.43668708651363358 0 -0.14280129841846509 -0.46103953978105727 0 -0.13093011984253891 -0.44972195681556543 0 -0.1438484805828521 -0.43705968193712769 0 -0.13093011984253891 -0.44972195681556543 0 -0.1438484805828521 -0.43705968193712769 0 -0.123519809913229 -0.43733662075251151 0 -0.14280129841846509 -0.46103953978105727 0 -0.13093011984253891 -0.44972195681556543 0 -0.12704973474613379 -0.46277216333596533 0 -0.14280129841846509 -0.46103953978105727 0 -0.12704973474613379 -0.46277216333596533 0 -0.13010403334985379 -0.48000251283874379 0 -0.13010403334985379 -0.48000251283874379 0 -0.1403029024063259 -0.5 0 -0.1148616459058424 -0.5 0 -0.16574415890680941 -0.5 0 -0.1403029024063259 -0.5 0 -0.1559270581970803 -0.47678838232572268 0 -0.13010403334985379 -0.48000251283874379 0 -0.1403029024063259 -0.5 0 -0.1559270581970803 -0.47678838232572268 0 -0.14280129841846509 -0.46103953978105727 0 -0.13010403334985379 -0.48000251283874379 0 -0.1559270581970803 -0.47678838232572268 0 -0.13724659116883831 -0.38156720383825199 0 -0.13696324729183901 -0.40051159333262831 0 -0.1562511533772393 -0.40085091578326698 0 -0.13696324729183901 -0.40051159333262831 0 -0.14428023194946249 -0.41611080081516499 0 -0.1562511533772393 -0.40085091578326698 0 -0.13724659116883831 -0.38156720383825199 0 -0.1562511533772393 -0.40085091578326698 0 -0.1663441030446621 -0.37717300760659073 0 -0.13724659116883831 -0.38156720383825199 0 -0.11827115974421661 -0.40327967795429231 0 -0.13724659116883831 -0.38156720383825199 0 -0.13696324729183901 -0.40051159333262831 0 -0.11827115974421661 -0.40327967795429231 0 -0.13696324729183901 -0.40051159333262831 0 -0.12597911368703019 -0.41952469120143437 0 -0.14428023194946249 -0.41611080081516499 0 -0.13696324729183901 -0.40051159333262831 0 -0.12597911368703019 -0.41952469120143437 0 -0.11827115974421661 -0.40327967795429231 0 -0.12597911368703019 -0.41952469120143437 0 -0.1438484805828521 -0.43705968193712769 0 -0.123519809913229 -0.43733662075251151 0 -0.12597911368703019 -0.41952469120143437 0 -0.1438484805828521 -0.43705968193712769 0 -0.14428023194946249 -0.41611080081516499 0 -0.1438484805828521 -0.43705968193712769 0 -0.16487953686040341 -0.43668708651363358 0 -0.1579375607246061 -0.42228606781690858 0 -0.1438484805828521 -0.43705968193712769 0 -0.14428023194946249 -0.41611080081516499 0 -0.1579375607246061 -0.42228606781690858 0 -0.14428023194946249 -0.41611080081516499 0 -0.1579375607246061 -0.42228606781690858 0 -0.1562511533772393 -0.40085091578326698 0 -0.1717517290487513 -0.41486076781395709 0 -0.1579375607246061 -0.42228606781690858 0 -0.1562511533772393 -0.40085091578326698 0 -0.1717517290487513 -0.41486076781395709 0 -0.16487953686040341 -0.43668708651363358 0 -0.1579375607246061 -0.42228606781690858 0 -0.1717517290487513 -0.41486076781395709 0 -0.16487953686040341 -0.43668708651363358 0 -0.19087809923939161 -0.44242625200982799 0 -0.16487953686040341 -0.43668708651363358 0 -0.18049207608238291 -0.42812424827546058 0 -0.1717517290487513 -0.41486076781395709 0 -0.16487953686040341 -0.43668708651363358 0 -0.18049207608238291 -0.42812424827546058 0 -0.1717517290487513 -0.41486076781395709 0 -0.18680736564207029 -0.41498853585306777 0 -0.17862392123709919 -0.39303444911428059 0 -0.1717517290487513 -0.41486076781395709 0 -0.18049207608238291 -0.42812424827546058 0 -0.18680736564207029 -0.41498853585306777 0 -0.18680736564207029 -0.41498853585306777 0 -0.17862392123709919 -0.39303444911428059 0 -0.19656737959219739 -0.40219111980173922 0 -0.1717517290487513 -0.41486076781395709 0 -0.17862392123709919 -0.39303444911428059 0 -0.1717517290487513 -0.41486076781395709 0 -0.17862392123709919 -0.39303444911428059 0 -0.1562511533772393 -0.40085091578326698 0 -0.17862392123709919 -0.39303444911428059 0 -0.1562511533772393 -0.40085091578326698 0 -0.1663441030446621 -0.37717300760659073 0 -0.17862392123709919 -0.39303444911428059 0 -0.1663441030446621 -0.37717300760659073 0 -0.1854961134254472 -0.37120813041460421 0 -0.17862392123709919 -0.39303444911428059 0 -0.1854961134254472 -0.37120813041460421 0 -0.17862392123709919 -0.39303444911428059 0 -0.20527564977482679 -0.38624161667098289 0 -0.1854961134254472 -0.37120813041460421 0 -0.17862392123709919 -0.39303444911428059 0 -0.19656737959219739 -0.40219111980173922 0 -0.20527564977482679 -0.38624161667098289 0 -0.20527564977482679 -0.38624161667098289 0 -0.2118432178570665 -0.41409151531568628 0 -0.2281799985799623 -0.39436158075255778 0 -0.19656737959219739 -0.40219111980173922 0 -0.20527564977482679 -0.38624161667098289 0 -0.2118432178570665 -0.41409151531568628 0 -0.20527564977482679 -0.38624161667098289 0 -0.2118432178570665 -0.41409151531568628 0 -0.20527564977482679 -0.38624161667098289 0 -0.22195794658956111 -0.37463091785279867 0 -0.21168543115216709 -0.36681117402183649 0 -0.20527564977482679 -0.38624161667098289 0 -0.2281799985799623 -0.39436158075255778 0 -0.22195794658956111 -0.37463091785279867 0 -0.18049207608238291 -0.42812424827546058 0 -0.18680736564207029 -0.41498853585306777 0 -0.19899408631087909 -0.4269358685541359 0 -0.19087809923939161 -0.44242625200982799 0 -0.18049207608238291 -0.42812424827546058 0 -0.19899408631087909 -0.4269358685541359 0 -0.21844010846223411 -0.44206575668227449 0 -0.19087809923939161 -0.44242625200982799 0 -0.19899408631087909 -0.4269358685541359 0 -0.18680736564207029 -0.41498853585306777 0 -0.19656737959219739 -0.40219111980173922 0 -0.2118432178570665 -0.41409151531568628 0 -0.18680736564207029 -0.41498853585306777 0 -0.19899408631087909 -0.4269358685541359 0 -0.2118432178570665 -0.41409151531568628 0 -0.18680736564207029 -0.41498853585306777 0 -0.2118432178570665 -0.41409151531568628 0 -0.21844010846223411 -0.44206575668227449 0 -0.19899408631087909 -0.4269358685541359 0 -0.2118432178570665 -0.41409151531568628 0 -0.21844010846223411 -0.44206575668227449 0 -0.2118432178570665 -0.41409151531568628 0 -0.21844010846223411 -0.44206575668227449 0 -0.2118432178570665 -0.41409151531568628 0 -0.23280677558438309 -0.43386548686292281 0 -0.2118432178570665 -0.41409151531568628 0 -0.23335673218814301 -0.41332069816832789 0 -0.2281799985799623 -0.39436158075255778 0 -0.2118432178570665 -0.41409151531568628 0 -0.23335673218814301 -0.41332069816832789 0 -0.2118432178570665 -0.41409151531568628 0 -0.23280677558438309 -0.43386548686292281 0 -0.23335673218814301 -0.41332069816832789 0 -0.25487024651921952 -0.41254988102096568 0 -0.23335673218814301 -0.41332069816832789 0 -0.25487024651921952 -0.41254988102096568 0 -0.23335673218814301 -0.41332069816832789 0 -0.24168551714563921 -0.4027948375671459 0 -0.25487024651921952 -0.41254988102096568 0 -0.23335673218814301 -0.41332069816832789 0 -0.2468605885266735 -0.43014712497011809 0 -0.23280677558438309 -0.43386548686292281 0 -0.23335673218814301 -0.41332069816832789 0 -0.2468605885266735 -0.43014712497011809 0 -0.2450571310604201 -0.44414202720417628 0 -0.23280677558438309 -0.43386548686292281 0 -0.2468605885266735 -0.43014712497011809 0 -0.2281799985799623 -0.39436158075255778 0 -0.2359431282162788 -0.37698905115118858 0 -0.22195794658956111 -0.37463091785279867 0 -0.25033509129523179 -0.39094719032673231 0 -0.2281799985799623 -0.39436158075255778 0 -0.24168551714563921 -0.4027948375671459 0 -0.25033509129523179 -0.39094719032673231 0 -0.25487024651921952 -0.41254988102096568 0 -0.24168551714563921 -0.4027948375671459 0 -0.23335673218814301 -0.41332069816832789 0 -0.2281799985799623 -0.39436158075255778 0 -0.24168551714563921 -0.4027948375671459 0 -0.25033509129523179 -0.39094719032673231 0 -0.2359431282162788 -0.37698905115118858 0 -0.24748772700216881 -0.3717564301773445 0 -0.25033509129523179 -0.39094719032673231 0 -0.2281799985799623 -0.39436158075255778 0 -0.2359431282162788 -0.37698905115118858 0 -0.25494538795031141 -0.36273054802101118 0 -0.24748772700216881 -0.3717564301773445 0 -0.24521251836493849 -0.35951647641646678 0 -0.24748772700216881 -0.3717564301773445 0 -0.24521251836493849 -0.35951647641646678 0 -0.23939899228441261 -0.3655962622813349 0 -0.23939899228441261 -0.3655962622813349 0 -0.23024759562621139 -0.36380396142485888 0 -0.23761117654761921 -0.35850429625613017 0 -0.24521251836493849 -0.35951647641646678 0 -0.23939899228441261 -0.3655962622813349 0 -0.23761117654761921 -0.35850429625613017 0 -0.2359431282162788 -0.37698905115118858 0 -0.23939899228441261 -0.3655962622813349 0 -0.23024759562621139 -0.36380396142485888 0 -0.2359431282162788 -0.37698905115118858 0 -0.24748772700216881 -0.3717564301773445 0 -0.23939899228441261 -0.3655962622813349 0 -0.2359431282162788 -0.37698905115118858 0 -0.23024759562621139 -0.36380396142485888 0 -0.22195794658956111 -0.37463091785279867 0 -0.23024759562621139 -0.36380396142485888 0 -0.22135664398937441 -0.36020929429952131 0 -0.2310785660723691 -0.35440187846705151 0 -0.23024759562621139 -0.36380396142485888 0 -0.22135664398937441 -0.36020929429952131 0 -0.22195794658956111 -0.37463091785279867 0 -0.22135664398937441 -0.36020929429952131 0 -0.22331676928072861 -0.34527245129667988 0 -0.2310785660723691 -0.35440187846705151 0 -0.23024759562621139 -0.36380396142485888 0 -0.2310785660723691 -0.35440187846705151 0 -0.23761117654761921 -0.35850429625613017 0 -0.22331676928072861 -0.34527245129667988 0 -0.2337118992122327 -0.34903918396608452 0 -0.23708401688859529 -0.34365007901650441 0 -0.22331676928072861 -0.34527245129667988 0 -0.2310785660723691 -0.35440187846705151 0 -0.2337118992122327 -0.34903918396608452 0 -0.26017799311385281 -0.35268912854855933 0 -0.24808760514302669 -0.3536558827211943 0 -0.2404133442166683 -0.34213832018255058 0 -0.2310785660723691 -0.35440187846705151 0 -0.2337118992122327 -0.34903918396608452 0 -0.2396887820693627 -0.35120494043738398 0 -0.26017799311385281 -0.35268912854855933 0 -0.24325210797206609 -0.34084931319650169 0 -0.2404133442166683 -0.34213832018255058 0 -0.2396887820693627 -0.35120494043738398 0 -0.23708401688859529 -0.34365007901650441 0 -0.2404133442166683 -0.34213832018255058 0 -0.2337118992122327 -0.34903918396608452 0 -0.2396887820693627 -0.35120494043738398 0 -0.23708401688859529 -0.34365007901650441 0 -0.2310785660723691 -0.35440187846705151 0 -0.2396887820693627 -0.35120494043738398 0 -0.23761117654761921 -0.35850429625613017 0 -0.24521251836493849 -0.35951647641646678 0 -0.2396887820693627 -0.35120494043738398 0 -0.23761117654761921 -0.35850429625613017 0 -0.24521251836493849 -0.35951647641646678 0 -0.2396887820693627 -0.35120494043738398 0 -0.24808760514302669 -0.3536558827211943 0 -0.25494538795031141 -0.36273054802101118 0 -0.24521251836493849 -0.35951647641646678 0 -0.24808760514302669 -0.3536558827211943 0 -0.2396887820693627 -0.35120494043738398 0 -0.24808760514302669 -0.3536558827211943 0 -0.2404133442166683 -0.34213832018255058 0 -0.24325210797206609 -0.34084931319650169 0 -0.24518994726652291 -0.33234415230164399 0 -0.23958942898634211 -0.33903199036576709 0 -0.24518994726652291 -0.33234415230164399 0 -0.23560348244150561 -0.32909319502054812 0 -0.23958942898634211 -0.33903199036576709 0 -0.23708401688859529 -0.34365007901650441 0 -0.2404133442166683 -0.34213832018255058 0 -0.24325210797206609 -0.34084931319650169 0 -0.2404133442166683 -0.34213832018255058 0 -0.23958942898634211 -0.33903199036576709 0 -0.24325210797206609 -0.34084931319650169 0 -0.2404133442166683 -0.34213832018255058 0 -0.24325210797206609 -0.34084931319650169 0 -0.23958942898634211 -0.33903199036576709 0 -0.25915672867891859 -0.31415112243359272 0 -0.24308922262768951 -0.32099342612622928 0 -0.24047089863443691 -0.30798947189970438 0 -0.24518994726652291 -0.33234415230164399 0 -0.23560348244150561 -0.32909319502054812 0 -0.24308922262768951 -0.32099342612622928 0 -0.23560348244150561 -0.32909319502054812 0 -0.24308922262768951 -0.32099342612622928 0 -0.22938765682563561 -0.32144886021699343 0 -0.24308922262768951 -0.32099342612622928 0 -0.22938765682563561 -0.32144886021699343 0 -0.23158309368585001 -0.31181085789310747 0 -0.24308922262768951 -0.32099342612622928 0 -0.24047089863443691 -0.30798947189970438 0 -0.23158309368585001 -0.31181085789310747 0 -0.22938765682563561 -0.32144886021699343 0 -0.23158309368585001 -0.31181085789310747 0 -0.22249387381410951 -0.31123320620709588 0 -0.23560348244150561 -0.32909319502054812 0 -0.22938765682563561 -0.32144886021699343 0 -0.22076115650133771 -0.33164754609210678 0 -0.22938765682563561 -0.32144886021699343 0 -0.22076115650133771 -0.33164754609210678 0 -0.2180259411870723 -0.31620608063285149 0 -0.22938765682563561 -0.32144886021699343 0 -0.2180259411870723 -0.31620608063285149 0 -0.22249387381410951 -0.31123320620709588 0 -0.22331676928072861 -0.34527245129667988 0 -0.23708401688859529 -0.34365007901650441 0 -0.22076115650133771 -0.33164754609210678 0 -0.23560348244150561 -0.32909319502054812 0 -0.23958942898634211 -0.33903199036576709 0 -0.22076115650133771 -0.33164754609210678 0 -0.2404133442166683 -0.34213832018255058 0 -0.22076115650133771 -0.33164754609210678 0 -0.2404133442166683 -0.34213832018255058 0 -0.23958942898634211 -0.33903199036576709 0 -0.22076115650133771 -0.33164754609210678 0 -0.23708401688859529 -0.34365007901650441 0 -0.2404133442166683 -0.34213832018255058 0 -0.22076115650133771 -0.33164754609210678 0 -0.22331676928072861 -0.34527245129667988 0 -0.22076115650133771 -0.33164754609210678 0 -0.20784983644103361 -0.34097302903627591 0 -0.22076115650133771 -0.33164754609210678 0 -0.20348412114368319 -0.33156666209817831 0 -0.20784983644103361 -0.34097302903627591 0 -0.2180259411870723 -0.31620608063285149 0 -0.19974136112887431 -0.31343603927203523 0 -0.20110896878600679 -0.32115677200166343 0 -0.22076115650133771 -0.33164754609210678 0 -0.2180259411870723 -0.31620608063285149 0 -0.20110896878600679 -0.32115677200166343 0 -0.22076115650133771 -0.33164754609210678 0 -0.20348412114368319 -0.33156666209817831 0 -0.20110896878600679 -0.32115677200166343 0 -0.22076115650133771 -0.33164754609210678 0 -0.20110896878600679 -0.32115677200166343 0 -0.2180259411870723 -0.31620608063285149 0 -0.19974136112887431 -0.31343603927203523 0 -0.20904493575850211 -0.30938578927939081 0 -0.2180259411870723 -0.31620608063285149 0 -0.19974136112887431 -0.31343603927203523 0 -0.19974136112887431 -0.31343603927203523 0 -0.20110896878600679 -0.32115677200166343 0 -0.1814567810706762 -0.3106659979112194 0 -0.20110896878600679 -0.32115677200166343 0 -0.1814567810706762 -0.3106659979112194 0 -0.20110896878600679 -0.32115677200166343 0 -0.19214051361034601 -0.33054181938157612 0 -0.1814567810706762 -0.3106659979112194 0 -0.20348412114368319 -0.33156666209817831 0 -0.20110896878600679 -0.32115677200166343 0 -0.19214051361034601 -0.33054181938157612 0 -0.20348412114368319 -0.33156666209817831 0 -0.20784983644103361 -0.34097302903627591 0 -0.19214051361034601 -0.33054181938157612 0 -0.20784983644103361 -0.34097302903627591 0 -0.19214051361034601 -0.33054181938157612 0 -0.20232946575910341 -0.34593351830387509 0 -0.19214051361034601 -0.33054181938157612 0 -0.19236830561379509 -0.34938181171492771 0 -0.18622265824693729 -0.34003474470360739 0 -0.19214051361034601 -0.33054181938157612 0 -0.19236830561379509 -0.34938181171492771 0 -0.19870808169258641 -0.35839171802627962 0 -0.19214051361034601 -0.33054181938157612 0 -0.19870808169258641 -0.35839171802627962 0 -0.19214051361034601 -0.33054181938157612 0 -0.20232946575910341 -0.34593351830387509 0 -0.19870808169258641 -0.35839171802627962 0 -0.19236830561379509 -0.34938181171492771 0 -0.1854961134254472 -0.37120813041460421 0 -0.20527564977482679 -0.38624161667098289 0 -0.19870808169258641 -0.35839171802627962 0 -0.20527564977482679 -0.38624161667098289 0 -0.19870808169258641 -0.35839171802627962 0 -0.1854961134254472 -0.37120813041460421 0 -0.19236830561379509 -0.34938181171492771 0 -0.19870808169258641 -0.35839171802627962 0 -0.1854961134254472 -0.37120813041460421 0 -0.20527564977482679 -0.38624161667098289 0 -0.19870808169258641 -0.35839171802627962 0 -0.21168543115216709 -0.36681117402183649 0 -0.19870808169258641 -0.35839171802627962 0 -0.21168543115216709 -0.36681117402183649 0 -0.21061943129244759 -0.3538275067713687 0 -0.22135664398937441 -0.36020929429952131 0 -0.22195794658956111 -0.37463091785279867 0 -0.21168543115216709 -0.36681117402183649 0 -0.22135664398937441 -0.36020929429952131 0 -0.21168543115216709 -0.36681117402183649 0 -0.21061943129244759 -0.3538275067713687 0 -0.22135664398937441 -0.36020929429952131 0 -0.22331676928072861 -0.34527245129667988 0 -0.21061943129244759 -0.3538275067713687 0 -0.22331676928072861 -0.34527245129667988 0 -0.20784983644103361 -0.34097302903627591 0 -0.21061943129244759 -0.3538275067713687 0 -0.20784983644103361 -0.34097302903627591 0 -0.20232946575910341 -0.34593351830387509 0 -0.21061943129244759 -0.3538275067713687 0 -0.20232946575910341 -0.34593351830387509 0 -0.19870808169258641 -0.35839171802627962 0 -0.21061943129244759 -0.3538275067713687 0 -0.22866545068461799 -0.25948943059043711 0 -0.21759888839251429 -0.26212753750200368 0 -0.22025275826160279 -0.2471257797298928 0 -0.22866545068461799 -0.25948943059043711 0 -0.22398633244919169 -0.27132847136955079 0 -0.21759888839251429 -0.26212753750200368 0 -0.22866545068461799 -0.25948943059043711 0 -0.23442911476228809 -0.24683612341654529 0 -0.22025275826160279 -0.2471257797298928 0 -0.22866545068461799 -0.25948943059043711 0 -0.24233717299785959 -0.25960849866204011 0 -0.23442911476228809 -0.24683612341654529 0 -0.2565674865322034 -0.25340195958415102 0 -0.24233717299785959 -0.25960849866204011 0 -0.25018128361314113 -0.24746468840205441 0 -0.22866545068461799 -0.25948943059043711 0 -0.24233717299785959 -0.25960849866204011 0 -0.2333815926018066 -0.27110706845475141 0 -0.24233717299785959 -0.25960849866204011 0 -0.2333815926018066 -0.27110706845475141 0 -0.24140403581614819 -0.28379898528087227 0 -0.24233717299785959 -0.25960849866204011 0 -0.24140403581614819 -0.28379898528087227 0 -0.24233717299785959 -0.25960849866204011 0 -0.2484323970602714 -0.27706385987730509 0 -0.24140403581614819 -0.28379898528087227 0 -0.25309751137434572 -0.26289123234143091 0 -0.24233717299785959 -0.25960849866204011 0 -0.2484323970602714 -0.27706385987730509 0 -0.2333815926018066 -0.27110706845475141 0 -0.2300547693907766 -0.28178467995593781 0 -0.24140403581614819 -0.28379898528087227 0 -0.2333815926018066 -0.27110706845475141 0 -0.22398633244919169 -0.27132847136955079 0 -0.2300547693907766 -0.28178467995593781 0 -0.22866545068461799 -0.25948943059043711 0 -0.2333815926018066 -0.27110706845475141 0 -0.22398633244919169 -0.27132847136955079 0 -0.22398633244919169 -0.27132847136955079 0 -0.21947311754018139 -0.28174823216008099 0 -0.2300547693907766 -0.28178467995593781 0 -0.21947311754018139 -0.28174823216008099 0 -0.22569627159534009 -0.29064390563822362 0 -0.2300547693907766 -0.28178467995593781 0 -0.21947311754018139 -0.28174823216008099 0 -0.22569627159534009 -0.29064390563822362 0 -0.21595054291829549 -0.29285447433738648 0 -0.22569627159534009 -0.29064390563822362 0 -0.22453607640027501 -0.29842387346705762 0 -0.21595054291829549 -0.29285447433738648 0 -0.22569627159534009 -0.29064390563822362 0 -0.2341156104824163 -0.28973116501788848 0 -0.23104294706112549 -0.29817392722980551 0 -0.22569627159534009 -0.29064390563822362 0 -0.23104294706112549 -0.29817392722980551 0 -0.22453607640027501 -0.29842387346705762 0 -0.22569627159534009 -0.29064390563822362 0 -0.2341156104824163 -0.28973116501788848 0 -0.2300547693907766 -0.28178467995593781 0 -0.25108388684634803 -0.28956965662021522 0 -0.24140403581614819 -0.28379898528087227 0 -0.24047089863443691 -0.30798947189970438 0 -0.2341156104824163 -0.28973116501788848 0 -0.24140403581614819 -0.28379898528087227 0 -0.24047089863443691 -0.30798947189970438 0 -0.24140403581614819 -0.28379898528087227 0 -0.24047089863443691 -0.30798947189970438 0 -0.2341156104824163 -0.28973116501788848 0 -0.2300547693907766 -0.28178467995593781 0 -0.24140403581614819 -0.28379898528087227 0 -0.25108388684634803 -0.28956965662021522 0 -0.2484323970602714 -0.27706385987730509 0 -0.24140403581614819 -0.28379898528087227 0 -0.25718459078837252 -0.29759752524363881 0 -0.25108388684634803 -0.28956965662021522 0 -0.24047089863443691 -0.30798947189970438 0 -0.2341156104824163 -0.28973116501788848 0 -0.24047089863443691 -0.30798947189970438 0 -0.23104294706112549 -0.29817392722980551 0 -0.24047089863443691 -0.30798947189970438 0 -0.23158309368585001 -0.31181085789310747 0 -0.2303958781931594 -0.30408122012615352 0 -0.23158309368585001 -0.31181085789310747 0 -0.2303958781931594 -0.30408122012615352 0 -0.2249978911063876 -0.30539226771637512 0 -0.24047089863443691 -0.30798947189970438 0 -0.23104294706112549 -0.29817392722980551 0 -0.2303958781931594 -0.30408122012615352 0 -0.23104294706112549 -0.29817392722980551 0 -0.2303958781931594 -0.30408122012615352 0 -0.22453607640027501 -0.29842387346705762 0 -0.2303958781931594 -0.30408122012615352 0 -0.22453607640027501 -0.29842387346705762 0 -0.2249978911063876 -0.30539226771637512 0 -0.22453607640027501 -0.29842387346705762 0 -0.2249978911063876 -0.30539226771637512 0 -0.21872282414136721 -0.30136563651957121 0 -0.22453607640027501 -0.29842387346705762 0 -0.21872282414136721 -0.30136563651957121 0 -0.21595054291829549 -0.29285447433738648 0 -0.22249387381410951 -0.31123320620709588 0 -0.2249978911063876 -0.30539226771637512 0 -0.21872282414136721 -0.30136563651957121 0 -0.23158309368585001 -0.31181085789310747 0 -0.22249387381410951 -0.31123320620709588 0 -0.2249978911063876 -0.30539226771637512 0 -0.22249387381410951 -0.31123320620709588 0 -0.20819654573008861 -0.30010144335043992 0 -0.2180259411870723 -0.31620608063285149 0 -0.2144403241224431 -0.30923162986744451 0 -0.20904493575850211 -0.30938578927939081 0 -0.22249387381410951 -0.31123320620709588 0 -0.2144403241224431 -0.30923162986744451 0 -0.20819654573008861 -0.30010144335043992 0 -0.2180259411870723 -0.31620608063285149 0 -0.22249387381410951 -0.31123320620709588 0 -0.2144403241224431 -0.30923162986744451 0 -0.21872282414136721 -0.30136563651957121 0 -0.20819654573008861 -0.30010144335043992 0 -0.21595054291829549 -0.29285447433738648 0 -0.22249387381410951 -0.31123320620709588 0 -0.21872282414136721 -0.30136563651957121 0 -0.20819654573008861 -0.30010144335043992 0 -0.20819654573008861 -0.30010144335043992 0 -0.20288915614788011 -0.30684576889979082 0 -0.200327377448308 -0.30070497350852549 0 -0.19974136112887431 -0.31343603927203523 0 -0.20904493575850211 -0.30938578927939081 0 -0.20288915614788011 -0.30684576889979082 0 -0.2144403241224431 -0.30923162986744451 0 -0.20819654573008861 -0.30010144335043992 0 -0.20904493575850211 -0.30938578927939081 0 -0.20819654573008861 -0.30010144335043992 0 -0.20904493575850211 -0.30938578927939081 0 -0.20288915614788011 -0.30684576889979082 0 -0.19974136112887431 -0.31343603927203523 0 -0.1814567810706762 -0.3106659979112194 0 -0.19974136112887431 -0.31343603927203523 0 -0.20288915614788011 -0.30684576889979082 0 -0.19308950921137841 -0.30535425612401718 0 -0.19974136112887431 -0.31343603927203523 0 -0.19308950921137841 -0.30535425612401718 0 -0.1814567810706762 -0.3106659979112194 0 -0.19308950921137841 -0.30535425612401718 0 -0.1899902243989981 -0.29832565749187118 0 -0.1817779539512053 -0.30255714357571323 0 -0.19308950921137841 -0.30535425612401718 0 -0.1899902243989981 -0.29832565749187118 0 -0.200327377448308 -0.30070497350852549 0 -0.20288915614788011 -0.30684576889979082 0 -0.19308950921137841 -0.30535425612401718 0 -0.200327377448308 -0.30070497350852549 0 -0.20819654573008861 -0.30010144335043992 0 -0.19389921764606771 -0.28896968049378402 0 -0.200327377448308 -0.30070497350852549 0 -0.19389921764606771 -0.28896968049378402 0 -0.20819654573008861 -0.30010144335043992 0 -0.200327377448308 -0.30070497350852549 0 -0.19389921764606771 -0.28896968049378402 0 -0.20819654573008861 -0.30010144335043992 0 -0.19389921764606771 -0.28896968049378402 0 -0.2049502680629153 -0.28953974020436019 0 -0.1899902243989981 -0.29832565749187118 0 -0.19389921764606771 -0.28896968049378402 0 -0.18066470514172869 -0.29420676669921531 0 -0.1899902243989981 -0.29832565749187118 0 -0.200327377448308 -0.30070497350852549 0 -0.19389921764606771 -0.28896968049378402 0 -0.19389921764606771 -0.28896968049378402 0 -0.18643891475010321 -0.2753500999052107 0 -0.19389921764606771 -0.28896968049378402 0 -0.1815972113741586 -0.27939145610981342 0 -0.19389921764606771 -0.28896968049378402 0 -0.2049502680629153 -0.28953974020436019 0 -0.20163083764207049 -0.27816255368004889 0 -0.2099333729274668 -0.28317129254800538 0 -0.2049502680629153 -0.28953974020436019 0 -0.20163083764207049 -0.27816255368004889 0 -0.2099333729274668 -0.28317129254800538 0 -0.2049502680629153 -0.28953974020436019 0 -0.21595054291829549 -0.29285447433738648 0 -0.20819654573008861 -0.30010144335043992 0 -0.2049502680629153 -0.28953974020436019 0 -0.21595054291829549 -0.29285447433738648 0 -0.21947311754018139 -0.28174823216008099 0 -0.2099333729274668 -0.28317129254800538 0 -0.21595054291829549 -0.29285447433738648 0 -0.2117440640613063 -0.2714560660025862 0 -0.20163083764207049 -0.27816255368004889 0 -0.20334583650585281 -0.26123793981755161 0 -0.22398633244919169 -0.27132847136955079 0 -0.21947311754018139 -0.28174823216008099 0 -0.2117440640613063 -0.2714560660025862 0 -0.21947311754018139 -0.28174823216008099 0 -0.2099333729274668 -0.28317129254800538 0 -0.2117440640613063 -0.2714560660025862 0 -0.22398633244919169 -0.27132847136955079 0 -0.2117440640613063 -0.2714560660025862 0 -0.21759888839251429 -0.26212753750200368 0 -0.2099333729274668 -0.28317129254800538 0 -0.2117440640613063 -0.2714560660025862 0 -0.20163083764207049 -0.27816255368004889 0 -0.20163083764207049 -0.27816255368004889 0 -0.20334583650585281 -0.26123793981755161 0 -0.18643891475010321 -0.2753500999052107 0 -0.20334583650585281 -0.26123793981755161 0 -0.18643891475010321 -0.2753500999052107 0 -0.1892261620383611 -0.26071341320317981 0 -0.20334583650585281 -0.26123793981755161 0 -0.18643891475010321 -0.2753500999052107 0 -0.19389921764606771 -0.28896968049378402 0 -0.20163083764207049 -0.27816255368004889 0 -0.18643891475010321 -0.2753500999052107 0 -0.1892261620383611 -0.26071341320317981 0 -0.20334583650585281 -0.26123793981755161 0 -0.1971211098569064 -0.2485562144643311 0 -0.20334583650585281 -0.26123793981755161 0 -0.21759888839251429 -0.26212753750200368 0 -0.22025275826160279 -0.2471257797298928 0 -0.20334583650585281 -0.26123793981755161 0 -0.22025275826160279 -0.2471257797298928 0 -0.20334583650585281 -0.26123793981755161 0 -0.1971211098569064 -0.2485562144643311 0 -0.22025275826160279 -0.2471257797298928 0 -0.2117440640613063 -0.2714560660025862 0 -0.20334583650585281 -0.26123793981755161 0 -0.21759888839251429 -0.26212753750200368 0 -0.15821309250511281 -0.26118480488572993 0 -0.17536452169406261 -0.25513261131262932 0 -0.1815972113741586 -0.27939145610981342 0 -0.15821309250511281 -0.26118480488572993 0 -0.17536452169406261 -0.25513261131262932 0 -0.15566934165753701 -0.24482136105764621 0 -0.1892261620383611 -0.26071341320317981 0 -0.17536452169406261 -0.25513261131262932 0 -0.1971211098569064 -0.2485562144643311 0 -0.1892261620383611 -0.26071341320317981 0 -0.17536452169406261 -0.25513261131262932 0 -0.18643891475010321 -0.2753500999052107 0 -0.17536452169406261 -0.25513261131262932 0 -0.18643891475010321 -0.2753500999052107 0 -0.17536452169406261 -0.25513261131262932 0 -0.18643891475010321 -0.2753500999052107 0 -0.1815972113741586 -0.27939145610981342 0 -0.19389921764606771 -0.28896968049378402 0 -0.18643891475010321 -0.2753500999052107 0 -0.1815972113741586 -0.27939145610981342 0 -0.18643891475010321 -0.2753500999052107 0 -0.1815972113741586 -0.27939145610981342 0 -0.15821309250511281 -0.26118480488572993 0 -0.1815972113741586 -0.27939145610981342 0 -0.1605334253196628 -0.27705414769848019 0 -0.15821309250511281 -0.26118480488572993 0 -0.1815972113741586 -0.27939145610981342 0 -0.1605334253196628 -0.27705414769848019 0 -0.16662117086531369 -0.29189191504570172 0 -0.1460397447830028 -0.28392096720827609 0 -0.1815972113741586 -0.27939145610981342 0 -0.1605334253196628 -0.27705414769848019 0 -0.16662117086531369 -0.29189191504570172 0 -0.16662117086531369 -0.29189191504570172 0 -0.18066470514172869 -0.29420676669921531 0 -0.16807172941449361 -0.30108874618849107 0 -0.1815972113741586 -0.27939145610981342 0 -0.16662117086531369 -0.29189191504570172 0 -0.1815972113741586 -0.27939145610981342 0 -0.16662117086531369 -0.29189191504570172 0 -0.18066470514172869 -0.29420676669921531 0 -0.19389921764606771 -0.28896968049378402 0 -0.1815972113741586 -0.27939145610981342 0 -0.18066470514172869 -0.29420676669921531 0 -0.18066470514172869 -0.29420676669921531 0 -0.1817779539512053 -0.30255714357571323 0 -0.16807172941449361 -0.30108874618849107 0 -0.1817779539512053 -0.30255714357571323 0 -0.17538193411824851 -0.30742310974349601 0 -0.16807172941449361 -0.30108874618849107 0 -0.1899902243989981 -0.29832565749187118 0 -0.18066470514172869 -0.29420676669921531 0 -0.1817779539512053 -0.30255714357571323 0 -0.19308950921137841 -0.30535425612401718 0 -0.1817779539512053 -0.30255714357571323 0 -0.1814567810706762 -0.3106659979112194 0 -0.1817779539512053 -0.30255714357571323 0 -0.1814567810706762 -0.3106659979112194 0 -0.17538193411824851 -0.30742310974349601 0 -0.1814567810706762 -0.3106659979112194 0 -0.17538193411824851 -0.30742310974349601 0 -0.1814567810706762 -0.3106659979112194 0 -0.17538193411824851 -0.30742310974349601 0 -0.1521471234576928 -0.30622570102712859 0 -0.16662117086531369 -0.29189191504570172 0 -0.16807172941449361 -0.30108874618849107 0 -0.15164513035647001 -0.30439237398159158 0 -0.17538193411824851 -0.30742310974349601 0 -0.16807172941449361 -0.30108874618849107 0 -0.1521471234576928 -0.30622570102712859 0 -0.16807172941449361 -0.30108874618849107 0 -0.1521471234576928 -0.30622570102712859 0 -0.15164513035647001 -0.30439237398159158 0 -0.1814567810706762 -0.3106659979112194 0 -0.1521471234576928 -0.30622570102712859 0 -0.16662117086531369 -0.29189191504570172 0 -0.15164513035647001 -0.30439237398159158 0 -0.14986325126998301 -0.30587970344869631 0 -0.1472482395654931 -0.30806244637126978 0 -0.13137693926794269 -0.30307910049847142 0 -0.14986325126998301 -0.30587970344869631 0 -0.13137693926794269 -0.30307910049847142 0 -0.14191197011226919 -0.29595195204747682 0 -0.1521471234576928 -0.30622570102712859 0 -0.15536928910057479 -0.31799335959440589 0 -0.1521471234576928 -0.30622570102712859 0 -0.1472482395654931 -0.30806244637126978 0 -0.1481744133336001 -0.31559103279323952 0 -0.1521471234576928 -0.30622570102712859 0 -0.14986325126998301 -0.30587970344869631 0 -0.1472482395654931 -0.30806244637126978 0 -0.1521471234576928 -0.30622570102712859 0 -0.14986325126998301 -0.30587970344869631 0 -0.15164513035647001 -0.30439237398159158 0 -0.1521471234576928 -0.30622570102712859 0 -0.14986325126998301 -0.30587970344869631 0 -0.1521471234576928 -0.30622570102712859 0 -0.15164513035647001 -0.30439237398159158 0 -0.14986325126998301 -0.30587970344869631 0 -0.15164513035647001 -0.30439237398159158 0 -0.14986325126998301 -0.30587970344869631 0 -0.1472482395654931 -0.30806244637126978 0 -0.14986325126998301 -0.30587970344869631 0 -0.15164513035647001 -0.30439237398159158 0 -0.14191197011226919 -0.29595195204747682 0 -0.1472482395654931 -0.30806244637126978 0 -0.13676428411235661 -0.311985534419285 0 -0.1481744133336001 -0.31559103279323952 0 -0.14986325126998301 -0.30587970344869631 0 -0.13137693926794269 -0.30307910049847142 0 -0.1472482395654931 -0.30806244637126978 0 -0.13676428411235661 -0.311985534419285 0 -0.13137693926794269 -0.30307910049847142 0 -0.13137693926794269 -0.30307910049847142 0 -0.14191197011226919 -0.29595195204747682 0 -0.12354370332633501 -0.29237215235494779 0 -0.13676428411235661 -0.311985534419285 0 -0.13137693926794269 -0.30307910049847142 0 -0.12202825811921469 -0.30947938976295097 0 -0.1460397447830028 -0.28392096720827609 0 -0.14191197011226919 -0.29595195204747682 0 -0.13317406737037779 -0.2802173890703723 0 -0.14191197011226919 -0.29595195204747682 0 -0.13317406737037779 -0.2802173890703723 0 -0.12354370332633501 -0.29237215235494779 0 -0.13317406737037779 -0.2802173890703723 0 -0.121176560474238 -0.27855216134530347 0 -0.12354370332633501 -0.29237215235494779 0 -0.16662117086531369 -0.29189191504570172 0 -0.15164513035647001 -0.30439237398159158 0 -0.1460397447830028 -0.28392096720827609 0 -0.15164513035647001 -0.30439237398159158 0 -0.1460397447830028 -0.28392096720827609 0 -0.14191197011226919 -0.29595195204747682 0 -0.15164513035647001 -0.30439237398159158 0 -0.1460397447830028 -0.28392096720827609 0 -0.1460397447830028 -0.28392096720827609 0 -0.14043435920953651 -0.26344956043496021 0 -0.1605334253196628 -0.27705414769848019 0 -0.1460397447830028 -0.28392096720827609 0 -0.14043435920953651 -0.26344956043496021 0 -0.15821309250511281 -0.26118480488572993 0 -0.1605334253196628 -0.27705414769848019 0 -0.14043435920953651 -0.26344956043496021 0 -0.13317406737037779 -0.2802173890703723 0 -0.1259380663168852 -0.26705754103126977 0 -0.14043435920953651 -0.26344956043496021 0 -0.1460397447830028 -0.28392096720827609 0 -0.13317406737037779 -0.2802173890703723 0 -0.14043435920953651 -0.26344956043496021 0 -0.13317406737037779 -0.2802173890703723 0 -0.1259380663168852 -0.26705754103126977 0 -0.121176560474238 -0.27855216134530347 0 -0.14043435920953651 -0.26344956043496021 0 -0.1283361407779757 -0.25159171728621699 0 -0.13482897363606841 -0.24297815366164491 0 -0.14043435920953651 -0.26344956043496021 0 -0.13482897363606841 -0.24297815366164491 0 -0.1259380663168852 -0.26705754103126977 0 -0.14043435920953651 -0.26344956043496021 0 -0.1283361407779757 -0.25159171728621699 0 -0.15821309250511281 -0.26118480488572993 0 -0.13482897363606841 -0.24297815366164491 0 -0.15821309250511281 -0.26118480488572993 0 -0.14043435920953651 -0.26344956043496021 0 -0.13482897363606841 -0.24297815366164491 0 -0.17697510949039719 -0.35596577996135209 0 -0.17519745401808179 -0.33814225560617162 0 -0.1562220225934601 -0.35985472972221177 0 -0.17519745401808179 -0.33814225560617162 0 -0.1532624182972378 -0.33871633494107939 0 -0.1562220225934601 -0.35985472972221177 0 -0.17519745401808179 -0.33814225560617162 0 -0.1562220225934601 -0.35985472972221177 0 -0.1663441030446621 -0.37717300760659073 0 -0.17697510949039719 -0.35596577996135209 0 -0.1562220225934601 -0.35985472972221177 0 -0.1663441030446621 -0.37717300760659073 0 -0.1854961134254472 -0.37120813041460421 0 -0.17697510949039719 -0.35596577996135209 0 -0.19236830561379509 -0.34938181171492771 0 -0.1854961134254472 -0.37120813041460421 0 -0.17697510949039719 -0.35596577996135209 0 -0.17697510949039719 -0.35596577996135209 0 -0.17519745401808179 -0.33814225560617162 0 -0.18622265824693729 -0.34003474470360739 0 -0.19236830561379509 -0.34938181171492771 0 -0.17697510949039719 -0.35596577996135209 0 -0.18622265824693729 -0.34003474470360739 0 -0.19214051361034601 -0.33054181938157612 0 -0.17519745401808179 -0.33814225560617162 0 -0.18622265824693729 -0.34003474470360739 0 -0.19214051361034601 -0.33054181938157612 0 -0.17519745401808179 -0.33814225560617162 0 -0.17075841890319021 -0.32267991232295651 0 -0.19214051361034601 -0.33054181938157612 0 -0.1814567810706762 -0.3106659979112194 0 -0.17075841890319021 -0.32267991232295651 0 -0.1814567810706762 -0.3106659979112194 0 -0.1521471234576928 -0.30622570102712859 0 -0.17075841890319021 -0.32267991232295651 0 -0.1521471234576928 -0.30622570102712859 0 -0.17075841890319021 -0.32267991232295651 0 -0.15536928910057479 -0.31799335959440589 0 -0.17075841890319021 -0.32267991232295651 0 -0.15536928910057479 -0.31799335959440589 0 -0.15041885550205389 -0.32708722206771829 0 -0.17519745401808179 -0.33814225560617162 0 -0.17075841890319021 -0.32267991232295651 0 -0.1532624182972378 -0.33871633494107939 0 -0.17075841890319021 -0.32267991232295651 0 -0.1532624182972378 -0.33871633494107939 0 -0.15041885550205389 -0.32708722206771829 0 -0.1532624182972378 -0.33871633494107939 0 -0.15041885550205389 -0.32708722206771829 0 -0.13403844172661231 -0.33095488736429202 0 -0.15041885550205389 -0.32708722206771829 0 -0.14028103823900179 -0.32077908792264309 0 -0.13403844172661231 -0.33095488736429202 0 -0.15536928910057479 -0.31799335959440589 0 -0.15041885550205389 -0.32708722206771829 0 -0.1481744133336001 -0.31559103279323952 0 -0.1521471234576928 -0.30622570102712859 0 -0.15536928910057479 -0.31799335959440589 0 -0.1481744133336001 -0.31559103279323952 0 -0.15041885550205389 -0.32708722206771829 0 -0.1481744133336001 -0.31559103279323952 0 -0.14028103823900179 -0.32077908792264309 0 -0.13676428411235661 -0.311985534419285 0 -0.1481744133336001 -0.31559103279323952 0 -0.14028103823900179 -0.32077908792264309 0 -0.13676428411235661 -0.311985534419285 0 -0.14028103823900179 -0.32077908792264309 0 -0.12839564496088529 -0.32005881249807028 0 -0.14028103823900179 -0.32077908792264309 0 -0.12839564496088529 -0.32005881249807028 0 -0.13403844172661231 -0.33095488736429202 0 -0.12839564496088529 -0.32005881249807028 0 -0.13403844172661231 -0.33095488736429202 0 -0.1231279148664025 -0.32697127933959502 0 -0.13676428411235661 -0.311985534419285 0 -0.12839564496088529 -0.32005881249807028 0 -0.12202825811921469 -0.30947938976295097 0 -0.13403844172661231 -0.33095488736429202 0 -0.13290241802702499 -0.35265178330474523 0 -0.1166361947753133 -0.33638206822001748 0 -0.1532624182972378 -0.33871633494107939 0 -0.13403844172661231 -0.33095488736429202 0 -0.13290241802702499 -0.35265178330474523 0 -0.1532624182972378 -0.33871633494107939 0 -0.13290241802702499 -0.35265178330474523 0 -0.1562220225934601 -0.35985472972221177 0 -0.13724659116883831 -0.38156720383825199 0 -0.13290241802702499 -0.35265178330474523 0 -0.1562220225934601 -0.35985472972221177 0 -0.13724659116883831 -0.38156720383825199 0 -0.1663441030446621 -0.37717300760659073 0 -0.1562220225934601 -0.35985472972221177 0 -0.13724659116883831 -0.38156720383825199 0 -0.1562220225934601 -0.35985472972221177 0 -0.13724659116883831 -0.38156720383825199 0 -0.13290241802702499 -0.35265178330474523 0 -0.1192781490478088 -0.36668410834504778 0 -0.1192781490478088 -0.36668410834504778 0 -0.1016352808315869 -0.36700177770792092 0 -0.11220573075163159 -0.38220411347121069 0 -0.1192781490478088 -0.36668410834504778 0 -0.1016352808315869 -0.36700177770792092 0 -0.1099844304083452 -0.35257743562026572 0 -0.1016352808315869 -0.36700177770792092 0 -0.091783481537845241 -0.36974840743822202 0 -0.093334558199797538 -0.36412034719781128 0 -0.1016352808315869 -0.36700177770792092 0 -0.094364811557621053 -0.35389299716276579 0 -0.093334558199797538 -0.36412034719781128 0 -0.1016352808315869 -0.36700177770792092 0 -0.091783481537845241 -0.36974840743822202 0 -0.093814789784828018 -0.38091150164421111 0 -0.094364811557621053 -0.35389299716276579 0 -0.1099844304083452 -0.35257743562026572 0 -0.096042697554356071 -0.3397062417384924 0 -0.1016352808315869 -0.36700177770792092 0 -0.094364811557621053 -0.35389299716276579 0 -0.1099844304083452 -0.35257743562026572 0 -0.13290241802702499 -0.35265178330474523 0 -0.1099844304083452 -0.35257743562026572 0 -0.1166361947753133 -0.33638206822001748 0 -0.13290241802702499 -0.35265178330474523 0 -0.1192781490478088 -0.36668410834504778 0 -0.1099844304083452 -0.35257743562026572 0 -0.13403844172661231 -0.33095488736429202 0 -0.1166361947753133 -0.33638206822001748 0 -0.1231279148664025 -0.32697127933959502 0 -0.1166361947753133 -0.33638206822001748 0 -0.1152881905332649 -0.31967160768574748 0 -0.098893476597157901 -0.32632392269665411 0 -0.1166361947753133 -0.33638206822001748 0 -0.1231279148664025 -0.32697127933959502 0 -0.1152881905332649 -0.31967160768574748 0 -0.12839564496088529 -0.32005881249807028 0 -0.1152881905332649 -0.31967160768574748 0 -0.12202825811921469 -0.30947938976295097 0 -0.12839564496088529 -0.32005881249807028 0 -0.1231279148664025 -0.32697127933959502 0 -0.1152881905332649 -0.31967160768574748 0 -0.1152881905332649 -0.31967160768574748 0 -0.11397155121489801 -0.30848478901155318 0 -0.10823649018657309 -0.3106210867482716 0 -0.1152881905332649 -0.31967160768574748 0 -0.12202825811921469 -0.30947938976295097 0 -0.11397155121489801 -0.30848478901155318 0 -0.1152881905332649 -0.31967160768574748 0 -0.098893476597157901 -0.32632392269665411 0 -0.10823649018657309 -0.3106210867482716 0 -0.1166361947753133 -0.33638206822001748 0 -0.098893476597157901 -0.32632392269665411 0 -0.096042697554356071 -0.3397062417384924 0 -0.1099844304083452 -0.35257743562026572 0 -0.1166361947753133 -0.33638206822001748 0 -0.096042697554356071 -0.3397062417384924 0 -0.081273045807338212 -0.32012122354728773 0 -0.072383893537199012 -0.33396092306611819 0 -0.082523744249277803 -0.34494336359321798 0 -0.081273045807338212 -0.32012122354728773 0 -0.082523744249277803 -0.34494336359321798 0 -0.096042697554356071 -0.3397062417384924 0 -0.081273045807338212 -0.32012122354728773 0 -0.082523744249277803 -0.34494336359321798 0 -0.098893476597157901 -0.32632392269665411 0 -0.096042697554356071 -0.3397062417384924 0 -0.081273045807338212 -0.32012122354728773 0 -0.098893476597157901 -0.32632392269665411 0 -0.081273045807338212 -0.32012122354728773 0 -0.088490963390462057 -0.3073149594937738 0 -0.081273045807338212 -0.32012122354728773 0 -0.06349485352407537 -0.31994243130957151 0 -0.072383893537199012 -0.33396092306611819 0 -0.081273045807338212 -0.32012122354728773 0 -0.06349485352407537 -0.31994243130957151 0 -0.071882199735688629 -0.30989172464331072 0 -0.06349485352407537 -0.31994243130957151 0 -0.072383893537199012 -0.33396092306611819 0 -0.062587044379988993 -0.33886333000968721 0 -0.072383893537199012 -0.33396092306611819 0 -0.072040779725314613 -0.34593426687082662 0 -0.082523744249277803 -0.34494336359321798 0 -0.072383893537199012 -0.33396092306611819 0 -0.062587044379988993 -0.33886333000968721 0 -0.072040779725314613 -0.34593426687082662 0 -0.062587044379988993 -0.33886333000968721 0 -0.072040779725314613 -0.34593426687082662 0 -0.05778126825204781 -0.35817517109810632 0 -0.081484465201393491 -0.35485127927681481 0 -0.05778126825204781 -0.35817517109810632 0 -0.072289445743601369 -0.36429171085611578 0 -0.081484465201393491 -0.35485127927681481 0 -0.05778126825204781 -0.35817517109810632 0 -0.072040779725314613 -0.34593426687082662 0 -0.081484465201393491 -0.35485127927681481 0 -0.05778126825204781 -0.35817517109810632 0 -0.066117606829746781 -0.37437488941039382 0 -0.072289445743601369 -0.36429171085611578 0 -0.05778126825204781 -0.35817517109810632 0 -0.066117606829746781 -0.37437488941039382 0 -0.072289445743601369 -0.36429171085611578 0 -0.083774442691217046 -0.36976550363914829 0 -0.072289445743601369 -0.36429171085611578 0 -0.083774442691217046 -0.36976550363914829 0 -0.081484465201393491 -0.35485127927681481 0 -0.085554658872136979 -0.36583820648233678 0 -0.083774442691217046 -0.36976550363914829 0 -0.082523744249277803 -0.34494336359321798 0 -0.085554658872136979 -0.36583820648233678 0 -0.083774442691217046 -0.36976550363914829 0 -0.083774442691217046 -0.36976550363914829 0 -0.091783481537845241 -0.36974840743822202 0 -0.093814789784828018 -0.38091150164421111 0 -0.085554658872136979 -0.36583820648233678 0 -0.083774442691217046 -0.36976550363914829 0 -0.091783481537845241 -0.36974840743822202 0 -0.094364811557621053 -0.35389299716276579 0 -0.085554658872136979 -0.36583820648233678 0 -0.093334558199797538 -0.36412034719781128 0 -0.085554658872136979 -0.36583820648233678 0 -0.091783481537845241 -0.36974840743822202 0 -0.093334558199797538 -0.36412034719781128 0 -0.094364811557621053 -0.35389299716276579 0 -0.085554658872136979 -0.36583820648233678 0 -0.082523744249277803 -0.34494336359321798 0 -0.083774442691217046 -0.36976550363914829 0 -0.082523744249277803 -0.34494336359321798 0 -0.083774442691217046 -0.36976550363914829 0 -0.082523744249277803 -0.34494336359321798 0 -0.081484465201393491 -0.35485127927681481 0 -0.094364811557621053 -0.35389299716276579 0 -0.096042697554356071 -0.3397062417384924 0 -0.082523744249277803 -0.34494336359321798 0 -0.072040779725314613 -0.34593426687082662 0 -0.082523744249277803 -0.34494336359321798 0 -0.081484465201393491 -0.35485127927681481 0 -0.101475907254733 -0.26829823342826459 0 -0.093680051977193257 -0.25300014610948141 0 -0.1025516661405015 -0.24412656761791199 0 -0.1097432552782682 -0.2572086698476283 0 -0.101475907254733 -0.26829823342826459 0 -0.1025516661405015 -0.24412656761791199 0 -0.101475907254733 -0.26829823342826459 0 -0.1025516661405015 -0.24412656761791199 0 -0.101475907254733 -0.26829823342826459 0 -0.092490388530258719 -0.26367462890309928 0 -0.093680051977193257 -0.25300014610948141 0 -0.1097432552782682 -0.2572086698476283 0 -0.11415052326640381 -0.26847741843797612 0 -0.101475907254733 -0.26829823342826459 0 -0.1097432552782682 -0.2572086698476283 0 -0.1183855941197941 -0.25651062511641259 0 -0.1121525856099083 -0.24863050463757599 0 -0.1283361407779757 -0.25159171728621699 0 -0.1183855941197941 -0.25651062511641259 0 -0.11992695639240671 -0.24305274461581289 0 -0.1259380663168852 -0.26705754103126977 0 -0.1183855941197941 -0.25651062511641259 0 -0.11415052326640381 -0.26847741843797612 0 -0.1259380663168852 -0.26705754103126977 0 -0.1283361407779757 -0.25159171728621699 0 -0.1183855941197941 -0.25651062511641259 0 -0.1097432552782682 -0.2572086698476283 0 -0.1183855941197941 -0.25651062511641259 0 -0.11415052326640381 -0.26847741843797612 0 -0.1259380663168852 -0.26705754103126977 0 -0.11415052326640381 -0.26847741843797612 0 -0.121176560474238 -0.27855216134530347 0 -0.11415052326640381 -0.26847741843797612 0 -0.121176560474238 -0.27855216134530347 0 -0.112272911659429 -0.28340806039222649 0 -0.101475907254733 -0.26829823342826459 0 -0.1004001483689636 -0.29246989923861699 0 -0.089806853404465051 -0.2713401455271785 0 -0.101475907254733 -0.26829823342826459 0 -0.1004001483689636 -0.29246989923861699 0 -0.11415052326640381 -0.26847741843797612 0 -0.101475907254733 -0.26829823342826459 0 -0.112272911659429 -0.28340806039222649 0 -0.101475907254733 -0.26829823342826459 0 -0.089806853404465051 -0.2713401455271785 0 -0.092490388530258719 -0.26367462890309928 0 -0.1004001483689636 -0.29246989923861699 0 -0.112272911659429 -0.28340806039222649 0 -0.11289062726590229 -0.30027849754824781 0 -0.101475907254733 -0.26829823342826459 0 -0.1004001483689636 -0.29246989923861699 0 -0.112272911659429 -0.28340806039222649 0 -0.1004001483689636 -0.29246989923861699 0 -0.10013860532164209 -0.29834661679915908 0 -0.1004001483689636 -0.29246989923861699 0 -0.11289062726590229 -0.30027849754824781 0 -0.112272911659429 -0.28340806039222649 0 -0.12354370332633501 -0.29237215235494779 0 -0.11289062726590229 -0.30027849754824781 0 -0.121176560474238 -0.27855216134530347 0 -0.112272911659429 -0.28340806039222649 0 -0.12354370332633501 -0.29237215235494779 0 -0.13137693926794269 -0.30307910049847142 0 -0.11289062726590229 -0.30027849754824781 0 -0.13137693926794269 -0.30307910049847142 0 -0.11289062726590229 -0.30027849754824781 0 -0.12202825811921469 -0.30947938976295097 0 -0.13137693926794269 -0.30307910049847142 0 -0.12354370332633501 -0.29237215235494779 0 -0.11289062726590229 -0.30027849754824781 0 -0.11289062726590229 -0.30027849754824781 0 -0.11397155121489801 -0.30848478901155318 0 -0.10823649018657309 -0.3106210867482716 0 -0.11289062726590229 -0.30027849754824781 0 -0.12202825811921469 -0.30947938976295097 0 -0.11397155121489801 -0.30848478901155318 0 -0.098893476597157901 -0.32632392269665411 0 -0.10013860532164209 -0.29834661679915908 0 -0.098893476597157901 -0.32632392269665411 0 -0.10013860532164209 -0.29834661679915908 0 -0.088490963390462057 -0.3073149594937738 0 -0.098893476597157901 -0.32632392269665411 0 -0.10823649018657309 -0.3106210867482716 0 -0.10013860532164209 -0.29834661679915908 0 -0.11289062726590229 -0.30027849754824781 0 -0.10013860532164209 -0.29834661679915908 0 -0.1004001483689636 -0.29246989923861699 0 -0.11289062726590229 -0.30027849754824781 0 -0.10013860532164209 -0.29834661679915908 0 -0.11289062726590229 -0.30027849754824781 0 -0.10823649018657309 -0.3106210867482716 0 -0.10013860532164209 -0.29834661679915908 0 -0.081273045807338212 -0.32012122354728773 0 -0.075730545320634307 -0.30237183499028841 0 -0.080022347365398816 -0.29529908350135742 0 -0.081273045807338212 -0.32012122354728773 0 -0.088490963390462057 -0.3073149594937738 0 -0.080022347365398816 -0.29529908350135742 0 -0.10013860532164209 -0.29834661679915908 0 -0.088490963390462057 -0.3073149594937738 0 -0.080022347365398816 -0.29529908350135742 0 -0.081273045807338212 -0.32012122354728773 0 -0.080022347365398816 -0.29529908350135742 0 -0.06349485352407537 -0.31994243130957151 0 -0.067929239438661637 -0.29744245220773302 0 -0.06349485352407537 -0.31994243130957151 0 -0.067929239438661637 -0.29744245220773302 0 -0.05709164511789562 -0.30596989755068921 0 -0.081273045807338212 -0.32012122354728773 0 -0.071882199735688629 -0.30989172464331072 0 -0.075730545320634307 -0.30237183499028841 0 -0.06349485352407537 -0.31994243130957151 0 -0.071882199735688629 -0.30989172464331072 0 -0.067929239438661637 -0.29744245220773302 0 -0.067929239438661637 -0.29744245220773302 0 -0.075730545320634307 -0.30237183499028841 0 -0.074800211398343183 -0.29676828128919502 0 -0.071882199735688629 -0.30989172464331072 0 -0.067929239438661637 -0.29744245220773302 0 -0.075730545320634307 -0.30237183499028841 0 -0.075730545320634307 -0.30237183499028841 0 -0.074800211398343183 -0.29676828128919502 0 -0.080022347365398816 -0.29529908350135742 0 -0.067929239438661637 -0.29744245220773302 0 -0.072363625353247057 -0.27494247310589431 0 -0.074800211398343183 -0.29676828128919502 0 -0.075988861669628593 -0.29203098004520328 0 -0.080022347365398816 -0.29529908350135742 0 -0.067929239438661637 -0.29744245220773302 0 -0.063481929201992804 -0.28659419931659808 0 -0.072363625353247057 -0.27494247310589431 0 -0.067929239438661637 -0.29744245220773302 0 -0.075162920182542767 -0.28731555611229459 0 -0.072363625353247057 -0.27494247310589431 0 -0.075988861669628593 -0.29203098004520328 0 -0.075162920182542767 -0.28731555611229459 0 -0.080022347365398816 -0.29529908350135742 0 -0.067929239438661637 -0.29744245220773302 0 -0.075988861669628593 -0.29203098004520328 0 -0.075162920182542767 -0.28731555611229459 0 -0.067929239438661637 -0.29744245220773302 0 -0.074800211398343183 -0.29676828128919502 0 -0.075988861669628593 -0.29203098004520328 0 -0.067929239438661637 -0.29744245220773302 0 -0.063481929201992804 -0.28659419931659808 0 -0.057157199652218327 -0.29433345841048941 0 -0.1004001483689636 -0.29246989923861699 0 -0.079212385277153408 -0.27922407156230239 0 -0.10013860532164209 -0.29834661679915908 0 -0.080022347365398816 -0.29529908350135742 0 -0.075162920182542767 -0.28731555611229459 0 -0.080022347365398816 -0.29529908350135742 0 -0.079212385277153408 -0.27922407156230239 0 -0.1004001483689636 -0.29246989923861699 0 -0.080022347365398816 -0.29529908350135742 0 -0.079212385277153408 -0.27922407156230239 0 -0.1004001483689636 -0.29246989923861699 0 -0.10013860532164209 -0.29834661679915908 0 -0.080022347365398816 -0.29529908350135742 0 -0.080022347365398816 -0.29529908350135742 0 -0.079212385277153408 -0.27922407156230239 0 -0.1004001483689636 -0.29246989923861699 0 -0.089806853404465051 -0.2713401455271785 0 -0.079212385277153408 -0.27922407156230239 0 -0.089806853404465051 -0.2713401455271785 0 -0.084998741484643592 -0.26205999054747281 0 -0.092490388530258719 -0.26367462890309928 0 -0.089806853404465051 -0.2713401455271785 0 -0.078429256909339093 -0.26368161834739218 0 -0.084998741484643592 -0.26205999054747281 0 -0.079212385277153408 -0.27922407156230239 0 -0.078429256909339093 -0.26368161834739218 0 -0.089806853404465051 -0.2713401455271785 0 -0.079212385277153408 -0.27922407156230239 0 -0.078429256909339093 -0.26368161834739218 0 -0.075162920182542767 -0.28731555611229459 0 -0.079212385277153408 -0.27922407156230239 0 -0.072363625353247057 -0.27494247310589431 0 -0.072363625353247057 -0.27494247310589431 0 -0.052651973256824323 -0.26261945695013877 0 -0.072363625353247057 -0.27494247310589431 0 -0.065594040539757301 -0.27326720108960889 0 -0.052651973256824323 -0.26261945695013877 0 -0.079212385277153408 -0.27922407156230239 0 -0.072363625353247057 -0.27494247310589431 0 -0.072363625353247057 -0.27494247310589431 0 -0.065594040539757301 -0.27326720108960889 0 -0.061663959528748452 -0.27997783588547598 0 -0.063481929201992804 -0.28659419931659808 0 -0.072363625353247057 -0.27494247310589431 0 -0.061663959528748452 -0.27997783588547598 0 -0.079212385277153408 -0.27922407156230239 0 -0.072363625353247057 -0.27494247310589431 0 -0.078429256909339093 -0.26368161834739218 0 -0.072363625353247057 -0.27494247310589431 0 -0.077646128541525 -0.24813916513248199 0 -0.072363625353247057 -0.27494247310589431 0 -0.078429256909339093 -0.26368161834739218 0 -0.077646128541525 -0.24813916513248199 0 -0.072363625353247057 -0.27494247310589431 0 -0.052651973256824323 -0.26261945695013877 0 -0.077646128541525 -0.24813916513248199 0 -0.078429256909339093 -0.26368161834739218 0 -0.077646128541525 -0.24813916513248199 0 -0.084998741484643592 -0.26205999054747281 0 -0.088104632666654803 -0.24175912157342011 0 -0.084998741484643592 -0.26205999054747281 0 -0.093680051977193257 -0.25300014610948141 0 -0.088104632666654803 -0.24175912157342011 0 -0.084998741484643592 -0.26205999054747281 0 -0.088104632666654803 -0.24175912157342011 0 -0.077646128541525 -0.24813916513248199 0 -0.078429256909339093 -0.26368161834739218 0 -0.084998741484643592 -0.26205999054747281 0 -0.077646128541525 -0.24813916513248199 0 -0.084998741484643592 -0.26205999054747281 0 -0.092490388530258719 -0.26367462890309928 0 -0.093680051977193257 -0.25300014610948141 0 -0.032940321160402269 -0.25029644079438251 0 -0.052651973256824323 -0.26261945695013877 0 -0.050902643065861071 -0.24349095896983161 0 -0.032940321160402269 -0.25029644079438251 0 -0.052651973256824323 -0.26261945695013877 0 -0.030801127425925001 -0.25680016795848581 0 -0.032940321160402269 -0.25029644079438251 0 -0.052651973256824323 -0.26261945695013877 0 -0.052651973256824323 -0.26261945695013877 0 -0.048838748996681343 -0.27669498093657302 0 -0.030801127425925001 -0.25680016795848581 0 -0.032940321160402269 -0.25029644079438251 0 -0.030801127425925001 -0.25680016795848581 0 -0.052651973256824323 -0.26261945695013877 0 -0.050902643065861071 -0.24349095896983161 0 -0.077646128541525 -0.24813916513248199 0 -0.065594040539757301 -0.27326720108960889 0 -0.048838748996681343 -0.27669498093657302 0 -0.065594040539757301 -0.27326720108960889 0 -0.052651973256824323 -0.26261945695013877 0 -0.048838748996681343 -0.27669498093657302 0 -0.065594040539757301 -0.27326720108960889 0 -0.061663959528748452 -0.27997783588547598 0 -0.048838748996681343 -0.27669498093657302 0 -0.061663959528748452 -0.27997783588547598 0 -0.048838748996681343 -0.27669498093657302 0 -0.054451087829631463 -0.28288517796522222 0 -0.048838748996681343 -0.27669498093657302 0 -0.054451087829631463 -0.28288517796522222 0 -0.048838748996681343 -0.27669498093657302 0 -0.030801127425925001 -0.25680016795848581 0 -0.048838748996681343 -0.27669498093657302 0 -0.02248395618448398 -0.28208661661419232 0 -0.030801127425925001 -0.25680016795848581 0 -0.048838748996681343 -0.27669498093657302 0 -0.02248395618448398 -0.28208661661419232 0 -0.048838748996681343 -0.27669498093657302 0 -0.041077846387481028 -0.28937070966441081 0 -0.02248395618448398 -0.28208661661419232 0 -0.041077846387481028 -0.28937070966441081 0 -0.037109865356421391 -0.29952186761000271 0 -0.029468436869721851 -0.29252598106650862 0 -0.041077846387481028 -0.28937070966441081 0 -0.04975385330497957 -0.2890306135367654 0 -0.047244383658885593 -0.30186874070713182 0 -0.048838748996681343 -0.27669498093657302 0 -0.041077846387481028 -0.28937070966441081 0 -0.04975385330497957 -0.2890306135367654 0 -0.048838748996681343 -0.27669498093657302 0 -0.04975385330497957 -0.2890306135367654 0 -0.054451087829631463 -0.28288517796522222 0 -0.04975385330497957 -0.2890306135367654 0 -0.054451087829631463 -0.28288517796522222 0 -0.057157199652218327 -0.29433345841048941 0 -0.063481929201992804 -0.28659419931659808 0 -0.054451087829631463 -0.28288517796522222 0 -0.057157199652218327 -0.29433345841048941 0 -0.063481929201992804 -0.28659419931659808 0 -0.061663959528748452 -0.27997783588547598 0 -0.054451087829631463 -0.28288517796522222 0 -0.04975385330497957 -0.2890306135367654 0 -0.057157199652218327 -0.29433345841048941 0 -0.047244383658885593 -0.30186874070713182 0 -0.057157199652218327 -0.29433345841048941 0 -0.047244383658885593 -0.30186874070713182 0 -0.05709164511789562 -0.30596989755068921 0 -0.067929239438661637 -0.29744245220773302 0 -0.057157199652218327 -0.29433345841048941 0 -0.05709164511789562 -0.30596989755068921 0 -0.047244383658885593 -0.30186874070713182 0 -0.05709164511789562 -0.30596989755068921 0 -0.049632549315637188 -0.31626240511852 0 -0.047244383658885593 -0.30186874070713182 0 -0.049632549315637188 -0.31626240511852 0 -0.036505516356473318 -0.31400569198040618 0 -0.047244383658885593 -0.30186874070713182 0 -0.037109865356421391 -0.29952186761000271 0 -0.036505516356473318 -0.31400569198040618 0 -0.041077846387481028 -0.28937070966441081 0 -0.047244383658885593 -0.30186874070713182 0 -0.037109865356421391 -0.29952186761000271 0 -0.037109865356421391 -0.29952186761000271 0 -0.02678144107749017 -0.30078470409936309 0 -0.036505516356473318 -0.31400569198040618 0 -0.02678144107749017 -0.30078470409936309 0 -0.021312585502779081 -0.32213078764647213 0 -0.02678144107749017 -0.30078470409936309 0 -0.036505516356473318 -0.31400569198040618 0 -0.021312585502779081 -0.32213078764647213 0 -0.02678144107749017 -0.30078470409936309 0 -0.01630762940426286 -0.3038502133106713 0 -0.021312585502779081 -0.32213078764647213 0 -0.037109865356421391 -0.29952186761000271 0 -0.02678144107749017 -0.30078470409936309 0 -0.029468436869721851 -0.29252598106650862 0 -0.02678144107749017 -0.30078470409936309 0 -0.01630762940426286 -0.3038502133106713 0 -0.01957434403417008 -0.29093262400193609 0 -0.0063780240591087903 -0.31078717533589839 0 -0.0074917523477661804 -0.29461577546968681 0 0.013051880611257029 -0.30817184754300292 0 -0.01630762940426286 -0.3038502133106713 0 -0.0063780240591087903 -0.31078717533589839 0 -0.021312585502779081 -0.32213078764647213 0 -0.01630762940426286 -0.3038502133106713 0 -0.0063780240591087903 -0.31078717533589839 0 -0.0074917523477661804 -0.29461577546968681 0 -0.02248395618448398 -0.28208661661419232 0 0.0027723556212477219 -0.28725352620772771 0 -0.01075429771457371 -0.28163518560512563 0 -0.02248395618448398 -0.28208661661419232 0 0.0027723556212477219 -0.28725352620772771 0 -0.0074917523477661804 -0.29461577546968681 0 -0.02248395618448398 -0.28208661661419232 0 0.0027723556212477219 -0.28725352620772771 0 -0.01630762940426286 -0.3038502133106713 0 -0.0074917523477661804 -0.29461577546968681 0 -0.01957434403417008 -0.29093262400193609 0 -0.01075429771457371 -0.28163518560512563 0 -0.0017476628817073611 -0.27805551369469472 0 0.0027723556212477219 -0.28725352620772771 0 -0.041077846387481028 -0.28937070966441081 0 -0.02248395618448398 -0.28208661661419232 0 -0.029468436869721851 -0.29252598106650862 0 -0.02248395618448398 -0.28208661661419232 0 -0.01957434403417008 -0.29093262400193609 0 -0.0074917523477661804 -0.29461577546968681 0 -0.02248395618448398 -0.28208661661419232 0 -0.01957434403417008 -0.29093262400193609 0 -0.02678144107749017 -0.30078470409936309 0 -0.01957434403417008 -0.29093262400193609 0 -0.029468436869721851 -0.29252598106650862 0 -0.02248395618448398 -0.28208661661419232 0 -0.01957434403417008 -0.29093262400193609 0 -0.029468436869721851 -0.29252598106650862 0 -0.02248395618448398 -0.28208661661419232 0 -0.030801127425925001 -0.25680016795848581 0 -0.02248395618448398 -0.28208661661419232 0 -0.01520552987642871 -0.27187005660595642 0 -0.030801127425925001 -0.25680016795848581 0 -0.01075429771457371 -0.28163518560512563 0 -0.02248395618448398 -0.28208661661419232 0 -0.01520552987642871 -0.27187005660595642 0 -0.0017476628817073611 -0.27805551369469472 0 -0.01024060517545407 -0.26077279915728391 0 0.0057386521092319797 -0.26220041049146298 0 -0.0017476628817073611 -0.27805551369469472 0 -0.01520552987642871 -0.27187005660595642 0 -0.01024060517545407 -0.26077279915728391 0 -0.0017476628817073611 -0.27805551369469472 0 -0.01024060517545407 -0.26077279915728391 0 -0.01075429771457371 -0.28163518560512563 0 -0.0017476628817073611 -0.27805551369469472 0 -0.01520552987642871 -0.27187005660595642 0 -0.01075429771457371 -0.28163518560512563 0 -0.0017476628817073611 -0.27805551369469472 0 -0.01024060517545407 -0.26077279915728391 0 0.0057386521092319797 -0.26220041049146298 0 0.0025328853753160741 -0.24958102673793139 0 -0.01024060517545407 -0.26077279915728391 0 -0.018733547469201091 -0.24349008461987329 0 -0.01024060517545407 -0.26077279915728391 0 -0.018733547469201091 -0.24349008461987329 0 0.0025328853753160741 -0.24958102673793139 0 -0.01024060517545407 -0.26077279915728391 0 -0.030801127425925001 -0.25680016795848581 0 -0.018733547469201091 -0.24349008461987329 0 -0.01520552987642871 -0.27187005660595642 0 -0.01024060517545407 -0.26077279915728391 0 -0.030801127425925001 -0.25680016795848581 0 -0.032940321160402269 -0.25029644079438251 0 -0.030801127425925001 -0.25680016795848581 0 -0.026871719323301121 -0.24650256912316601 0 -0.030801127425925001 -0.25680016795848581 0 -0.018733547469201091 -0.24349008461987329 0 -0.034078071302702163 -0.36149906291939787 0 -0.05778126825204781 -0.35817517109810632 0 -0.044598414929564491 -0.33459332569111688 0 -0.034078071302702163 -0.36149906291939787 0 -0.044598414929564491 -0.33459332569111688 0 -0.02963630761074966 -0.34409655343526241 0 -0.034078071302702163 -0.36149906291939787 0 -0.05778126825204781 -0.35817517109810632 0 -0.034078071302702163 -0.36149906291939787 0 -0.031733352269984409 -0.37630872523495079 0 -0.04671422923235316 -0.37926911911211442 0 -0.034078071302702163 -0.36149906291939787 0 -0.05778126825204781 -0.35817517109810632 0 -0.04671422923235316 -0.37926911911211442 0 -0.066117606829746781 -0.37437488941039382 0 -0.05778126825204781 -0.35817517109810632 0 -0.04671422923235316 -0.37926911911211442 0 -0.062587044379988993 -0.33886333000968721 0 -0.05778126825204781 -0.35817517109810632 0 -0.044598414929564491 -0.33459332569111688 0 -0.06349485352407537 -0.31994243130957151 0 -0.062587044379988993 -0.33886333000968721 0 -0.044598414929564491 -0.33459332569111688 0 -0.06349485352407537 -0.31994243130957151 0 -0.049632549315637188 -0.31626240511852 0 -0.044598414929564491 -0.33459332569111688 0 -0.06349485352407537 -0.31994243130957151 0 -0.05709164511789562 -0.30596989755068921 0 -0.049632549315637188 -0.31626240511852 0 -0.049632549315637188 -0.31626240511852 0 -0.036505516356473318 -0.31400569198040618 0 -0.044598414929564491 -0.33459332569111688 0 -0.036505516356473318 -0.31400569198040618 0 -0.044598414929564491 -0.33459332569111688 0 -0.021312585502779081 -0.32213078764647213 0 -0.044598414929564491 -0.33459332569111688 0 -0.021312585502779081 -0.32213078764647213 0 -0.02963630761074966 -0.34409655343526241 0 -0.015843729928067991 -0.34347687119358122 0 -0.021312585502779081 -0.32213078764647213 0 -0.02963630761074966 -0.34409655343526241 0 -0.015843729928067991 -0.34347687119358122 0 -0.021312585502779081 -0.32213078764647213 0 -0.0063780240591087903 -0.31078717533589839 0 -0.021312585502779081 -0.32213078764647213 0 3.5896068887442723e-05 -0.32803491845883598 0 -0.015843729928067991 -0.34347687119358122 0 -0.00014080085946228561 -0.35082738964002957 0 3.5896068887442723e-05 -0.32803491845883598 0 -0.015843729928067991 -0.34347687119358122 0 -0.021312585502779081 -0.32213078764647213 0 3.5896068887442723e-05 -0.32803491845883598 0 -0.015843729928067991 -0.34347687119358122 0 -0.00014080085946228561 -0.35082738964002957 0 -0.01037487435335663 -0.3648229547406901 0 -0.015843729928067991 -0.34347687119358122 0 -0.01037487435335663 -0.3648229547406901 0 -0.015843729928067991 -0.34347687119358122 0 -0.02275820373048933 -0.35362182208710219 0 -0.02963630761074966 -0.34409655343526241 0 -0.015843729928067991 -0.34347687119358122 0 -0.02275820373048933 -0.35362182208710219 0 -0.01037487435335663 -0.3648229547406901 0 -0.034078071302702163 -0.36149906291939787 0 -0.02275820373048933 -0.35362182208710219 0 -0.02963630761074966 -0.34409655343526241 0 -0.034078071302702163 -0.36149906291939787 0 -0.02215424893162643 -0.37111505202744122 0 -0.01037487435335663 -0.3648229547406901 0 -0.034078071302702163 -0.36149906291939787 0 -0.01037487435335663 -0.3648229547406901 0 -0.034078071302702163 -0.36149906291939787 0 -0.02275820373048933 -0.35362182208710219 0 -0.01037487435335663 -0.3648229547406901 0 -0.034078071302702163 -0.36149906291939787 0 -0.02215424893162643 -0.37111505202744122 0 -0.031733352269984409 -0.37630872523495079 0 -0.02215424893162643 -0.37111505202744122 0 -0.016772253886492949 -0.37410089839641808 0 -0.01404568160319189 -0.3712617873641948 0 -0.01404568160319189 -0.3712617873641948 0 -0.0094265442937821464 -0.37378457166277412 0 -0.01319259440905524 -0.37623554315916408 0 -0.0078283346885702904 -0.37476262999778609 0 -0.0094265442937821464 -0.37378457166277412 0 -0.01037487435335663 -0.3648229547406901 0 -0.02215424893162643 -0.37111505202744122 0 -0.01404568160319189 -0.3712617873641948 0 -0.01037487435335663 -0.3648229547406901 0 -0.01037487435335663 -0.3648229547406901 0 0.0058490520874761691 -0.36709803082098191 0 -0.016772253886492949 -0.37410089839641808 0 -0.01404568160319189 -0.3712617873641948 0 -0.01319259440905524 -0.37623554315916408 0 -0.00014080085946228561 -0.35082738964002957 0 -0.01037487435335663 -0.3648229547406901 0 0.0058490520874761691 -0.36709803082098191 0 -0.0078283346885702904 -0.37476262999778609 0 -0.01037487435335663 -0.3648229547406901 0 0.0058490520874761691 -0.36709803082098191 0 -0.0078283346885702904 -0.37476262999778609 0 -0.01037487435335663 -0.3648229547406901 0 -0.01404568160319189 -0.3712617873641948 0 -0.0094265442937821464 -0.37378457166277412 0 -0.01037487435335663 -0.3648229547406901 0 -0.0078283346885702904 -0.37476262999778609 0 -0.0094265442937821464 -0.37378457166277412 0 -0.0078283346885702904 -0.37476262999778609 0 -0.0023576536845698339 -0.39611583857600319 0 -0.0078283346885702904 -0.37476262999778609 0 -0.011142097151610131 -0.38172381805447092 0 -0.0023576536845698339 -0.39611583857600319 0 -0.011142097151610131 -0.38172381805447092 0 -0.0023576536845698339 -0.39611583857600319 0 -0.01587325479487519 -0.38723674351337972 0 -0.011142097151610131 -0.38172381805447092 0 -0.01610234460482865 -0.37998891207167063 0 -0.01587325479487519 -0.38723674351337972 0 -0.01319259440905524 -0.37623554315916408 0 -0.011142097151610131 -0.38172381805447092 0 -0.01610234460482865 -0.37998891207167063 0 -0.016772253886492949 -0.37410089839641808 0 -0.01319259440905524 -0.37623554315916408 0 -0.01610234460482865 -0.37998891207167063 0 -0.01319259440905524 -0.37623554315916408 0 -0.010397392635754449 -0.37662664071854879 0 -0.011142097151610131 -0.38172381805447092 0 -0.0078283346885702904 -0.37476262999778609 0 -0.010397392635754449 -0.37662664071854879 0 -0.011142097151610131 -0.38172381805447092 0 -0.0094265442937821464 -0.37378457166277412 0 -0.01319259440905524 -0.37623554315916408 0 -0.010397392635754449 -0.37662664071854879 0 -0.0078283346885702904 -0.37476262999778609 0 -0.0094265442937821464 -0.37378457166277412 0 -0.010397392635754449 -0.37662664071854879 0 -0.0023576536845698339 -0.39611583857600319 0 -0.016854849126784088 -0.39742738565483049 0 -0.01587325479487519 -0.38723674351337972 0 -0.0023576536845698339 -0.39611583857600319 0 -0.016854849126784088 -0.39742738565483049 0 -0.0081630895937607941 -0.41129335178386173 0 -0.016854849126784088 -0.39742738565483049 0 -0.023392714889338931 -0.39064901327928331 0 -0.029305467632274609 -0.40049385546170407 0 -0.016854849126784088 -0.39742738565483049 0 -0.023392714889338931 -0.39064901327928331 0 -0.01587325479487519 -0.38723674351337972 0 -0.023392714889338931 -0.39064901327928331 0 -0.029305467632274609 -0.40049385546170407 0 -0.032188689101130562 -0.38901283488088068 0 -0.02215424893162643 -0.37111505202744122 0 -0.016772253886492949 -0.37410089839641808 0 -0.02353152278210973 -0.38064755723492022 0 -0.016772253886492949 -0.37410089839641808 0 -0.01610234460482865 -0.37998891207167063 0 -0.02353152278210973 -0.38064755723492022 0 -0.01610234460482865 -0.37998891207167063 0 -0.01587325479487519 -0.38723674351337972 0 -0.02353152278210973 -0.38064755723492022 0 -0.023392714889338931 -0.39064901327928331 0 -0.01587325479487519 -0.38723674351337972 0 -0.02353152278210973 -0.38064755723492022 0 -0.023392714889338931 -0.39064901327928331 0 -0.02353152278210973 -0.38064755723492022 0 -0.032188689101130562 -0.38901283488088068 0 -0.02353152278210973 -0.38064755723492022 0 -0.031733352269984409 -0.37630872523495079 0 -0.032188689101130562 -0.38901283488088068 0 -0.02215424893162643 -0.37111505202744122 0 -0.02353152278210973 -0.38064755723492022 0 -0.031733352269984409 -0.37630872523495079 0 -0.031733352269984409 -0.37630872523495079 0 -0.04671422923235316 -0.37926911911211442 0 -0.032188689101130562 -0.38901283488088068 0 -0.04671422923235316 -0.37926911911211442 0 -0.032188689101130562 -0.38901283488088068 0 -0.044289202763444772 -0.39135289085216762 0 -0.032188689101130562 -0.38901283488088068 0 -0.041257957344308177 -0.40487627914437913 0 -0.044289202763444772 -0.39135289085216762 0 -0.029305467632274609 -0.40049385546170407 0 -0.032188689101130562 -0.38901283488088068 0 -0.041257957344308177 -0.40487627914437913 0 -0.056230819367541693 -0.39440183914975269 0 -0.051493530029743613 -0.41277891791385168 0 -0.065747409502729032 -0.40953455918739179 0 -0.041257957344308177 -0.40487627914437913 0 -0.056230819367541693 -0.39440183914975269 0 -0.051493530029743613 -0.41277891791385168 0 -0.041257957344308177 -0.40487627914437913 0 -0.044289202763444772 -0.39135289085216762 0 -0.056230819367541693 -0.39440183914975269 0 -0.056230819367541693 -0.39440183914975269 0 -0.065747409502729032 -0.40953455918739179 0 -0.066117606829746781 -0.37437488941039382 0 -0.04671422923235316 -0.37926911911211442 0 -0.056230819367541693 -0.39440183914975269 0 -0.04671422923235316 -0.37926911911211442 0 -0.044289202763444772 -0.39135289085216762 0 -0.056230819367541693 -0.39440183914975269 0 -0.04671422923235316 -0.37926911911211442 0 -0.056230819367541693 -0.39440183914975269 0 -0.057674512383022389 -0.42734400629007657 0 -0.049601615263317987 -0.44515345339276252 0 -0.057674512383022389 -0.42734400629007657 0 -0.051493530029743613 -0.41277891791385168 0 -0.065747409502729032 -0.40953455918739179 0 -0.057674512383022389 -0.42734400629007657 0 -0.065747409502729032 -0.40953455918739179 0 -0.057674512383022389 -0.42734400629007657 0 -0.051493530029743613 -0.41277891791385168 0 -0.03322823219505102 -0.42129041952379648 0 -0.029305467632274609 -0.40049385546170407 0 -0.041257957344308177 -0.40487627914437913 0 -0.03322823219505102 -0.42129041952379648 0 -0.041257957344308177 -0.40487627914437913 0 -0.051493530029743613 -0.41277891791385168 0 -0.03322823219505102 -0.42129041952379648 0 -0.03322823219505102 -0.42129041952379648 0 -0.02439234541253921 -0.43490569650885758 0 -0.049601615263317987 -0.44515345339276252 0 -0.03322823219505102 -0.42129041952379648 0 -0.049601615263317987 -0.44515345339276252 0 -0.057674512383022389 -0.42734400629007657 0 -0.03322823219505102 -0.42129041952379648 0 -0.049601615263317987 -0.44515345339276252 0 -0.03322823219505102 -0.42129041952379648 0 -0.02439234541253921 -0.43490569650885758 0 -0.010818991714530671 -0.42579448288144173 0 -0.016854849126784088 -0.39742738565483049 0 -0.03322823219505102 -0.42129041952379648 0 -0.03322823219505102 -0.42129041952379648 0 -0.0081630895937607941 -0.41129335178386173 0 -0.010818991714530671 -0.42579448288144173 0 -0.016854849126784088 -0.39742738565483049 0 -0.029305467632274609 -0.40049385546170407 0 -0.03322823219505102 -0.42129041952379648 0 -0.016854849126784088 -0.39742738565483049 0 -0.03322823219505102 -0.42129041952379648 0 -0.0081630895937607941 -0.41129335178386173 0 -0.0081630895937607941 -0.41129335178386173 0 -0.010818991714530671 -0.42579448288144173 0 0.0026957591361241309 -0.41958824334712869 0 -0.02439234541253921 -0.43490569650885758 0 -0.010818991714530671 -0.42579448288144173 0 -0.01027783979290609 -0.4450418277695869 0 -0.010818991714530671 -0.42579448288144173 0 -0.01027783979290609 -0.4450418277695869 0 0.003851027954898749 -0.43172418954792041 0 -0.010818991714530671 -0.42579448288144173 0 0.0026957591361241309 -0.41958824334712869 0 0.003851027954898749 -0.43172418954792041 0 -0.01027783979290609 -0.4450418277695869 0 -0.011038280792740629 -0.46258843223684681 0 0.0031349746952128348 -0.45732154608844711 0 -0.01027783979290609 -0.4450418277695869 0 -0.011038280792740629 -0.46258843223684681 0 -0.02289260566061898 -0.45897742689034388 0 -0.011038280792740629 -0.46258843223684681 0 -0.00094907817261298132 -0.47112804672216879 0 0.0031349746952128348 -0.45732154608844711 0 -0.02289260566061898 -0.45897742689034388 0 -0.029356635895327849 -0.44930438287917762 0 -0.040413005672661102 -0.46542425011239508 0 -0.02289260566061898 -0.45897742689034388 0 -0.023377266149459251 -0.47252824145371342 0 -0.040413005672661102 -0.46542425011239508 0 -0.011038280792740629 -0.46258843223684681 0 -0.02289260566061898 -0.45897742689034388 0 -0.023377266149459251 -0.47252824145371342 0 -0.02439234541253921 -0.43490569650885758 0 -0.01027783979290609 -0.4450418277695869 0 -0.029356635895327849 -0.44930438287917762 0 -0.01027783979290609 -0.4450418277695869 0 -0.02289260566061898 -0.45897742689034388 0 -0.029356635895327849 -0.44930438287917762 0 -0.0023310323066341181 -0.5 0 -0.0043793089323552817 -0.49170101865338262 0 -0.02815109917196898 -0.49861636840837392 0 -0.0043793089323552817 -0.49170101865338262 0 -0.0043176495648967151 -0.48070428616945038 0 0.0053352152350804568 -0.4807791696356124 0 -0.0043793089323552817 -0.49170101865338262 0 -0.0106231170010091 -0.48419136288379427 0 -0.0043176495648967151 -0.48070428616945038 0 -0.0043793089323552817 -0.49170101865338262 0 -0.0106231170010091 -0.48419136288379427 0 -0.017950876149337221 -0.4893641285520216 0 -0.0106231170010091 -0.48419136288379427 0 -0.01097195895358667 -0.47572183295229409 0 -0.019957514846631629 -0.48311391022826639 0 -0.0106231170010091 -0.48419136288379427 0 -0.0043176495648967151 -0.48070428616945038 0 -0.01097195895358667 -0.47572183295229409 0 -0.011038280792740629 -0.46258843223684681 0 -0.00094907817261298132 -0.47112804672216879 0 -0.01097195895358667 -0.47572183295229409 0 -0.0043176495648967151 -0.48070428616945038 0 -0.00094907817261298132 -0.47112804672216879 0 -0.01097195895358667 -0.47572183295229409 0 -0.011038280792740629 -0.46258843223684681 0 -0.01097195895358667 -0.47572183295229409 0 -0.023377266149459251 -0.47252824145371342 0 -0.023377266149459251 -0.47252824145371342 0 -0.019957514846631629 -0.48311391022826639 0 -0.031224396082004221 -0.48569504683202769 0 -0.01097195895358667 -0.47572183295229409 0 -0.023377266149459251 -0.47252824145371342 0 -0.019957514846631629 -0.48311391022826639 0 -0.0023310323066341181 -0.5 0 -0.02815109917196898 -0.49861636840837392 0 -0.031360818006208928 -0.5 0 -0.0043793089323552817 -0.49170101865338262 0 -0.017950876149337221 -0.4893641285520216 0 -0.02815109917196898 -0.49861636840837392 0 -0.0043793089323552817 -0.49170101865338262 0 -0.02815109917196898 -0.49861636840837392 0 -0.0106231170010091 -0.48419136288379427 0 -0.019957514846631629 -0.48311391022826639 0 -0.017950876149337221 -0.4893641285520216 0 -0.019957514846631629 -0.48311391022826639 0 -0.017950876149337221 -0.4893641285520216 0 -0.025597474744393309 -0.49118284869574791 0 -0.019957514846631629 -0.48311391022826639 0 -0.031224396082004221 -0.48569504683202769 0 -0.025597474744393309 -0.49118284869574791 0 -0.025597474744393309 -0.49118284869574791 0 -0.02815109917196898 -0.49861636840837392 0 -0.031360818006208928 -0.5 0 -0.031224396082004221 -0.48569504683202769 0 -0.025597474744393309 -0.49118284869574791 0 -0.031360818006208928 -0.5 0 -0.017950876149337221 -0.4893641285520216 0 -0.025597474744393309 -0.49118284869574791 0 -0.02815109917196898 -0.49861636840837392 0 -0.031360818006208928 -0.5 0 -0.048343055904351132 -0.4819359294639956 0 -0.060390603705783863 -0.5 0 -0.031224396082004221 -0.48569504683202769 0 -0.031360818006208928 -0.5 0 -0.048343055904351132 -0.4819359294639956 0 -0.031224396082004221 -0.48569504683202769 0 -0.040413005672661102 -0.46542425011239508 0 -0.031224396082004221 -0.48569504683202769 0 -0.048343055904351132 -0.4819359294639956 0 -0.040413005672661102 -0.46542425011239508 0 -0.023377266149459251 -0.47252824145371342 0 -0.031224396082004221 -0.48569504683202769 0 -0.040413005672661102 -0.46542425011239508 0 -0.048343055904351132 -0.4819359294639956 0 -0.040413005672661102 -0.46542425011239508 0 -0.061868527913120197 -0.46303160055449383 0 -0.048343055904351132 -0.4819359294639956 0 -0.061868527913120197 -0.46303160055449383 0 -0.067715258758524743 -0.48343239441089819 0 -0.048343055904351132 -0.4819359294639956 0 -0.060390603705783863 -0.5 0 -0.067715258758524743 -0.48343239441089819 0 -0.02439234541253921 -0.43490569650885758 0 -0.029356635895327849 -0.44930438287917762 0 -0.049601615263317987 -0.44515345339276252 0 -0.029356635895327849 -0.44930438287917762 0 -0.040413005672661102 -0.46542425011239508 0 -0.049601615263317987 -0.44515345339276252 0 -0.040413005672661102 -0.46542425011239508 0 -0.049601615263317987 -0.44515345339276252 0 -0.040413005672661102 -0.46542425011239508 0 -0.061868527913120197 -0.46303160055449383 0 -0.049601615263317987 -0.44515345339276252 0 -0.061868527913120197 -0.46303160055449383 0 -0.049601615263317987 -0.44515345339276252 0 -0.057674512383022389 -0.42734400629007657 0 -0.049601615263317987 -0.44515345339276252 0 -0.067687044322660692 -0.44438888407200389 0 -0.061868527913120197 -0.46303160055449383 0 -0.049601615263317987 -0.44515345339276252 0 -0.067687044322660692 -0.44438888407200389 0 -0.067687044322660692 -0.44438888407200389 0 -0.087522951364224152 -0.44416074083195012 0 -0.076635180433477057 -0.42684765000967062 0 -0.067687044322660692 -0.44438888407200389 0 -0.078553716864009776 -0.47219444203600192 0 -0.067687044322660692 -0.44438888407200389 0 -0.080483752515153384 -0.45444307226959779 0 -0.078553716864009776 -0.47219444203600192 0 -0.061868527913120197 -0.46303160055449383 0 -0.067687044322660692 -0.44438888407200389 0 -0.078553716864009776 -0.47219444203600192 0 -0.088171297509719124 -0.45702822213843508 0 -0.078553716864009776 -0.47219444203600192 0 -0.094850460920166413 -0.46755552228499719 0 -0.080483752515153384 -0.45444307226959779 0 -0.088171297509719124 -0.45702822213843508 0 -0.078553716864009776 -0.47219444203600192 0 -0.088171297509719124 -0.45702822213843508 0 -0.092026296169145899 -0.451321693988255 0 -0.09646742034415963 -0.45806785732742278 0 -0.088171297509719124 -0.45702822213843508 0 -0.09646742034415963 -0.45806785732742278 0 -0.094850460920166413 -0.46755552228499719 0 -0.067687044322660692 -0.44438888407200389 0 -0.080483752515153384 -0.45444307226959779 0 -0.087522951364224152 -0.44416074083195012 0 -0.088171297509719124 -0.45702822213843508 0 -0.087522951364224152 -0.44416074083195012 0 -0.088171297509719124 -0.45702822213843508 0 -0.092026296169145899 -0.451321693988255 0 -0.087522951364224152 -0.44416074083195012 0 -0.092026296169145899 -0.451321693988255 0 -0.087522951364224152 -0.44416074083195012 0 -0.080483752515153384 -0.45444307226959779 0 -0.088171297509719124 -0.45702822213843508 0 -0.087522951364224152 -0.44416074083195012 0 -0.060390603705783863 -0.5 0 -0.067715258758524743 -0.48343239441089819 0 -0.089420389405358791 -0.49999999999999978 0 -0.061868527913120197 -0.46303160055449383 0 -0.067715258758524743 -0.48343239441089819 0 -0.078553716864009776 -0.47219444203600192 0 -0.078553716864009776 -0.47219444203600192 0 -0.098208235557426499 -0.48290520710575457 0 -0.094850460920166413 -0.46755552228499719 0 -0.067715258758524743 -0.48343239441089819 0 -0.078553716864009776 -0.47219444203600192 0 -0.089420389405358791 -0.49999999999999978 0 -0.078553716864009776 -0.47219444203600192 0 -0.089420389405358791 -0.49999999999999978 0 -0.078553716864009776 -0.47219444203600192 0 -0.089420389405358791 -0.49999999999999978 0 -0.098208235557426499 -0.48290520710575457 0 -0.098208235557426499 -0.48290520710575457 0 -0.1125398430852395 -0.48112820013538338 0 -0.1148616459058424 -0.5 0 -0.089420389405358791 -0.49999999999999978 0 -0.098208235557426499 -0.48290520710575457 0 -0.1148616459058424 -0.5 0 -0.098208235557426499 -0.48290520710575457 0 -0.1051850434628086 -0.47275710198064308 0 -0.1125398430852395 -0.48112820013538338 0 -0.098208235557426499 -0.48290520710575457 0 -0.1051850434628086 -0.47275710198064308 0 -0.094850460920166413 -0.46755552228499719 0 -0.12704973474613379 -0.46277216333596533 0 -0.13010403334985379 -0.48000251283874379 0 -0.1157083509407465 -0.46985326695645979 0 -0.13010403334985379 -0.48000251283874379 0 -0.1157083509407465 -0.46985326695645979 0 -0.1125398430852395 -0.48112820013538338 0 -0.1051850434628086 -0.47275710198064308 0 -0.1157083509407465 -0.46985326695645979 0 -0.1125398430852395 -0.48112820013538338 0 -0.13010403334985379 -0.48000251283874379 0 -0.1125398430852395 -0.48112820013538338 0 -0.1148616459058424 -0.5 0 -0.10267072031130239 -0.4520905348048061 0 -0.102335674083258 -0.43919792399196639 0 -0.11570487117906469 -0.45324354028800051 0 -0.092026296169145899 -0.451321693988255 0 -0.087522951364224152 -0.44416074083195012 0 -0.102335674083258 -0.43919792399196639 0 -0.092026296169145899 -0.451321693988255 0 -0.10267072031130239 -0.4520905348048061 0 -0.102335674083258 -0.43919792399196639 0 -0.10267072031130239 -0.4520905348048061 0 -0.09646742034415963 -0.45806785732742278 0 -0.1046183268104643 -0.46234331342062063 0 -0.092026296169145899 -0.451321693988255 0 -0.10267072031130239 -0.4520905348048061 0 -0.09646742034415963 -0.45806785732742278 0 -0.1051850434628086 -0.47275710198064308 0 -0.094850460920166413 -0.46755552228499719 0 -0.1046183268104643 -0.46234331342062063 0 -0.09646742034415963 -0.45806785732742278 0 -0.094850460920166413 -0.46755552228499719 0 -0.1046183268104643 -0.46234331342062063 0 -0.1051850434628086 -0.47275710198064308 0 -0.1157083509407465 -0.46985326695645979 0 -0.1046183268104643 -0.46234331342062063 0 -0.10267072031130239 -0.4520905348048061 0 -0.1046183268104643 -0.46234331342062063 0 -0.11570487117906469 -0.45324354028800051 0 -0.12704973474613379 -0.46277216333596533 0 -0.1157083509407465 -0.46985326695645979 0 -0.11570487117906469 -0.45324354028800051 0 -0.1157083509407465 -0.46985326695645979 0 -0.1046183268104643 -0.46234331342062063 0 -0.11570487117906469 -0.45324354028800051 0 -0.13093011984253891 -0.44972195681556543 0 -0.12704973474613379 -0.46277216333596533 0 -0.11570487117906469 -0.45324354028800051 0 -0.13093011984253891 -0.44972195681556543 0 -0.11570487117906469 -0.45324354028800051 0 -0.123519809913229 -0.43733662075251151 0 -0.102335674083258 -0.43919792399196639 0 -0.11570487117906469 -0.45324354028800051 0 -0.123519809913229 -0.43733662075251151 0 -0.102335674083258 -0.43919792399196639 0 -0.123519809913229 -0.43733662075251151 0 -0.1073839645685936 -0.41867419567875119 0 -0.12597911368703019 -0.41952469120143437 0 -0.123519809913229 -0.43733662075251151 0 -0.1073839645685936 -0.41867419567875119 0 -0.102335674083258 -0.43919792399196639 0 -0.1073839645685936 -0.41867419567875119 0 -0.086273448473222103 -0.4193623284343494 0 -0.1073839645685936 -0.41867419567875119 0 -0.1004955064841186 -0.39983262220326049 0 -0.086273448473222103 -0.4193623284343494 0 -0.1073839645685936 -0.41867419567875119 0 -0.11827115974421661 -0.40327967795429231 0 -0.1004955064841186 -0.39983262220326049 0 -0.12597911368703019 -0.41952469120143437 0 -0.1073839645685936 -0.41867419567875119 0 -0.11827115974421661 -0.40327967795429231 0 -0.11827115974421661 -0.40327967795429231 0 -0.11220573075163159 -0.38220411347121069 0 -0.1004955064841186 -0.39983262220326049 0 -0.13724659116883831 -0.38156720383825199 0 -0.1192781490478088 -0.36668410834504778 0 -0.11220573075163159 -0.38220411347121069 0 -0.13724659116883831 -0.38156720383825199 0 -0.11827115974421661 -0.40327967795429231 0 -0.11220573075163159 -0.38220411347121069 0 -0.11220573075163159 -0.38220411347121069 0 -0.093814789784828018 -0.38091150164421111 0 -0.1004955064841186 -0.39983262220326049 0 -0.1016352808315869 -0.36700177770792092 0 -0.11220573075163159 -0.38220411347121069 0 -0.093814789784828018 -0.38091150164421111 0 -0.093814789784828018 -0.38091150164421111 0 -0.1004955064841186 -0.39983262220326049 0 -0.085023945582219762 -0.39456391603674879 0 -0.085023945582219762 -0.39456391603674879 0 -0.074760926096971728 -0.38965003141326948 0 -0.077688182017724178 -0.40799169701628579 0 -0.1004955064841186 -0.39983262220326049 0 -0.085023945582219762 -0.39456391603674879 0 -0.086273448473222103 -0.4193623284343494 0 -0.083774442691217046 -0.36976550363914829 0 -0.093814789784828018 -0.38091150164421111 0 -0.085023945582219762 -0.39456391603674879 0 -0.083774442691217046 -0.36976550363914829 0 -0.085023945582219762 -0.39456391603674879 0 -0.074760926096971728 -0.38965003141326948 0 -0.083774442691217046 -0.36976550363914829 0 -0.085023945582219762 -0.39456391603674879 0 -0.083774442691217046 -0.36976550363914829 0 -0.074760926096971728 -0.38965003141326948 0 -0.066117606829746781 -0.37437488941039382 0 -0.083774442691217046 -0.36976550363914829 0 -0.074760926096971728 -0.38965003141326948 0 -0.066117606829746781 -0.37437488941039382 0 -0.056230819367541693 -0.39440183914975269 0 -0.074760926096971728 -0.38965003141326948 0 -0.074760926096971728 -0.38965003141326948 0 -0.065747409502729032 -0.40953455918739179 0 -0.056230819367541693 -0.39440183914975269 0 -0.074760926096971728 -0.38965003141326948 0 -0.065747409502729032 -0.40953455918739179 0 -0.074760926096971728 -0.38965003141326948 0 -0.077688182017724178 -0.40799169701628579 0 -0.065747409502729032 -0.40953455918739179 0 -0.057674512383022389 -0.42734400629007657 0 -0.065747409502729032 -0.40953455918739179 0 -0.076635180433477057 -0.42684765000967062 0 -0.065747409502729032 -0.40953455918739179 0 -0.076635180433477057 -0.42684765000967062 0 -0.077688182017724178 -0.40799169701628579 0 -0.065747409502729032 -0.40953455918739179 0 -0.076635180433477057 -0.42684765000967062 0 -0.057674512383022389 -0.42734400629007657 0 -0.067687044322660692 -0.44438888407200389 0 -0.076635180433477057 -0.42684765000967062 0 -0.087522951364224152 -0.44416074083195012 0 -0.102335674083258 -0.43919792399196639 0 -0.086273448473222103 -0.4193623284343494 0 -0.087522951364224152 -0.44416074083195012 0 -0.076635180433477057 -0.42684765000967062 0 -0.087522951364224152 -0.44416074083195012 0 -0.086273448473222103 -0.4193623284343494 0 -0.087522951364224152 -0.44416074083195012 0 -0.076635180433477057 -0.42684765000967062 0 -0.086273448473222103 -0.4193623284343494 0 -0.077688182017724178 -0.40799169701628579 0 -0.076635180433477057 -0.42684765000967062 0 -0.086273448473222103 -0.4193623284343494 0 -0.085023945582219762 -0.39456391603674879 0 -0.086273448473222103 -0.4193623284343494 0 -0.085023945582219762 -0.39456391603674879 0 -0.077688182017724178 -0.40799169701628579 0 -0.086273448473222103 -0.4193623284343494 0 -0.088492877882569029 -0.082108210476901852 0 -0.076927128592812144 -0.088910799915979499 0 -0.09750588448509391 -0.094492999713411269 0 -0.088492877882569029 -0.082108210476901852 0 -0.079577064860946206 -0.073577453582062496 0 -0.076927128592812144 -0.088910799915979499 0 -0.079577064860946206 -0.073577453582062496 0 -0.0985919344824224 -0.072778756797164931 0 -0.087769009107716192 -0.046193724725750278 0 -0.088492877882569029 -0.082108210476901852 0 -0.079577064860946206 -0.073577453582062496 0 -0.0985919344824224 -0.072778756797164931 0 -0.079577064860946206 -0.073577453582062496 0 -0.068797467898171552 -0.064113028811232264 0 -0.064240921843242857 -0.078969573753286809 0 -0.068797467898171552 -0.064113028811232264 0 -0.064240921843242857 -0.078969573753286809 0 -0.05461803829180413 -0.069755112608578862 0 -0.064240921843242857 -0.078969573753286809 0 -0.065719917437320752 -0.085301382988547655 0 -0.071622236241637716 -0.082994103557465768 0 -0.079577064860946206 -0.073577453582062496 0 -0.064240921843242857 -0.078969573753286809 0 -0.071622236241637716 -0.082994103557465768 0 -0.079577064860946206 -0.073577453582062496 0 -0.071622236241637716 -0.082994103557465768 0 -0.076927128592812144 -0.088910799915979499 0 -0.076927128592812144 -0.088910799915979499 0 -0.070013937980536456 -0.090181036700446429 0 -0.073360588416105155 -0.101926594449817 0 -0.071622236241637716 -0.082994103557465768 0 -0.076927128592812144 -0.088910799915979499 0 -0.070013937980536456 -0.090181036700446429 0 -0.065719917437320752 -0.085301382988547655 0 -0.070013937980536456 -0.090181036700446429 0 -0.057002573683865979 -0.089060817942991616 0 -0.065719917437320752 -0.085301382988547655 0 -0.071622236241637716 -0.082994103557465768 0 -0.070013937980536456 -0.090181036700446429 0 -0.073360588416105155 -0.101926594449817 0 -0.064648045787775776 -0.1114736180136202 0 -0.083029262804162729 -0.11173362360677321 0 -0.076927128592812144 -0.088910799915979499 0 -0.073360588416105155 -0.101926594449817 0 -0.083029262804162729 -0.11173362360677321 0 -0.070013937980536456 -0.090181036700446429 0 -0.064167586873575405 -0.098824988458513688 0 -0.073360588416105155 -0.101926594449817 0 -0.064167586873575405 -0.098824988458513688 0 -0.073360588416105155 -0.101926594449817 0 -0.064648045787775776 -0.1114736180136202 0 -0.064648045787775776 -0.1114736180136202 0 -0.083029262804162729 -0.11173362360677321 0 -0.072915517223638954 -0.12670463451369329 0 -0.064648045787775776 -0.1114736180136202 0 -0.060928146748241367 -0.123537549367131 0 -0.072915517223638954 -0.12670463451369329 0 -0.083029262804162729 -0.11173362360677321 0 -0.089131397015513494 -0.13455644729756691 0 -0.072915517223638954 -0.12670463451369329 0 -0.083029262804162729 -0.11173362360677321 0 -0.089131397015513494 -0.13455644729756691 0 -0.083029262804162729 -0.11173362360677321 0 -0.099989791654964619 -0.11261170107408 0 -0.089131397015513494 -0.13455644729756691 0 -0.076927128592812144 -0.088910799915979499 0 -0.083029262804162729 -0.11173362360677321 0 -0.076927128592812144 -0.088910799915979499 0 -0.083029262804162729 -0.11173362360677321 0 -0.09750588448509391 -0.094492999713411269 0 -0.083029262804162729 -0.11173362360677321 0 -0.09750588448509391 -0.094492999713411269 0 -0.099989791654964619 -0.11261170107408 0 -0.09750588448509391 -0.094492999713411269 0 -0.099989791654964619 -0.11261170107408 0 -0.11605893441195141 -0.10185107539240761 0 -0.099989791654964619 -0.11261170107408 0 -0.11422347955810171 -0.1204243593602408 0 -0.089131397015513494 -0.13455644729756691 0 -0.11422347955810171 -0.1204243593602408 0 -0.11605893441195141 -0.10185107539240761 0 -0.13931556210068971 -0.10629227142291391 0 -0.099989791654964619 -0.11261170107408 0 -0.11422347955810171 -0.1204243593602408 0 -0.11605893441195141 -0.10185107539240761 0 -0.09750588448509391 -0.094492999713411269 0 -0.11605893441195141 -0.10185107539240761 0 -0.121811479392537 -0.084095963505499416 0 -0.09750588448509391 -0.094492999713411269 0 -0.121811479392537 -0.084095963505499416 0 -0.0985919344824224 -0.072778756797164931 0 -0.088492877882569029 -0.082108210476901852 0 -0.09750588448509391 -0.094492999713411269 0 -0.0985919344824224 -0.072778756797164931 0 -0.121811479392537 -0.084095963505499416 0 -0.0985919344824224 -0.072778756797164931 0 -0.12197003300458489 -0.067133964797042034 0 -0.0985919344824224 -0.072778756797164931 0 -0.12197003300458489 -0.067133964797042034 0 -0.11173313641422659 -0.051099137712197359 0 -0.12197003300458489 -0.067133964797042034 0 -0.11173313641422659 -0.051099137712197359 0 -0.13241258759658719 -0.044529255409706578 0 -0.11719553878173181 -0.037741673539740471 0 -0.12411398995058071 -0.026208981462584841 0 -0.13241258759658719 -0.044529255409706578 0 -0.11173313641422659 -0.051099137712197359 0 -0.11719553878173181 -0.037741673539740471 0 -0.13241258759658719 -0.044529255409706578 0 -0.11719553878173181 -0.037741673539740471 0 -0.1033935341420949 -0.036608907929656417 0 -0.1118019010511415 -0.027957019938586129 0 -0.11173313641422659 -0.051099137712197359 0 -0.11719553878173181 -0.037741673539740471 0 -0.1033935341420949 -0.036608907929656417 0 -0.11173313641422659 -0.051099137712197359 0 -0.1033935341420949 -0.036608907929656417 0 -0.087769009107716192 -0.046193724725750278 0 -0.1033935341420949 -0.036608907929656417 0 -0.091700817231413184 -0.028161456197506499 0 -0.087769009107716192 -0.046193724725750278 0 -0.0985919344824224 -0.072778756797164931 0 -0.11173313641422659 -0.051099137712197359 0 -0.087769009107716192 -0.046193724725750278 0 -0.1152652699767374 -0.0044733142422073097 0 -0.1278640484455188 -0.012334690821253821 0 -0.1273771369441013 0.0023450629401116992 0 -0.1152652699767374 -0.0044733142422073097 0 -0.11303603589243651 -0.016818202060669259 0 -0.1278640484455188 -0.012334690821253821 0 -0.1152652699767374 -0.0044733142422073097 0 -0.11303603589243651 -0.016818202060669259 0 -0.1012139958851531 -0.0082010901258140791 0 -0.11303603589243651 -0.016818202060669259 0 -0.12411398995058071 -0.026208981462584841 0 -0.1278640484455188 -0.012334690821253821 0 -0.11719553878173181 -0.037741673539740471 0 -0.12411398995058071 -0.026208981462584841 0 -0.1118019010511415 -0.027957019938586129 0 -0.11303603589243651 -0.016818202060669259 0 -0.12411398995058071 -0.026208981462584841 0 -0.1118019010511415 -0.027957019938586129 0 -0.1033935341420949 -0.036608907929656417 0 -0.1118019010511415 -0.027957019938586129 0 -0.10074487633177411 -0.021927112774035699 0 -0.1033935341420949 -0.036608907929656417 0 -0.10074487633177411 -0.021927112774035699 0 -0.091700817231413184 -0.028161456197506499 0 -0.10074487633177411 -0.021927112774035699 0 -0.089359217900845153 -0.01537750648633354 0 -0.091700817231413184 -0.028161456197506499 0 -0.11303603589243651 -0.016818202060669259 0 -0.10074487633177411 -0.021927112774035699 0 -0.1012139958851531 -0.0082010901258140791 0 -0.11303603589243651 -0.016818202060669259 0 -0.1118019010511415 -0.027957019938586129 0 -0.10074487633177411 -0.021927112774035699 0 -0.10074487633177411 -0.021927112774035699 0 -0.1012139958851531 -0.0082010901258140791 0 -0.089359217900845153 -0.01537750648633354 0 -0.1012139958851531 -0.0082010901258140791 0 -0.089124004628701792 -0.0040277377021705899 0 -0.097507665945787692 0.0040820149966005574 0 -0.1012139958851531 -0.0082010901258140791 0 -0.097507665945787692 0.0040820149966005574 0 -0.1058521268010089 0.00073384547527136773 0 -0.1152652699767374 -0.0044733142422073097 0 -0.1012139958851531 -0.0082010901258140791 0 -0.1058521268010089 0.00073384547527136773 0 -0.079764572027605563 -0.001208843295517239 0 -0.089124004628701792 -0.0040277377021705899 0 -0.080379206648835008 -0.009775819102595687 0 -0.089124004628701792 -0.0040277377021705899 0 -0.089359217900845153 -0.01537750648633354 0 -0.080379206648835008 -0.009775819102595687 0 -0.1012139958851531 -0.0082010901258140791 0 -0.089124004628701792 -0.0040277377021705899 0 -0.089359217900845153 -0.01537750648633354 0 -0.089359217900845153 -0.01537750648633354 0 -0.080379206648835008 -0.009775819102595687 0 -0.076946083733010012 -0.019608692654335649 0 -0.089359217900845153 -0.01537750648633354 0 -0.091700817231413184 -0.028161456197506499 0 -0.076946083733010012 -0.019608692654335649 0 -0.066439508831189667 -0.02875513821822643 0 -0.076946083733010012 -0.019608692654335649 0 -0.073396792324475907 -0.036549185213838799 0 -0.066439508831189667 -0.02875513821822643 0 -0.068530762808199294 -0.019938962024248611 0 -0.056338296441182101 -0.027044179732367449 0 -0.066439508831189667 -0.02875513821822643 0 -0.068530762808199294 -0.019938962024248611 0 -0.076946083733010012 -0.019608692654335649 0 -0.080379206648835008 -0.009775819102595687 0 -0.076946083733010012 -0.019608692654335649 0 -0.066123158358303874 0.0069763394170788487 0 -0.079764572027605563 -0.001208843295517239 0 -0.080379206648835008 -0.009775819102595687 0 -0.066123158358303874 0.0069763394170788487 0 -0.076946083733010012 -0.019608692654335649 0 -0.059664616745900671 -0.0040500510012267867 0 -0.066123158358303874 0.0069763394170788487 0 -0.068530762808199294 -0.019938962024248611 0 -0.059664616745900671 -0.0040500510012267867 0 -0.068530762808199294 -0.019938962024248611 0 -0.076946083733010012 -0.019608692654335649 0 -0.059664616745900671 -0.0040500510012267867 0 -0.076946083733010012 -0.019608692654335649 0 -0.066123158358303874 0.0069763394170788487 0 -0.079577064860946206 -0.073577453582062496 0 -0.068797467898171552 -0.064113028811232264 0 -0.087769009107716192 -0.046193724725750278 0 -0.0985919344824224 -0.072778756797164931 0 -0.087769009107716192 -0.046193724725750278 0 -0.076946083733010012 -0.019608692654335649 0 -0.087769009107716192 -0.046193724725750278 0 -0.073396792324475907 -0.036549185213838799 0 -0.091700817231413184 -0.028161456197506499 0 -0.076946083733010012 -0.019608692654335649 0 -0.087769009107716192 -0.046193724725750278 0 -0.076946083733010012 -0.019608692654335649 0 -0.087769009107716192 -0.046193724725750278 0 -0.073396792324475907 -0.036549185213838799 0 -0.062271996897588083 -0.052791321925605532 0 -0.056985608849081007 -0.04063467146634165 0 -0.087769009107716192 -0.046193724725750278 0 -0.073396792324475907 -0.036549185213838799 0 -0.062271996897588083 -0.052791321925605532 0 -0.066439508831189667 -0.02875513821822643 0 -0.073396792324475907 -0.036549185213838799 0 -0.056985608849081007 -0.04063467146634165 0 -0.068797467898171552 -0.064113028811232264 0 -0.087769009107716192 -0.046193724725750278 0 -0.062271996897588083 -0.052791321925605532 0 -0.050876123791686781 -0.0557005837010279 0 -0.062271996897588083 -0.052791321925605532 0 -0.05461803829180413 -0.069755112608578862 0 -0.068797467898171552 -0.064113028811232264 0 -0.062271996897588083 -0.052791321925605532 0 -0.05461803829180413 -0.069755112608578862 0 -0.050876123791686781 -0.0557005837010279 0 -0.04125611079489349 -0.061033813963863537 0 -0.05461803829180413 -0.069755112608578862 0 -0.050876123791686781 -0.0557005837010279 0 -0.056985608849081007 -0.04063467146634165 0 -0.043217803893324663 -0.046983348469378128 0 -0.050876123791686781 -0.0557005837010279 0 -0.062271996897588083 -0.052791321925605532 0 -0.056985608849081007 -0.04063467146634165 0 -0.066439508831189667 -0.02875513821822643 0 -0.056985608849081007 -0.04063467146634165 0 -0.056338296441182101 -0.027044179732367449 0 -0.056985608849081007 -0.04063467146634165 0 -0.048013312662868769 -0.034084565957593307 0 -0.056338296441182101 -0.027044179732367449 0 -0.056985608849081007 -0.04063467146634165 0 -0.048013312662868769 -0.034084565957593307 0 -0.043217803893324663 -0.046983348469378128 0 -0.034747022969916552 -0.036023397885302497 0 -0.03178279228815796 -0.053256275703554248 0 -0.043217803893324663 -0.046983348469378128 0 -0.048013312662868769 -0.034084565957593307 0 -0.034747022969916552 -0.036023397885302497 0 -0.043217803893324663 -0.046983348469378128 0 -0.03178279228815796 -0.053256275703554248 0 -0.04125611079489349 -0.061033813963863537 0 -0.027189616291661511 -0.068956488044421491 0 -0.03178279228815796 -0.053256275703554248 0 -0.04125611079489349 -0.061033813963863537 0 -0.043217803893324663 -0.046983348469378128 0 -0.050876123791686781 -0.0557005837010279 0 -0.04125611079489349 -0.061033813963863537 0 -0.043217803893324663 -0.046983348469378128 0 -0.068530762808199294 -0.019938962024248611 0 -0.059664616745900671 -0.0040500510012267867 0 -0.057625718948113309 -0.01560592069947127 0 -0.047617207273071643 -0.0035118018543059538 0 -0.059664616745900671 -0.0040500510012267867 0 -0.057625718948113309 -0.01560592069947127 0 -0.047617207273071643 -0.0035118018543059538 0 -0.057625718948113309 -0.01560592069947127 0 -0.044435943862541481 -0.018862463730406901 0 -0.057625718948113309 -0.01560592069947127 0 -0.056338296441182101 -0.027044179732367449 0 -0.044435943862541481 -0.018862463730406901 0 -0.068530762808199294 -0.019938962024248611 0 -0.057625718948113309 -0.01560592069947127 0 -0.056338296441182101 -0.027044179732367449 0 -0.048013312662868769 -0.034084565957593307 0 -0.056338296441182101 -0.027044179732367449 0 -0.044435943862541481 -0.018862463730406901 0 -0.048013312662868769 -0.034084565957593307 0 -0.034747022969916552 -0.036023397885302497 0 -0.044435943862541481 -0.018862463730406901 0 -0.034747022969916552 -0.036023397885302497 0 -0.044435943862541481 -0.018862463730406901 0 -0.029096019340949839 -0.020089153358083849 0 -0.044435943862541481 -0.018862463730406901 0 -0.037331614038931003 -0.0090830911405071785 0 -0.029096019340949839 -0.020089153358083849 0 -0.047617207273071643 -0.0035118018543059538 0 -0.044435943862541481 -0.018862463730406901 0 -0.037331614038931003 -0.0090830911405071785 0 -0.047617207273071643 -0.0035118018543059538 0 -0.044435943862541481 -0.018862463730406901 0 -0.037331614038931003 -0.0090830911405071785 0 -0.025670282478897081 -0.0054027298625421993 0 -0.03671052455766443 0.0037031618858211421 0 -0.047617207273071643 -0.0035118018543059538 0 -0.037331614038931003 -0.0090830911405071785 0 -0.03671052455766443 0.0037031618858211421 0 -0.025670282478897081 -0.0054027298625421993 0 -0.029096019340949839 -0.020089153358083849 0 -0.01201491237982177 -0.012697106039732861 0 -0.025670282478897081 -0.0054027298625421993 0 -0.01201491237982177 -0.012697106039732861 0 -0.010105069976996849 0.0023765649732562961 0 -0.037331614038931003 -0.0090830911405071785 0 -0.025670282478897081 -0.0054027298625421993 0 -0.029096019340949839 -0.020089153358083849 0 -0.034747022969916552 -0.036023397885302497 0 -0.029096019340949839 -0.020089153358083849 0 -0.01621539074153976 -0.030149579770640821 0 -0.029096019340949839 -0.020089153358083849 0 -0.01621539074153976 -0.030149579770640821 0 -0.01201491237982177 -0.012697106039732861 0 -0.01621539074153976 -0.030149579770640821 0 0.0026421611525163911 -0.019923693291100199 0 0.001114662024295677 -0.034644724797188199 0 -0.01621539074153976 -0.030149579770640821 0 -0.01201491237982177 -0.012697106039732861 0 0.0026421611525163911 -0.019923693291100199 0 -0.01201491237982177 -0.012697106039732861 0 0.0047038114401232534 -0.001040937293712483 0 0.0026421611525163911 -0.019923693291100199 0 -0.01201491237982177 -0.012697106039732861 0 -0.010105069976996849 0.0023765649732562961 0 0.0047038114401232534 -0.001040937293712483 0 -0.03178279228815796 -0.053256275703554248 0 -0.015718878272565229 -0.058792224196781109 0 -0.02130541942185268 -0.044498810144407437 0 -0.03178279228815796 -0.053256275703554248 0 -0.015718878272565229 -0.058792224196781109 0 -0.027189616291661511 -0.068956488044421491 0 -0.034747022969916552 -0.036023397885302497 0 -0.01621539074153976 -0.030149579770640821 0 -0.02130541942185268 -0.044498810144407437 0 -0.034747022969916552 -0.036023397885302497 0 -0.03178279228815796 -0.053256275703554248 0 -0.02130541942185268 -0.044498810144407437 0 -0.01621539074153976 -0.030149579770640821 0 -0.0092606153764647689 -0.044492254616565037 0 0.001114662024295677 -0.034644724797188199 0 -0.0092606153764647689 -0.044492254616565037 0 0.001114662024295677 -0.034644724797188199 0 0.003426744450576454 -0.054815297075420773 0 -0.01621539074153976 -0.030149579770640821 0 -0.02130541942185268 -0.044498810144407437 0 -0.0092606153764647689 -0.044492254616565037 0 -0.015718878272565229 -0.058792224196781109 0 -0.0092606153764647689 -0.044492254616565037 0 0.003426744450576454 -0.054815297075420773 0 -0.015718878272565229 -0.058792224196781109 0 -0.0072319765520409062 -0.068818796064575097 0 0.003426744450576454 -0.054815297075420773 0 -0.015718878272565229 -0.058792224196781109 0 -0.02130541942185268 -0.044498810144407437 0 -0.0092606153764647689 -0.044492254616565037 0 -0.0072319765520409062 -0.068818796064575097 0 -0.0056293594721457006 -0.082036805430144924 0 0.0054575408194632406 -0.073720759659108445 0 -0.0072319765520409062 -0.068818796064575097 0 -0.016531268938654212 -0.068489504758274394 0 -0.015984604638349179 -0.077390510727319894 0 -0.0072319765520409062 -0.068818796064575097 0 -0.0056293594721457006 -0.082036805430144924 0 -0.015984604638349179 -0.077390510727319894 0 -0.015718878272565229 -0.058792224196781109 0 -0.0072319765520409062 -0.068818796064575097 0 -0.016531268938654212 -0.068489504758274394 0 -0.0075898384642912086 -0.092772169897659226 0 -0.0056293594721457006 -0.082036805430144924 0 0.0072012692200917657 -0.09144049599341271 0 -0.0056293594721457006 -0.082036805430144924 0 -0.01562854721774792 -0.088078100238794171 0 -0.015984604638349179 -0.077390510727319894 0 -0.0075898384642912086 -0.092772169897659226 0 -0.0056293594721457006 -0.082036805430144924 0 -0.01562854721774792 -0.088078100238794171 0 -0.0075898384642912086 -0.092772169897659226 0 -0.01562854721774792 -0.088078100238794171 0 -0.015839401072447711 -0.097831294581907868 0 -0.01562854721774792 -0.088078100238794171 0 -0.02305577581672685 -0.083163458542690943 0 -0.024670005891415589 -0.092262667611894875 0 -0.01562854721774792 -0.088078100238794171 0 -0.024670005891415589 -0.092262667611894875 0 -0.015839401072447711 -0.097831294581907868 0 -0.01562854721774792 -0.088078100238794171 0 -0.02305577581672685 -0.083163458542690943 0 -0.015984604638349179 -0.077390510727319894 0 -0.02305577581672685 -0.083163458542690943 0 -0.024670005891415589 -0.092262667611894875 0 -0.031754510724464793 -0.081253108138323094 0 -0.024670005891415589 -0.092262667611894875 0 -0.031754510724464793 -0.081253108138323094 0 -0.03344051123233422 -0.092098432850847969 0 -0.015718878272565229 -0.058792224196781109 0 -0.016531268938654212 -0.068489504758274394 0 -0.027189616291661511 -0.068956488044421491 0 -0.016531268938654212 -0.068489504758274394 0 -0.015984604638349179 -0.077390510727319894 0 -0.027189616291661511 -0.068956488044421491 0 -0.02305577581672685 -0.083163458542690943 0 -0.015984604638349179 -0.077390510727319894 0 -0.027189616291661511 -0.068956488044421491 0 -0.02305577581672685 -0.083163458542690943 0 -0.027189616291661511 -0.068956488044421491 0 -0.031754510724464793 -0.081253108138323094 0 -0.04125611079489349 -0.061033813963863537 0 -0.027189616291661511 -0.068956488044421491 0 -0.04053175759116228 -0.071452392996033218 0 -0.04125611079489349 -0.061033813963863537 0 -0.04053175759116228 -0.071452392996033218 0 -0.05461803829180413 -0.069755112608578862 0 -0.04053175759116228 -0.071452392996033218 0 -0.04331800788480706 -0.080321541169751709 0 -0.05461803829180413 -0.069755112608578862 0 -0.027189616291661511 -0.068956488044421491 0 -0.04053175759116228 -0.071452392996033218 0 -0.031754510724464793 -0.081253108138323094 0 -0.04053175759116228 -0.071452392996033218 0 -0.031754510724464793 -0.081253108138323094 0 -0.04331800788480706 -0.080321541169751709 0 -0.031754510724464793 -0.081253108138323094 0 -0.037920360895102763 -0.086728863392239786 0 -0.04331800788480706 -0.080321541169751709 0 -0.031754510724464793 -0.081253108138323094 0 -0.03344051123233422 -0.092098432850847969 0 -0.037920360895102763 -0.086728863392239786 0 -0.03344051123233422 -0.092098432850847969 0 -0.037920360895102763 -0.086728863392239786 0 -0.039477100495342581 -0.093081883261144749 0 -0.043535591074226332 -0.088659540190963698 0 -0.052607434978589038 -0.084605160310905272 0 -0.044151246104392423 -0.095288874830203096 0 -0.039477100495342581 -0.093081883261144749 0 -0.043535591074226332 -0.088659540190963698 0 -0.044151246104392423 -0.095288874830203096 0 -0.037920360895102763 -0.086728863392239786 0 -0.039477100495342581 -0.093081883261144749 0 -0.043535591074226332 -0.088659540190963698 0 -0.043535591074226332 -0.088659540190963698 0 -0.044151246104392423 -0.095288874830203096 0 -0.037920360895102763 -0.086728863392239786 0 -0.043535591074226332 -0.088659540190963698 0 -0.04331800788480706 -0.080321541169751709 0 -0.043535591074226332 -0.088659540190963698 0 -0.04331800788480706 -0.080321541169751709 0 -0.052607434978589038 -0.084605160310905272 0 -0.04331800788480706 -0.080321541169751709 0 -0.052607434978589038 -0.084605160310905272 0 -0.05461803829180413 -0.069755112608578862 0 -0.070013937980536456 -0.090181036700446429 0 -0.057002573683865979 -0.089060817942991616 0 -0.04460455598339258 -0.10017008709341529 0 -0.052607434978589038 -0.084605160310905272 0 -0.044151246104392423 -0.095288874830203096 0 -0.052607434978589038 -0.084605160310905272 0 -0.057002573683865979 -0.089060817942991616 0 -0.044151246104392423 -0.095288874830203096 0 -0.064240921843242857 -0.078969573753286809 0 -0.065719917437320752 -0.085301382988547655 0 -0.057002573683865979 -0.089060817942991616 0 -0.064240921843242857 -0.078969573753286809 0 -0.052607434978589038 -0.084605160310905272 0 -0.057002573683865979 -0.089060817942991616 0 -0.064240921843242857 -0.078969573753286809 0 -0.052607434978589038 -0.084605160310905272 0 -0.05461803829180413 -0.069755112608578862 0 -0.064648045787775776 -0.1114736180136202 0 -0.054889055151619223 -0.1064960745062641 0 -0.046573596299020338 -0.1213725893565638 0 -0.064648045787775776 -0.1114736180136202 0 -0.060928146748241367 -0.123537549367131 0 -0.046573596299020338 -0.1213725893565638 0 -0.064167586873575405 -0.098824988458513688 0 -0.054889055151619223 -0.1064960745062641 0 -0.04460455598339258 -0.10017008709341529 0 -0.054889055151619223 -0.1064960745062641 0 -0.04460455598339258 -0.10017008709341529 0 -0.046573596299020338 -0.1213725893565638 0 -0.070013937980536456 -0.090181036700446429 0 -0.04460455598339258 -0.10017008709341529 0 -0.070013937980536456 -0.090181036700446429 0 -0.064167586873575405 -0.098824988458513688 0 -0.04460455598339258 -0.10017008709341529 0 -0.064167586873575405 -0.098824988458513688 0 -0.064648045787775776 -0.1114736180136202 0 -0.054889055151619223 -0.1064960745062641 0 -0.057002573683865979 -0.089060817942991616 0 -0.044151246104392423 -0.095288874830203096 0 -0.04460455598339258 -0.10017008709341529 0 -0.04460455598339258 -0.10017008709341529 0 -0.038337793170655582 -0.1026337050414691 0 -0.046573596299020338 -0.1213725893565638 0 -0.039477100495342581 -0.093081883261144749 0 -0.044151246104392423 -0.095288874830203096 0 -0.038337793170655582 -0.1026337050414691 0 -0.044151246104392423 -0.095288874830203096 0 -0.04460455598339258 -0.10017008709341529 0 -0.044151246104392423 -0.095288874830203096 0 -0.038337793170655582 -0.1026337050414691 0 -0.04460455598339258 -0.10017008709341529 0 -0.038337793170655582 -0.1026337050414691 0 -0.044151246104392423 -0.095288874830203096 0 -0.04460455598339258 -0.10017008709341529 0 -0.038337793170655582 -0.1026337050414691 0 -0.03344051123233422 -0.092098432850847969 0 -0.039477100495342581 -0.093081883261144749 0 -0.038337793170655582 -0.1026337050414691 0 -0.03344051123233422 -0.092098432850847969 0 -0.038337793170655582 -0.1026337050414691 0 -0.030143021990877521 -0.097413384547063803 0 -0.038337793170655582 -0.1026337050414691 0 -0.046573596299020338 -0.1213725893565638 0 -0.032898799107638058 -0.1301455039054305 0 -0.04460455598339258 -0.10017008709341529 0 -0.046573596299020338 -0.1213725893565638 0 -0.038337793170655582 -0.1026337050414691 0 -0.02075820173733281 -0.1248441049076035 0 -0.038337793170655582 -0.1026337050414691 0 -0.02075820173733281 -0.1248441049076035 0 -0.032898799107638058 -0.1301455039054305 0 -0.038337793170655582 -0.1026337050414691 0 -0.02075820173733281 -0.1248441049076035 0 -0.013304609286582791 -0.1124748627422944 0 -0.038337793170655582 -0.1026337050414691 0 -0.013304609286582791 -0.1124748627422944 0 -0.038337793170655582 -0.1026337050414691 0 -0.024123777669104458 -0.10265873268404301 0 -0.013304609286582791 -0.1124748627422944 0 -0.038337793170655582 -0.1026337050414691 0 -0.030143021990877521 -0.097413384547063803 0 -0.024123777669104458 -0.10265873268404301 0 -0.024670005891415589 -0.092262667611894875 0 -0.030143021990877521 -0.097413384547063803 0 -0.024123777669104458 -0.10265873268404301 0 -0.024670005891415589 -0.092262667611894875 0 -0.03344051123233422 -0.092098432850847969 0 -0.030143021990877521 -0.097413384547063803 0 -0.024123777669104458 -0.10265873268404301 0 -0.015994782990863529 -0.1079378035875192 0 -0.013304609286582791 -0.1124748627422944 0 -0.024123777669104458 -0.10265873268404301 0 -0.015994782990863529 -0.1079378035875192 0 -0.015839401072447711 -0.097831294581907868 0 -0.024670005891415589 -0.092262667611894875 0 -0.024123777669104458 -0.10265873268404301 0 -0.015839401072447711 -0.097831294581907868 0 -0.0070294542012635762 -0.10327829347153671 0 -0.013304609286582791 -0.1124748627422944 0 0.0046245275045138064 -0.1076828264142336 0 -0.0075898384642912086 -0.092772169897659226 0 -0.015839401072447711 -0.097831294581907868 0 -0.0070294542012635762 -0.10327829347153671 0 -0.015994782990863529 -0.1079378035875192 0 -0.015839401072447711 -0.097831294581907868 0 -0.0070294542012635762 -0.10327829347153671 0 -0.015994782990863529 -0.1079378035875192 0 -0.0070294542012635762 -0.10327829347153671 0 -0.013304609286582791 -0.1124748627422944 0 -0.0075898384642912086 -0.092772169897659226 0 -0.0070294542012635762 -0.10327829347153671 0 0.0072012692200917657 -0.09144049599341271 0 -0.02075820173733281 -0.1248441049076035 0 -0.013304609286582791 -0.1124748627422944 0 -0.00221818493688669 -0.13117245205018849 0 -0.013304609286582791 -0.1124748627422944 0 -0.00221818493688669 -0.13117245205018849 0 0.014197789575412951 -0.12328672932727321 0 -0.013304609286582791 -0.1124748627422944 0 -0.00221818493688669 -0.13117245205018849 0 -0.015994782990863529 -0.1079378035875192 0 -0.013304609286582791 -0.1124748627422944 0 -0.02075820173733281 -0.1248441049076035 0 -0.0137133242766358 -0.14598078836242959 0 -0.0031786103040098569 -0.14705450477373769 0 -0.02075820173733281 -0.1248441049076035 0 -0.0031786103040098569 -0.14705450477373769 0 -0.02075820173733281 -0.1248441049076035 0 -0.00221818493688669 -0.13117245205018849 0 -0.0031786103040098569 -0.14705450477373769 0 -0.02075820173733281 -0.1248441049076035 0 -0.02657462786173766 -0.13400490724319661 0 -0.021326083532184278 -0.14069250208886769 0 -0.02075820173733281 -0.1248441049076035 0 -0.021326083532184278 -0.14069250208886769 0 -0.0137133242766358 -0.14598078836242959 0 -0.02657462786173766 -0.13400490724319661 0 -0.032898799107638058 -0.1301455039054305 0 -0.031315427069795509 -0.14033751807088471 0 -0.02657462786173766 -0.13400490724319661 0 -0.021326083532184278 -0.14069250208886769 0 -0.031315427069795509 -0.14033751807088471 0 -0.02075820173733281 -0.1248441049076035 0 -0.02657462786173766 -0.13400490724319661 0 -0.032898799107638058 -0.1301455039054305 0 -0.026655807174363451 -0.14845120392719069 0 -0.02210874630731275 -0.1561964137015745 0 -0.031495029160766817 -0.15509855920566379 0 -0.026655807174363451 -0.14845120392719069 0 -0.03449156258747036 -0.148917707105098 0 -0.031495029160766817 -0.15509855920566379 0 -0.026655807174363451 -0.14845120392719069 0 -0.021326083532184278 -0.14069250208886769 0 -0.031315427069795509 -0.14033751807088471 0 -0.026655807174363451 -0.14845120392719069 0 -0.031315427069795509 -0.14033751807088471 0 -0.03449156258747036 -0.148917707105098 0 -0.021326083532184278 -0.14069250208886769 0 -0.019449426413567759 -0.15004718796545319 0 -0.0137133242766358 -0.14598078836242959 0 -0.026655807174363451 -0.14845120392719069 0 -0.021326083532184278 -0.14069250208886769 0 -0.019449426413567759 -0.15004718796545319 0 -0.019449426413567759 -0.15004718796545319 0 -0.01542317820397726 -0.15505006264073101 0 -0.0137133242766358 -0.14598078836242959 0 -0.026655807174363451 -0.14845120392719069 0 -0.019449426413567759 -0.15004718796545319 0 -0.02210874630731275 -0.1561964137015745 0 -0.019449426413567759 -0.15004718796545319 0 -0.02210874630731275 -0.1561964137015745 0 -0.01542317820397726 -0.15505006264073101 0 -0.0137133242766358 -0.14598078836242959 0 -0.0031786103040098569 -0.14705450477373769 0 -0.0072073677341612146 -0.1544888065361133 0 -0.01542317820397726 -0.15505006264073101 0 -0.0137133242766358 -0.14598078836242959 0 -0.0072073677341612146 -0.1544888065361133 0 -0.0031786103040098569 -0.14705450477373769 0 -0.0072073677341612146 -0.1544888065361133 0 -0.0025999653858941639 -0.16131422913783491 0 -0.01542317820397726 -0.15505006264073101 0 -0.0084927016390539001 -0.17431231470194719 0 -0.01542317820397726 -0.15505006264073101 0 -0.0025999653858941639 -0.16131422913783491 0 -0.0084927016390539001 -0.17431231470194719 0 -0.01542317820397726 -0.15505006264073101 0 -0.0084927016390539001 -0.17431231470194719 0 -0.018600123305710169 -0.16452936741983731 0 -0.0025999653858941639 -0.16131422913783491 0 -0.0084927016390539001 -0.17431231470194719 0 0.0067086063528142403 -0.16809244781376179 0 -0.0084927016390539001 -0.17431231470194719 0 -0.019446339186483811 -0.17229591455881449 0 -0.018600123305710169 -0.16452936741983731 0 -0.01542317820397726 -0.15505006264073101 0 -0.0072073677341612146 -0.1544888065361133 0 -0.0025999653858941639 -0.16131422913783491 0 -0.0084927016390539001 -0.17431231470194719 0 -0.0015622250741301779 -0.1935745667631632 0 -0.01452589755716127 -0.18854972137590889 0 -0.0084927016390539001 -0.17431231470194719 0 -0.0015622250741301779 -0.1935745667631632 0 -0.0084927016390539001 -0.17431231470194719 0 -0.0015622250741301779 -0.1935745667631632 0 0.0091962193441852118 -0.18107109871456811 0 -0.0084927016390539001 -0.17431231470194719 0 -0.019789997202817391 -0.17944929683230451 0 -0.01452589755716127 -0.18854972137590889 0 -0.019789997202817391 -0.17944929683230451 0 -0.01452589755716127 -0.18854972137590889 0 -0.02459459850908961 -0.18853055632871979 0 -0.0084927016390539001 -0.17431231470194719 0 -0.019789997202817391 -0.17944929683230451 0 -0.019446339186483811 -0.17229591455881449 0 -0.019789997202817391 -0.17944929683230451 0 -0.019446339186483811 -0.17229591455881449 0 -0.025875972540285681 -0.17494695229964419 0 -0.019789997202817391 -0.17944929683230451 0 -0.025875972540285681 -0.17494695229964419 0 -0.028761852805915141 -0.18157091371807699 0 -0.025875972540285681 -0.17494695229964419 0 -0.032240004386850082 -0.17024588421870079 0 -0.032480769472988377 -0.1765838753595764 0 -0.025875972540285681 -0.17494695229964419 0 -0.028761852805915141 -0.18157091371807699 0 -0.032480769472988377 -0.1765838753595764 0 -0.028761852805915141 -0.18157091371807699 0 -0.032920373861235572 -0.18696580359983689 0 -0.02459459850908961 -0.18853055632871979 0 -0.019789997202817391 -0.17944929683230451 0 -0.028761852805915141 -0.18157091371807699 0 -0.02459459850908961 -0.18853055632871979 0 -0.02210874630731275 -0.1561964137015745 0 -0.02334206205745518 -0.16321350683772101 0 -0.018600123305710169 -0.16452936741983731 0 -0.02210874630731275 -0.1561964137015745 0 -0.01542317820397726 -0.15505006264073101 0 -0.018600123305710169 -0.16452936741983731 0 -0.019446339186483811 -0.17229591455881449 0 -0.018600123305710169 -0.16452936741983731 0 -0.024472901244551901 -0.1682416415403396 0 -0.019446339186483811 -0.17229591455881449 0 -0.025875972540285681 -0.17494695229964419 0 -0.024472901244551901 -0.1682416415403396 0 -0.02334206205745518 -0.16321350683772101 0 -0.018600123305710169 -0.16452936741983731 0 -0.024472901244551901 -0.1682416415403396 0 -0.02334206205745518 -0.16321350683772101 0 -0.024472901244551901 -0.1682416415403396 0 -0.028186477372245909 -0.16388660468913291 0 -0.025875972540285681 -0.17494695229964419 0 -0.024472901244551901 -0.1682416415403396 0 -0.032240004386850082 -0.17024588421870079 0 -0.024472901244551901 -0.1682416415403396 0 -0.028186477372245909 -0.16388660468913291 0 -0.032240004386850082 -0.17024588421870079 0 -0.02210874630731275 -0.1561964137015745 0 -0.036601677587355427 -0.1631254910080501 0 -0.02210874630731275 -0.1561964137015745 0 -0.028186477372245909 -0.16388660468913291 0 -0.036601677587355427 -0.1631254910080501 0 -0.02210874630731275 -0.1561964137015745 0 -0.036601677587355427 -0.1631254910080501 0 -0.031495029160766817 -0.15509855920566379 0 -0.02210874630731275 -0.1561964137015745 0 -0.02334206205745518 -0.16321350683772101 0 -0.028186477372245909 -0.16388660468913291 0 -0.036601677587355427 -0.1631254910080501 0 -0.031495029160766817 -0.15509855920566379 0 -0.03757233301838208 -0.1561293615731485 0 -0.036601677587355427 -0.1631254910080501 0 -0.042683024331232992 -0.16071659108817879 0 -0.03757233301838208 -0.1561293615731485 0 -0.036601677587355427 -0.1631254910080501 0 -0.032240004386850082 -0.17024588421870079 0 -0.040990311010288182 -0.1707810542940659 0 -0.028186477372245909 -0.16388660468913291 0 -0.036601677587355427 -0.1631254910080501 0 -0.032240004386850082 -0.17024588421870079 0 -0.036601677587355427 -0.1631254910080501 0 -0.040990311010288182 -0.1707810542940659 0 -0.051094608867397598 -0.17005456831452659 0 -0.036601677587355427 -0.1631254910080501 0 -0.042683024331232992 -0.16071659108817879 0 -0.051094608867397598 -0.17005456831452659 0 -0.036601677587355427 -0.1631254910080501 0 -0.051094608867397598 -0.17005456831452659 0 -0.042683024331232992 -0.16071659108817879 0 -0.03757233301838208 -0.1561293615731485 0 -0.042590371425084809 -0.152788459458752 0 -0.042683024331232992 -0.16071659108817879 0 -0.049852416986034973 -0.1566787242717059 0 -0.042590371425084809 -0.152788459458752 0 -0.042683024331232992 -0.16071659108817879 0 -0.049852416986034973 -0.1566787242717059 0 -0.032920373861235572 -0.18696580359983689 0 -0.035662893679222471 -0.1808176818492459 0 -0.039648887306358682 -0.18457447877016059 0 -0.028761852805915141 -0.18157091371807699 0 -0.032920373861235572 -0.18696580359983689 0 -0.035662893679222471 -0.1808176818492459 0 -0.032240004386850082 -0.17024588421870079 0 -0.040990311010288182 -0.1707810542940659 0 -0.038331319031698619 -0.1753090981098179 0 -0.035662893679222471 -0.1808176818492459 0 -0.038331319031698619 -0.1753090981098179 0 -0.042134054383572032 -0.1794085226548284 0 -0.035662893679222471 -0.1808176818492459 0 -0.032480769472988377 -0.1765838753595764 0 -0.038331319031698619 -0.1753090981098179 0 -0.028761852805915141 -0.18157091371807699 0 -0.035662893679222471 -0.1808176818492459 0 -0.032480769472988377 -0.1765838753595764 0 -0.032240004386850082 -0.17024588421870079 0 -0.032480769472988377 -0.1765838753595764 0 -0.038331319031698619 -0.1753090981098179 0 -0.040990311010288182 -0.1707810542940659 0 -0.045496547127059937 -0.17528527585558801 0 -0.051094608867397598 -0.17005456831452659 0 -0.040990311010288182 -0.1707810542940659 0 -0.038331319031698619 -0.1753090981098179 0 -0.045496547127059937 -0.17528527585558801 0 -0.045496547127059937 -0.17528527585558801 0 -0.042134054383572032 -0.1794085226548284 0 -0.049232931697160941 -0.18142535687920061 0 -0.038331319031698619 -0.1753090981098179 0 -0.045496547127059937 -0.17528527585558801 0 -0.042134054383572032 -0.1794085226548284 0 -0.042134054383572032 -0.1794085226548284 0 -0.039648887306358682 -0.18457447877016059 0 -0.049232931697160941 -0.18142535687920061 0 -0.039648887306358682 -0.18457447877016059 0 -0.049232931697160941 -0.18142535687920061 0 -0.037513132105194948 -0.19164621715467339 0 -0.035662893679222471 -0.1808176818492459 0 -0.042134054383572032 -0.1794085226548284 0 -0.039648887306358682 -0.18457447877016059 0 -0.052530262953744307 -0.18551360121156771 0 -0.064566778430722005 -0.1899668467895553 0 -0.070259181001566293 -0.17921715932508539 0 -0.052530262953744307 -0.18551360121156771 0 -0.051094608867397598 -0.17005456831452659 0 -0.070259181001566293 -0.17921715932508539 0 -0.051094608867397598 -0.17005456831452659 0 -0.070259181001566293 -0.17921715932508539 0 -0.052530262953744307 -0.18551360121156771 0 -0.049232931697160941 -0.18142535687920061 0 -0.051094608867397598 -0.17005456831452659 0 -0.052530262953744307 -0.18551360121156771 0 -0.051094608867397598 -0.17005456831452659 0 -0.045496547127059937 -0.17528527585558801 0 -0.049232931697160941 -0.18142535687920061 0 -0.051094608867397598 -0.17005456831452659 0 -0.051094608867397598 -0.17005456831452659 0 -0.061817946007188637 -0.1647032604190713 0 -0.070259181001566293 -0.17921715932508539 0 -0.049852416986034973 -0.1566787242717059 0 -0.051094608867397598 -0.17005456831452659 0 -0.061817946007188637 -0.1647032604190713 0 -0.042683024331232992 -0.16071659108817879 0 -0.049852416986034973 -0.1566787242717059 0 -0.051094608867397598 -0.17005456831452659 0 -0.049852416986034973 -0.1566787242717059 0 -0.051094608867397598 -0.17005456831452659 0 -0.049852416986034973 -0.1566787242717059 0 -0.061817946007188637 -0.1647032604190713 0 -0.059473492795946999 -0.1512600473178678 0 -0.049852416986034973 -0.1566787242717059 0 -0.059473492795946999 -0.1512600473178678 0 -0.049852416986034973 -0.1566787242717059 0 -0.048542636614648908 -0.14257509161971199 0 -0.042590371425084809 -0.152788459458752 0 -0.049852416986034973 -0.1566787242717059 0 -0.059473492795946999 -0.1512600473178678 0 -0.048542636614648908 -0.14257509161971199 0 -0.049852416986034973 -0.1566787242717059 0 -0.048542636614648908 -0.14257509161971199 0 -0.059473492795946999 -0.1512600473178678 0 -0.048542636614648908 -0.14257509161971199 0 -0.059473492795946999 -0.1512600473178678 0 -0.048542636614648908 -0.14257509161971199 0 -0.061100100412547438 -0.13647315015658409 0 -0.046573596299020338 -0.1213725893565638 0 -0.048542636614648908 -0.14257509161971199 0 -0.061100100412547438 -0.13647315015658409 0 -0.046573596299020338 -0.1213725893565638 0 -0.048542636614648908 -0.14257509161971199 0 -0.060928146748241367 -0.123537549367131 0 -0.046573596299020338 -0.1213725893565638 0 -0.061100100412547438 -0.13647315015658409 0 -0.046573596299020338 -0.1213725893565638 0 -0.048542636614648908 -0.14257509161971199 0 -0.032898799107638058 -0.1301455039054305 0 -0.048542636614648908 -0.14257509161971199 0 -0.032898799107638058 -0.1301455039054305 0 -0.031315427069795509 -0.14033751807088471 0 -0.048542636614648908 -0.14257509161971199 0 -0.032898799107638058 -0.1301455039054305 0 -0.048542636614648908 -0.14257509161971199 0 -0.031315427069795509 -0.14033751807088471 0 -0.03449156258747036 -0.148917707105098 0 -0.03449156258747036 -0.148917707105098 0 -0.03757233301838208 -0.1561293615731485 0 -0.042590371425084809 -0.152788459458752 0 -0.03449156258747036 -0.148917707105098 0 -0.031495029160766817 -0.15509855920566379 0 -0.03757233301838208 -0.1561293615731485 0 -0.048542636614648908 -0.14257509161971199 0 -0.03449156258747036 -0.148917707105098 0 -0.042590371425084809 -0.152788459458752 0 -0.030801127425925001 -0.25680016795848581 0 -0.026871719323301121 -0.24650256912316601 0 -0.018733547469201091 -0.24349008461987329 0 -0.032940321160402269 -0.25029644079438251 0 -0.026871719323301121 -0.24650256912316601 0 -0.030857658388656541 -0.2362056796655021 0 -0.032940321160402269 -0.25029644079438251 0 -0.026871719323301121 -0.24650256912316601 0 -0.026871719323301121 -0.24650256912316601 0 -0.030857658388656541 -0.2362056796655021 0 -0.018733547469201091 -0.24349008461987329 0 -0.018733547469201091 -0.24349008461987329 0 0.0010854142569982001 -0.23807309260292489 0 0.0025328853753160741 -0.24958102673793139 0 -0.018733547469201091 -0.24349008461987329 0 -0.0061584899570064598 -0.22962027277065361 0 0.0010854142569982001 -0.23807309260292489 0 -0.018733547469201091 -0.24349008461987329 0 -0.0061584899570064598 -0.22962027277065361 0 -0.018733547469201091 -0.24349008461987329 0 -0.0061584899570064598 -0.22962027277065361 0 -0.014959502272226489 -0.22084886391346231 0 -0.0061584899570064598 -0.22962027277065361 0 -0.0054289760133702037 -0.21457987404047249 0 0.0064165675551885711 -0.21575046092143421 0 -0.0061584899570064598 -0.22962027277065361 0 -0.014959502272226489 -0.22084886391346231 0 -0.0054289760133702037 -0.21457987404047249 0 -0.018733547469201091 -0.24349008461987329 0 -0.02919644603132129 -0.2221986071991269 0 -0.02714058579554627 -0.22330174697438809 0 -0.018733547469201091 -0.24349008461987329 0 -0.02919644603132129 -0.2221986071991269 0 -0.018733547469201091 -0.24349008461987329 0 -0.014959502272226489 -0.22084886391346231 0 -0.02714058579554627 -0.22330174697438809 0 -0.030857658388656541 -0.2362056796655021 0 -0.018733547469201091 -0.24349008461987329 0 -0.02919644603132129 -0.2221986071991269 0 -0.02919644603132129 -0.2221986071991269 0 -0.02714058579554627 -0.22330174697438809 0 -0.023298310508535151 -0.21367384618425 0 -0.02883797433537726 -0.20835292232393379 0 -0.020914866328615171 -0.2008213059726579 0 -0.039659344593441261 -0.20090712977838049 0 -0.02919644603132129 -0.2221986071991269 0 -0.02883797433537726 -0.20835292232393379 0 -0.023298310508535151 -0.21367384618425 0 -0.02883797433537726 -0.20835292232393379 0 -0.023298310508535151 -0.21367384618425 0 -0.020914866328615171 -0.2008213059726579 0 -0.023298310508535151 -0.21367384618425 0 -0.014351405434837939 -0.2084381568687759 0 -0.020914866328615171 -0.2008213059726579 0 -0.02714058579554627 -0.22330174697438809 0 -0.014351405434837939 -0.2084381568687759 0 -0.014959502272226489 -0.22084886391346231 0 -0.02714058579554627 -0.22330174697438809 0 -0.014351405434837939 -0.2084381568687759 0 -0.02714058579554627 -0.22330174697438809 0 -0.023298310508535151 -0.21367384618425 0 -0.014351405434837939 -0.2084381568687759 0 -0.014959502272226489 -0.22084886391346231 0 -0.0054289760133702037 -0.21457987404047249 0 -0.014351405434837939 -0.2084381568687759 0 -0.0054289760133702037 -0.21457987404047249 0 -0.014351405434837939 -0.2084381568687759 0 -0.0015622250741301779 -0.1935745667631632 0 -0.0054289760133702037 -0.21457987404047249 0 -0.0015622250741301779 -0.1935745667631632 0 0.0064165675551885711 -0.21575046092143421 0 -0.014351405434837939 -0.2084381568687759 0 -0.0015622250741301779 -0.1935745667631632 0 -0.014351405434837939 -0.2084381568687759 0 -0.01223217889679739 -0.19705511845509929 0 -0.0015622250741301779 -0.1935745667631632 0 -0.01223217889679739 -0.19705511845509929 0 -0.0015622250741301779 -0.1935745667631632 0 -0.01452589755716127 -0.18854972137590889 0 -0.020914866328615171 -0.2008213059726579 0 -0.039659344593441261 -0.20090712977838049 0 -0.01452589755716127 -0.18854972137590889 0 -0.020914866328615171 -0.2008213059726579 0 -0.02459459850908961 -0.18853055632871979 0 -0.020914866328615171 -0.2008213059726579 0 -0.030654603298793132 -0.19382629647353339 0 -0.039659344593441261 -0.20090712977838049 0 -0.014351405434837939 -0.2084381568687759 0 -0.01223217889679739 -0.19705511845509929 0 -0.020914866328615171 -0.2008213059726579 0 -0.01223217889679739 -0.19705511845509929 0 -0.01452589755716127 -0.18854972137590889 0 -0.020914866328615171 -0.2008213059726579 0 -0.020914866328615171 -0.2008213059726579 0 -0.030654603298793132 -0.19382629647353339 0 -0.02459459850908961 -0.18853055632871979 0 -0.032920373861235572 -0.18696580359983689 0 -0.030654603298793132 -0.19382629647353339 0 -0.02459459850908961 -0.18853055632871979 0 -0.049232931697160941 -0.18142535687920061 0 -0.037513132105194948 -0.19164621715467339 0 -0.039659344593441261 -0.20090712977838049 0 -0.049232931697160941 -0.18142535687920061 0 -0.039659344593441261 -0.20090712977838049 0 -0.032920373861235572 -0.18696580359983689 0 -0.039648887306358682 -0.18457447877016059 0 -0.037513132105194948 -0.19164621715467339 0 -0.032920373861235572 -0.18696580359983689 0 -0.030654603298793132 -0.19382629647353339 0 -0.037513132105194948 -0.19164621715467339 0 -0.030654603298793132 -0.19382629647353339 0 -0.037513132105194948 -0.19164621715467339 0 -0.039659344593441261 -0.20090712977838049 0 -0.039659344593441261 -0.20090712977838049 0 -0.049171036143441697 -0.20095068018059209 0 -0.052530262953744307 -0.18551360121156771 0 -0.053965917040092279 -0.20097263410860849 0 -0.052530262953744307 -0.18551360121156771 0 -0.049232931697160941 -0.18142535687920061 0 -0.039659344593441261 -0.20090712977838049 0 -0.052530262953744307 -0.18551360121156771 0 -0.053965917040092279 -0.20097263410860849 0 -0.064566778430722005 -0.1899668467895553 0 -0.052530262953744307 -0.18551360121156771 0 -0.039659344593441261 -0.20090712977838049 0 -0.049171036143441697 -0.20095068018059209 0 -0.053965917040092279 -0.20097263410860849 0 -0.049171036143441697 -0.20095068018059209 0 -0.052530262953744307 -0.18551360121156771 0 -0.053965917040092279 -0.20097263410860849 0 -0.049171036143441697 -0.20095068018059209 0 -0.049171036143441697 -0.20095068018059209 0 -0.054685660498906767 -0.208722786400212 0 -0.041055678651922348 -0.2256235604874875 0 -0.053965917040092279 -0.20097263410860849 0 -0.054685660498906767 -0.208722786400212 0 -0.075274492420391248 -0.20107019793555661 0 -0.054685660498906767 -0.208722786400212 0 -0.058782723788501128 -0.22597342721149569 0 -0.066300796797188796 -0.21509277327032089 0 -0.053965917040092279 -0.20097263410860849 0 -0.049171036143441697 -0.20095068018059209 0 -0.054685660498906767 -0.208722786400212 0 -0.053965917040092279 -0.20097263410860849 0 -0.054685660498906767 -0.208722786400212 0 -0.049171036143441697 -0.20095068018059209 0 -0.041055678651922348 -0.2256235604874875 0 -0.02919644603132129 -0.2221986071991269 0 -0.039659344593441261 -0.20090712977838049 0 -0.02919644603132129 -0.2221986071991269 0 -0.02883797433537726 -0.20835292232393379 0 -0.039659344593441261 -0.20090712977838049 0 -0.039659344593441261 -0.20090712977838049 0 -0.049171036143441697 -0.20095068018059209 0 -0.041055678651922348 -0.2256235604874875 0 -0.02919644603132129 -0.2221986071991269 0 -0.039659344593441261 -0.20090712977838049 0 -0.041055678651922348 -0.2256235604874875 0 -0.030857658388656541 -0.2362056796655021 0 -0.02919644603132129 -0.2221986071991269 0 -0.041055678651922348 -0.2256235604874875 0 -0.041055678651922348 -0.2256235604874875 0 -0.058782723788501128 -0.22597342721149569 0 -0.050902643065861071 -0.24349095896983161 0 -0.054685660498906767 -0.208722786400212 0 -0.041055678651922348 -0.2256235604874875 0 -0.058782723788501128 -0.22597342721149569 0 -0.058782723788501128 -0.22597342721149569 0 -0.050902643065861071 -0.24349095896983161 0 -0.077646128541525 -0.24813916513248199 0 -0.032940321160402269 -0.25029644079438251 0 -0.041055678651922348 -0.2256235604874875 0 -0.050902643065861071 -0.24349095896983161 0 -0.032940321160402269 -0.25029644079438251 0 -0.030857658388656541 -0.2362056796655021 0 -0.041055678651922348 -0.2256235604874875 0 -0.032940321160402269 -0.25029644079438251 0 -0.041055678651922348 -0.2256235604874875 0 -0.077646128541525 -0.24813916513248199 0 -0.082279147983734507 -0.22463132376819159 0 -0.088104632666654803 -0.24175912157342011 0 -0.077646128541525 -0.24813916513248199 0 -0.082279147983734507 -0.22463132376819159 0 -0.077646128541525 -0.24813916513248199 0 -0.076460310480956056 -0.22460468153401941 0 -0.058782723788501128 -0.22597342721149569 0 -0.077646128541525 -0.24813916513248199 0 -0.076460310480956056 -0.22460468153401941 0 -0.058782723788501128 -0.22597342721149569 0 -0.076460310480956056 -0.22460468153401941 0 -0.066300796797188796 -0.21509277327032089 0 -0.077646128541525 -0.24813916513248199 0 -0.076460310480956056 -0.22460468153401941 0 -0.082279147983734507 -0.22463132376819159 0 -0.088104632666654803 -0.24175912157342011 0 -0.091210523848666042 -0.22145825259936749 0 -0.096373561920523113 -0.2318247108995648 0 -0.088104632666654803 -0.24175912157342011 0 -0.082279147983734507 -0.22463132376819159 0 -0.091210523848666042 -0.22145825259936749 0 -0.088104632666654803 -0.24175912157342011 0 -0.091210523848666042 -0.22145825259936749 0 -0.082279147983734507 -0.22463132376819159 0 -0.075274492420391248 -0.20107019793555661 0 -0.086912167425944153 -0.20112348240390099 0 -0.082279147983734507 -0.22463132376819159 0 -0.091210523848666042 -0.22145825259936749 0 -0.086912167425944153 -0.20112348240390099 0 -0.091210523848666042 -0.22145825259936749 0 -0.094316415030678002 -0.20115738362531499 0 -0.091210523848666042 -0.22145825259936749 0 -0.086912167425944153 -0.20112348240390099 0 -0.094316415030678002 -0.20115738362531499 0 -0.082279147983734507 -0.22463132376819159 0 -0.086912167425944153 -0.20112348240390099 0 -0.076460310480956056 -0.22460468153401941 0 -0.066300796797188796 -0.21509277327032089 0 -0.075274492420391248 -0.20107019793555661 0 -0.054685660498906767 -0.208722786400212 0 -0.066300796797188796 -0.21509277327032089 0 -0.075274492420391248 -0.20107019793555661 0 -0.076460310480956056 -0.22460468153401941 0 -0.082279147983734507 -0.22463132376819159 0 -0.075274492420391248 -0.20107019793555661 0 -0.076460310480956056 -0.22460468153401941 0 -0.075274492420391248 -0.20107019793555661 0 -0.053965917040092279 -0.20097263410860849 0 -0.075274492420391248 -0.20107019793555661 0 -0.070100108945259781 -0.19629415080948229 0 -0.053965917040092279 -0.20097263410860849 0 -0.070100108945259781 -0.19629415080948229 0 -0.064566778430722005 -0.1899668467895553 0 -0.053965917040092279 -0.20097263410860849 0 -0.075274492420391248 -0.20107019793555661 0 -0.075274492420391248 -0.20107019793555661 0 -0.075113373652805612 -0.19571605274700751 0 -0.079733979793737045 -0.19605477611637959 0 -0.075274492420391248 -0.20107019793555661 0 -0.075113373652805612 -0.19571605274700751 0 -0.070100108945259781 -0.19629415080948229 0 -0.070100108945259781 -0.19629415080948229 0 -0.064566778430722005 -0.1899668467895553 0 -0.075377056328755521 -0.19008301367616509 0 -0.075113373652805612 -0.19571605274700751 0 -0.070100108945259781 -0.19629415080948229 0 -0.075377056328755521 -0.19008301367616509 0 -0.075113373652805612 -0.19571605274700751 0 -0.075377056328755521 -0.19008301367616509 0 -0.079733979793737045 -0.19605477611637959 0 -0.075377056328755521 -0.19008301367616509 0 -0.079733979793737045 -0.19605477611637959 0 -0.089423753135733974 -0.18837975033564619 0 -0.079733979793737045 -0.19605477611637959 0 -0.086912167425944153 -0.20112348240390099 0 -0.089423753135733974 -0.18837975033564619 0 -0.075274492420391248 -0.20107019793555661 0 -0.086912167425944153 -0.20112348240390099 0 -0.075274492420391248 -0.20107019793555661 0 -0.079733979793737045 -0.19605477611637959 0 -0.086912167425944153 -0.20112348240390099 0 -0.086912167425944153 -0.20112348240390099 0 -0.095804572093432044 -0.1914304229002349 0 -0.094316415030678002 -0.20115738362531499 0 -0.086912167425944153 -0.20112348240390099 0 -0.094316415030678002 -0.20115738362531499 0 -0.086912167425944153 -0.20112348240390099 0 -0.089423753135733974 -0.18837975033564619 0 -0.086912167425944153 -0.20112348240390099 0 -0.089423753135733974 -0.18837975033564619 0 -0.095804572093432044 -0.1914304229002349 0 -0.089423753135733974 -0.18837975033564619 0 -0.095804572093432044 -0.1914304229002349 0 -0.090500110278716836 -0.18291833725845449 0 -0.089423753135733974 -0.18837975033564619 0 -0.095804572093432044 -0.1914304229002349 0 -0.095804572093432044 -0.1914304229002349 0 -0.1055884512206339 -0.19610810014299959 0 -0.099028938128851704 -0.1826882615985625 0 -0.095804572093432044 -0.1914304229002349 0 -0.1055884512206339 -0.19610810014299959 0 -0.095804572093432044 -0.1914304229002349 0 -0.099726318276372988 -0.19712665769699661 0 -0.1055884512206339 -0.19610810014299959 0 -0.094316415030678002 -0.20115738362531499 0 -0.099726318276372988 -0.19712665769699661 0 -0.1069539478940484 -0.20121524606085259 0 -0.095804572093432044 -0.1914304229002349 0 -0.094316415030678002 -0.20115738362531499 0 -0.095804572093432044 -0.1914304229002349 0 -0.094316415030678002 -0.20115738362531499 0 -0.099726318276372988 -0.19712665769699661 0 -0.094316415030678002 -0.20115738362531499 0 -0.1069539478940484 -0.20121524606085259 0 -0.1006154135170836 -0.20550376286944089 0 -0.094316415030678002 -0.20115738362531499 0 -0.1069539478940484 -0.20121524606085259 0 -0.099726318276372988 -0.19712665769699661 0 -0.1069539478940484 -0.20121524606085259 0 -0.1055884512206339 -0.19610810014299959 0 -0.1069539478940484 -0.20121524606085259 0 -0.1055884512206339 -0.19610810014299959 0 -0.1143022105317214 -0.19176920984990589 0 -0.1234142843990034 -0.20129061165398179 0 -0.118443644943155 -0.18313735869921541 0 -0.1234142843990034 -0.20129061165398179 0 -0.118443644943155 -0.18313735869921541 0 -0.12836978379805469 -0.19505845874684749 0 -0.1055884512206339 -0.19610810014299959 0 -0.1143022105317214 -0.19176920984990589 0 -0.1095912747331507 -0.1796343382558257 0 -0.1234142843990034 -0.20129061165398179 0 -0.118443644943155 -0.18313735869921541 0 -0.1234142843990034 -0.20129061165398179 0 -0.11636069704563699 -0.20125831597190941 0 -0.12446659453658469 -0.2051337493999616 0 -0.1143022105317214 -0.19176920984990589 0 -0.1234142843990034 -0.20129061165398179 0 -0.11636069704563699 -0.20125831597190941 0 -0.1234142843990034 -0.20129061165398179 0 -0.11636069704563699 -0.20125831597190941 0 -0.1055884512206339 -0.19610810014299959 0 -0.1143022105317214 -0.19176920984990589 0 -0.11636069704563699 -0.20125831597190941 0 -0.1055884512206339 -0.19610810014299959 0 -0.11636069704563699 -0.20125831597190941 0 -0.1069539478940484 -0.20121524606085259 0 -0.11636069704563699 -0.20125831597190941 0 -0.116503442890511 -0.20615462214379501 0 -0.1069539478940484 -0.20121524606085259 0 -0.1055884512206339 -0.19610810014299959 0 -0.11636069704563699 -0.20125831597190941 0 -0.1069539478940484 -0.20121524606085259 0 -0.11636069704563699 -0.20125831597190941 0 -0.1069539478940484 -0.20121524606085259 0 -0.1182325320857732 -0.21701117714245771 0 -0.1146322195844853 -0.229933041338924 0 -0.1069539478940484 -0.20121524606085259 0 -0.1146322195844853 -0.229933041338924 0 -0.12446659453658469 -0.2051337493999616 0 -0.1182325320857732 -0.21701117714245771 0 -0.12964778408632779 -0.2240559515308029 0 -0.1069539478940484 -0.20121524606085259 0 -0.116503442890511 -0.20615462214379501 0 -0.1182325320857732 -0.21701117714245771 0 -0.116503442890511 -0.20615462214379501 0 -0.12446659453658469 -0.2051337493999616 0 -0.1182325320857732 -0.21701117714245771 0 -0.11636069704563699 -0.20125831597190941 0 -0.116503442890511 -0.20615462214379501 0 -0.12446659453658469 -0.2051337493999616 0 -0.11636069704563699 -0.20125831597190941 0 -0.12446659453658469 -0.2051337493999616 0 -0.1234142843990034 -0.20129061165398179 0 -0.12446659453658469 -0.2051337493999616 0 -0.1069539478940484 -0.20121524606085259 0 -0.1039432587622498 -0.21234961129803451 0 -0.1146322195844853 -0.229933041338924 0 -0.091210523848666042 -0.22145825259936749 0 -0.094316415030678002 -0.20115738362531499 0 -0.098742607236989521 -0.21208478243994361 0 -0.1039432587622498 -0.21234961129803451 0 -0.098742607236989521 -0.21208478243994361 0 -0.10362742502627011 -0.2199549018075595 0 -0.1069539478940484 -0.20121524606085259 0 -0.1039432587622498 -0.21234961129803451 0 -0.1006154135170836 -0.20550376286944089 0 -0.1039432587622498 -0.21234961129803451 0 -0.1006154135170836 -0.20550376286944089 0 -0.098742607236989521 -0.21208478243994361 0 -0.094316415030678002 -0.20115738362531499 0 -0.1006154135170836 -0.20550376286944089 0 -0.098742607236989521 -0.21208478243994361 0 -0.091210523848666042 -0.22145825259936749 0 -0.098742607236989521 -0.21208478243994361 0 -0.10362742502627011 -0.2199549018075595 0 -0.096373561920523113 -0.2318247108995648 0 -0.10362742502627011 -0.2199549018075595 0 -0.1025516661405015 -0.24412656761791199 0 -0.1039432587622498 -0.21234961129803451 0 -0.10362742502627011 -0.2199549018075595 0 -0.1146322195844853 -0.229933041338924 0 -0.10362742502627011 -0.2199549018075595 0 -0.1025516661405015 -0.24412656761791199 0 -0.10362742502627011 -0.2199549018075595 0 -0.11057817055071439 -0.23713955200355691 0 -0.1025516661405015 -0.24412656761791199 0 -0.091210523848666042 -0.22145825259936749 0 -0.096373561920523113 -0.2318247108995648 0 -0.10362742502627011 -0.2199549018075595 0 -0.10362742502627011 -0.2199549018075595 0 -0.1146322195844853 -0.229933041338924 0 -0.11057817055071439 -0.23713955200355691 0 -0.1182325320857732 -0.21701117714245771 0 -0.1146322195844853 -0.229933041338924 0 -0.12964778408632779 -0.2240559515308029 0 -0.1146322195844853 -0.229933041338924 0 -0.12594535918601221 -0.23537450645762351 0 -0.12964778408632779 -0.2240559515308029 0 -0.1146322195844853 -0.229933041338924 0 -0.11057817055071439 -0.23713955200355691 0 -0.11992695639240671 -0.24305274461581289 0 -0.1146322195844853 -0.229933041338924 0 -0.11992695639240671 -0.24305274461581289 0 -0.12594535918601221 -0.23537450645762351 0 -0.11992695639240671 -0.24305274461581289 0 -0.12594535918601221 -0.23537450645762351 0 -0.1270777831465402 -0.24161244513161839 0 -0.11057817055071439 -0.23713955200355691 0 -0.11992695639240671 -0.24305274461581289 0 -0.1121525856099083 -0.24863050463757599 0 -0.1183855941197941 -0.25651062511641259 0 -0.11992695639240671 -0.24305274461581289 0 -0.1121525856099083 -0.24863050463757599 0 -0.1097432552782682 -0.2572086698476283 0 -0.1121525856099083 -0.24863050463757599 0 -0.1025516661405015 -0.24412656761791199 0 -0.11057817055071439 -0.23713955200355691 0 -0.1121525856099083 -0.24863050463757599 0 -0.1025516661405015 -0.24412656761791199 0 -0.088104632666654803 -0.24175912157342011 0 -0.096373561920523113 -0.2318247108995648 0 -0.1025516661405015 -0.24412656761791199 0 -0.093680051977193257 -0.25300014610948141 0 -0.088104632666654803 -0.24175912157342011 0 -0.1025516661405015 -0.24412656761791199 0 -0.091208904987890735 -0.14232661368977559 0 -0.087323419063827665 -0.1566704494577609 0 -0.098398678104261977 -0.16921735691638781 0 -0.081276062778159672 -0.14883202435870879 0 -0.08710950077230438 -0.14178266396580899 0 -0.074302444905730333 -0.14290824730771751 0 -0.081276062778159672 -0.14883202435870879 0 -0.091208904987890735 -0.14232661368977559 0 -0.087323419063827665 -0.1566704494577609 0 -0.081276062778159672 -0.14883202435870879 0 -0.08710950077230438 -0.14178266396580899 0 -0.091208904987890735 -0.14232661368977559 0 -0.08710950077230438 -0.14178266396580899 0 -0.091208904987890735 -0.14232661368977559 0 -0.091208904987890735 -0.14232661368977559 0 -0.089131397015513494 -0.13455644729756691 0 -0.089131397015513494 -0.13455644729756691 0 -0.072915517223638954 -0.12670463451369329 0 -0.074302444905730333 -0.14290824730771751 0 -0.08710950077230438 -0.14178266396580899 0 -0.091208904987890735 -0.14232661368977559 0 -0.089131397015513494 -0.13455644729756691 0 -0.08710950077230438 -0.14178266396580899 0 -0.089131397015513494 -0.13455644729756691 0 -0.074302444905730333 -0.14290824730771751 0 -0.089131397015513494 -0.13455644729756691 0 -0.074302444905730333 -0.14290824730771751 0 -0.061100100412547438 -0.13647315015658409 0 -0.072915517223638954 -0.12670463451369329 0 -0.074302444905730333 -0.14290824730771751 0 -0.060928146748241367 -0.123537549367131 0 -0.061100100412547438 -0.13647315015658409 0 -0.072915517223638954 -0.12670463451369329 0 -0.059473492795946999 -0.1512600473178678 0 -0.081276062778159672 -0.14883202435870879 0 -0.074302444905730333 -0.14290824730771751 0 -0.059473492795946999 -0.1512600473178678 0 -0.081276062778159672 -0.14883202435870879 0 -0.078410030384998497 -0.16630580286617139 0 -0.059473492795946999 -0.1512600473178678 0 -0.074302444905730333 -0.14290824730771751 0 -0.059473492795946999 -0.1512600473178678 0 -0.061100100412547438 -0.13647315015658409 0 -0.074302444905730333 -0.14290824730771751 0 -0.061817946007188637 -0.1647032604190713 0 -0.070259181001566293 -0.17921715932508539 0 -0.078410030384998497 -0.16630580286617139 0 -0.059473492795946999 -0.1512600473178678 0 -0.078410030384998497 -0.16630580286617139 0 -0.061817946007188637 -0.1647032604190713 0 -0.059473492795946999 -0.1512600473178678 0 -0.078410030384998497 -0.16630580286617139 0 -0.064566778430722005 -0.1899668467895553 0 -0.075377056328755521 -0.19008301367616509 0 -0.070259181001566293 -0.17921715932508539 0 -0.070259181001566293 -0.17921715932508539 0 -0.08402443889557612 -0.1788939005998389 0 -0.078410030384998497 -0.16630580286617139 0 -0.089423753135733974 -0.18837975033564619 0 -0.070259181001566293 -0.17921715932508539 0 -0.075377056328755521 -0.19008301367616509 0 -0.089423753135733974 -0.18837975033564619 0 -0.070259181001566293 -0.17921715932508539 0 -0.078410030384998497 -0.16630580286617139 0 -0.098398678104261977 -0.16921735691638781 0 -0.097346567974052028 -0.18135155841447259 0 -0.078410030384998497 -0.16630580286617139 0 -0.097346567974052028 -0.18135155841447259 0 -0.08402443889557612 -0.1788939005998389 0 -0.078410030384998497 -0.16630580286617139 0 -0.097346567974052028 -0.18135155841447259 0 -0.089423753135733974 -0.18837975033564619 0 -0.070259181001566293 -0.17921715932508539 0 -0.08402443889557612 -0.1788939005998389 0 -0.089423753135733974 -0.18837975033564619 0 -0.08402443889557612 -0.1788939005998389 0 -0.090500110278716836 -0.18291833725845449 0 -0.08402443889557612 -0.1788939005998389 0 -0.090500110278716836 -0.18291833725845449 0 -0.097346567974052028 -0.18135155841447259 0 -0.089423753135733974 -0.18837975033564619 0 -0.090500110278716836 -0.18291833725845449 0 -0.081276062778159672 -0.14883202435870879 0 -0.078410030384998497 -0.16630580286617139 0 -0.087323419063827665 -0.1566704494577609 0 -0.078410030384998497 -0.16630580286617139 0 -0.087323419063827665 -0.1566704494577609 0 -0.098398678104261977 -0.16921735691638781 0 -0.098398678104261977 -0.16921735691638781 0 -0.1095912747331507 -0.1796343382558257 0 -0.1134730054873082 -0.16498410574444861 0 -0.098398678104261977 -0.16921735691638781 0 -0.1134730054873082 -0.16498410574444861 0 -0.1057127461594554 -0.15566112818699529 0 -0.1055884512206339 -0.19610810014299959 0 -0.098398678104261977 -0.16921735691638781 0 -0.099028938128851704 -0.1826882615985625 0 -0.1055884512206339 -0.19610810014299959 0 -0.098398678104261977 -0.16921735691638781 0 -0.1055884512206339 -0.19610810014299959 0 -0.098398678104261977 -0.16921735691638781 0 -0.1095912747331507 -0.1796343382558257 0 -0.095804572093432044 -0.1914304229002349 0 -0.097346567974052028 -0.18135155841447259 0 -0.099028938128851704 -0.1826882615985625 0 -0.095804572093432044 -0.1914304229002349 0 -0.090500110278716836 -0.18291833725845449 0 -0.097346567974052028 -0.18135155841447259 0 -0.095804572093432044 -0.1914304229002349 0 -0.097346567974052028 -0.18135155841447259 0 -0.097346567974052028 -0.18135155841447259 0 -0.099028938128851704 -0.1826882615985625 0 -0.098398678104261977 -0.16921735691638781 0 -0.097346567974052028 -0.18135155841447259 0 -0.099028938128851704 -0.1826882615985625 0 -0.118443644943155 -0.18313735869921541 0 -0.1134730054873082 -0.16498410574444861 0 -0.1288769000074067 -0.1787922372229141 0 -0.118443644943155 -0.18313735869921541 0 -0.1134730054873082 -0.16498410574444861 0 -0.1095912747331507 -0.1796343382558257 0 -0.118443644943155 -0.18313735869921541 0 -0.1134730054873082 -0.16498410574444861 0 -0.1143022105317214 -0.19176920984990589 0 -0.1095912747331507 -0.1796343382558257 0 -0.118443644943155 -0.18313735869921541 0 -0.1134730054873082 -0.16498410574444861 0 -0.1197703960583608 -0.14611643639736929 0 -0.1290470673658046 -0.1573335562640088 0 -0.1134730054873082 -0.16498410574444861 0 -0.1197703960583608 -0.14611643639736929 0 -0.1057127461594554 -0.15566112818699529 0 -0.091208904987890735 -0.14232661368977559 0 -0.1197703960583608 -0.14611643639736929 0 -0.1055319536065798 -0.13433424813048789 0 -0.091208904987890735 -0.14232661368977559 0 -0.1197703960583608 -0.14611643639736929 0 -0.091208904987890735 -0.14232661368977559 0 -0.098398678104261977 -0.16921735691638781 0 -0.091208904987890735 -0.14232661368977559 0 -0.1197703960583608 -0.14611643639736929 0 -0.1057127461594554 -0.15566112818699529 0 -0.091208904987890735 -0.14232661368977559 0 -0.098398678104261977 -0.16921735691638781 0 -0.1057127461594554 -0.15566112818699529 0 -0.11422347955810171 -0.1204243593602408 0 -0.089131397015513494 -0.13455644729756691 0 -0.1055319536065798 -0.13433424813048789 0 -0.091208904987890735 -0.14232661368977559 0 -0.089131397015513494 -0.13455644729756691 0 -0.1055319536065798 -0.13433424813048789 0 -0.11422347955810171 -0.1204243593602408 0 -0.089131397015513494 -0.13455644729756691 0 -0.11422347955810171 -0.1204243593602408 0 -0.1197703960583608 -0.14611643639736929 0 -0.13445671698849809 -0.1291024538471422 0 -0.11422347955810171 -0.1204243593602408 0 -0.1197703960583608 -0.14611643639736929 0 -0.1055319536065798 -0.13433424813048789 0 -0.1483318871288308 -0.14990625910496369 0 -0.16449988742022109 -0.13664022397910389 0 -0.1531014227808439 -0.1221458571451004 0 -0.13445671698849809 -0.1291024538471422 0 -0.1483318871288308 -0.14990625910496369 0 -0.1531014227808439 -0.1221458571451004 0 -0.1197703960583608 -0.14611643639736929 0 -0.1483318871288308 -0.14990625910496369 0 -0.1197703960583608 -0.14611643639736929 0 -0.13445671698849809 -0.1291024538471422 0 -0.1483318871288308 -0.14990625910496369 0 -0.1197703960583608 -0.14611643639736929 0 -0.1483318871288308 -0.14990625910496369 0 -0.1290470673658046 -0.1573335562640088 0 -0.1134730054873082 -0.16498410574444861 0 -0.13461298078871861 -0.16832742380925381 0 -0.1288769000074067 -0.1787922372229141 0 -0.1134730054873082 -0.16498410574444861 0 -0.1290470673658046 -0.1573335562640088 0 -0.13461298078871861 -0.16832742380925381 0 -0.1483318871288308 -0.14990625910496369 0 -0.1290470673658046 -0.1573335562640088 0 -0.13461298078871861 -0.16832742380925381 0 -0.1288769000074067 -0.1787922372229141 0 -0.13667151748925299 -0.18732448341615179 0 -0.12964513627792831 -0.18854704193980709 0 -0.118443644943155 -0.18313735869921541 0 -0.1288769000074067 -0.1787922372229141 0 -0.12964513627792831 -0.18854704193980709 0 -0.13461298078871861 -0.16832742380925381 0 -0.1288769000074067 -0.1787922372229141 0 -0.13971937495991149 -0.1792470101286355 0 -0.13971937495991149 -0.1792470101286355 0 -0.13667151748925299 -0.18732448341615179 0 -0.14496415935730611 -0.1865433765957375 0 -0.1288769000074067 -0.1787922372229141 0 -0.13971937495991149 -0.1792470101286355 0 -0.13667151748925299 -0.18732448341615179 0 -0.13461298078871861 -0.16832742380925381 0 -0.13971937495991149 -0.1792470101286355 0 -0.15185728900885839 -0.17281716391360821 0 -0.13971937495991149 -0.1792470101286355 0 -0.14496415935730611 -0.1865433765957375 0 -0.15185728900885839 -0.17281716391360821 0 -0.14496415935730611 -0.1865433765957375 0 -0.15185728900885839 -0.17281716391360821 0 -0.15433817598466459 -0.18776234762491931 0 -0.1483318871288308 -0.14990625910496369 0 -0.13461298078871861 -0.16832742380925381 0 -0.15185728900885839 -0.17281716391360821 0 -0.1483318871288308 -0.14990625910496369 0 -0.15185728900885839 -0.17281716391360821 0 -0.1768933781993007 -0.15369608181255809 0 -0.15185728900885839 -0.17281716391360821 0 -0.16517877359736971 -0.18077311964873491 0 -0.1768933781993007 -0.15369608181255809 0 -0.16517877359736971 -0.18077311964873491 0 -0.15433817598466459 -0.18776234762491931 0 -0.16707343948115469 -0.19329854854562631 0 -0.15185728900885839 -0.17281716391360821 0 -0.16517877359736971 -0.18077311964873491 0 -0.15433817598466459 -0.18776234762491931 0 -0.16517877359736971 -0.18077311964873491 0 -0.17993745220376059 -0.17895489523397801 0 -0.16707343948115469 -0.19329854854562631 0 -0.16517877359736971 -0.18077311964873491 0 -0.17993745220376059 -0.17895489523397801 0 -0.1768933781993007 -0.15369608181255809 0 -0.17993745220376059 -0.17895489523397801 0 -0.1768933781993007 -0.15369608181255809 0 -0.19905977422349169 -0.1755558360643551 0 -0.1768933781993007 -0.15369608181255809 0 -0.17856324423929071 -0.13411692648003359 0 -0.16449988742022109 -0.13664022397910389 0 -0.1768933781993007 -0.15369608181255809 0 -0.17856324423929071 -0.13411692648003359 0 -0.1900158864605431 -0.1418606691544825 0 -0.17856324423929071 -0.13411692648003359 0 -0.1912596026832544 -0.12883579632457359 0 -0.1900158864605431 -0.1418606691544825 0 -0.17856324423929071 -0.13411692648003359 0 -0.1912596026832544 -0.12883579632457359 0 -0.18212358698306741 -0.12142770117184561 0 -0.17856324423929071 -0.13411692648003359 0 -0.18212358698306741 -0.12142770117184561 0 -0.16904936396502779 -0.1225698900008125 0 -0.16449988742022109 -0.13664022397910389 0 -0.16904936396502779 -0.1225698900008125 0 -0.1531014227808439 -0.1221458571451004 0 -0.17856324423929071 -0.13411692648003359 0 -0.16449988742022109 -0.13664022397910389 0 -0.16904936396502779 -0.1225698900008125 0 -0.1483318871288308 -0.14990625910496369 0 -0.1768933781993007 -0.15369608181255809 0 -0.1483318871288308 -0.14990625910496369 0 -0.1768933781993007 -0.15369608181255809 0 -0.16449988742022109 -0.13664022397910389 0 -0.15566934165753701 -0.24482136105764621 0 -0.13482897363606841 -0.24297815366164491 0 -0.14564999181442231 -0.22989611270817639 0 -0.15566934165753701 -0.24482136105764621 0 -0.14564999181442231 -0.22989611270817639 0 -0.16429012863802009 -0.23491512272004891 0 -0.15821309250511281 -0.26118480488572993 0 -0.15566934165753701 -0.24482136105764621 0 -0.13482897363606841 -0.24297815366164491 0 -0.1283361407779757 -0.25159171728621699 0 -0.13482897363606841 -0.24297815366164491 0 -0.1310987251445577 -0.2446583467236331 0 -0.1283361407779757 -0.25159171728621699 0 -0.1310987251445577 -0.2446583467236331 0 -0.1270777831465402 -0.24161244513161839 0 -0.1283361407779757 -0.25159171728621699 0 -0.11992695639240671 -0.24305274461581289 0 -0.1270777831465402 -0.24161244513161839 0 -0.13482897363606841 -0.24297815366164491 0 -0.1310987251445577 -0.2446583467236331 0 -0.1270777831465402 -0.24161244513161839 0 -0.13482897363606841 -0.24297815366164491 0 -0.12594535918601221 -0.23537450645762351 0 -0.1270777831465402 -0.24161244513161839 0 -0.13482897363606841 -0.24297815366164491 0 -0.12964778408632779 -0.2240559515308029 0 -0.14564999181442231 -0.22989611270817639 0 -0.13482897363606841 -0.24297815366164491 0 -0.12594535918601221 -0.23537450645762351 0 -0.12964778408632779 -0.2240559515308029 0 -0.13482897363606841 -0.24297815366164491 0 -0.12964778408632779 -0.2240559515308029 0 -0.12964778408632779 -0.2240559515308029 0 -0.14564999181442231 -0.22989611270817639 0 -0.13906082520362789 -0.21424948005767519 0 -0.14564999181442231 -0.22989611270817639 0 -0.1532157355819776 -0.21469763412746851 0 -0.16429012863802009 -0.23491512272004891 0 -0.14564999181442231 -0.22989611270817639 0 -0.1532157355819776 -0.21469763412746851 0 -0.13906082520362789 -0.21424948005767519 0 -0.1532157355819776 -0.21469763412746851 0 -0.1421413425259351 -0.1944801455348881 0 -0.14344356041104711 -0.20138231805780499 0 -0.1532157355819776 -0.21469763412746851 0 -0.1421413425259351 -0.1944801455348881 0 -0.1532157355819776 -0.21469763412746851 0 -0.13906082520362789 -0.21424948005767519 0 -0.14344356041104711 -0.20138231805780499 0 -0.12964778408632779 -0.2240559515308029 0 -0.13906082520362789 -0.21424948005767519 0 -0.12775347419704111 -0.20670520812175669 0 -0.12446659453658469 -0.2051337493999616 0 -0.12964778408632779 -0.2240559515308029 0 -0.12775347419704111 -0.20670520812175669 0 -0.12446659453658469 -0.2051337493999616 0 -0.12964778408632779 -0.2240559515308029 0 -0.1234142843990034 -0.20129061165398179 0 -0.12775347419704111 -0.20670520812175669 0 -0.1342433848347403 -0.2059710501757869 0 -0.1234142843990034 -0.20129061165398179 0 -0.12446659453658469 -0.2051337493999616 0 -0.12775347419704111 -0.20670520812175669 0 -0.12446659453658469 -0.2051337493999616 0 -0.12775347419704111 -0.20670520812175669 0 -0.13906082520362789 -0.21424948005767519 0 -0.12775347419704111 -0.20670520812175669 0 -0.1342433848347403 -0.2059710501757869 0 -0.13906082520362789 -0.21424948005767519 0 -0.1342433848347403 -0.2059710501757869 0 -0.14344356041104711 -0.20138231805780499 0 -0.13448747671815081 -0.19705371152474219 0 -0.1421413425259351 -0.1944801455348881 0 -0.14344356041104711 -0.20138231805780499 0 -0.1234142843990034 -0.20129061165398179 0 -0.1342433848347403 -0.2059710501757869 0 -0.14344356041104711 -0.20138231805780499 0 -0.1234142843990034 -0.20129061165398179 0 -0.13448747671815081 -0.19705371152474219 0 -0.14344356041104711 -0.20138231805780499 0 -0.1234142843990034 -0.20129061165398179 0 -0.14344356041104711 -0.20138231805780499 0 -0.1234142843990034 -0.20129061165398179 0 -0.13448747671815081 -0.19705371152474219 0 -0.12836978379805469 -0.19505845874684749 0 -0.118443644943155 -0.18313735869921541 0 -0.12836978379805469 -0.19505845874684749 0 -0.12964513627792831 -0.18854704193980709 0 -0.12836978379805469 -0.19505845874684749 0 -0.12964513627792831 -0.18854704193980709 0 -0.1350684124567138 -0.19305702363018909 0 -0.13448747671815081 -0.19705371152474219 0 -0.12836978379805469 -0.19505845874684749 0 -0.1350684124567138 -0.19305702363018909 0 -0.13667151748925299 -0.18732448341615179 0 -0.12964513627792831 -0.18854704193980709 0 -0.1350684124567138 -0.19305702363018909 0 -0.13448747671815081 -0.19705371152474219 0 -0.1350684124567138 -0.19305702363018909 0 -0.1421413425259351 -0.1944801455348881 0 -0.13667151748925299 -0.18732448341615179 0 -0.1350684124567138 -0.19305702363018909 0 -0.1421413425259351 -0.1944801455348881 0 -0.1532157355819776 -0.21469763412746851 0 -0.1421413425259351 -0.1944801455348881 0 -0.15666351948114629 -0.1995899832452937 0 -0.13667151748925299 -0.18732448341615179 0 -0.14496415935730611 -0.1865433765957375 0 -0.1421413425259351 -0.1944801455348881 0 -0.14496415935730611 -0.1865433765957375 0 -0.1421413425259351 -0.1944801455348881 0 -0.15433817598466459 -0.18776234762491931 0 -0.1421413425259351 -0.1944801455348881 0 -0.15433817598466459 -0.18776234762491931 0 -0.15666351948114629 -0.1995899832452937 0 -0.15433817598466459 -0.18776234762491931 0 -0.15666351948114629 -0.1995899832452937 0 -0.16707343948115469 -0.19329854854562631 0 -0.15666351948114629 -0.1995899832452937 0 -0.16707343948115469 -0.19329854854562631 0 -0.16732224548458891 -0.20842311436722119 0 -0.16707343948115469 -0.19329854854562631 0 -0.17975878066101059 -0.20042989322362739 0 -0.16732224548458891 -0.20842311436722119 0 -0.17993745220376059 -0.17895489523397801 0 -0.17975878066101059 -0.20042989322362739 0 -0.19266467917721081 -0.1936257676085566 0 -0.17993745220376059 -0.17895489523397801 0 -0.16707343948115469 -0.19329854854562631 0 -0.17975878066101059 -0.20042989322362739 0 -0.17975878066101059 -0.20042989322362739 0 -0.18070391625864071 -0.21863984915545301 0 -0.19253239785726259 -0.2093467412910768 0 -0.17975878066101059 -0.20042989322362739 0 -0.18070391625864071 -0.21863984915545301 0 -0.16732224548458891 -0.20842311436722119 0 -0.1532157355819776 -0.21469763412746851 0 -0.15666351948114629 -0.1995899832452937 0 -0.16732224548458891 -0.20842311436722119 0 -0.1532157355819776 -0.21469763412746851 0 -0.16732224548458891 -0.20842311436722119 0 -0.16429012863802009 -0.23491512272004891 0 -0.1532157355819776 -0.21469763412746851 0 -0.16429012863802009 -0.23491512272004891 0 -0.18070391625864071 -0.21863984915545301 0 -0.16732224548458891 -0.20842311436722119 0 -0.16429012863802009 -0.23491512272004891 0 -0.18070391625864071 -0.21863984915545301 0 -0.18601458812680871 -0.23629827425452701 0 -0.16429012863802009 -0.23491512272004891 0 -0.18070391625864071 -0.21863984915545301 0 -0.18601458812680871 -0.23629827425452701 0 -0.19270158591305361 -0.22296204550849591 0 -0.17536452169406261 -0.25513261131262932 0 -0.18601458812680871 -0.23629827425452701 0 -0.1971211098569064 -0.2485562144643311 0 -0.17536452169406261 -0.25513261131262932 0 -0.18601458812680871 -0.23629827425452701 0 -0.16429012863802009 -0.23491512272004891 0 -0.17536452169406261 -0.25513261131262932 0 -0.16429012863802009 -0.23491512272004891 0 -0.17536452169406261 -0.25513261131262932 0 -0.15566934165753701 -0.24482136105764621 0 -0.16429012863802009 -0.23491512272004891 0 -0.2040044810152343 -0.23377727090047351 0 -0.22181314593257209 -0.22697511150882529 0 -0.22025275826160279 -0.2471257797298928 0 -0.1971211098569064 -0.2485562144643311 0 -0.2040044810152343 -0.23377727090047351 0 -0.22025275826160279 -0.2471257797298928 0 -0.18601458812680871 -0.23629827425452701 0 -0.1971211098569064 -0.2485562144643311 0 -0.2040044810152343 -0.23377727090047351 0 -0.18601458812680871 -0.23629827425452701 0 -0.19270158591305361 -0.22296204550849591 0 -0.2040044810152343 -0.23377727090047351 0 -0.19270158591305361 -0.22296204550849591 0 -0.20646661184779291 -0.2209366033754204 0 -0.2040044810152343 -0.23377727090047351 0 -0.20646661184779291 -0.2209366033754204 0 -0.2040044810152343 -0.23377727090047351 0 -0.22181314593257209 -0.22697511150882529 0 -0.20646661184779291 -0.2209366033754204 0 -0.22181314593257209 -0.22697511150882529 0 -0.20646661184779291 -0.2209366033754204 0 -0.21966781828876961 -0.21222017746694699 0 -0.22181314593257209 -0.22697511150882529 0 -0.20646661184779291 -0.2209366033754204 0 -0.20611948272011121 -0.20304611138236681 0 -0.21966781828876961 -0.21222017746694699 0 -0.20611948272011121 -0.20304611138236681 0 -0.21897926871800019 -0.19669337567287831 0 -0.21966781828876961 -0.21222017746694699 0 -0.20646661184779291 -0.2209366033754204 0 -0.19253239785726259 -0.2093467412910768 0 -0.20611948272011121 -0.20304611138236681 0 -0.19270158591305361 -0.22296204550849591 0 -0.20646661184779291 -0.2209366033754204 0 -0.19253239785726259 -0.2093467412910768 0 -0.18070391625864071 -0.21863984915545301 0 -0.19270158591305361 -0.22296204550849591 0 -0.19253239785726259 -0.2093467412910768 0 -0.19266467917721081 -0.1936257676085566 0 -0.20611948272011121 -0.20304611138236681 0 -0.2083219237785757 -0.1873320277690235 0 -0.17975878066101059 -0.20042989322362739 0 -0.19253239785726259 -0.2093467412910768 0 -0.19266467917721081 -0.1936257676085566 0 -0.19253239785726259 -0.2093467412910768 0 -0.19266467917721081 -0.1936257676085566 0 -0.20611948272011121 -0.20304611138236681 0 -0.20611948272011121 -0.20304611138236681 0 -0.21897926871800019 -0.19669337567287831 0 -0.2083219237785757 -0.1873320277690235 0 -0.21897926871800019 -0.19669337567287831 0 -0.23230424975577199 -0.20503470769258789 0 -0.23313215691775949 -0.18450877018534409 0 -0.2448317244682672 -0.19494017856122331 0 -0.23230424975577199 -0.20503470769258789 0 -0.23313215691775949 -0.18450877018534409 0 -0.2448317244682672 -0.19494017856122331 0 -0.24405101732391901 -0.2151790953022156 0 -0.23230424975577199 -0.20503470769258789 0 -0.2448317244682672 -0.19494017856122331 0 -0.24405101732391901 -0.2151790953022156 0 -0.24405101732391901 -0.2151790953022156 0 -0.23230424975577199 -0.20503470769258789 0 -0.23232415075836929 -0.22063515516960361 0 -0.23230424975577199 -0.20503470769258789 0 -0.21966781828876961 -0.21222017746694699 0 -0.23232415075836929 -0.22063515516960361 0 -0.21897926871800019 -0.19669337567287831 0 -0.23230424975577199 -0.20503470769258789 0 -0.21966781828876961 -0.21222017746694699 0 -0.21966781828876961 -0.21222017746694699 0 -0.22181314593257209 -0.22697511150882529 0 -0.23232415075836929 -0.22063515516960361 0 -0.22181314593257209 -0.22697511150882529 0 -0.23232415075836929 -0.22063515516960361 0 -0.2371596800173508 -0.23301361964223161 0 -0.22181314593257209 -0.22697511150882529 0 -0.2371596800173508 -0.23301361964223161 0 -0.24405101732391901 -0.2151790953022156 0 -0.24327031017957049 -0.23541801204320789 0 -0.24405101732391901 -0.2151790953022156 0 -0.24327031017957049 -0.23541801204320789 0 -0.25588924886857078 -0.22577026586403889 0 -0.24405101732391901 -0.2151790953022156 0 -0.23232415075836929 -0.22063515516960361 0 -0.23916826383476761 -0.23133706037317611 0 -0.24405101732391901 -0.2151790953022156 0 -0.23916826383476761 -0.23133706037317611 0 -0.24327031017957049 -0.23541801204320789 0 -0.23916826383476761 -0.23133706037317611 0 -0.2371596800173508 -0.23301361964223161 0 -0.24327031017957049 -0.23541801204320789 0 -0.2371596800173508 -0.23301361964223161 0 -0.24327031017957049 -0.23541801204320789 0 -0.23232415075836929 -0.22063515516960361 0 -0.23916826383476761 -0.23133706037317611 0 -0.2371596800173508 -0.23301361964223161 0 -0.23916826383476761 -0.23133706037317611 0 -0.2371596800173508 -0.23301361964223161 0 -0.24233717299785959 -0.25960849866204011 0 -0.24327031017957049 -0.23541801204320789 0 -0.23442911476228809 -0.24683612341654529 0 -0.24233717299785959 -0.25960849866204011 0 -0.24327031017957049 -0.23541801204320789 0 -0.25018128361314113 -0.24746468840205441 0 -0.2371596800173508 -0.23301361964223161 0 -0.24327031017957049 -0.23541801204320789 0 -0.23442911476228809 -0.24683612341654529 0 -0.24233717299785959 -0.25960849866204011 0 -0.24327031017957049 -0.23541801204320789 0 -0.2371596800173508 -0.23301361964223161 0 -0.22025275826160279 -0.2471257797298928 0 -0.2371596800173508 -0.23301361964223161 0 -0.23442911476228809 -0.24683612341654529 0 -0.22025275826160279 -0.2471257797298928 0 -0.22181314593257209 -0.22697511150882529 0 -0.2371596800173508 -0.23301361964223161 0 -0.22025275826160279 -0.2471257797298928 0 -0.21260261997950849 -0.1372892749024191 0 -0.20545486926977061 -0.1574859045201529 0 -0.21260261997950849 -0.1372892749024191 0 -0.20545486926977061 -0.1574859045201529 0 -0.22601880180638709 -0.14497793796819641 0 -0.21260261997950849 -0.1372892749024191 0 -0.20085213665154589 -0.13643960324073179 0 -0.20545486926977061 -0.1574859045201529 0 -0.21260261997950849 -0.1372892749024191 0 -0.2197503706892443 -0.1170926452846846 0 -0.20366324778073339 -0.1226314006036201 0 -0.21260261997950849 -0.1372892749024191 0 -0.2197503706892443 -0.1170926452846846 0 -0.21260261997950849 -0.1372892749024191 0 -0.20085213665154589 -0.13643960324073179 0 -0.20366324778073339 -0.1226314006036201 0 -0.20085213665154589 -0.13643960324073179 0 -0.1912596026832544 -0.12883579632457359 0 -0.20366324778073339 -0.1226314006036201 0 -0.20085213665154589 -0.13643960324073179 0 -0.1912596026832544 -0.12883579632457359 0 -0.1900158864605431 -0.1418606691544825 0 -0.1768933781993007 -0.15369608181255809 0 -0.1900158864605431 -0.1418606691544825 0 -0.20545486926977061 -0.1574859045201529 0 -0.1768933781993007 -0.15369608181255809 0 -0.20545486926977061 -0.1574859045201529 0 -0.20085213665154589 -0.13643960324073179 0 -0.1900158864605431 -0.1418606691544825 0 -0.20545486926977061 -0.1574859045201529 0 -0.1768933781993007 -0.15369608181255809 0 -0.19905977422349169 -0.1755558360643551 0 -0.20545486926977061 -0.1574859045201529 0 -0.19905977422349169 -0.1755558360643551 0 -0.20545486926977061 -0.1574859045201529 0 -0.19266467917721081 -0.1936257676085566 0 -0.19905977422349169 -0.1755558360643551 0 -0.19266467917721081 -0.1936257676085566 0 -0.19905977422349169 -0.1755558360643551 0 -0.2083219237785757 -0.1873320277690235 0 -0.17993745220376059 -0.17895489523397801 0 -0.19266467917721081 -0.1936257676085566 0 -0.19905977422349169 -0.1755558360643551 0 -0.21897926871800019 -0.19669337567287831 0 -0.2083219237785757 -0.1873320277690235 0 -0.21860002285518379 -0.17692462022396371 0 -0.19905977422349169 -0.1755558360643551 0 -0.2083219237785757 -0.1873320277690235 0 -0.21860002285518379 -0.17692462022396371 0 -0.19905977422349169 -0.1755558360643551 0 -0.21860002285518379 -0.17692462022396371 0 -0.20545486926977061 -0.1574859045201529 0 -0.21860002285518379 -0.17692462022396371 0 -0.20545486926977061 -0.1574859045201529 0 -0.2334194436613071 -0.16119652238585741 0 -0.20545486926977061 -0.1574859045201529 0 -0.2334194436613071 -0.16119652238585741 0 -0.21860002285518379 -0.17692462022396371 0 -0.2334194436613071 -0.16119652238585741 0 -0.23313215691775949 -0.18450877018534409 0 -0.21897926871800019 -0.19669337567287831 0 -0.21860002285518379 -0.17692462022396371 0 -0.23313215691775949 -0.18450877018534409 0 -0.2448317244682672 -0.19494017856122331 0 -0.24561243161261531 -0.1747012618202311 0 -0.2448317244682672 -0.19494017856122331 0 -0.23313215691775949 -0.18450877018534409 0 -0.24561243161261531 -0.1747012618202311 0 -0.2334194436613071 -0.16119652238585741 0 -0.23313215691775949 -0.18450877018534409 0 -0.24561243161261531 -0.1747012618202311 0 -0.2334194436613071 -0.16119652238585741 0 -0.24768759332024501 -0.15288591991307249 0 -0.26138401805284373 -0.16490714025156239 0 -0.2334194436613071 -0.16119652238585741 0 -0.24561243161261531 -0.1747012618202311 0 -0.26138401805284373 -0.16490714025156239 0 -0.2334194436613071 -0.16119652238585741 0 -0.26138401805284373 -0.16490714025156239 0 -0.24768759332024501 -0.15288591991307249 0 -0.24035206963199701 -0.13773520297616959 0 -0.25066558347885931 -0.13251764995053431 0 -0.23716828236838119 -0.14842713651880179 0 -0.22601880180638709 -0.14497793796819641 0 -0.24035206963199701 -0.13773520297616959 0 -0.24768759332024501 -0.15288591991307249 0 -0.23716828236838119 -0.14842713651880179 0 -0.24035206963199701 -0.13773520297616959 0 -0.2334194436613071 -0.16119652238585741 0 -0.24768759332024501 -0.15288591991307249 0 -0.23716828236838119 -0.14842713651880179 0 -0.20545486926977061 -0.1574859045201529 0 -0.2334194436613071 -0.16119652238585741 0 -0.22601880180638709 -0.14497793796819641 0 -0.2334194436613071 -0.16119652238585741 0 -0.23716828236838119 -0.14842713651880179 0 -0.22601880180638709 -0.14497793796819641 0 -0.21260261997950849 -0.1372892749024191 0 -0.22701037204806629 -0.12800517972509859 0 -0.2197503706892443 -0.1170926452846846 0 -0.22601880180638709 -0.14497793796819641 0 -0.22701037204806629 -0.12800517972509859 0 -0.24035206963199701 -0.13773520297616959 0 -0.21260261997950849 -0.1372892749024191 0 -0.22601880180638709 -0.14497793796819641 0 -0.22701037204806629 -0.12800517972509859 0 -0.22701037204806629 -0.12800517972509859 0 -0.23833475363582929 -0.12699719077821001 0 -0.24035206963199701 -0.13773520297616959 0 -0.23833475363582929 -0.12699719077821001 0 -0.24035206963199701 -0.13773520297616959 0 -0.25066558347885931 -0.13251764995053431 0 -0.23833475363582929 -0.12699719077821001 0 -0.2466021228926524 -0.1215603100838341 0 -0.25066558347885931 -0.13251764995053431 0 -0.2466021228926524 -0.1215603100838341 0 -0.23420880670407421 -0.115344861449812 0 -0.25028307647261949 -0.1119170655065333 0 -0.23833475363582929 -0.12699719077821001 0 -0.2466021228926524 -0.1215603100838341 0 -0.23420880670407421 -0.115344861449812 0 -0.23975108867161321 -0.096745383671773488 0 -0.23420880670407421 -0.115344861449812 0 -0.25028307647261949 -0.1119170655065333 0 -0.23975108867161321 -0.096745383671773488 0 -0.25028307647261949 -0.1119170655065333 0 -0.25454071313255938 -0.097810231909066098 0 -0.23975108867161321 -0.096745383671773488 0 -0.22550089202944229 -0.1008440162637169 0 -0.23125141336964011 -0.084595387242749231 0 -0.23975108867161321 -0.096745383671773488 0 -0.22550089202944229 -0.1008440162637169 0 -0.23420880670407421 -0.115344861449812 0 -0.22550089202944229 -0.1008440162637169 0 -0.23125141336964011 -0.084595387242749231 0 -0.20770402821161371 -0.098985744105056478 0 -0.22550089202944229 -0.1008440162637169 0 -0.2197503706892443 -0.1170926452846846 0 -0.22550089202944229 -0.1008440162637169 0 -0.2197503706892443 -0.1170926452846846 0 -0.23420880670407421 -0.115344861449812 0 -0.22701037204806629 -0.12800517972509859 0 -0.2197503706892443 -0.1170926452846846 0 -0.22701037204806629 -0.12800517972509859 0 -0.2197503706892443 -0.1170926452846846 0 -0.23420880670407421 -0.115344861449812 0 -0.22701037204806629 -0.12800517972509859 0 -0.23833475363582929 -0.12699719077821001 0 -0.23420880670407421 -0.115344861449812 0 -0.24621250417125429 -0.067242688607955695 0 -0.2359213828018043 -0.071399957410672343 0 -0.2460442741291925 -0.056732515276429897 0 -0.24101683233652779 -0.07862751170581421 0 -0.252754029676304 -0.071454636367457428 0 -0.24621250417125429 -0.067242688607955695 0 -0.24101683233652779 -0.07862751170581421 0 -0.252754029676304 -0.071454636367457428 0 -0.2359213828018043 -0.071399957410672343 0 -0.24101683233652779 -0.07862751170581421 0 -0.24621250417125429 -0.067242688607955695 0 -0.2359213828018043 -0.071399957410672343 0 -0.24101683233652779 -0.07862751170581421 0 -0.24101683233652779 -0.07862751170581421 0 -0.25454071313255938 -0.097810231909066098 0 -0.23975108867161321 -0.096745383671773488 0 -0.24101683233652779 -0.07862751170581421 0 -0.25454071313255938 -0.097810231909066098 0 -0.23975108867161321 -0.096745383671773488 0 -0.24101683233652779 -0.07862751170581421 0 -0.23125141336964011 -0.084595387242749231 0 -0.24101683233652779 -0.07862751170581421 0 -0.23125141336964011 -0.084595387242749231 0 -0.2359213828018043 -0.071399957410672343 0 -0.24101683233652779 -0.07862751170581421 0 -0.23125141336964011 -0.084595387242749231 0 -0.23125141336964011 -0.084595387242749231 0 -0.2244703125416819 -0.072794076224461268 0 -0.21310247649950159 -0.079773441579648038 0 -0.23125141336964011 -0.084595387242749231 0 -0.20770402821161371 -0.098985744105056478 0 -0.22550089202944229 -0.1008440162637169 0 -0.23125141336964011 -0.084595387242749231 0 -0.2359213828018043 -0.071399957410672343 0 -0.2235514570548072 -0.053854045248439182 0 -0.2244703125416819 -0.072794076224461268 0 -0.21482267827762841 -0.069082647852091478 0 -0.2235514570548072 -0.053854045248439182 0 -0.2359213828018043 -0.071399957410672343 0 -0.2244703125416819 -0.072794076224461268 0 -0.2235514570548072 -0.053854045248439182 0 -0.2359213828018043 -0.071399957410672343 0 -0.23125141336964011 -0.084595387242749231 0 -0.2244703125416819 -0.072794076224461268 0 -0.2359213828018043 -0.071399957410672343 0 -0.23125141336964011 -0.084595387242749231 0 -0.20472732395068391 -0.070425609547595483 0 -0.21310247649950159 -0.079773441579648038 0 -0.1942101978544846 -0.078703118630565005 0 -0.21482267827762841 -0.069082647852091478 0 -0.20472732395068391 -0.070425609547595483 0 -0.20783277774853701 -0.056374475910446593 0 -0.2244703125416819 -0.072794076224461268 0 -0.21482267827762841 -0.069082647852091478 0 -0.21310247649950159 -0.079773441579648038 0 -0.21482267827762841 -0.069082647852091478 0 -0.20472732395068391 -0.070425609547595483 0 -0.21310247649950159 -0.079773441579648038 0 -0.23125141336964011 -0.084595387242749231 0 -0.21310247649950159 -0.079773441579648038 0 -0.20770402821161371 -0.098985744105056478 0 -0.21310247649950159 -0.079773441579648038 0 -0.1942101978544846 -0.078703118630565005 0 -0.20770402821161371 -0.098985744105056478 0 -0.1942101978544846 -0.078703118630565005 0 -0.20770402821161371 -0.098985744105056478 0 -0.1942101978544846 -0.078703118630565005 0 -0.20770402821161371 -0.098985744105056478 0 -0.19331927689223261 -0.094690670375105077 0 -0.1942101978544846 -0.078703118630565005 0 -0.19331927689223261 -0.094690670375105077 0 -0.1804061946459036 -0.0975656506999769 0 -0.1942101978544846 -0.078703118630565005 0 -0.1807163674973549 -0.058420493156073998 0 -0.19569491766720151 -0.061370611856350392 0 -0.20472732395068391 -0.070425609547595483 0 -0.1942101978544846 -0.078703118630565005 0 -0.19569491766720151 -0.061370611856350392 0 -0.20472732395068391 -0.070425609547595483 0 -0.19569491766720151 -0.061370611856350392 0 -0.20783277774853701 -0.056374475910446593 0 -0.2197503706892443 -0.1170926452846846 0 -0.20366324778073339 -0.1226314006036201 0 -0.20770402821161371 -0.098985744105056478 0 -0.22550089202944229 -0.1008440162637169 0 -0.2197503706892443 -0.1170926452846846 0 -0.20770402821161371 -0.098985744105056478 0 -0.2197503706892443 -0.1170926452846846 0 -0.20770402821161371 -0.098985744105056478 0 -0.20770402821161371 -0.098985744105056478 0 -0.19331927689223261 -0.094690670375105077 0 -0.18400427859456039 -0.1134692144457318 0 -0.20770402821161371 -0.098985744105056478 0 -0.18400427859456039 -0.1134692144457318 0 -0.20770402821161371 -0.098985744105056478 0 -0.19170728544238649 -0.1194909919475228 0 -0.18400427859456039 -0.1134692144457318 0 -0.20366324778073339 -0.1226314006036201 0 -0.20770402821161371 -0.098985744105056478 0 -0.19170728544238649 -0.1194909919475228 0 -0.1912596026832544 -0.12883579632457359 0 -0.20366324778073339 -0.1226314006036201 0 -0.19170728544238649 -0.1194909919475228 0 -0.1912596026832544 -0.12883579632457359 0 -0.19170728544238649 -0.1194909919475228 0 -0.18212358698306741 -0.12142770117184561 0 -0.18212358698306741 -0.12142770117184561 0 -0.18400427859456039 -0.1134692144457318 0 -0.1804061946459036 -0.0975656506999769 0 -0.18212358698306741 -0.12142770117184561 0 -0.17231042801981861 -0.11010941660198729 0 -0.1804061946459036 -0.0975656506999769 0 -0.19170728544238649 -0.1194909919475228 0 -0.18212358698306741 -0.12142770117184561 0 -0.18400427859456039 -0.1134692144457318 0 -0.18212358698306741 -0.12142770117184561 0 -0.1804061946459036 -0.0975656506999769 0 -0.18212358698306741 -0.12142770117184561 0 -0.17231042801981861 -0.11010941660198729 0 -0.16904936396502779 -0.1225698900008125 0 -0.16904936396502779 -0.1225698900008125 0 -0.16303186383997401 -0.11054530689275879 0 -0.1531014227808439 -0.1221458571451004 0 -0.16303186383997401 -0.11054530689275879 0 -0.1531014227808439 -0.1221458571451004 0 -0.15302467802266631 -0.099964594768007481 0 -0.17231042801981861 -0.11010941660198729 0 -0.16904936396502779 -0.1225698900008125 0 -0.16303186383997401 -0.11054530689275879 0 -0.16694113066512001 -0.098438534244542714 0 -0.1583311292500037 -0.086155785580523059 0 -0.15302467802266631 -0.099964594768007481 0 -0.16303186383997401 -0.11054530689275879 0 -0.16694113066512001 -0.098438534244542714 0 -0.15302467802266631 -0.099964594768007481 0 -0.17231042801981861 -0.11010941660198729 0 -0.16303186383997401 -0.11054530689275879 0 -0.16694113066512001 -0.098438534244542714 0 -0.16694113066512001 -0.098438534244542714 0 -0.1804061946459036 -0.0975656506999769 0 -0.1699979234477183 -0.086164615643162509 0 -0.19331927689223261 -0.094690670375105077 0 -0.18400427859456039 -0.1134692144457318 0 -0.1804061946459036 -0.0975656506999769 0 -0.17231042801981861 -0.11010941660198729 0 -0.16694113066512001 -0.098438534244542714 0 -0.1804061946459036 -0.0975656506999769 0 -0.1942101978544846 -0.078703118630565005 0 -0.1804061946459036 -0.0975656506999769 0 -0.17868880230873979 -0.073703600228108263 0 -0.1804061946459036 -0.0975656506999769 0 -0.17868880230873979 -0.073703600228108263 0 -0.1804061946459036 -0.0975656506999769 0 -0.17868880230873979 -0.073703600228108263 0 -0.1699979234477183 -0.086164615643162509 0 -0.1942101978544846 -0.078703118630565005 0 -0.17868880230873979 -0.073703600228108263 0 -0.1807163674973549 -0.058420493156073998 0 -0.1942101978544846 -0.078703118630565005 0 -0.1807163674973549 -0.058420493156073998 0 -0.17868880230873979 -0.073703600228108263 0 -0.16456215259537851 -0.07423447470758808 0 -0.1687761726195266 -0.062055246708151823 0 -0.16456215259537851 -0.07423447470758808 0 -0.1601060057786266 -0.063048208625582775 0 -0.1687761726195266 -0.062055246708151823 0 -0.17868880230873979 -0.073703600228108263 0 -0.16456215259537851 -0.07423447470758808 0 -0.1699979234477183 -0.086164615643162509 0 -0.16456215259537851 -0.07423447470758808 0 -0.1601060057786266 -0.063048208625582775 0 -0.15147288216765581 -0.074279391460000108 0 -0.16694113066512001 -0.098438534244542714 0 -0.1699979234477183 -0.086164615643162509 0 -0.1583311292500037 -0.086155785580523059 0 -0.16456215259537851 -0.07423447470758808 0 -0.1699979234477183 -0.086164615643162509 0 -0.1583311292500037 -0.086155785580523059 0 -0.16456215259537851 -0.07423447470758808 0 -0.1583311292500037 -0.086155785580523059 0 -0.15147288216765581 -0.074279391460000108 0 -0.1583311292500037 -0.086155785580523059 0 -0.1406917504718985 -0.083199174386461974 0 -0.15147288216765581 -0.074279391460000108 0 -0.1583311292500037 -0.086155785580523059 0 -0.1406917504718985 -0.083199174386461974 0 -0.15302467802266631 -0.099964594768007481 0 -0.1601060057786266 -0.063048208625582775 0 -0.15147288216765581 -0.074279391460000108 0 -0.14916280428309589 -0.053864076679432472 0 -0.15147288216765581 -0.074279391460000108 0 -0.13891648936515211 -0.064472249171247775 0 -0.14916280428309589 -0.053864076679432472 0 -0.1406917504718985 -0.083199174386461974 0 -0.15147288216765581 -0.074279391460000108 0 -0.13891648936515211 -0.064472249171247775 0 -0.12197003300458489 -0.067133964797042034 0 -0.1406917504718985 -0.083199174386461974 0 -0.13891648936515211 -0.064472249171247775 0 -0.121811479392537 -0.084095963505499416 0 -0.12197003300458489 -0.067133964797042034 0 -0.1406917504718985 -0.083199174386461974 0 -0.121811479392537 -0.084095963505499416 0 -0.1406917504718985 -0.083199174386461974 0 -0.13931556210068971 -0.10629227142291391 0 -0.11605893441195141 -0.10185107539240761 0 -0.121811479392537 -0.084095963505499416 0 -0.13931556210068971 -0.10629227142291391 0 -0.11422347955810171 -0.1204243593602408 0 -0.13931556210068971 -0.10629227142291391 0 -0.11422347955810171 -0.1204243593602408 0 -0.13445671698849809 -0.1291024538471422 0 -0.13931556210068971 -0.10629227142291391 0 -0.13445671698849809 -0.1291024538471422 0 -0.13931556210068971 -0.10629227142291391 0 -0.1531014227808439 -0.1221458571451004 0 -0.13931556210068971 -0.10629227142291391 0 -0.1531014227808439 -0.1221458571451004 0 -0.15302467802266631 -0.099964594768007481 0 -0.1406917504718985 -0.083199174386461974 0 -0.13931556210068971 -0.10629227142291391 0 -0.15302467802266631 -0.099964594768007481 0 -0.14079925107272581 -0.02334449083682992 0 -0.15349169287978739 -0.035208883327978051 0 -0.15939520176274349 -0.015620398581745401 0 -0.14079925107272581 -0.02334449083682992 0 -0.14275634286812811 -0.006203461430080404 0 -0.15939520176274349 -0.015620398581745401 0 -0.14275634286812811 -0.006203461430080404 0 -0.15939520176274349 -0.015620398581745401 0 -0.15796117991031841 -0.00029962151665172479 0 -0.14079925107272581 -0.02334449083682992 0 -0.14275634286812811 -0.006203461430080404 0 -0.1278640484455188 -0.012334690821253821 0 -0.14275634286812811 -0.006203461430080404 0 -0.1278640484455188 -0.012334690821253821 0 -0.1273771369441013 0.0023450629401116992 0 -0.12411398995058071 -0.026208981462584841 0 -0.14079925107272581 -0.02334449083682992 0 -0.1278640484455188 -0.012334690821253821 0 -0.12411398995058071 -0.026208981462584841 0 -0.14079925107272581 -0.02334449083682992 0 -0.13241258759658719 -0.044529255409706578 0 -0.13891648936515211 -0.064472249171247775 0 -0.13241258759658719 -0.044529255409706578 0 -0.14916280428309589 -0.053864076679432472 0 -0.12197003300458489 -0.067133964797042034 0 -0.13891648936515211 -0.064472249171247775 0 -0.13241258759658719 -0.044529255409706578 0 -0.14079925107272581 -0.02334449083682992 0 -0.13241258759658719 -0.044529255409706578 0 -0.15349169287978739 -0.035208883327978051 0 -0.14916280428309589 -0.053864076679432472 0 -0.15349169287978739 -0.035208883327978051 0 -0.16249228466986629 -0.048723367468166891 0 -0.13241258759658719 -0.044529255409706578 0 -0.14916280428309589 -0.053864076679432472 0 -0.15349169287978739 -0.035208883327978051 0 -0.15349169287978739 -0.035208883327978051 0 -0.16249228466986629 -0.048723367468166891 0 -0.17525401763441231 -0.025979499284370731 0 -0.16249228466986629 -0.048723367468166891 0 -0.17697140997157609 -0.049841549756239563 0 -0.17525401763441231 -0.025979499284370731 0 -0.1601060057786266 -0.063048208625582775 0 -0.14916280428309589 -0.053864076679432472 0 -0.16249228466986629 -0.048723367468166891 0 -0.1601060057786266 -0.063048208625582775 0 -0.16249228466986629 -0.048723367468166891 0 -0.1687761726195266 -0.062055246708151823 0 -0.16249228466986629 -0.048723367468166891 0 -0.1687761726195266 -0.062055246708151823 0 -0.17697140997157609 -0.049841549756239563 0 -0.17868880230873979 -0.073703600228108263 0 -0.17697140997157609 -0.049841549756239563 0 -0.17868880230873979 -0.073703600228108263 0 -0.17697140997157609 -0.049841549756239563 0 -0.1807163674973549 -0.058420493156073998 0 -0.17868880230873979 -0.073703600228108263 0 -0.1687761726195266 -0.062055246708151823 0 -0.17697140997157609 -0.049841549756239563 0 -0.17697140997157609 -0.049841549756239563 0 -0.187061179232277 -0.050545000195171969 0 -0.1807163674973549 -0.058420493156073998 0 -0.17697140997157609 -0.049841549756239563 0 -0.17525401763441231 -0.025979499284370731 0 -0.17697140997157609 -0.049841549756239563 0 -0.1844822702309237 -0.037308153316215523 0 -0.17525401763441231 -0.025979499284370731 0 -0.17697140997157609 -0.049841549756239563 0 -0.187061179232277 -0.050545000195171969 0 -0.1844822702309237 -0.037308153316215523 0 -0.1844822702309237 -0.037308153316215523 0 -0.17525401763441231 -0.025979499284370731 0 -0.19881160556081021 -0.01876222092397466 0 -0.17525401763441231 -0.025979499284370731 0 -0.17967452986780849 -0.0030086181600807401 0 -0.19881160556081021 -0.01876222092397466 0 -0.15349169287978739 -0.035208883327978051 0 -0.17525401763441231 -0.025979499284370731 0 -0.15939520176274349 -0.015620398581745401 0 -0.17525401763441231 -0.025979499284370731 0 -0.15939520176274349 -0.015620398581745401 0 -0.17967452986780849 -0.0030086181600807401 0 -0.15939520176274349 -0.015620398581745401 0 -0.15796117991031841 -0.00029962151665172479 0 -0.17967452986780849 -0.0030086181600807401 0 -0.17967452986780849 -0.0030086181600807401 0 -0.19881160556081021 -0.01876222092397466 0 -0.20680301002479959 -0.0020434230711429339 0 -0.1844822702309237 -0.037308153316215523 0 -0.19881160556081021 -0.01876222092397466 0 -0.19797908447346779 -0.034540675054344362 0 -0.19881160556081021 -0.01876222092397466 0 -0.19797908447346779 -0.034540675054344362 0 -0.2111815313078087 -0.036308133086206937 0 -0.19881160556081021 -0.01876222092397466 0 -0.2111815313078087 -0.036308133086206937 0 -0.19881160556081021 -0.01876222092397466 0 -0.2111815313078087 -0.036308133086206937 0 -0.21993326537292579 -0.016570742696256829 0 -0.19881160556081021 -0.01876222092397466 0 -0.20680301002479959 -0.0020434230711429339 0 -0.21993326537292579 -0.016570742696256829 0 -0.20680301002479959 -0.0020434230711429339 0 -0.21993326537292579 -0.016570742696256829 0 -0.22850437187820721 0.00061554774341724197 0 -0.187061179232277 -0.050545000195171969 0 -0.1807163674973549 -0.058420493156073998 0 -0.19569491766720151 -0.061370611856350392 0 -0.187061179232277 -0.050545000195171969 0 -0.19569491766720151 -0.061370611856350392 0 -0.1974409307943287 -0.045784192890980333 0 -0.19569491766720151 -0.061370611856350392 0 -0.1974409307943287 -0.045784192890980333 0 -0.20783277774853701 -0.056374475910446593 0 -0.187061179232277 -0.050545000195171969 0 -0.1844822702309237 -0.037308153316215523 0 -0.1974409307943287 -0.045784192890980333 0 -0.1844822702309237 -0.037308153316215523 0 -0.1974409307943287 -0.045784192890980333 0 -0.19797908447346779 -0.034540675054344362 0 -0.1974409307943287 -0.045784192890980333 0 -0.19797908447346779 -0.034540675054344362 0 -0.2111815313078087 -0.036308133086206937 0 -0.1974409307943287 -0.045784192890980333 0 -0.2111815313078087 -0.036308133086206937 0 -0.20783277774853701 -0.056374475910446593 0 -0.2111815313078087 -0.036308133086206937 0 -0.2235514570548072 -0.053854045248439182 0 -0.21482267827762841 -0.069082647852091478 0 -0.20783277774853701 -0.056374475910446593 0 -0.2235514570548072 -0.053854045248439182 0 -0.2111815313078087 -0.036308133086206937 0 -0.20783277774853701 -0.056374475910446593 0 -0.2235514570548072 -0.053854045248439182 0 -0.2359213828018043 -0.071399957410672343 0 -0.2235514570548072 -0.053854045248439182 0 -0.23385975453729951 -0.05448316257834377 0 -0.2235514570548072 -0.053854045248439182 0 -0.23385975453729951 -0.05448316257834377 0 -0.23195090370150159 -0.044148728843497582 0 -0.2111815313078087 -0.036308133086206937 0 -0.23195090370150159 -0.044148728843497582 0 -0.2330954250503823 -0.030605580137893669 0 -0.2111815313078087 -0.036308133086206937 0 -0.2235514570548072 -0.053854045248439182 0 -0.23195090370150159 -0.044148728843497582 0 -0.2440152745910836 -0.048529918810766987 0 -0.25210916638036568 -0.025659880210862549 0 -0.23195090370150159 -0.044148728843497582 0 -0.2440152745910836 -0.048529918810766987 0 -0.2330954250503823 -0.030605580137893669 0 -0.2440152745910836 -0.048529918810766987 0 -0.2330954250503823 -0.030605580137893669 0 -0.25210916638036568 -0.025659880210862549 0 -0.2359213828018043 -0.071399957410672343 0 -0.2440152745910836 -0.048529918810766987 0 -0.2460442741291925 -0.056732515276429897 0 -0.2359213828018043 -0.071399957410672343 0 -0.2440152745910836 -0.048529918810766987 0 -0.2359213828018043 -0.071399957410672343 0 -0.23385975453729951 -0.05448316257834377 0 -0.2440152745910836 -0.048529918810766987 0 -0.23385975453729951 -0.05448316257834377 0 -0.23195090370150159 -0.044148728843497582 0 -0.2440152745910836 -0.048529918810766987 0 -0.2440152745910836 -0.048529918810766987 0 -0.2460442741291925 -0.056732515276429897 0 -0.25586239660102372 -0.042106716883949957 0 -0.21993326537292579 -0.016570742696256829 0 -0.2409228609234593 -0.01213331886889705 0 -0.22850437187820721 0.00061554774341724197 0 -0.21993326537292579 -0.016570742696256829 0 -0.2330954250503823 -0.030605580137893669 0 -0.2409228609234593 -0.01213331886889705 0 -0.2111815313078087 -0.036308133086206937 0 -0.21993326537292579 -0.016570742696256829 0 -0.2330954250503823 -0.030605580137893669 0 -0.2330954250503823 -0.030605580137893669 0 -0.2409228609234593 -0.01213331886889705 0 -0.25210916638036568 -0.025659880210862549 0 -0.2409228609234593 -0.01213331886889705 0 -0.25132042997239518 0.0027134119798401068 0 -0.22850437187820721 0.00061554774341724197 0 -0.2409228609234593 -0.01213331886889705 0 -0.26431478179583978 -0.01186883573312463 0 -0.25132042997239518 0.0027134119798401068 0 -0.2409228609234593 -0.01213331886889705 0 -0.26431478179583978 -0.01186883573312463 0 -0.25210916638036568 -0.025659880210862549 0 -0.26431478179583978 -0.01186883573312463 0 -0.25210916638036568 -0.025659880210862549 0 -0.26885463380623098 -0.032431385670777198 0 -0.26431478179583978 -0.01186883573312463 0 -0.28272693982295583 -0.022072801118422261 0 -0.26885463380623098 -0.032431385670777198 0 -0.26431478179583978 -0.01186883573312463 0 -0.2820771903446922 -0.0013122005201030101 0 -0.28272693982295583 -0.022072801118422261 0 -0.26431478179583978 -0.01186883573312463 0 -0.2820771903446922 -0.0013122005201030101 0 -0.26646431581863778 0.01029557754540468 0 -0.2820771903446922 -0.0013122005201030101 0 -0.29531588189047731 -0.01459302740547606 0 -0.28272693982295583 -0.022072801118422261 0 -0.2820771903446922 -0.0013122005201030101 0 -0.29531588189047731 -0.01459302740547606 0 -0.30047775033007851 -0.00039401612408775783 0 -0.28272693982295583 -0.022072801118422261 0 -0.29548818451705972 -0.026431314805352931 0 -0.29006158744840338 -0.043009214960059237 0 -0.29531588189047731 -0.01459302740547606 0 -0.28272693982295583 -0.022072801118422261 0 -0.29548818451705972 -0.026431314805352931 0 -0.30546101391149699 -0.021623392358951481 0 -0.31536924438116293 -0.015921951660718081 0 -0.31269309410946189 -0.035953378537937578 0 -0.29531588189047731 -0.01459302740547606 0 -0.29548818451705972 -0.026431314805352931 0 -0.30546101391149699 -0.021623392358951481 0 -0.29548818451705972 -0.026431314805352931 0 -0.30546101391149699 -0.021623392358951481 0 -0.30306546886548719 -0.032455918975325043 0 -0.30546101391149699 -0.021623392358951481 0 -0.31269309410946189 -0.035953378537937578 0 -0.30546101391149699 -0.021623392358951481 0 -0.30306546886548719 -0.032455918975325043 0 -0.31269309410946189 -0.035953378537937578 0 -0.30546101391149699 -0.021623392358951481 0 -0.30702321298661528 -0.0098616365840560535 0 -0.31536924438116293 -0.015921951660718081 0 -0.30702321298661528 -0.0098616365840560535 0 -0.30047775033007851 -0.00039401612408775783 0 -0.31849217441985911 0.0032242046289520012 0 -0.29531588189047731 -0.01459302740547606 0 -0.30702321298661528 -0.0098616365840560535 0 -0.30047775033007851 -0.00039401612408775783 0 -0.29531588189047731 -0.01459302740547606 0 -0.30546101391149699 -0.021623392358951481 0 -0.30702321298661528 -0.0098616365840560535 0 -0.30785263576887473 -0.062005008750064983 0 -0.31269309410946189 -0.035953378537937578 0 -0.30785263576887473 -0.062005008750064983 0 -0.29006158744840338 -0.043009214960059237 0 -0.31269309410946189 -0.035953378537937578 0 -0.30306546886548719 -0.032455918975325043 0 -0.29006158744840338 -0.043009214960059237 0 -0.31269309410946189 -0.035953378537937578 0 -0.29006158744840338 -0.043009214960059237 0 -0.31269309410946189 -0.035953378537937578 0 -0.29548818451705972 -0.026431314805352931 0 -0.30306546886548719 -0.032455918975325043 0 -0.29006158744840338 -0.043009214960059237 0 -0.30785263576887473 -0.062005008750064983 0 -0.29006158744840338 -0.043009214960059237 0 -0.29043964680931811 -0.063340758069959313 0 -0.29006158744840338 -0.043009214960059237 0 -0.27571433008302992 -0.061323808156972907 0 -0.29043964680931811 -0.063340758069959313 0 -0.27571433008302992 -0.061323808156972907 0 -0.26805293078879788 -0.049870865118244581 0 -0.25908974683711639 -0.062912752445689821 0 -0.29006158744840338 -0.043009214960059237 0 -0.27571433008302992 -0.061323808156972907 0 -0.26805293078879788 -0.049870865118244581 0 -0.28272693982295583 -0.022072801118422261 0 -0.29006158744840338 -0.043009214960059237 0 -0.26885463380623098 -0.032431385670777198 0 -0.29006158744840338 -0.043009214960059237 0 -0.26805293078879788 -0.049870865118244581 0 -0.29006158744840338 -0.043009214960059237 0 -0.26805293078879788 -0.049870865118244581 0 -0.26885463380623098 -0.032431385670777198 0 -0.2440152745910836 -0.048529918810766987 0 -0.25210916638036568 -0.025659880210862549 0 -0.25586239660102372 -0.042106716883949957 0 -0.26805293078879788 -0.049870865118244581 0 -0.26885463380623098 -0.032431385670777198 0 -0.25586239660102372 -0.042106716883949957 0 -0.25210916638036568 -0.025659880210862549 0 -0.26885463380623098 -0.032431385670777198 0 -0.25586239660102372 -0.042106716883949957 0 -0.2460442741291925 -0.056732515276429897 0 -0.26805293078879788 -0.049870865118244581 0 -0.2460442741291925 -0.056732515276429897 0 -0.26805293078879788 -0.049870865118244581 0 -0.25908974683711639 -0.062912752445689821 0 -0.2460442741291925 -0.056732515276429897 0 -0.26805293078879788 -0.049870865118244581 0 -0.25586239660102372 -0.042106716883949957 0 -0.24621250417125429 -0.067242688607955695 0 -0.2460442741291925 -0.056732515276429897 0 -0.25908974683711639 -0.062912752445689821 0 -0.24621250417125429 -0.067242688607955695 0 -0.25908974683711639 -0.062912752445689821 0 -0.252754029676304 -0.071454636367457428 0 -0.24101683233652779 -0.07862751170581421 0 -0.252754029676304 -0.071454636367457428 0 -0.26402766811367417 -0.083484384069295273 0 -0.25908974683711639 -0.062912752445689821 0 -0.252754029676304 -0.071454636367457428 0 -0.26621243399467659 -0.070844567870559746 0 -0.252754029676304 -0.071454636367457428 0 -0.26402766811367417 -0.083484384069295273 0 -0.26621243399467659 -0.070844567870559746 0 -0.24101683233652779 -0.07862751170581421 0 -0.26402766811367417 -0.083484384069295273 0 -0.25454071313255938 -0.097810231909066098 0 -0.26402766811367417 -0.083484384069295273 0 -0.27094601368544552 -0.10060299140421709 0 -0.28369928052750421 -0.089996057638050242 0 -0.26402766811367417 -0.083484384069295273 0 -0.27947639526325851 -0.075047258313383283 0 -0.28369928052750421 -0.089996057638050242 0 -0.27571433008302992 -0.061323808156972907 0 -0.25908974683711639 -0.062912752445689821 0 -0.26621243399467659 -0.070844567870559746 0 -0.27571433008302992 -0.061323808156972907 0 -0.27947639526325851 -0.075047258313383283 0 -0.26621243399467659 -0.070844567870559746 0 -0.26402766811367417 -0.083484384069295273 0 -0.27947639526325851 -0.075047258313383283 0 -0.26621243399467659 -0.070844567870559746 0 -0.25700205454408459 -0.1228995308742117 0 -0.25028307647261949 -0.1119170655065333 0 -0.26806459392859111 -0.11699295211231781 0 -0.25700205454408459 -0.1228995308742117 0 -0.26806459392859111 -0.11699295211231781 0 -0.26633673802341562 -0.13121143084146969 0 -0.2466021228926524 -0.1215603100838341 0 -0.25700205454408459 -0.1228995308742117 0 -0.25028307647261949 -0.1119170655065333 0 -0.25454071313255938 -0.097810231909066098 0 -0.27094601368544552 -0.10060299140421709 0 -0.26806459392859111 -0.11699295211231781 0 -0.25028307647261949 -0.1119170655065333 0 -0.25454071313255938 -0.097810231909066098 0 -0.26806459392859111 -0.11699295211231781 0 -0.25454071313255938 -0.097810231909066098 0 -0.26806459392859111 -0.11699295211231781 0 -0.26402766811367417 -0.083484384069295273 0 -0.25454071313255938 -0.097810231909066098 0 -0.27094601368544552 -0.10060299140421709 0 -0.27094601368544552 -0.10060299140421709 0 -0.28498588272658609 -0.10953694176986691 0 -0.28369928052750421 -0.089996057638050242 0 -0.27094601368544552 -0.10060299140421709 0 -0.26806459392859111 -0.11699295211231781 0 -0.28498588272658609 -0.10953694176986691 0 -0.26806459392859111 -0.11699295211231781 0 -0.28498588272658609 -0.10953694176986691 0 -0.26633673802341562 -0.13121143084146969 0 -0.28498588272658609 -0.10953694176986691 0 -0.26633673802341562 -0.13121143084146969 0 -0.28390483366507108 -0.12795146285425149 0 -0.28498588272658609 -0.10953694176986691 0 -0.26633673802341562 -0.13121143084146969 0 -0.28498588272658609 -0.10953694176986691 0 -0.29939047470698632 -0.1138850881088251 0 -0.28390483366507108 -0.12795146285425149 0 -0.28498588272658609 -0.10953694176986691 0 -0.29939047470698632 -0.1138850881088251 0 -0.30363502742975002 -0.087862452698258112 0 -0.28498588272658609 -0.10953694176986691 0 -0.28369928052750421 -0.089996057638050242 0 -0.30363502742975002 -0.087862452698258112 0 -0.28498588272658609 -0.10953694176986691 0 -0.30363502742975002 -0.087862452698258112 0 -0.31112038415555038 -0.105912916312301 0 -0.30363502742975002 -0.087862452698258112 0 -0.31872509099925939 -0.09489525911115787 0 -0.29939047470698632 -0.1138850881088251 0 -0.30363502742975002 -0.087862452698258112 0 -0.31112038415555038 -0.105912916312301 0 -0.29939047470698632 -0.1138850881088251 0 -0.30363502742975002 -0.087862452698258112 0 -0.31112038415555038 -0.105912916312301 0 -0.29939047470698632 -0.1138850881088251 0 -0.3108150907057583 -0.123289039988229 0 -0.27571433008302992 -0.061323808156972907 0 -0.27947639526325851 -0.075047258313383283 0 -0.29043964680931811 -0.063340758069959313 0 -0.27947639526325851 -0.075047258313383283 0 -0.29326350469267087 -0.075637034816957854 0 -0.29043964680931811 -0.063340758069959313 0 -0.27947639526325851 -0.075047258313383283 0 -0.29326350469267087 -0.075637034816957854 0 -0.28369928052750421 -0.089996057638050242 0 -0.29326350469267087 -0.075637034816957854 0 -0.28369928052750421 -0.089996057638050242 0 -0.30363502742975002 -0.087862452698258112 0 -0.30363502742975002 -0.087862452698258112 0 -0.3147457864693044 -0.074949258596716542 0 -0.31872509099925939 -0.09489525911115787 0 -0.30363502742975002 -0.087862452698258112 0 -0.3147457864693044 -0.074949258596716542 0 -0.30785263576887473 -0.062005008750064983 0 -0.29326350469267087 -0.075637034816957854 0 -0.30363502742975002 -0.087862452698258112 0 -0.30785263576887473 -0.062005008750064983 0 -0.30363502742975002 -0.087862452698258112 0 -0.3147457864693044 -0.074949258596716542 0 -0.30785263576887473 -0.062005008750064983 0 -0.29326350469267087 -0.075637034816957854 0 -0.29043964680931811 -0.063340758069959313 0 -0.30785263576887473 -0.062005008750064983 0 -0.30363502742975002 -0.087862452698258112 0 -0.3147457864693044 -0.074949258596716542 0 -0.3258565455088529 -0.062036064495169851 0 -0.3147457864693044 -0.074949258596716542 0 -0.33306166037992252 -0.0763126202985034 0 -0.3258565455088529 -0.062036064495169851 0 -0.30785263576887473 -0.062005008750064983 0 -0.3147457864693044 -0.074949258596716542 0 -0.3258565455088529 -0.062036064495169851 0 -0.3147457864693044 -0.074949258596716542 0 -0.32890001459834822 -0.087516828956376788 0 -0.31872509099925939 -0.09489525911115787 0 -0.3147457864693044 -0.074949258596716542 0 -0.32890001459834822 -0.087516828956376788 0 -0.33306166037992252 -0.0763126202985034 0 -0.32890001459834822 -0.087516828956376788 0 -0.34026677525099192 -0.090589176101837157 0 -0.33306166037992252 -0.0763126202985034 0 -0.34026677525099192 -0.090589176101837157 0 -0.33306166037992252 -0.0763126202985034 0 -0.34026677525099192 -0.090589176101837157 0 -0.33306166037992252 -0.0763126202985034 0 -0.34512097989852569 -0.077376017677512551 0 -0.3363426704622316 -0.065040097883454634 0 -0.33306166037992252 -0.0763126202985034 0 -0.34512097989852569 -0.077376017677512551 0 -0.3363426704622316 -0.065040097883454634 0 -0.34775082305034588 -0.06364522302323769 0 -0.34512097989852569 -0.077376017677512551 0 -0.33306166037992252 -0.0763126202985034 0 -0.3258565455088529 -0.062036064495169851 0 -0.3363426704622316 -0.065040097883454634 0 -0.33306166037992252 -0.0763126202985034 0 -0.3258565455088529 -0.062036064495169851 0 -0.31112038415555038 -0.105912916312301 0 -0.3108150907057583 -0.123289039988229 0 -0.32269556115348802 -0.1134475374517785 0 -0.32269556115348802 -0.1134475374517785 0 -0.33213803149032362 -0.1206207689722909 0 -0.32288905220234743 -0.1288405143651869 0 -0.3108150907057583 -0.123289039988229 0 -0.32269556115348802 -0.1134475374517785 0 -0.32288905220234743 -0.1288405143651869 0 -0.32269556115348802 -0.1134475374517785 0 -0.31872509099925939 -0.09489525911115787 0 -0.33360553934550968 -0.1041906416325506 0 -0.31112038415555038 -0.105912916312301 0 -0.32269556115348802 -0.1134475374517785 0 -0.31872509099925939 -0.09489525911115787 0 -0.32890001459834822 -0.087516828956376788 0 -0.31872509099925939 -0.09489525911115787 0 -0.33360553934550968 -0.1041906416325506 0 -0.3434725512788051 -0.1026137903417853 0 -0.33360553934550968 -0.1041906416325506 0 -0.3466874303271234 -0.11958926053505441 0 -0.32890001459834822 -0.087516828956376788 0 -0.34026677525099192 -0.090589176101837157 0 -0.33360553934550968 -0.1041906416325506 0 -0.34026677525099192 -0.090589176101837157 0 -0.3434725512788051 -0.1026137903417853 0 -0.33360553934550968 -0.1041906416325506 0 -0.33360553934550968 -0.1041906416325506 0 -0.33213803149032362 -0.1206207689722909 0 -0.3466874303271234 -0.11958926053505441 0 -0.32269556115348802 -0.1134475374517785 0 -0.33360553934550968 -0.1041906416325506 0 -0.33213803149032362 -0.1206207689722909 0 -0.3466874303271234 -0.11958926053505441 0 -0.36980343247362518 -0.1100922289949047 0 -0.35999293180258313 -0.1258522389537349 0 -0.3466874303271234 -0.11958926053505441 0 -0.35333046019159542 -0.096086083097699004 0 -0.36980343247362518 -0.1100922289949047 0 -0.3434725512788051 -0.1026137903417853 0 -0.3466874303271234 -0.11958926053505441 0 -0.35333046019159542 -0.096086083097699004 0 -0.3466874303271234 -0.11958926053505441 0 -0.35333046019159542 -0.096086083097699004 0 -0.34026677525099192 -0.090589176101837157 0 -0.3434725512788051 -0.1026137903417853 0 -0.35333046019159542 -0.096086083097699004 0 -0.35333046019159542 -0.096086083097699004 0 -0.36980343247362518 -0.1100922289949047 0 -0.37347114863240299 -0.089088331268139143 0 -0.36980343247362518 -0.1100922289949047 0 -0.35999293180258313 -0.1258522389537349 0 -0.37152802352755399 -0.13164580699010159 0 -0.36980343247362518 -0.1100922289949047 0 -0.37152802352755399 -0.13164580699010159 0 -0.38235470820745771 -0.123978498660336 0 -0.34775082305034588 -0.06364522302323769 0 -0.35997349005606738 -0.07258290566034345 0 -0.36099236519079719 -0.058965157594587259 0 -0.34775082305034588 -0.06364522302323769 0 -0.34512097989852569 -0.077376017677512551 0 -0.35997349005606738 -0.07258290566034345 0 -0.35333046019159542 -0.096086083097699004 0 -0.35997349005606738 -0.07258290566034345 0 -0.35333046019159542 -0.096086083097699004 0 -0.34512097989852569 -0.077376017677512551 0 -0.35997349005606738 -0.07258290566034345 0 -0.34026677525099192 -0.090589176101837157 0 -0.35333046019159542 -0.096086083097699004 0 -0.34512097989852569 -0.077376017677512551 0 -0.35333046019159542 -0.096086083097699004 0 -0.37347114863240299 -0.089088331268139143 0 -0.35997349005606738 -0.07258290566034345 0 -0.37347114863240299 -0.089088331268139143 0 -0.35997349005606738 -0.07258290566034345 0 -0.37513495807632252 -0.068027960422620465 0 -0.35997349005606738 -0.07258290566034345 0 -0.36099236519079719 -0.058965157594587259 0 -0.37513495807632252 -0.068027960422620465 0 -0.37357085562444819 -0.050327950541553881 0 -0.36099236519079719 -0.058965157594587259 0 -0.37513495807632252 -0.068027960422620465 0 -0.37357085562444819 -0.050327950541553881 0 -0.36080282922430701 -0.047544586661118063 0 -0.36099236519079719 -0.058965157594587259 0 -0.34775082305034588 -0.06364522302323769 0 -0.36099236519079719 -0.058965157594587259 0 -0.34872123511329239 -0.051662319258650009 0 -0.36080282922430701 -0.047544586661118063 0 -0.36099236519079719 -0.058965157594587259 0 -0.34872123511329239 -0.051662319258650009 0 -0.34775082305034588 -0.06364522302323769 0 -0.34872123511329239 -0.051662319258650009 0 -0.33906118872719399 -0.055758100993783748 0 -0.35023980363822049 -0.040197400203048239 0 -0.3638826905141766 -0.035463803005797899 0 -0.34258176142245139 -0.029723406047678591 0 -0.35023980363822049 -0.040197400203048239 0 -0.34258176142245139 -0.029723406047678591 0 -0.35023980363822049 -0.040197400203048239 0 -0.34258176142245139 -0.029723406047678591 0 -0.33960488145915169 -0.038902248398748569 0 -0.34872123511329239 -0.051662319258650009 0 -0.35023980363822049 -0.040197400203048239 0 -0.33950963895876157 -0.046563850177851397 0 -0.36080282922430701 -0.047544586661118063 0 -0.35023980363822049 -0.040197400203048239 0 -0.3638826905141766 -0.035463803005797899 0 -0.36080282922430701 -0.047544586661118063 0 -0.34872123511329239 -0.051662319258650009 0 -0.35023980363822049 -0.040197400203048239 0 -0.37357085562444819 -0.050327950541553881 0 -0.3638826905141766 -0.035463803005797899 0 -0.38712728366555788 -0.02974425569958293 0 -0.37357085562444819 -0.050327950541553881 0 -0.36080282922430701 -0.047544586661118063 0 -0.3638826905141766 -0.035463803005797899 0 -0.3638826905141766 -0.035463803005797899 0 -0.36897360951007507 -0.015245218881805699 0 -0.38712728366555788 -0.02974425569958293 0 -0.36897360951007507 -0.015245218881805699 0 -0.38465333842141641 -0.0066435457767305304 0 -0.36979036210562988 0.0025511841975563729 0 -0.36897360951007507 -0.015245218881805699 0 -0.35319748844548088 -0.0026450940697062141 0 -0.36979036210562988 0.0025511841975563729 0 -0.36897360951007507 -0.015245218881805699 0 -0.35319748844548088 -0.0026450940697062141 0 -0.36897360951007507 -0.015245218881805699 0 -0.35319748844548088 -0.0026450940697062141 0 -0.34557514790129729 -0.01385186480739395 0 -0.35319748844548088 -0.0026450940697062141 0 -0.34557514790129729 -0.01385186480739395 0 -0.33742136738088668 0.0099550307423931228 0 -0.36897360951007507 -0.015245218881805699 0 -0.34557514790129729 -0.01385186480739395 0 -0.34258176142245139 -0.029723406047678591 0 -0.3638826905141766 -0.035463803005797899 0 -0.36897360951007507 -0.015245218881805699 0 -0.34258176142245139 -0.029723406047678591 0 -0.36897360951007507 -0.015245218881805699 0 -0.34258176142245139 -0.029723406047678591 0 -0.34258176142245139 -0.029723406047678591 0 -0.33053696792115572 -0.013249600709362951 0 -0.34557514790129729 -0.01385186480739395 0 -0.34258176142245139 -0.029723406047678591 0 -0.33053696792115572 -0.013249600709362951 0 -0.34258176142245139 -0.029723406047678591 0 -0.33123792958382192 -0.02655418191443467 0 -0.33053696792115572 -0.013249600709362951 0 -0.33123792958382192 -0.02655418191443467 0 -0.33053696792115572 -0.013249600709362951 0 -0.32518110448499649 -0.02265309324021984 0 -0.33123792958382192 -0.02655418191443467 0 -0.32494971957893121 -0.032132124138264453 0 -0.33294009451157502 -0.035012685436647553 0 -0.34258176142245139 -0.029723406047678591 0 -0.33123792958382192 -0.02655418191443467 0 -0.33294009451157502 -0.035012685436647553 0 -0.33053696792115572 -0.013249600709362951 0 -0.31849217441985911 0.0032242046289520012 0 -0.33742136738088668 0.0099550307423931228 0 -0.34557514790129729 -0.01385186480739395 0 -0.33053696792115572 -0.013249600709362951 0 -0.33742136738088668 0.0099550307423931228 0 -0.30702321298661528 -0.0098616365840560535 0 -0.31536924438116293 -0.015921951660718081 0 -0.31849217441985911 0.0032242046289520012 0 -0.31536924438116293 -0.015921951660718081 0 -0.31849217441985911 0.0032242046289520012 0 -0.33053696792115572 -0.013249600709362951 0 -0.31849217441985911 0.0032242046289520012 0 -0.33053696792115572 -0.013249600709362951 0 -0.31536924438116293 -0.015921951660718081 0 -0.31849217441985911 0.0032242046289520012 0 -0.31536924438116293 -0.015921951660718081 0 -0.31269309410946189 -0.035953378537937578 0 -0.31536924438116293 -0.015921951660718081 0 -0.3196636581113782 -0.026330909640423061 0 -0.31269309410946189 -0.035953378537937578 0 -0.33123792958382192 -0.02655418191443467 0 -0.32518110448499649 -0.02265309324021984 0 -0.32494971957893121 -0.032132124138264453 0 -0.32518110448499649 -0.02265309324021984 0 -0.3196636581113782 -0.026330909640423061 0 -0.32494971957893121 -0.032132124138264453 0 -0.33053696792115572 -0.013249600709362951 0 -0.32518110448499649 -0.02265309324021984 0 -0.31536924438116293 -0.015921951660718081 0 -0.32518110448499649 -0.02265309324021984 0 -0.31536924438116293 -0.015921951660718081 0 -0.3196636581113782 -0.026330909640423061 0 -0.31269309410946189 -0.035953378537937578 0 -0.32494971957893121 -0.032132124138264453 0 -0.3196636581113782 -0.026330909640423061 0 -0.31269309410946189 -0.035953378537937578 0 -0.32494971957893121 -0.032132124138264453 0 -0.32589239144387999 -0.038804272667940308 0 -0.32494971957893121 -0.032132124138264453 0 -0.33294009451157502 -0.035012685436647553 0 -0.31269309410946189 -0.035953378537937578 0 -0.32589239144387999 -0.038804272667940308 0 -0.32494971957893121 -0.032132124138264453 0 -0.31269309410946189 -0.035953378537937578 0 -0.32589239144387999 -0.038804272667940308 0 -0.32612594025468172 -0.0479092750983348 0 -0.31269309410946189 -0.035953378537937578 0 -0.3258565455088529 -0.062036064495169851 0 -0.32612594025468172 -0.0479092750983348 0 -0.30785263576887473 -0.062005008750064983 0 -0.31269309410946189 -0.035953378537937578 0 -0.3258565455088529 -0.062036064495169851 0 -0.31269309410946189 -0.035953378537937578 0 -0.3258565455088529 -0.062036064495169851 0 -0.3258565455088529 -0.062036064495169851 0 -0.32612594025468172 -0.0479092750983348 0 -0.32948021068586231 -0.057824552786275359 0 -0.3258565455088529 -0.062036064495169851 0 -0.32948021068586231 -0.057824552786275359 0 -0.33273312926745618 -0.050000536382928867 0 -0.32948021068586231 -0.057824552786275359 0 -0.33906118872719399 -0.055758100993783748 0 -0.32612594025468172 -0.0479092750983348 0 -0.33273312926745618 -0.050000536382928867 0 -0.32948021068586231 -0.057824552786275359 0 -0.32612594025468172 -0.0479092750983348 0 -0.33273312926745618 -0.050000536382928867 0 -0.33275310876475001 -0.043013900128517107 0 -0.3363426704622316 -0.065040097883454634 0 -0.32948021068586231 -0.057824552786275359 0 -0.33906118872719399 -0.055758100993783748 0 -0.3363426704622316 -0.065040097883454634 0 -0.3258565455088529 -0.062036064495169851 0 -0.32948021068586231 -0.057824552786275359 0 -0.3363426704622316 -0.065040097883454634 0 -0.34775082305034588 -0.06364522302323769 0 -0.33906118872719399 -0.055758100993783748 0 -0.34872123511329239 -0.051662319258650009 0 -0.33906118872719399 -0.055758100993783748 0 -0.33950963895876157 -0.046563850177851397 0 -0.33273312926745618 -0.050000536382928867 0 -0.33906118872719399 -0.055758100993783748 0 -0.33950963895876157 -0.046563850177851397 0 -0.35023980363822049 -0.040197400203048239 0 -0.33950963895876157 -0.046563850177851397 0 -0.33960488145915169 -0.038902248398748569 0 -0.33950963895876157 -0.046563850177851397 0 -0.33960488145915169 -0.038902248398748569 0 -0.33275310876475001 -0.043013900128517107 0 -0.34258176142245139 -0.029723406047678591 0 -0.33294009451157502 -0.035012685436647553 0 -0.34258176142245139 -0.029723406047678591 0 -0.33960488145915169 -0.038902248398748569 0 -0.33294009451157502 -0.035012685436647553 0 -0.32589239144387999 -0.038804272667940308 0 -0.33294009451157502 -0.035012685436647553 0 -0.33275310876475001 -0.043013900128517107 0 -0.33960488145915169 -0.038902248398748569 0 -0.33294009451157502 -0.035012685436647553 0 -0.33275310876475001 -0.043013900128517107 0 -0.32589239144387999 -0.038804272667940308 0 -0.32612594025468172 -0.0479092750983348 0 -0.33275310876475001 -0.043013900128517107 0 -0.33273312926745618 -0.050000536382928867 0 -0.33950963895876157 -0.046563850177851397 0 -0.33275310876475001 -0.043013900128517107 0 -0.3072444938386063 -0.24298546540808871 0 -0.29465074886808879 -0.2402547820199166 0 -0.31547147842988582 -0.2330670094454039 0 -0.29465074886808879 -0.2402547820199166 0 -0.31547147842988582 -0.2330670094454039 0 -0.31283906540333922 -0.25031215033235238 0 -0.3072444938386063 -0.24298546540808871 0 -0.31547147842988582 -0.2330670094454039 0 -0.29948497002523827 -0.2483657822867901 0 -0.3072444938386063 -0.24298546540808871 0 -0.29465074886808879 -0.2402547820199166 0 -0.29948497002523827 -0.2483657822867901 0 -0.3072444938386063 -0.24298546540808871 0 -0.30623861516307299 -0.24935013043731349 0 -0.31283906540333922 -0.25031215033235238 0 -0.3072444938386063 -0.24298546540808871 0 -0.30623861516307299 -0.24935013043731349 0 -0.30340245666429422 -0.2199120115188499 0 -0.29465074886808879 -0.2402547820199166 0 -0.31547147842988582 -0.2330670094454039 0 -0.30340245666429422 -0.2199120115188499 0 -0.31790591229007997 -0.21133065133653661 0 -0.31547147842988582 -0.2330670094454039 0 -0.30340245666429422 -0.2199120115188499 0 -0.29465074886808879 -0.2402547820199166 0 -0.28241226381596191 -0.21797562975109799 0 -0.29465074886808879 -0.2402547820199166 0 -0.27816771109320582 -0.2439982651616662 0 -0.28241226381596191 -0.21797562975109799 0 -0.29465074886808879 -0.2402547820199166 0 -0.27383001930629169 -0.24744255459442921 0 -0.28942662192718172 -0.25357945894426132 0 -0.29465074886808879 -0.2402547820199166 0 -0.27383001930629169 -0.24744255459442921 0 -0.29465074886808879 -0.2402547820199166 0 -0.27816771109320582 -0.2439982651616662 0 -0.27383001930629169 -0.24744255459442921 0 -0.28942662192718172 -0.25357945894426132 0 -0.29948497002523827 -0.2483657822867901 0 -0.29465074886808879 -0.2402547820199166 0 -0.27816771109320582 -0.2439982651616662 0 -0.27383001930629169 -0.24744255459442921 0 -0.26926560585898118 -0.2360615599669478 0 -0.27383001930629169 -0.24744255459442921 0 -0.26926560585898118 -0.2360615599669478 0 -0.25855016474293108 -0.24143028331881861 0 -0.27383001930629169 -0.24744255459442921 0 -0.25855016474293108 -0.24143028331881861 0 -0.2565674865322034 -0.25340195958415102 0 -0.27383001930629169 -0.24744255459442921 0 -0.25855016474293108 -0.24143028331881861 0 -0.26926560585898118 -0.2360615599669478 0 -0.25855016474293108 -0.24143028331881861 0 -0.25588924886857078 -0.22577026586403889 0 -0.24327031017957049 -0.23541801204320789 0 -0.25855016474293108 -0.24143028331881861 0 -0.24327031017957049 -0.23541801204320789 0 -0.25855016474293108 -0.24143028331881861 0 -0.25018128361314113 -0.24746468840205441 0 -0.2565674865322034 -0.25340195958415102 0 -0.25855016474293108 -0.24143028331881861 0 -0.25018128361314113 -0.24746468840205441 0 -0.24327031017957049 -0.23541801204320789 0 -0.25855016474293108 -0.24143028331881861 0 -0.25588924886857078 -0.22577026586403889 0 -0.26926560585898118 -0.2360615599669478 0 -0.25588924886857078 -0.22577026586403889 0 -0.26783798195298542 -0.22189041659364681 0 -0.27816771109320582 -0.2439982651616662 0 -0.26926560585898118 -0.2360615599669478 0 -0.28241226381596191 -0.21797562975109799 0 -0.26926560585898118 -0.2360615599669478 0 -0.26783798195298542 -0.22189041659364681 0 -0.28241226381596191 -0.21797562975109799 0 -0.27816771109320582 -0.2439982651616662 0 -0.28241226381596191 -0.21797562975109799 0 -0.26378480926842768 -0.2077542107925027 0 -0.286656816538718 -0.19195299434052959 0 -0.28241226381596191 -0.21797562975109799 0 -0.26783798195298542 -0.22189041659364681 0 -0.26378480926842768 -0.2077542107925027 0 -0.28241226381596191 -0.21797562975109799 0 -0.25588924886857078 -0.22577026586403889 0 -0.26783798195298542 -0.22189041659364681 0 -0.26378480926842768 -0.2077542107925027 0 -0.2448317244682672 -0.19494017856122331 0 -0.24405101732391901 -0.2151790953022156 0 -0.26378480926842768 -0.2077542107925027 0 -0.24405101732391901 -0.2151790953022156 0 -0.25588924886857078 -0.22577026586403889 0 -0.26378480926842768 -0.2077542107925027 0 -0.2448317244682672 -0.19494017856122331 0 -0.26378480926842768 -0.2077542107925027 0 -0.26312512204060101 -0.18530650416748581 0 -0.26378480926842768 -0.2077542107925027 0 -0.286656816538718 -0.19195299434052959 0 -0.26312512204060101 -0.18530650416748581 0 -0.286656816538718 -0.19195299434052959 0 -0.28241226381596191 -0.21797562975109799 0 -0.30591086076688379 -0.19847336016990141 0 -0.286656816538718 -0.19195299434052959 0 -0.28241226381596191 -0.21797562975109799 0 -0.30340245666429422 -0.2199120115188499 0 -0.28241226381596191 -0.21797562975109799 0 -0.30591086076688379 -0.19847336016990141 0 -0.30340245666429422 -0.2199120115188499 0 -0.30591086076688379 -0.19847336016990141 0 -0.31790591229007997 -0.21133065133653661 0 -0.286656816538718 -0.19195299434052959 0 -0.30591086076688379 -0.19847336016990141 0 -0.31180552805921091 -0.17430838359622669 0 -0.31180552805921091 -0.17430838359622669 0 -0.29090136926147409 -0.16593035892996141 0 -0.30878195228896921 -0.15303576335633209 0 -0.286656816538718 -0.19195299434052959 0 -0.29090136926147409 -0.16593035892996141 0 -0.286656816538718 -0.19195299434052959 0 -0.31180552805921091 -0.17430838359622669 0 -0.29090136926147409 -0.16593035892996141 0 -0.286656816538718 -0.19195299434052959 0 -0.29090136926147409 -0.16593035892996141 0 -0.27584707269233227 -0.1739466899300364 0 -0.27584707269233227 -0.1739466899300364 0 -0.26312512204060101 -0.18530650416748581 0 -0.26138401805284373 -0.16490714025156239 0 -0.286656816538718 -0.19195299434052959 0 -0.27584707269233227 -0.1739466899300364 0 -0.26312512204060101 -0.18530650416748581 0 -0.2448317244682672 -0.19494017856122331 0 -0.24561243161261531 -0.1747012618202311 0 -0.26312512204060101 -0.18530650416748581 0 -0.24561243161261531 -0.1747012618202311 0 -0.26312512204060101 -0.18530650416748581 0 -0.26138401805284373 -0.16490714025156239 0 -0.27584707269233227 -0.1739466899300364 0 -0.26138401805284373 -0.16490714025156239 0 -0.27641132505293098 -0.14990407015019561 0 -0.29090136926147409 -0.16593035892996141 0 -0.27584707269233227 -0.1739466899300364 0 -0.27641132505293098 -0.14990407015019561 0 -0.27641132505293098 -0.14990407015019561 0 -0.26295491861235881 -0.14972714028907499 0 -0.26633673802341562 -0.13121143084146969 0 -0.26138401805284373 -0.16490714025156239 0 -0.27641132505293098 -0.14990407015019561 0 -0.26295491861235881 -0.14972714028907499 0 -0.24768759332024501 -0.15288591991307249 0 -0.26633673802341562 -0.13121143084146969 0 -0.24768759332024501 -0.15288591991307249 0 -0.26295491861235881 -0.14972714028907499 0 -0.26633673802341562 -0.13121143084146969 0 -0.24768759332024501 -0.15288591991307249 0 -0.26138401805284373 -0.16490714025156239 0 -0.26295491861235881 -0.14972714028907499 0 -0.25700205454408459 -0.1228995308742117 0 -0.25066558347885931 -0.13251764995053431 0 -0.26633673802341562 -0.13121143084146969 0 -0.24768759332024501 -0.15288591991307249 0 -0.25066558347885931 -0.13251764995053431 0 -0.26633673802341562 -0.13121143084146969 0 -0.2466021228926524 -0.1215603100838341 0 -0.25700205454408459 -0.1228995308742117 0 -0.25066558347885931 -0.13251764995053431 0 -0.27641132505293098 -0.14990407015019561 0 -0.26633673802341562 -0.13121143084146969 0 -0.28390483366507108 -0.12795146285425149 0 -0.27641132505293098 -0.14990407015019561 0 -0.29514592198423018 -0.13990772351939329 0 -0.28390483366507108 -0.12795146285425149 0 -0.29939047470698632 -0.1138850881088251 0 -0.29514592198423018 -0.13990772351939329 0 -0.28390483366507108 -0.12795146285425149 0 -0.29090136926147409 -0.16593035892996141 0 -0.27641132505293098 -0.14990407015019561 0 -0.29514592198423018 -0.13990772351939329 0 -0.29090136926147409 -0.16593035892996141 0 -0.29514592198423018 -0.13990772351939329 0 -0.29514592198423018 -0.13990772351939329 0 -0.30878195228896921 -0.15303576335633209 0 -0.31204687939749698 -0.1371714365216575 0 -0.29090136926147409 -0.16593035892996141 0 -0.29514592198423018 -0.13990772351939329 0 -0.30878195228896921 -0.15303576335633209 0 -0.3108150907057583 -0.123289039988229 0 -0.29514592198423018 -0.13990772351939329 0 -0.31204687939749698 -0.1371714365216575 0 -0.29939047470698632 -0.1138850881088251 0 -0.3108150907057583 -0.123289039988229 0 -0.29514592198423018 -0.13990772351939329 0 -0.29939047470698632 -0.1138850881088251 0 -0.29514592198423018 -0.13990772351939329 0 -0.32288905220234743 -0.1288405143651869 0 -0.32258299715563782 -0.14068177926995709 0 -0.33321030378869931 -0.13646686722665249 0 -0.3108150907057583 -0.123289039988229 0 -0.31204687939749698 -0.1371714365216575 0 -0.32288905220234743 -0.1288405143651869 0 -0.31204687939749698 -0.1371714365216575 0 -0.32288905220234743 -0.1288405143651869 0 -0.32258299715563782 -0.14068177926995709 0 -0.30878195228896921 -0.15303576335633209 0 -0.32482557091518699 -0.15217937608711771 0 -0.32258299715563782 -0.14068177926995709 0 -0.30878195228896921 -0.15303576335633209 0 -0.31204687939749698 -0.1371714365216575 0 -0.32258299715563782 -0.14068177926995709 0 -0.32482557091518699 -0.15217937608711771 0 -0.32258299715563782 -0.14068177926995709 0 -0.33321030378869931 -0.13646686722665249 0 -0.32482557091518699 -0.15217937608711771 0 -0.34004440046265172 -0.14309243797241011 0 -0.33321030378869931 -0.13646686722665249 0 -0.34004440046265172 -0.14309243797241011 0 -0.35498504575946821 -0.15757720561970059 0 -0.3332048416520596 -0.1672909388971599 0 -0.34004440046265172 -0.14309243797241011 0 -0.3332048416520596 -0.1672909388971599 0 -0.32482557091518699 -0.15217937608711771 0 -0.34004440046265172 -0.14309243797241011 0 -0.3332048416520596 -0.1672909388971599 0 -0.3466874303271234 -0.11958926053505441 0 -0.34004440046265172 -0.14309243797241011 0 -0.33213803149032362 -0.1206207689722909 0 -0.32288905220234743 -0.1288405143651869 0 -0.33321030378869931 -0.13646686722665249 0 -0.33213803149032362 -0.1206207689722909 0 -0.3466874303271234 -0.11958926053505441 0 -0.33321030378869931 -0.13646686722665249 0 -0.3466874303271234 -0.11958926053505441 0 -0.34004440046265172 -0.14309243797241011 0 -0.33321030378869931 -0.13646686722665249 0 -0.34004440046265172 -0.14309243797241011 0 -0.33321030378869931 -0.13646686722665249 0 -0.3466874303271234 -0.11958926053505441 0 -0.35676717686891291 -0.14006723761877321 0 -0.35999293180258313 -0.1258522389537349 0 -0.3466874303271234 -0.11958926053505441 0 -0.34004440046265172 -0.14309243797241011 0 -0.35676717686891291 -0.14006723761877321 0 -0.35676717686891291 -0.14006723761877321 0 -0.37152802352755399 -0.13164580699010159 0 -0.37069541475874412 -0.1487336244607225 0 -0.35676717686891291 -0.14006723761877321 0 -0.35999293180258313 -0.1258522389537349 0 -0.37152802352755399 -0.13164580699010159 0 -0.35676717686891291 -0.14006723761877321 0 -0.37069541475874412 -0.1487336244607225 0 -0.35498504575946821 -0.15757720561970059 0 -0.37069541475874412 -0.1487336244607225 0 -0.35498504575946821 -0.15757720561970059 0 -0.37692746124962329 -0.16011968929401549 0 -0.37152802352755399 -0.13164580699010159 0 -0.37069541475874412 -0.1487336244607225 0 -0.38190833683646341 -0.1417380771930716 0 -0.34004440046265172 -0.14309243797241011 0 -0.35676717686891291 -0.14006723761877321 0 -0.35498504575946821 -0.15757720561970059 0 -0.34004440046265172 -0.14309243797241011 0 -0.35498504575946821 -0.15757720561970059 0 -0.35102499454429859 -0.17065527247529391 0 -0.35498504575946821 -0.15757720561970059 0 -0.36992569105628492 -0.1720619732669908 0 -0.35102499454429859 -0.17065527247529391 0 -0.35498504575946821 -0.15757720561970059 0 -0.3332048416520596 -0.1672909388971599 0 -0.35498504575946821 -0.15757720561970059 0 -0.36992569105628492 -0.1720619732669908 0 -0.37692746124962329 -0.16011968929401549 0 -0.35498504575946821 -0.15757720561970059 0 -0.36992569105628492 -0.1720619732669908 0 -0.36802329911298681 -0.18587483615006681 0 -0.36992569105628492 -0.1720619732669908 0 -0.38452179946839471 -0.1862127167391712 0 -0.36802329911298681 -0.18587483615006681 0 -0.36992569105628492 -0.1720619732669908 0 -0.34598439970938172 -0.18569097211732419 0 -0.35102499454429859 -0.17065527247529391 0 -0.36992569105628492 -0.1720619732669908 0 -0.34598439970938172 -0.18569097211732419 0 -0.36992569105628492 -0.1720619732669908 0 -0.34598439970938172 -0.18569097211732419 0 -0.35102499454429859 -0.17065527247529391 0 -0.34598439970938172 -0.18569097211732419 0 -0.3332048416520596 -0.1672909388971599 0 -0.34598439970938172 -0.18569097211732419 0 -0.3332048416520596 -0.1672909388971599 0 -0.32636528284146782 -0.19148943982190991 0 -0.3332048416520596 -0.1672909388971599 0 -0.32636528284146782 -0.19148943982190991 0 -0.31180552805921091 -0.17430838359622669 0 -0.32482557091518699 -0.15217937608711771 0 -0.3332048416520596 -0.1672909388971599 0 -0.31180552805921091 -0.17430838359622669 0 -0.30878195228896921 -0.15303576335633209 0 -0.32482557091518699 -0.15217937608711771 0 -0.31180552805921091 -0.17430838359622669 0 -0.3332048416520596 -0.1672909388971599 0 -0.32636528284146782 -0.19148943982190991 0 -0.30591086076688379 -0.19847336016990141 0 -0.32636528284146782 -0.19148943982190991 0 -0.31790591229007997 -0.21133065133653661 0 -0.30591086076688379 -0.19847336016990141 0 -0.31180552805921091 -0.17430838359622669 0 -0.32636528284146782 -0.19148943982190991 0 -0.32636528284146782 -0.19148943982190991 0 -0.31790591229007997 -0.21133065133653661 0 -0.33039187961118982 -0.20742389982875531 0 -0.31790591229007997 -0.21133065133653661 0 -0.33039187961118982 -0.20742389982875531 0 -0.32870803705144969 -0.21844997174213321 0 -0.33039187961118982 -0.20742389982875531 0 -0.32870803705144969 -0.21844997174213321 0 -0.33850246058748812 -0.21389845468103499 0 -0.32870803705144969 -0.21844997174213321 0 -0.33850246058748812 -0.21389845468103499 0 -0.33596699493009807 -0.21993263715474329 0 -0.33850246058748812 -0.21389845468103499 0 -0.34687159193856038 -0.2183762197826761 0 -0.3403652740897718 -0.22150288532491411 0 -0.33850246058748812 -0.21389845468103499 0 -0.3403652740897718 -0.22150288532491411 0 -0.33596699493009807 -0.21993263715474329 0 -0.33039187961118982 -0.20742389982875531 0 -0.33850246058748812 -0.21389845468103499 0 -0.34047770528546362 -0.2019509815621614 0 -0.33850246058748812 -0.21389845468103499 0 -0.34047770528546362 -0.2019509815621614 0 -0.34737571748628571 -0.2101963969508848 0 -0.34598439970938172 -0.18569097211732419 0 -0.32636528284146782 -0.19148943982190991 0 -0.34047770528546362 -0.2019509815621614 0 -0.32636528284146782 -0.19148943982190991 0 -0.33039187961118982 -0.20742389982875531 0 -0.34047770528546362 -0.2019509815621614 0 -0.34598439970938172 -0.18569097211732419 0 -0.35303310702934909 -0.20231631441727971 0 -0.36343771537771569 -0.19566750525459251 0 -0.34598439970938172 -0.18569097211732419 0 -0.34047770528546362 -0.2019509815621614 0 -0.35303310702934909 -0.20231631441727971 0 -0.36802329911298681 -0.18587483615006681 0 -0.34598439970938172 -0.18569097211732419 0 -0.36343771537771569 -0.19566750525459251 0 -0.35303310702934909 -0.20231631441727971 0 -0.36343771537771569 -0.19566750525459251 0 -0.36388592792924168 -0.20758305467352059 0 -0.36343771537771569 -0.19566750525459251 0 -0.37301156641091737 -0.20337184000283479 0 -0.36388592792924168 -0.20758305467352059 0 -0.36343771537771569 -0.19566750525459251 0 -0.37438048369549509 -0.19384422148204511 0 -0.37301156641091737 -0.20337184000283479 0 -0.36802329911298681 -0.18587483615006681 0 -0.36343771537771569 -0.19566750525459251 0 -0.37438048369549509 -0.19384422148204511 0 -0.37273312771996808 -0.21396345107145709 0 -0.37301156641091737 -0.20337184000283479 0 -0.36388592792924168 -0.20758305467352059 0 -0.37273312771996808 -0.21396345107145709 0 -0.36388592792924168 -0.20758305467352059 0 -0.36460053442081081 -0.21946742083422599 0 -0.36388592792924168 -0.20758305467352059 0 -0.35626724818121019 -0.21440977701126371 0 -0.36460053442081081 -0.21946742083422599 0 -0.35626724818121019 -0.21440977701126371 0 -0.34687159193856038 -0.2183762197826761 0 -0.35361393690670712 -0.22275298964725909 0 -0.35303310702934909 -0.20231631441727971 0 -0.36388592792924168 -0.20758305467352059 0 -0.35626724818121019 -0.21440977701126371 0 -0.35303310702934909 -0.20231631441727971 0 -0.35626724818121019 -0.21440977701126371 0 -0.34737571748628571 -0.2101963969508848 0 -0.34047770528546362 -0.2019509815621614 0 -0.35303310702934909 -0.20231631441727971 0 -0.34737571748628571 -0.2101963969508848 0 -0.33850246058748812 -0.21389845468103499 0 -0.34737571748628571 -0.2101963969508848 0 -0.34687159193856038 -0.2183762197826761 0 -0.35626724818121019 -0.21440977701126371 0 -0.34737571748628571 -0.2101963969508848 0 -0.34687159193856038 -0.2183762197826761 0 -0.34687159193856038 -0.2183762197826761 0 -0.3448729074691318 -0.22568858673477191 0 -0.3403652740897718 -0.22150288532491411 0 -0.34687159193856038 -0.2183762197826761 0 -0.3448729074691318 -0.22568858673477191 0 -0.35361393690670712 -0.22275298964725909 0 -0.3448729074691318 -0.22568858673477191 0 -0.35311939258201253 -0.23120947699362049 0 -0.35361393690670712 -0.22275298964725909 0 -0.3448729074691318 -0.22568858673477191 0 -0.35311939258201253 -0.23120947699362049 0 -0.3466300329275056 -0.23782645962689411 0 -0.35311939258201253 -0.23120947699362049 0 -0.35361393690670712 -0.22275298964725909 0 -0.36278739720748587 -0.22937453583313699 0 -0.35311939258201253 -0.23120947699362049 0 -0.36278739720748587 -0.22937453583313699 0 -0.35743223323550471 -0.2390192939344549 0 -0.35626724818121019 -0.21440977701126371 0 -0.35361393690670712 -0.22275298964725909 0 -0.36460053442081081 -0.21946742083422599 0 -0.36460053442081081 -0.21946742083422599 0 -0.36278739720748587 -0.22937453583313699 0 -0.37306962678156358 -0.22430756502184571 0 -0.35361393690670712 -0.22275298964725909 0 -0.36460053442081081 -0.21946742083422599 0 -0.36278739720748587 -0.22937453583313699 0 -0.36278739720748587 -0.22937453583313699 0 -0.37393716339703942 -0.23401667981853819 0 -0.37306962678156358 -0.22430756502184571 0 -0.36278739720748587 -0.22937453583313699 0 -0.37393716339703942 -0.23401667981853819 0 -0.36594725961251939 -0.23889039006825119 0 -0.37273312771996808 -0.21396345107145709 0 -0.36460053442081081 -0.21946742083422599 0 -0.37306962678156358 -0.22430756502184571 0 -0.37393540655460039 -0.25504906339868932 0 -0.37362469669529808 -0.24416340610428999 0 -0.363557814049559 -0.2486896754833777 0 -0.37362469669529808 -0.24416340610428999 0 -0.36594725961251939 -0.23889039006825119 0 -0.363557814049559 -0.2486896754833777 0 -0.37393716339703942 -0.23401667981853819 0 -0.37362469669529808 -0.24416340610428999 0 -0.36594725961251939 -0.23889039006825119 0 -0.36278739720748587 -0.22937453583313699 0 -0.36594725961251939 -0.23889039006825119 0 -0.35743223323550471 -0.2390192939344549 0 -0.36594725961251939 -0.23889039006825119 0 -0.363557814049559 -0.2486896754833777 0 -0.35743223323550471 -0.2390192939344549 0 -0.363557814049559 -0.2486896754833777 0 -0.35255150303394622 -0.24812522560144931 0 -0.35743223323550471 -0.2390192939344549 0 -0.35311939258201253 -0.23120947699362049 0 -0.35743223323550471 -0.2390192939344549 0 -0.3466300329275056 -0.23782645962689411 0 -0.35255150303394622 -0.24812522560144931 0 -0.35743223323550471 -0.2390192939344549 0 -0.3466300329275056 -0.23782645962689411 0 -0.35255150303394622 -0.24812522560144931 0 -0.3466300329275056 -0.23782645962689411 0 -0.3420777495351906 -0.24844208584564559 0 -0.33131030172746923 -0.25321851497678438 0 -0.33373364759712132 -0.2373308373461466 0 -0.32202724095639168 -0.2495658441092535 0 -0.33131030172746923 -0.25321851497678438 0 -0.33373364759712132 -0.2373308373461466 0 -0.33131030172746923 -0.25321851497678438 0 -0.3420777495351906 -0.24844208584564559 0 -0.33373364759712132 -0.2373308373461466 0 -0.3466300329275056 -0.23782645962689411 0 -0.3420777495351906 -0.24844208584564559 0 -0.33373364759712132 -0.2373308373461466 0 -0.3448729074691318 -0.22568858673477191 0 -0.33373364759712132 -0.2373308373461466 0 -0.33513500532203722 -0.22814340766163391 0 -0.3448729074691318 -0.22568858673477191 0 -0.33373364759712132 -0.2373308373461466 0 -0.3448729074691318 -0.22568858673477191 0 -0.3466300329275056 -0.23782645962689411 0 -0.33373364759712132 -0.2373308373461466 0 -0.3362922079916828 -0.22587923687089109 0 -0.33513500532203722 -0.22814340766163391 0 -0.31547147842988582 -0.2330670094454039 0 -0.3448729074691318 -0.22568858673477191 0 -0.3362922079916828 -0.22587923687089109 0 -0.33513500532203722 -0.22814340766163391 0 -0.3448729074691318 -0.22568858673477191 0 -0.3403652740897718 -0.22150288532491411 0 -0.3362922079916828 -0.22587923687089109 0 -0.3403652740897718 -0.22150288532491411 0 -0.3362922079916828 -0.22587923687089109 0 -0.33596699493009807 -0.21993263715474329 0 -0.32870803705144969 -0.21844997174213321 0 -0.3362922079916828 -0.22587923687089109 0 -0.33596699493009807 -0.21993263715474329 0 -0.33373364759712132 -0.2373308373461466 0 -0.33513500532203722 -0.22814340766163391 0 -0.31790591229007997 -0.21133065133653661 0 -0.32870803705144969 -0.21844997174213321 0 -0.31547147842988582 -0.2330670094454039 0 -0.3362922079916828 -0.22587923687089109 0 -0.31547147842988582 -0.2330670094454039 0 -0.32870803705144969 -0.21844997174213321 0 -0.3362922079916828 -0.22587923687089109 0 -0.31547147842988582 -0.2330670094454039 0 -0.33373364759712132 -0.2373308373461466 0 -0.33513500532203722 -0.22814340766163391 0 -0.31547147842988582 -0.2330670094454039 0 -0.33373364759712132 -0.2373308373461466 0 -0.31547147842988582 -0.2330670094454039 0 -0.32202724095639168 -0.2495658441092535 0 -0.31283906540333922 -0.25031215033235238 0 -0.31547147842988582 -0.2330670094454039 0 -0.32202724095639168 -0.2495658441092535 0 -0.33373364759712132 -0.2373308373461466 0 -0.32202724095639168 -0.2495658441092535 0 -0.42931567121415071 -0.25028064732030619 0 -0.41974440223132548 -0.2277223948390894 0 -0.42931567121415071 -0.25028064732030619 0 -0.43665732485841618 -0.24137016429136929 0 -0.41974440223132548 -0.2277223948390894 0 -0.43487007995442373 -0.25384069753834382 0 -0.42931567121415071 -0.25028064732030619 0 -0.43665732485841618 -0.24137016429136929 0 -0.43665732485841618 -0.24137016429136929 0 -0.41974440223132548 -0.2277223948390894 0 -0.44277641758923081 -0.23102430468348881 0 -0.43377720402095787 -0.21991138490827611 0 -0.41974440223132548 -0.2277223948390894 0 -0.44277641758923081 -0.23102430468348881 0 -0.43377720402095787 -0.21991138490827611 0 -0.41974440223132548 -0.2277223948390894 0 -0.42075205755079043 -0.21398522646416529 0 -0.41974440223132548 -0.2277223948390894 0 -0.40847937369743209 -0.24258689873782929 0 -0.40379864078896821 -0.22147517947459039 0 -0.42931567121415071 -0.25028064732030619 0 -0.41974440223132548 -0.2277223948390894 0 -0.40847937369743209 -0.24258689873782929 0 -0.3945867816951415 -0.25828321704239809 0 -0.40847937369743209 -0.24258689873782929 0 -0.3933004523496676 -0.24484402304582939 0 -0.40847937369743209 -0.24258689873782929 0 -0.3933004523496676 -0.24484402304582939 0 -0.39478669289115392 -0.23309544567896751 0 -0.3933004523496676 -0.24484402304582939 0 -0.38349803953804651 -0.2389949919606586 0 -0.38258347849844832 -0.24967798674395081 0 -0.3933004523496676 -0.24484402304582939 0 -0.38349803953804651 -0.2389949919606586 0 -0.39478669289115392 -0.23309544567896751 0 -0.37393716339703942 -0.23401667981853819 0 -0.37362469669529808 -0.24416340610428999 0 -0.38349803953804651 -0.2389949919606586 0 -0.37393540655460039 -0.25504906339868932 0 -0.37362469669529808 -0.24416340610428999 0 -0.38258347849844832 -0.24967798674395081 0 -0.37362469669529808 -0.24416340610428999 0 -0.38349803953804651 -0.2389949919606586 0 -0.38258347849844832 -0.24967798674395081 0 -0.37306962678156358 -0.22430756502184571 0 -0.38469596054732291 -0.22836918992304631 0 -0.38295547739377761 -0.21861943378263729 0 -0.37273312771996808 -0.21396345107145709 0 -0.37306962678156358 -0.22430756502184571 0 -0.38295547739377761 -0.21861943378263729 0 -0.37393716339703942 -0.23401667981853819 0 -0.38349803953804651 -0.2389949919606586 0 -0.38469596054732291 -0.22836918992304631 0 -0.37393716339703942 -0.23401667981853819 0 -0.37306962678156358 -0.22430756502184571 0 -0.38469596054732291 -0.22836918992304631 0 -0.38349803953804651 -0.2389949919606586 0 -0.38469596054732291 -0.22836918992304631 0 -0.39478669289115392 -0.23309544567896751 0 -0.38469596054732291 -0.22836918992304631 0 -0.39264909581396568 -0.2229573829789786 0 -0.38295547739377761 -0.21861943378263729 0 -0.39264909581396568 -0.2229573829789786 0 -0.39478669289115392 -0.23309544567896751 0 -0.40379864078896821 -0.22147517947459039 0 -0.40847937369743209 -0.24258689873782929 0 -0.39478669289115392 -0.23309544567896751 0 -0.40379864078896821 -0.22147517947459039 0 -0.40847937369743209 -0.24258689873782929 0 -0.40379864078896821 -0.22147517947459039 0 -0.39264909581396568 -0.2229573829789786 0 -0.40379864078896821 -0.22147517947459039 0 -0.39247153470499518 -0.2129117927155128 0 -0.38469596054732291 -0.22836918992304631 0 -0.39264909581396568 -0.2229573829789786 0 -0.39478669289115392 -0.23309544567896751 0 -0.40379864078896821 -0.22147517947459039 0 -0.39911790788050461 -0.2003634602113514 0 -0.40379864078896821 -0.22147517947459039 0 -0.39247153470499518 -0.2129117927155128 0 -0.39911790788050461 -0.2003634602113514 0 -0.40379864078896821 -0.22147517947459039 0 -0.40520524043689871 -0.20626505254016059 0 -0.39911790788050461 -0.2003634602113514 0 -0.40520524043689871 -0.20626505254016059 0 -0.39911790788050461 -0.2003634602113514 0 -0.41017313324850019 -0.2051641423578727 0 -0.40520524043689871 -0.20626505254016059 0 -0.39911790788050461 -0.2003634602113514 0 -0.39247153470499518 -0.2129117927155128 0 -0.38971867217429529 -0.20303686442097379 0 -0.39911790788050461 -0.2003634602113514 0 -0.39247153470499518 -0.2129117927155128 0 -0.38295547739377761 -0.21861943378263729 0 -0.38211351879485039 -0.2092072209849834 0 -0.39264909581396568 -0.2229573829789786 0 -0.39247153470499518 -0.2129117927155128 0 -0.38295547739377761 -0.21861943378263729 0 -0.38211351879485039 -0.2092072209849834 0 -0.38151862494823319 -0.19996558655041019 0 -0.38971867217429529 -0.20303686442097379 0 -0.39247153470499518 -0.2129117927155128 0 -0.38211351879485039 -0.2092072209849834 0 -0.38971867217429529 -0.20303686442097379 0 -0.37273312771996808 -0.21396345107145709 0 -0.37301156641091737 -0.20337184000283479 0 -0.38211351879485039 -0.2092072209849834 0 -0.37301156641091737 -0.20337184000283479 0 -0.38211351879485039 -0.2092072209849834 0 -0.38151862494823319 -0.19996558655041019 0 -0.37273312771996808 -0.21396345107145709 0 -0.38295547739377761 -0.21861943378263729 0 -0.38211351879485039 -0.2092072209849834 0 -0.36802329911298681 -0.18587483615006681 0 -0.37438048369549509 -0.19384422148204511 0 -0.38452179946839471 -0.1862127167391712 0 -0.38151862494823319 -0.19996558655041019 0 -0.38971867217429529 -0.20303686442097379 0 -0.38452179946839471 -0.1862127167391712 0 -0.37438048369549509 -0.19384422148204511 0 -0.38151862494823319 -0.19996558655041019 0 -0.38452179946839471 -0.1862127167391712 0 -0.37438048369549509 -0.19384422148204511 0 -0.37301156641091737 -0.20337184000283479 0 -0.38151862494823319 -0.19996558655041019 0 -0.39911790788050461 -0.2003634602113514 0 -0.39550730918059213 -0.18407841519480589 0 -0.38452179946839471 -0.1862127167391712 0 -0.39911790788050461 -0.2003634602113514 0 -0.40135005364381798 -0.19305297691017151 0 -0.39550730918059213 -0.18407841519480589 0 -0.39911790788050461 -0.2003634602113514 0 -0.39550730918059213 -0.18407841519480589 0 -0.38971867217429529 -0.20303686442097379 0 -0.39911790788050461 -0.2003634602113514 0 -0.38452179946839471 -0.1862127167391712 0 -0.41017313324850019 -0.2051641423578727 0 -0.40060186426567512 -0.18260588987665591 0 -0.40135005364381798 -0.19305297691017151 0 -0.41017313324850019 -0.2051641423578727 0 -0.40060186426567512 -0.18260588987665591 0 -0.39911790788050461 -0.2003634602113514 0 -0.38452179946839471 -0.1862127167391712 0 -0.39911790788050461 -0.2003634602113514 0 -0.40135005364381798 -0.19305297691017151 0 -0.41017313324850019 -0.2051641423578727 0 -0.40882722491020068 -0.19324634934951379 0 -0.40670914653930851 -0.1871811045826946 0 -0.40060186426567512 -0.18260588987665591 0 -0.40882722491020068 -0.19324634934951379 0 -0.41182634361573828 -0.18846823012601879 0 -0.40670914653930851 -0.1871811045826946 0 -0.40882722491020068 -0.19324634934951379 0 -0.41017313324850019 -0.2051641423578727 0 -0.40060186426567512 -0.18260588987665591 0 -0.40882722491020068 -0.19324634934951379 0 -0.41332632127240471 -0.19520135196246871 0 -0.41182634361573828 -0.18846823012601879 0 -0.41182634361573828 -0.18846823012601879 0 -0.42015528071935893 -0.19373976728588371 0 -0.42086010939994178 -0.18624419393877539 0 -0.41332632127240471 -0.19520135196246871 0 -0.41182634361573828 -0.18846823012601879 0 -0.42015528071935893 -0.19373976728588371 0 -0.42015528071935893 -0.19373976728588371 0 -0.41596892406105851 -0.2005599774501266 0 -0.4250272884910265 -0.2012921483654643 0 -0.41596892406105851 -0.2005599774501266 0 -0.41798035083784391 -0.20525037365940721 0 -0.4250272884910265 -0.2012921483654643 0 -0.41332632127240471 -0.19520135196246871 0 -0.42015528071935893 -0.19373976728588371 0 -0.41596892406105851 -0.2005599774501266 0 -0.41596892406105851 -0.2005599774501266 0 -0.41190905555667651 -0.19876129696974801 0 -0.41017313324850019 -0.2051641423578727 0 -0.40882722491020068 -0.19324634934951379 0 -0.41190905555667651 -0.19876129696974801 0 -0.41017313324850019 -0.2051641423578727 0 -0.40882722491020068 -0.19324634934951379 0 -0.41332632127240471 -0.19520135196246871 0 -0.41190905555667651 -0.19876129696974801 0 -0.41332632127240471 -0.19520135196246871 0 -0.41596892406105851 -0.2005599774501266 0 -0.41190905555667651 -0.19876129696974801 0 -0.41974440223132548 -0.2277223948390894 0 -0.40379864078896821 -0.22147517947459039 0 -0.41017313324850019 -0.2051641423578727 0 -0.41974440223132548 -0.2277223948390894 0 -0.41017313324850019 -0.2051641423578727 0 -0.42075205755079043 -0.21398522646416529 0 -0.40379864078896821 -0.22147517947459039 0 -0.40520524043689871 -0.20626505254016059 0 -0.41017313324850019 -0.2051641423578727 0 -0.41974440223132548 -0.2277223948390894 0 -0.41017313324850019 -0.2051641423578727 0 -0.41017313324850019 -0.2051641423578727 0 -0.42075205755079043 -0.21398522646416529 0 -0.41798035083784391 -0.20525037365940721 0 -0.42075205755079043 -0.21398522646416529 0 -0.41798035083784391 -0.20525037365940721 0 -0.4250272884910265 -0.2012921483654643 0 -0.41596892406105851 -0.2005599774501266 0 -0.41017313324850019 -0.2051641423578727 0 -0.41798035083784391 -0.20525037365940721 0 -0.42075205755079043 -0.21398522646416529 0 -0.43601245252430942 -0.20793643678791121 0 -0.4250272884910265 -0.2012921483654643 0 -0.43377720402095787 -0.21991138490827611 0 -0.42075205755079043 -0.21398522646416529 0 -0.43601245252430942 -0.20793643678791121 0 -0.42704416580793209 -0.1915833167308334 0 -0.4250272884910265 -0.2012921483654643 0 -0.43829012180726529 -0.19322062900912909 0 -0.43601245252430942 -0.20793643678791121 0 -0.4250272884910265 -0.2012921483654643 0 -0.43829012180726529 -0.19322062900912909 0 -0.42704416580793209 -0.1915833167308334 0 -0.43088802862206788 -0.18341984505491449 0 -0.43829012180726529 -0.19322062900912909 0 -0.42015528071935893 -0.19373976728588371 0 -0.42704416580793209 -0.1915833167308334 0 -0.42086010939994178 -0.18624419393877539 0 -0.42015528071935893 -0.19373976728588371 0 -0.42704416580793209 -0.1915833167308334 0 -0.4250272884910265 -0.2012921483654643 0 -0.4285734277027195 -0.1734756855885477 0 -0.43088802862206788 -0.18341984505491449 0 -0.41995474680429618 -0.17713819565942951 0 -0.42704416580793209 -0.1915833167308334 0 -0.43088802862206788 -0.18341984505491449 0 -0.42086010939994178 -0.18624419393877539 0 -0.43088802862206788 -0.18341984505491449 0 -0.41995474680429618 -0.17713819565942951 0 -0.42086010939994178 -0.18624419393877539 0 -0.43088802862206788 -0.18341984505491449 0 -0.44104422433457419 -0.1777922577957152 0 -0.43829012180726529 -0.19322062900912909 0 -0.4285734277027195 -0.1734756855885477 0 -0.43088802862206788 -0.18341984505491449 0 -0.44104422433457419 -0.1777922577957152 0 -0.4285734277027195 -0.1734756855885477 0 -0.4344270590450659 -0.1609053943072484 0 -0.44104422433457419 -0.1777922577957152 0 -0.4285734277027195 -0.1734756855885477 0 -0.4344270590450659 -0.1609053943072484 0 -0.4151480566294905 -0.1680004084026471 0 -0.4151480566294905 -0.1680004084026471 0 -0.40323096316088519 -0.16793215078578741 0 -0.41306883257355248 -0.1475019853524365 0 -0.4344270590450659 -0.1609053943072484 0 -0.4151480566294905 -0.1680004084026471 0 -0.41306883257355248 -0.1475019853524365 0 -0.4151480566294905 -0.1680004084026471 0 -0.40690801218449152 -0.1762036959065488 0 -0.40323096316088519 -0.16793215078578741 0 -0.4151480566294905 -0.1680004084026471 0 -0.40690801218449152 -0.1762036959065488 0 -0.4136865446123984 -0.1757543503219206 0 -0.40690801218449152 -0.1762036959065488 0 -0.4136865446123984 -0.1757543503219206 0 -0.41273536283131562 -0.1816751013190569 0 -0.4151480566294905 -0.1680004084026471 0 -0.4136865446123984 -0.1757543503219206 0 -0.41995474680429618 -0.17713819565942951 0 -0.4285734277027195 -0.1734756855885477 0 -0.4151480566294905 -0.1680004084026471 0 -0.41995474680429618 -0.17713819565942951 0 -0.4136865446123984 -0.1757543503219206 0 -0.41995474680429618 -0.17713819565942951 0 -0.41273536283131562 -0.1816751013190569 0 -0.41995474680429618 -0.17713819565942951 0 -0.42086010939994178 -0.18624419393877539 0 -0.41273536283131562 -0.1816751013190569 0 -0.41182634361573828 -0.18846823012601879 0 -0.42086010939994178 -0.18624419393877539 0 -0.41273536283131562 -0.1816751013190569 0 -0.41182634361573828 -0.18846823012601879 0 -0.41273536283131562 -0.1816751013190569 0 -0.4077561458873058 -0.18322680436219499 0 -0.40690801218449152 -0.1762036959065488 0 -0.41273536283131562 -0.1816751013190569 0 -0.4077561458873058 -0.18322680436219499 0 -0.41182634361573828 -0.18846823012601879 0 -0.4077561458873058 -0.18322680436219499 0 -0.40670914653930851 -0.1871811045826946 0 -0.39550730918059213 -0.18407841519480589 0 -0.38736231178750308 -0.177259124355894 0 -0.39189671048067998 -0.1677933701782604 0 -0.40135005364381798 -0.19305297691017151 0 -0.40060186426567512 -0.18260588987665591 0 -0.39550730918059213 -0.18407841519480589 0 -0.4077561458873058 -0.18322680436219499 0 -0.40670914653930851 -0.1871811045826946 0 -0.40060186426567512 -0.18260588987665591 0 -0.39550730918059213 -0.18407841519480589 0 -0.39189671048067998 -0.1677933701782604 0 -0.40060186426567512 -0.18260588987665591 0 -0.39550730918059213 -0.18407841519480589 0 -0.39189671048067998 -0.1677933701782604 0 -0.40690801218449152 -0.1762036959065488 0 -0.4077561458873058 -0.18322680436219499 0 -0.40060186426567512 -0.18260588987665591 0 -0.40690801218449152 -0.1762036959065488 0 -0.40060186426567512 -0.18260588987665591 0 -0.40323096316088519 -0.16793215078578741 0 -0.36992569105628492 -0.1720619732669908 0 -0.38736231178750308 -0.177259124355894 0 -0.39189671048067998 -0.1677933701782604 0 -0.36992569105628492 -0.1720619732669908 0 -0.38452179946839471 -0.1862127167391712 0 -0.38736231178750308 -0.177259124355894 0 -0.39550730918059213 -0.18407841519480589 0 -0.38452179946839471 -0.1862127167391712 0 -0.38736231178750308 -0.177259124355894 0 -0.36992569105628492 -0.1720619732669908 0 -0.38452179946839471 -0.1862127167391712 0 -0.36992569105628492 -0.1720619732669908 0 -0.37692746124962329 -0.16011968929401549 0 -0.39103059528285172 -0.16004763739543851 0 -0.36992569105628492 -0.1720619732669908 0 -0.39189671048067998 -0.1677933701782604 0 -0.39103059528285172 -0.16004763739543851 0 -0.36992569105628492 -0.1720619732669908 0 -0.39103059528285172 -0.16004763739543851 0 -0.37692746124962329 -0.16011968929401549 0 -0.39103059528285172 -0.16004763739543851 0 -0.38828980922767731 -0.15358795645443499 0 -0.39103059528285172 -0.16004763739543851 0 -0.38828980922767731 -0.15358795645443499 0 -0.40060186426567512 -0.18260588987665591 0 -0.39103059528285172 -0.16004763739543851 0 -0.40323096316088519 -0.16793215078578741 0 -0.40060186426567512 -0.18260588987665591 0 -0.39189671048067998 -0.1677933701782604 0 -0.39103059528285172 -0.16004763739543851 0 -0.40060186426567512 -0.18260588987665591 0 -0.39103059528285172 -0.16004763739543851 0 -0.39103059528285172 -0.16004763739543851 0 -0.40323096316088519 -0.16793215078578741 0 -0.41306883257355248 -0.1475019853524365 0 -0.39103059528285172 -0.16004763739543851 0 -0.39795981207507403 -0.14502431583870179 0 -0.41306883257355248 -0.1475019853524365 0 -0.39795981207507403 -0.14502431583870179 0 -0.40633267592073652 -0.13102661860532899 0 -0.41306883257355248 -0.1475019853524365 0 -0.39103059528285172 -0.16004763739543851 0 -0.41306883257355248 -0.1475019853524365 0 -0.39103059528285172 -0.16004763739543851 0 -0.39795981207507403 -0.14502431583870179 0 -0.38828980922767731 -0.15358795645443499 0 -0.39795981207507403 -0.14502431583870179 0 -0.38828980922767731 -0.15358795645443499 0 -0.38190833683646341 -0.1417380771930716 0 -0.38828980922767731 -0.15358795645443499 0 -0.38190833683646341 -0.1417380771930716 0 -0.37945525551812698 -0.15104483685056111 0 -0.37069541475874412 -0.1487336244607225 0 -0.38190833683646341 -0.1417380771930716 0 -0.37945525551812698 -0.15104483685056111 0 -0.37692746124962329 -0.16011968929401549 0 -0.38828980922767731 -0.15358795645443499 0 -0.37945525551812698 -0.15104483685056111 0 -0.37069541475874412 -0.1487336244607225 0 -0.37692746124962329 -0.16011968929401549 0 -0.37945525551812698 -0.15104483685056111 0 -0.37152802352755399 -0.13164580699010159 0 -0.38190833683646341 -0.1417380771930716 0 -0.38235470820745771 -0.123978498660336 0 -0.38190833683646341 -0.1417380771930716 0 -0.39228294530364349 -0.13316426080004001 0 -0.38235470820745771 -0.123978498660336 0 -0.39228294530364349 -0.13316426080004001 0 -0.40633267592073652 -0.13102661860532899 0 -0.39306930808202878 -0.1142539450673672 0 -0.39795981207507403 -0.14502431583870179 0 -0.38190833683646341 -0.1417380771930716 0 -0.39228294530364349 -0.13316426080004001 0 -0.39795981207507403 -0.14502431583870179 0 -0.39228294530364349 -0.13316426080004001 0 -0.40633267592073652 -0.13102661860532899 0 -0.40633267592073652 -0.13102661860532899 0 -0.42371591628165239 -0.12841039464220819 0 -0.41294233195137359 -0.116724400289887 0 -0.40633267592073652 -0.13102661860532899 0 -0.41306883257355248 -0.1475019853524365 0 -0.42371591628165239 -0.12841039464220819 0 -0.4344270590450659 -0.1609053943072484 0 -0.41306883257355248 -0.1475019853524365 0 -0.43782831476482847 -0.1415704877041897 0 -0.41306883257355248 -0.1475019853524365 0 -0.42371591628165239 -0.12841039464220819 0 -0.43782831476482847 -0.1415704877041897 0 -0.42371591628165239 -0.12841039464220819 0 -0.43782831476482847 -0.1415704877041897 0 -0.44295770465017009 -0.12292285668534771 0 -0.43782831476482847 -0.1415704877041897 0 -0.45407528277834919 -0.1346042898317954 0 -0.44295770465017009 -0.12292285668534771 0 -0.43782831476482847 -0.1415704877041897 0 -0.45305184803309972 -0.15210272433296521 0 -0.45407528277834919 -0.1346042898317954 0 -0.4344270590450659 -0.1609053943072484 0 -0.43782831476482847 -0.1415704877041897 0 -0.45305184803309972 -0.15210272433296521 0 -0.45305184803309972 -0.15210272433296521 0 -0.45407528277834919 -0.1346042898317954 0 -0.47213782278640881 -0.13623393318828281 0 -0.45305184803309972 -0.15210272433296521 0 -0.47213782278640881 -0.13623393318828281 0 -0.46702369577757719 -0.16066454859793791 0 -0.45407528277834919 -0.1346042898317954 0 -0.47213782278640881 -0.13623393318828281 0 -0.46296805171726468 -0.11640170438458371 0 -0.47213782278640881 -0.13623393318828281 0 -0.5 -0.14556247672259531 0 -0.48245330698995931 -0.121898764666846 0 -0.5 -0.14556247672259531 0 -0.48245330698995931 -0.121898764666846 0 -0.50000000000000089 -0.1198938119733675 0 -0.47213782278640881 -0.13623393318828281 0 -0.5 -0.14556247672259531 0 -0.48142521519093828 -0.15645589086587239 0 -0.47213782278640881 -0.13623393318828281 0 -0.48142521519093828 -0.15645589086587239 0 -0.47213782278640881 -0.13623393318828281 0 -0.48142521519093828 -0.15645589086587239 0 -0.46702369577757719 -0.16066454859793791 0 -0.48142521519093828 -0.15645589086587239 0 -0.47632052375980027 -0.17461649056753861 0 -0.46702369577757719 -0.16066454859793791 0 -0.48142521519093828 -0.15645589086587239 0 -0.49071260759546798 -0.17667784854346191 0 -0.47632052375980027 -0.17461649056753861 0 -0.47632052375980027 -0.17461649056753861 0 -0.46570520523623959 -0.1757931846103527 0 -0.46702369577757719 -0.16066454859793791 0 -0.48142521519093828 -0.15645589086587239 0 -0.49071260759546798 -0.17667784854346191 0 -0.5 -0.14556247672259531 0 -0.48142521519093828 -0.15645589086587239 0 -0.5 -0.17123114147182319 0 -0.48142521519093828 -0.15645589086587239 0 -0.5 -0.17123114147182319 0 -0.49071260759546798 -0.17667784854346191 0 -0.49071260759546798 -0.17667784854346191 0 -0.49999999999999861 -0.19689980622105099 0 -0.5 -0.17123114147182319 0 -0.49071260759546798 -0.17667784854346191 0 -0.49999999999999861 -0.19689980622105099 0 -0.49071260759546798 -0.17667784854346191 0 -0.47632052375980027 -0.17461649056753861 0 -0.47993034859498662 -0.18922987045237161 0 -0.47632052375980027 -0.17461649056753861 0 -0.46763136520864318 -0.18653340036078911 0 -0.46570520523623959 -0.1757931846103527 0 -0.47632052375980027 -0.17461649056753861 0 -0.46763136520864318 -0.18653340036078911 0 -0.47993034859498662 -0.18922987045237161 0 -0.46570520523623959 -0.1757931846103527 0 -0.45350155965897682 -0.1687850680226157 0 -0.45596312027128949 -0.18794868189772959 0 -0.46763136520864318 -0.18653340036078911 0 -0.46570520523623959 -0.1757931846103527 0 -0.45596312027128949 -0.18794868189772959 0 -0.45305184803309972 -0.15210272433296521 0 -0.46702369577757719 -0.16066454859793791 0 -0.45350155965897682 -0.1687850680226157 0 -0.46570520523623959 -0.1757931846103527 0 -0.46702369577757719 -0.16066454859793791 0 -0.45350155965897682 -0.1687850680226157 0 -0.4344270590450659 -0.1609053943072484 0 -0.45305184803309972 -0.15210272433296521 0 -0.45350155965897682 -0.1687850680226157 0 -0.4344270590450659 -0.1609053943072484 0 -0.45350155965897682 -0.1687850680226157 0 -0.44104422433457419 -0.1777922577957152 0 -0.45350155965897682 -0.1687850680226157 0 -0.44104422433457419 -0.1777922577957152 0 -0.45596312027128949 -0.18794868189772959 0 -0.44104422433457419 -0.1777922577957152 0 -0.43829012180726529 -0.19322062900912909 0 -0.45596312027128949 -0.18794868189772959 0 -0.45013906333809789 -0.2009404811944836 0 -0.43829012180726529 -0.19322062900912909 0 -0.45596312027128949 -0.18794868189772959 0 -0.43601245252430942 -0.20793643678791121 0 -0.45013906333809789 -0.2009404811944836 0 -0.43829012180726529 -0.19322062900912909 0 -0.43377720402095787 -0.21991138490827611 0 -0.43601245252430942 -0.20793643678791121 0 -0.45297794936819918 -0.2159919965998246 0 -0.43601245252430942 -0.20793643678791121 0 -0.45013906333809789 -0.2009404811944836 0 -0.45297794936819918 -0.2159919965998246 0 -0.45013906333809789 -0.2009404811944836 0 -0.45297794936819918 -0.2159919965998246 0 -0.46745167271942573 -0.1996046616778234 0 -0.45297794936819918 -0.2159919965998246 0 -0.46745167271942573 -0.1996046616778234 0 -0.46956062781061803 -0.21704188818370149 0 -0.45013906333809789 -0.2009404811944836 0 -0.46745167271942573 -0.1996046616778234 0 -0.45596312027128949 -0.18794868189772959 0 -0.46763136520864318 -0.18653340036078911 0 -0.46745167271942573 -0.1996046616778234 0 -0.45596312027128949 -0.18794868189772959 0 -0.46745167271942573 -0.1996046616778234 0 -0.47993034859498662 -0.18922987045237161 0 -0.48475058775642699 -0.21058337118561141 0 -0.46763136520864318 -0.18653340036078911 0 -0.46745167271942573 -0.1996046616778234 0 -0.47993034859498662 -0.18922987045237161 0 -0.47993034859498662 -0.18922987045237161 0 -0.49999999999999861 -0.19689980622105099 0 -0.48475058775642699 -0.21058337118561141 0 -0.49071260759546798 -0.17667784854346191 0 -0.47993034859498662 -0.18922987045237161 0 -0.49999999999999861 -0.19689980622105099 0 -0.49999999999999861 -0.19689980622105099 0 -0.48475058775642699 -0.21058337118561141 0 -0.50000000000000355 -0.22426693615016591 0 -0.46745167271942573 -0.1996046616778234 0 -0.48475058775642699 -0.21058337118561141 0 -0.46956062781061803 -0.21704188818370149 0 -0.46956062781061803 -0.21704188818370149 0 -0.47829002665147741 -0.2341248566128927 0 -0.46279731583591321 -0.22891002208815581 0 -0.48475058775642699 -0.21058337118561141 0 -0.46956062781061803 -0.21704188818370149 0 -0.47829002665147741 -0.2341248566128927 0 -0.47829002665147741 -0.2341248566128927 0 -0.49757451855253881 -0.23053548086278239 0 -0.50000000000000355 -0.22426693615016591 0 -0.48475058775642699 -0.21058337118561141 0 -0.47829002665147741 -0.2341248566128927 0 -0.50000000000000355 -0.22426693615016591 0 -0.47829002665147741 -0.2341248566128927 0 -0.50000000000000355 -0.22426693615016591 0 -0.47829002665147741 -0.2341248566128927 0 -0.49757451855253881 -0.23053548086278239 0 -0.47793059070477772 -0.24540990329775009 0 -0.5 -0.25006354863638108 0 -0.49757451855253881 -0.23053548086278239 0 -0.49068252501969761 -0.24549971615663649 0 -0.49757451855253881 -0.23053548086278239 0 -0.49068252501969761 -0.24549971615663649 0 -0.47793059070477772 -0.24540990329775009 0 -0.49757451855253881 -0.23053548086278239 0 -0.47793059070477772 -0.24540990329775009 0 -0.5 -0.25006354863638108 0 -0.49757451855253881 -0.23053548086278239 0 -0.50000000000000355 -0.22426693615016591 0 -0.4872249908214738 -0.25598993182963242 0 -0.49068252501969761 -0.24549971615663649 0 -0.47793059070477772 -0.24540990329775009 0 -0.47829002665147741 -0.2341248566128927 0 -0.47793059070477772 -0.24540990329775009 0 -0.45658005330295048 -0.2439827770756183 0 -0.45658005330295048 -0.2439827770756183 0 -0.46279731583591321 -0.22891002208815581 0 -0.44277641758923081 -0.23102430468348881 0 -0.47829002665147741 -0.2341248566128927 0 -0.45658005330295048 -0.2439827770756183 0 -0.45828666285701658 -0.26028432573271792 0 -0.47793059070477772 -0.24540990329775009 0 -0.45658005330295048 -0.2439827770756183 0 -0.47829002665147741 -0.2341248566128927 0 -0.45658005330295048 -0.2439827770756183 0 -0.46279731583591321 -0.22891002208815581 0 -0.45297794936819918 -0.2159919965998246 0 -0.46956062781061803 -0.21704188818370149 0 -0.46279731583591321 -0.22891002208815581 0 -0.45297794936819918 -0.2159919965998246 0 -0.46279731583591321 -0.22891002208815581 0 -0.44277641758923081 -0.23102430468348881 0 -0.43377720402095787 -0.21991138490827611 0 -0.45297794936819918 -0.2159919965998246 0 -0.44277641758923081 -0.23102430468348881 0 -0.43487007995442373 -0.25384069753834382 0 -0.45658005330295048 -0.2439827770756183 0 -0.43487007995442373 -0.25384069753834382 0 -0.43665732485841618 -0.24137016429136929 0 -0.45658005330295048 -0.2439827770756183 0 -0.43665732485841618 -0.24137016429136929 0 -0.45658005330295048 -0.2439827770756183 0 -0.44277641758923081 -0.23102430468348881 0 -0.42837915354319411 -0.040827216461995969 0 -0.4199205163048339 -0.024265820886729 0 -0.40528095782104068 -0.044243292517360297 0 -0.42343463197652342 -0.05874232933513765 0 -0.42837915354319411 -0.040827216461995969 0 -0.40528095782104068 -0.044243292517360297 0 -0.42343463197652342 -0.05874232933513765 0 -0.40528095782104068 -0.044243292517360297 0 -0.42343463197652342 -0.05874232933513765 0 -0.40528095782104068 -0.044243292517360297 0 -0.40670414160736479 -0.063195666982337848 0 -0.42343463197652342 -0.05874232933513765 0 -0.42837915354319411 -0.040827216461995969 0 -0.44094154444346079 -0.04995238034171972 0 -0.42343463197652342 -0.05874232933513765 0 -0.44158830613200611 -0.073241366152915127 0 -0.44094154444346079 -0.04995238034171972 0 -0.42837915354319411 -0.040827216461995969 0 -0.4342900889778567 -0.026770694848987801 0 -0.4453801544960031 -0.037531923181514312 0 -0.4342900889778567 -0.026770694848987801 0 -0.43033724725149269 -0.0037964727450953309 0 -0.4199205163048339 -0.024265820886729 0 -0.4342900889778567 -0.026770694848987801 0 -0.43033724725149269 -0.0037964727450953309 0 -0.44743337329375982 -0.027432040969604381 0 -0.42837915354319411 -0.040827216461995969 0 -0.4342900889778567 -0.026770694848987801 0 -0.4199205163048339 -0.024265820886729 0 -0.43033724725149269 -0.0037964727450953309 0 -0.4131572459017161 -0.004875649818797438 0 -0.4199205163048339 -0.024265820886729 0 -0.4131572459017161 -0.004875649818797438 0 -0.4199205163048339 -0.024265820886729 0 -0.40195427741026962 -0.018113178269922089 0 -0.4199205163048339 -0.024265820886729 0 -0.40195427741026962 -0.018113178269922089 0 -0.40528095782104068 -0.044243292517360297 0 -0.40195427741026962 -0.018113178269922089 0 -0.38465333842141641 -0.0066435457767305304 0 -0.38712728366555788 -0.02974425569958293 0 -0.40195427741026962 -0.018113178269922089 0 -0.38712728366555788 -0.02974425569958293 0 -0.40528095782104068 -0.044243292517360297 0 -0.40195427741026962 -0.018113178269922089 0 -0.38465333842141641 -0.0066435457767305304 0 -0.40033306733275759 0.0019581273283447299 0 -0.4131572459017161 -0.004875649818797438 0 -0.40195427741026962 -0.018113178269922089 0 -0.40033306733275759 0.0019581273283447299 0 -0.38465333842141641 -0.0066435457767305304 0 -0.40033306733275759 0.0019581273283447299 0 -0.36897360951007507 -0.015245218881805699 0 -0.38465333842141641 -0.0066435457767305304 0 -0.36897360951007507 -0.015245218881805699 0 -0.38465333842141641 -0.0066435457767305304 0 -0.38712728366555788 -0.02974425569958293 0 -0.36897360951007507 -0.015245218881805699 0 -0.38712728366555788 -0.02974425569958293 0 -0.37357085562444819 -0.050327950541553881 0 -0.38712728366555788 -0.02974425569958293 0 -0.39147992867528753 -0.058279446621744307 0 -0.38712728366555788 -0.02974425569958293 0 -0.40528095782104068 -0.044243292517360297 0 -0.38712728366555788 -0.02974425569958293 0 -0.40528095782104068 -0.044243292517360297 0 -0.39147992867528753 -0.058279446621744307 0 -0.40528095782104068 -0.044243292517360297 0 -0.39147992867528753 -0.058279446621744307 0 -0.40670414160736479 -0.063195666982337848 0 -0.37357085562444819 -0.050327950541553881 0 -0.39147992867528753 -0.058279446621744307 0 -0.37513495807632252 -0.068027960422620465 0 -0.39147992867528753 -0.058279446621744307 0 -0.37513495807632252 -0.068027960422620465 0 -0.3944429598887787 -0.078419500118194568 0 -0.37347114863240299 -0.089088331268139143 0 -0.37513495807632252 -0.068027960422620465 0 -0.3944429598887787 -0.078419500118194568 0 -0.37347114863240299 -0.089088331268139143 0 -0.3944429598887787 -0.078419500118194568 0 -0.38844874713165228 -0.097169733216879689 0 -0.3944429598887787 -0.078419500118194568 0 -0.38844874713165228 -0.097169733216879689 0 -0.40907098738890341 -0.097978282768044114 0 -0.39147992867528753 -0.058279446621744307 0 -0.3944429598887787 -0.078419500118194568 0 -0.40670414160736479 -0.063195666982337848 0 -0.3944429598887787 -0.078419500118194568 0 -0.41749625226094061 -0.077358517460495352 0 -0.40670414160736479 -0.063195666982337848 0 -0.39228294530364349 -0.13316426080004001 0 -0.38235470820745771 -0.123978498660336 0 -0.39306930808202878 -0.1142539450673672 0 -0.36980343247362518 -0.1100922289949047 0 -0.38235470820745771 -0.123978498660336 0 -0.39306930808202878 -0.1142539450673672 0 -0.36980343247362518 -0.1100922289949047 0 -0.37347114863240299 -0.089088331268139143 0 -0.38844874713165228 -0.097169733216879689 0 -0.36980343247362518 -0.1100922289949047 0 -0.38844874713165228 -0.097169733216879689 0 -0.39306930808202878 -0.1142539450673672 0 -0.38844874713165228 -0.097169733216879689 0 -0.39306930808202878 -0.1142539450673672 0 -0.40907098738890341 -0.097978282768044114 0 -0.39306930808202878 -0.1142539450673672 0 -0.41294233195137359 -0.116724400289887 0 -0.40907098738890341 -0.097978282768044114 0 -0.40633267592073652 -0.13102661860532899 0 -0.39306930808202878 -0.1142539450673672 0 -0.41294233195137359 -0.116724400289887 0 -0.41294233195137359 -0.116724400289887 0 -0.40907098738890341 -0.097978282768044114 0 -0.42916563782925382 -0.1107160192160596 0 -0.42916563782925382 -0.1107160192160596 0 -0.42904349786494111 -0.093106334976964328 0 -0.44668080241849201 -0.10304266906569499 0 -0.40907098738890341 -0.097978282768044114 0 -0.42916563782925382 -0.1107160192160596 0 -0.42904349786494111 -0.093106334976964328 0 -0.42371591628165239 -0.12841039464220819 0 -0.42916563782925382 -0.1107160192160596 0 -0.44295770465017009 -0.12292285668534771 0 -0.42371591628165239 -0.12841039464220819 0 -0.41294233195137359 -0.116724400289887 0 -0.42916563782925382 -0.1107160192160596 0 -0.42343463197652342 -0.05874232933513765 0 -0.41749625226094061 -0.077358517460495352 0 -0.40670414160736479 -0.063195666982337848 0 -0.40907098738890341 -0.097978282768044114 0 -0.41749625226094061 -0.077358517460495352 0 -0.42904349786494111 -0.093106334976964328 0 -0.3944429598887787 -0.078419500118194568 0 -0.40907098738890341 -0.097978282768044114 0 -0.41749625226094061 -0.077358517460495352 0 -0.41749625226094061 -0.077358517460495352 0 -0.42904349786494111 -0.093106334976964328 0 -0.44158830613200611 -0.073241366152915127 0 -0.42904349786494111 -0.093106334976964328 0 -0.44158830613200611 -0.073241366152915127 0 -0.42343463197652342 -0.05874232933513765 0 -0.44158830613200611 -0.073241366152915127 0 -0.42343463197652342 -0.05874232933513765 0 -0.41749625226094061 -0.077358517460495352 0 -0.44158830613200611 -0.073241366152915127 0 -0.44158830613200611 -0.073241366152915127 0 -0.46118581313569179 -0.071431252447136412 0 -0.45067286806919349 -0.058855770468984832 0 -0.44158830613200611 -0.073241366152915127 0 -0.45067286806919349 -0.058855770468984832 0 -0.44158830613200611 -0.073241366152915127 0 -0.44459286929252761 -0.089545637905493386 0 -0.46105887075467122 -0.088792181426399025 0 -0.42904349786494111 -0.093106334976964328 0 -0.44158830613200611 -0.073241366152915127 0 -0.44459286929252761 -0.089545637905493386 0 -0.44158830613200611 -0.073241366152915127 0 -0.46105887075467122 -0.088792181426399025 0 -0.46105887075467122 -0.088792181426399025 0 -0.46118581313569179 -0.071431252447136412 0 -0.48115195350555812 -0.076249636056848105 0 -0.44158830613200611 -0.073241366152915127 0 -0.46105887075467122 -0.088792181426399025 0 -0.46118581313569179 -0.071431252447136412 0 -0.44295770465017009 -0.12292285668534771 0 -0.44668080241849201 -0.10304266906569499 0 -0.46296805171726468 -0.11640170438458371 0 -0.42916563782925382 -0.1107160192160596 0 -0.44295770465017009 -0.12292285668534771 0 -0.44668080241849201 -0.10304266906569499 0 -0.44459286929252761 -0.089545637905493386 0 -0.46105887075467122 -0.088792181426399025 0 -0.44668080241849201 -0.10304266906569499 0 -0.42904349786494111 -0.093106334976964328 0 -0.44459286929252761 -0.089545637905493386 0 -0.44668080241849201 -0.10304266906569499 0 -0.46105887075467122 -0.088792181426399025 0 -0.46296805171726468 -0.11640170438458371 0 -0.48052943537733628 -0.1043429966998831 0 -0.46105887075467122 -0.088792181426399025 0 -0.44668080241849201 -0.10304266906569499 0 -0.46296805171726468 -0.11640170438458371 0 -0.45407528277834919 -0.1346042898317954 0 -0.44295770465017009 -0.12292285668534771 0 -0.46296805171726468 -0.11640170438458371 0 -0.46296805171726468 -0.11640170438458371 0 -0.48245330698995931 -0.121898764666846 0 -0.48052943537733628 -0.1043429966998831 0 -0.47213782278640881 -0.13623393318828281 0 -0.46296805171726468 -0.11640170438458371 0 -0.48245330698995931 -0.121898764666846 0 -0.46105887075467122 -0.088792181426399025 0 -0.48052943537733628 -0.1043429966998831 0 -0.48052943537733628 -0.1043429966998831 0 -0.50000000000000089 -0.1198938119733675 0 -0.5 -0.090898883536528308 0 -0.48245330698995931 -0.121898764666846 0 -0.48052943537733628 -0.1043429966998831 0 -0.50000000000000089 -0.1198938119733675 0 -0.48052943537733628 -0.1043429966998831 0 -0.50000000000000089 -0.1198938119733675 0 -0.46118581313569179 -0.071431252447136412 0 -0.48115195350555812 -0.076249636056848105 0 -0.46833584839527592 -0.05632992550213807 0 -0.48115195350555812 -0.076249636056848105 0 -0.48490864188954641 -0.055044389119401932 0 -0.46833584839527592 -0.05632992550213807 0 -0.46105887075467122 -0.088792181426399025 0 -0.48052943537733628 -0.1043429966998831 0 -0.48115195350555812 -0.076249636056848105 0 -0.48052943537733628 -0.1043429966998831 0 -0.48115195350555812 -0.076249636056848105 0 -0.5 -0.090898883536528308 0 -0.48115195350555812 -0.076249636056848105 0 -0.5 -0.090898883536528308 0 -0.5 -0.061903955099689163 0 -0.48115195350555812 -0.076249636056848105 0 -0.5 -0.061903955099689163 0 -0.48490864188954641 -0.055044389119401932 0 -0.5 -0.061903955099689163 0 -0.48490864188954641 -0.055044389119401932 0 -0.5 -0.032909026662849998 0 -0.48490864188954641 -0.055044389119401932 0 -0.5 -0.032909026662849998 0 -0.47623700986288742 -0.042296174380792313 0 -0.47623700986288742 -0.042296174380792313 0 -0.45975743000638192 -0.044470174785055258 0 -0.47133789178420182 -0.026132268992706809 0 -0.5 -0.032909026662849998 0 -0.47623700986288742 -0.042296174380792313 0 -0.47133789178420182 -0.026132268992706809 0 -0.48490864188954641 -0.055044389119401932 0 -0.47623700986288742 -0.042296174380792313 0 -0.46833584839527592 -0.05632992550213807 0 -0.46118581313569179 -0.071431252447136412 0 -0.46833584839527592 -0.05632992550213807 0 -0.45067286806919349 -0.058855770468984832 0 -0.47623700986288742 -0.042296174380792313 0 -0.46833584839527592 -0.05632992550213807 0 -0.45975743000638192 -0.044470174785055258 0 -0.46833584839527592 -0.05632992550213807 0 -0.45975743000638192 -0.044470174785055258 0 -0.45067286806919349 -0.058855770468984832 0 -0.45975743000638192 -0.044470174785055258 0 -0.45067286806919349 -0.058855770468984832 0 -0.46833584839527592 -0.05632992550213807 0 -0.45975743000638192 -0.044470174785055258 0 -0.45964620516156041 -0.031574428691672249 0 -0.45975743000638192 -0.044470174785055258 0 -0.44743337329375982 -0.027432040969604381 0 -0.45975743000638192 -0.044470174785055258 0 -0.44743337329375982 -0.027432040969604381 0 -0.45975743000638192 -0.044470174785055258 0 -0.47133789178420182 -0.026132268992706809 0 -0.45964620516156041 -0.031574428691672249 0 -0.45975743000638192 -0.044470174785055258 0 -0.47133789178420182 -0.026132268992706809 0 -0.45975743000638192 -0.044470174785055258 0 -0.4453801544960031 -0.037531923181514312 0 -0.44743337329375982 -0.027432040969604381 0 -0.45975743000638192 -0.044470174785055258 0 -0.4453801544960031 -0.037531923181514312 0 -0.44094154444346079 -0.04995238034171972 0 -0.42837915354319411 -0.040827216461995969 0 -0.4453801544960031 -0.037531923181514312 0 -0.44094154444346079 -0.04995238034171972 0 -0.4453801544960031 -0.037531923181514312 0 -0.44743337329375982 -0.027432040969604381 0 -0.44158830613200611 -0.073241366152915127 0 -0.44094154444346079 -0.04995238034171972 0 -0.45067286806919349 -0.058855770468984832 0 -0.45975743000638192 -0.044470174785055258 0 -0.44094154444346079 -0.04995238034171972 0 -0.45067286806919349 -0.058855770468984832 0 -0.43033724725149269 -0.0037964727450953309 0 -0.45268467479845531 -0.00160063580491273 0 -0.44743337329375982 -0.027432040969604381 0 -0.45268467479845531 -0.00160063580491273 0 -0.44743337329375982 -0.027432040969604381 0 -0.43033724725149269 -0.0037964727450953309 0 -0.44743337329375982 -0.027432040969604381 0 -0.4342900889778567 -0.026770694848987801 0 -0.4453801544960031 -0.037531923181514312 0 -0.44743337329375982 -0.027432040969604381 0 -0.45964620516156041 -0.031574428691672249 0 -0.44743337329375982 -0.027432040969604381 0 -0.46065164258955998 -0.015998841515816709 0 -0.45964620516156041 -0.031574428691672249 0 -0.46065164258955998 -0.015998841515816709 0 -0.47133789178420182 -0.026132268992706809 0 -0.45268467479845531 -0.00160063580491273 0 -0.46065164258955998 -0.015998841515816709 0 -0.47044579822050858 0.003730308873902122 0 -0.45268467479845531 -0.00160063580491273 0 -0.44743337329375982 -0.027432040969604381 0 -0.46065164258955998 -0.015998841515816709 0 -0.46065164258955998 -0.015998841515816709 0 -0.48291835356202167 -0.0077943632003582772 0 -0.47044579822050858 0.003730308873902122 0 -0.46065164258955998 -0.015998841515816709 0 -0.48291835356202167 -0.0077943632003582772 0 -0.47133789178420182 -0.026132268992706809 0 -0.48291835356202167 -0.0077943632003582772 0 -0.47133789178420182 -0.026132268992706809 0 -0.5 -0.032909026662849998 0 -0.48291835356202167 -0.0077943632003582772 0 -0.47133789178420182 -0.026132268992706809 0 -0.5 -0.032909026662849998 0 -0.48291835356202167 -0.0077943632003582772 0 -0.5 -0.0039140982260107426 0 -0.48291835356202167 -0.0077943632003582772 0 -0.5 -0.0039140982260107426 0 -0.48656778433615411 0.0071434676601368312 0 -0.5 -0.0039140982260107426 0 -0.48656778433615411 0.0071434676601368312 0 -0.5 0.02508083021082835 0 -0.5 0.02508083021082835 0 -0.47947476989823978 0.0186146606423227 0 -0.48053744464613157 0.038241937480116027 0 -0.48656778433615411 0.0071434676601368312 0 -0.5 0.02508083021082835 0 -0.47947476989823978 0.0186146606423227 0 -0.47947476989823978 0.0186146606423227 0 -0.48053744464613157 0.038241937480116027 0 -0.45793597630314969 0.024230769359779091 0 -0.48656778433615411 0.0071434676601368312 0 -0.47947476989823978 0.0186146606423227 0 -0.47044579822050858 0.003730308873902122 0 -0.48291835356202167 -0.0077943632003582772 0 -0.48656778433615411 0.0071434676601368312 0 -0.47044579822050858 0.003730308873902122 0 -0.47947476989823978 0.0186146606423227 0 -0.47044579822050858 0.003730308873902122 0 -0.45793597630314969 0.024230769359779091 0 -0.5 0.05407575864766756 0 -0.48053744464613157 0.038241937480116027 0 -0.48160115767747708 0.06010989829645641 0 -0.5 0.02508083021082835 0 -0.5 0.05407575864766756 0 -0.48053744464613157 0.038241937480116027 0 -0.48053744464613157 0.038241937480116027 0 -0.48160115767747708 0.06010989829645641 0 -0.4631872778078443 0.050062174524471058 0 -0.48160115767747708 0.06010989829645641 0 -0.4631872778078443 0.050062174524471058 0 -0.46843857931253879 0.07589357968916309 0 -0.4631872778078443 0.050062174524471058 0 -0.4467001814262947 0.061097152827744368 0 -0.46843857931253879 0.07589357968916309 0 -0.48053744464613157 0.038241937480116027 0 -0.4631872778078443 0.050062174524471058 0 -0.45793597630314969 0.024230769359779091 0 -0.4631872778078443 0.050062174524471058 0 -0.45793597630314969 0.024230769359779091 0 -0.4631872778078443 0.050062174524471058 0 -0.44755765064800451 0.039790068000500847 0 -0.45793597630314969 0.024230769359779091 0 -0.44755765064800451 0.039790068000500847 0 -0.43523671041618939 0.023434885238954581 0 -0.43070758581248142 0.047053180835022322 0 -0.4631872778078443 0.050062174524471058 0 -0.44755765064800451 0.039790068000500847 0 -0.4467001814262947 0.061097152827744368 0 -0.44755765064800451 0.039790068000500847 0 -0.4467001814262947 0.061097152827744368 0 -0.43070758581248142 0.047053180835022322 0 -0.45268467479845531 -0.00160063580491273 0 -0.45793597630314969 0.024230769359779091 0 -0.45268467479845531 -0.00160063580491273 0 -0.47044579822050858 0.003730308873902122 0 -0.45793597630314969 0.024230769359779091 0 -0.44755765064800451 0.039790068000500847 0 -0.45793597630314969 0.024230769359779091 0 -0.43523671041618939 0.023434885238954581 0 -0.45268467479845531 -0.00160063580491273 0 -0.45793597630314969 0.024230769359779091 0 -0.43523671041618939 0.023434885238954581 0 -0.43033724725149269 -0.0037964727450953309 0 -0.45268467479845531 -0.00160063580491273 0 -0.43523671041618939 0.023434885238954581 0 -0.43033724725149269 -0.0037964727450953309 0 -0.41324112120922679 0.019839095479414509 0 -0.43523671041618939 0.023434885238954581 0 -0.4131572459017161 -0.004875649818797438 0 -0.41324112120922679 0.019839095479414509 0 -0.40033306733275759 0.0019581273283447299 0 -0.43033724725149269 -0.0037964727450953309 0 -0.4131572459017161 -0.004875649818797438 0 -0.41324112120922679 0.019839095479414509 0 -0.43033724725149269 -0.0037964727450953309 0 -0.41324112120922679 0.019839095479414509 0 -0.41324112120922679 0.019839095479414509 0 -0.43523671041618939 0.023434885238954581 0 -0.4159879611894004 0.038538653043845933 0 -0.43523671041618939 0.023434885238954581 0 -0.43070758581248142 0.047053180835022322 0 -0.4159879611894004 0.038538653043845933 0 -0.4467001814262947 0.061097152827744368 0 -0.43070758581248142 0.047053180835022322 0 -0.43187545736445182 0.065921103617004775 0 -0.43070758581248142 0.047053180835022322 0 -0.41322656597679058 0.058941655142102069 0 -0.43187545736445182 0.065921103617004775 0 -0.43070758581248142 0.047053180835022322 0 -0.41322656597679058 0.058941655142102069 0 -0.4159879611894004 0.038538653043845933 0 -0.41322656597679058 0.058941655142102069 0 -0.4159879611894004 0.038538653043845933 0 -0.39614499516696089 0.04347466370392436 0 -0.41324112120922679 0.019839095479414509 0 -0.4159879611894004 0.038538653043845933 0 -0.39614499516696089 0.04347466370392436 0 -0.41324112120922679 0.019839095479414509 0 -0.39614499516696089 0.04347466370392436 0 -0.39614499516696089 0.04347466370392436 0 -0.37904886912469499 0.067110231928434197 0 -0.39695674231957478 0.074929810419583368 0 -0.41322656597679058 0.058941655142102069 0 -0.39614499516696089 0.04347466370392436 0 -0.39695674231957478 0.074929810419583368 0 -0.39614499516696089 0.04347466370392436 0 -0.37904886912469499 0.067110231928434197 0 -0.39614499516696089 0.04347466370392436 0 -0.37830855690199738 0.048851891747440382 0 -0.37904886912469499 0.067110231928434197 0 -0.37830855690199738 0.048851891747440382 0 -0.37904886912469499 0.067110231928434197 0 -0.37119345183321822 0.058853827639881867 0 -0.39614499516696089 0.04347466370392436 0 -0.37753126207020948 0.034899308803226177 0 -0.39262774316901877 0.02112007510405265 0 -0.39614499516696089 0.04347466370392436 0 -0.37830855690199738 0.048851891747440382 0 -0.37753126207020948 0.034899308803226177 0 -0.38389636562500351 0.0078670615218947963 0 -0.39262774316901877 0.02112007510405265 0 -0.37274578052696178 0.01868977009819147 0 -0.37753126207020948 0.034899308803226177 0 -0.39262774316901877 0.02112007510405265 0 -0.37274578052696178 0.01868977009819147 0 -0.38465333842141641 -0.0066435457767305304 0 -0.38389636562500351 0.0078670615218947963 0 -0.40033306733275759 0.0019581273283447299 0 -0.38389636562500351 0.0078670615218947963 0 -0.37274578052696178 0.01868977009819147 0 -0.36979036210562988 0.0025511841975563729 0 -0.38465333842141641 -0.0066435457767305304 0 -0.38389636562500351 0.0078670615218947963 0 -0.36979036210562988 0.0025511841975563729 0 -0.38389636562500351 0.0078670615218947963 0 -0.40033306733275759 0.0019581273283447299 0 -0.39262774316901877 0.02112007510405265 0 -0.41324112120922679 0.019839095479414509 0 -0.40033306733275759 0.0019581273283447299 0 -0.39262774316901877 0.02112007510405265 0 -0.41324112120922679 0.019839095479414509 0 -0.39614499516696089 0.04347466370392436 0 -0.39262774316901877 0.02112007510405265 0 -0.38940712396436111 0.098535478259042519 0 -0.39976920250104669 0.086913075381088473 0 -0.40655062222011962 0.096340958868671334 0 -0.39063101314785642 0.1199442217017349 0 -0.40655062222011962 0.096340958868671334 0 -0.40795026737523371 0.1101441825861223 0 -0.39063101314785642 0.1199442217017349 0 -0.38940712396436111 0.098535478259042519 0 -0.40655062222011962 0.096340958868671334 0 -0.39063101314785642 0.1199442217017349 0 -0.40655062222011962 0.096340958868671334 0 -0.39063101314785642 0.1199442217017349 0 -0.40795026737523371 0.1101441825861223 0 -0.40406865080306442 0.1250183431131778 0 -0.39063101314785642 0.1199442217017349 0 -0.37896648635229202 0.10715504183998489 0 -0.36716541190589658 0.118616890008602 0 -0.39063101314785642 0.1199442217017349 0 -0.37896648635229202 0.10715504183998489 0 -0.38940712396436111 0.098535478259042519 0 -0.37896648635229202 0.10715504183998489 0 -0.38940712396436111 0.098535478259042519 0 -0.37643332436138899 0.09558572737664002 0 -0.38119130922167832 0.078766060501995444 0 -0.3856317933390121 0.08567132342606161 0 -0.39695674231957478 0.074929810419583368 0 -0.37643332436138899 0.09558572737664002 0 -0.3856317933390121 0.08567132342606161 0 -0.37016311523106599 0.083751267223082917 0 -0.38119130922167832 0.078766060501995444 0 -0.3856317933390121 0.08567132342606161 0 -0.37016311523106599 0.083751267223082917 0 -0.38940712396436111 0.098535478259042519 0 -0.37643332436138899 0.09558572737664002 0 -0.3856317933390121 0.08567132342606161 0 -0.39695674231957478 0.074929810419583368 0 -0.37201358599706058 0.070711840939253895 0 -0.38119130922167832 0.078766060501995444 0 -0.39695674231957478 0.074929810419583368 0 -0.37201358599706058 0.070711840939253895 0 -0.37904886912469499 0.067110231928434197 0 -0.39695674231957478 0.074929810419583368 0 -0.37201358599706058 0.070711840939253895 0 -0.39695674231957478 0.074929810419583368 0 -0.39976920250104669 0.086913075381088473 0 -0.42189989864208899 0.079147779899912826 0 -0.38940712396436111 0.098535478259042519 0 -0.3856317933390121 0.08567132342606161 0 -0.39976920250104669 0.086913075381088473 0 -0.3856317933390121 0.08567132342606161 0 -0.39695674231957478 0.074929810419583368 0 -0.39976920250104669 0.086913075381088473 0 -0.42189989864208899 0.079147779899912826 0 -0.41823283762125668 0.10021421029095 0 -0.40655062222011962 0.096340958868671334 0 -0.39976920250104669 0.086913075381088473 0 -0.42189989864208899 0.079147779899912826 0 -0.40655062222011962 0.096340958868671334 0 -0.39695674231957478 0.074929810419583368 0 -0.42189989864208899 0.079147779899912826 0 -0.41322656597679058 0.058941655142102069 0 -0.39695674231957478 0.074929810419583368 0 -0.42189989864208899 0.079147779899912826 0 -0.43187545736445182 0.065921103617004775 0 -0.42189989864208899 0.079147779899912826 0 -0.44684305496460319 0.083365749380242285 0 -0.41322656597679058 0.058941655142102069 0 -0.43187545736445182 0.065921103617004775 0 -0.42189989864208899 0.079147779899912826 0 -0.42189989864208899 0.079147779899912826 0 -0.43230900050581528 0.10074033507248679 0 -0.44684305496460319 0.083365749380242285 0 -0.42189989864208899 0.079147779899912826 0 -0.43230900050581528 0.10074033507248679 0 -0.41823283762125668 0.10021421029095 0 -0.42189989864208899 0.079147779899912826 0 -0.44684305496460319 0.083365749380242285 0 -0.43230900050581528 0.10074033507248679 0 -0.41823283762125668 0.10021421029095 0 -0.42245439936302609 0.1146977950275566 0 -0.41823283762125668 0.10021421029095 0 -0.40795026737523371 0.1101441825861223 0 -0.42245439936302609 0.1146977950275566 0 -0.41823283762125668 0.10021421029095 0 -0.40655062222011962 0.096340958868671334 0 -0.40795026737523371 0.1101441825861223 0 -0.40795026737523371 0.1101441825861223 0 -0.42245439936302609 0.1146977950275566 0 -0.41854804079657681 0.1335618185962307 0 -0.40795026737523371 0.1101441825861223 0 -0.41854804079657681 0.1335618185962307 0 -0.40795026737523371 0.1101441825861223 0 -0.41854804079657681 0.1335618185962307 0 -0.40406865080306442 0.1250183431131778 0 -0.4361514068569779 0.1212930370016405 0 -0.42245439936302609 0.1146977950275566 0 -0.41854804079657681 0.1335618185962307 0 -0.43230900050581528 0.10074033507248679 0 -0.4361514068569779 0.1212930370016405 0 -0.42245439936302609 0.1146977950275566 0 -0.4361514068569779 0.1212930370016405 0 -0.45131059104818438 0.10389771754541841 0 -0.45603072582896947 0.12415654782577901 0 -0.43230900050581528 0.10074033507248679 0 -0.4361514068569779 0.1212930370016405 0 -0.45131059104818438 0.10389771754541841 0 -0.43230900050581528 0.10074033507248679 0 -0.45131059104818438 0.10389771754541841 0 -0.44684305496460319 0.083365749380242285 0 -0.45131059104818438 0.10389771754541841 0 -0.46040635620489312 0.091287960740373597 0 -0.47503319949424611 0.10199479634667059 0 -0.45131059104818438 0.10389771754541841 0 -0.45603072582896947 0.12415654782577901 0 -0.47503319949424611 0.10199479634667059 0 -0.4467001814262947 0.061097152827744368 0 -0.43187545736445182 0.065921103617004775 0 -0.44684305496460319 0.083365749380242285 0 -0.45131059104818438 0.10389771754541841 0 -0.44684305496460319 0.083365749380242285 0 -0.46040635620489312 0.091287960740373597 0 -0.46040635620489312 0.091287960740373597 0 -0.46843857931253879 0.07589357968916309 0 -0.47503319949424611 0.10199479634667059 0 -0.44684305496460319 0.083365749380242285 0 -0.46040635620489312 0.091287960740373597 0 -0.46843857931253879 0.07589357968916309 0 -0.4631872778078443 0.050062174524471058 0 -0.46843857931253879 0.07589357968916309 0 -0.4467001814262947 0.061097152827744368 0 -0.44684305496460319 0.083365749380242285 0 -0.46843857931253879 0.07589357968916309 0 -0.48160115767747708 0.06010989829645641 0 -0.46843857931253879 0.07589357968916309 0 -0.5 0.083070687084506711 0 -0.46843857931253879 0.07589357968916309 0 -0.5 0.083070687084506711 0 -0.47503319949424611 0.10199479634667059 0 -0.5 0.05407575864766756 0 -0.48160115767747708 0.06010989829645641 0 -0.5 0.083070687084506711 0 -0.45603072582896947 0.12415654782577901 0 -0.47503319949424611 0.10199479634667059 0 -0.47840746745339868 0.1318715347448986 0 -0.5 0.083070687084506711 0 -0.47503319949424611 0.10199479634667059 0 -0.5 0.11206561552134579 0 -0.47503319949424611 0.10199479634667059 0 -0.5 0.11206561552134579 0 -0.47840746745339868 0.1318715347448986 0 -0.5 0.11206561552134579 0 -0.47840746745339868 0.1318715347448986 0 -0.5 0.14106054395818479 0 -0.47840746745339868 0.1318715347448986 0 -0.4813713775429343 0.15534342778339541 0 -0.45584990199199521 0.14839652371063539 0 -0.47840746745339868 0.1318715347448986 0 -0.4813713775429343 0.15534342778339541 0 -0.5 0.14106054395818479 0 -0.4813713775429343 0.15534342778339541 0 -0.5 0.14106054395818479 0 -0.5 0.17005547239502389 0 -0.4813713775429343 0.15534342778339541 0 -0.5 0.17005547239502389 0 -0.47888983910924399 0.1833910978263659 0 -0.5 0.17005547239502389 0 -0.47888983910924399 0.1833910978263659 0 -0.49999999999999639 0.19905040083186301 0 -0.4813713775429343 0.15534342778339541 0 -0.47888983910924399 0.1833910978263659 0 -0.46013732273498392 0.17116473448995881 0 -0.4813713775429343 0.15534342778339541 0 -0.47888983910924399 0.1833910978263659 0 -0.4813713775429343 0.15534342778339541 0 -0.46013732273498392 0.17116473448995881 0 -0.45584990199199521 0.14839652371063539 0 -0.47888983910924399 0.1833910978263659 0 -0.46013732273498392 0.17116473448995881 0 -0.4553652866229031 0.19812390853730849 0 -0.46013732273498392 0.17116473448995881 0 -0.43974358763926291 0.18039709061644729 0 -0.4553652866229031 0.19812390853730849 0 -0.46013732273498392 0.17116473448995881 0 -0.45584990199199521 0.14839652371063539 0 -0.42914581421791992 0.156979454606339 0 -0.46013732273498392 0.17116473448995881 0 -0.43974358763926291 0.18039709061644729 0 -0.42914581421791992 0.156979454606339 0 -0.43890233478009338 0.1378395493323826 0 -0.45584990199199521 0.14839652371063539 0 -0.42914581421791992 0.156979454606339 0 -0.4361514068569779 0.1212930370016405 0 -0.45603072582896947 0.12415654782577901 0 -0.43890233478009338 0.1378395493323826 0 -0.45603072582896947 0.12415654782577901 0 -0.43890233478009338 0.1378395493323826 0 -0.45584990199199521 0.14839652371063539 0 -0.45603072582896947 0.12415654782577901 0 -0.47840746745339868 0.1318715347448986 0 -0.45584990199199521 0.14839652371063539 0 -0.48510068849613291 0.2464952989699998 0 -0.5 0.22952651967534751 0 -0.5 0.27058277969487637 0 -0.48510068849613291 0.2464952989699998 0 -0.47450648191078398 0.23293413722231679 0 -0.4662317729600568 0.24711617116125539 0 -0.48510068849613291 0.2464952989699998 0 -0.5 0.22952651967534751 0 -0.47450648191078398 0.23293413722231679 0 -0.5 0.22952651967534751 0 -0.47450648191078398 0.23293413722231679 0 -0.47640830067555312 0.21143876786933641 0 -0.47450648191078398 0.23293413722231679 0 -0.47640830067555312 0.21143876786933641 0 -0.47640830067555312 0.21143876786933641 0 -0.49999999999999639 0.19905040083186301 0 -0.5 0.22952651967534751 0 -0.47640830067555312 0.21143876786933641 0 -0.49999999999999639 0.19905040083186301 0 -0.47888983910924399 0.1833910978263659 0 -0.47640830067555312 0.21143876786933641 0 -0.49999999999999639 0.19905040083186301 0 -0.47888983910924399 0.1833910978263659 0 -0.47640830067555312 0.21143876786933641 0 -0.47888983910924399 0.1833910978263659 0 -0.47640830067555312 0.21143876786933641 0 -0.4553652866229031 0.19812390853730849 0 -0.43974358763926291 0.18039709061644729 0 -0.4553652866229031 0.19812390853730849 0 -0.43067986422853077 0.20940139548392031 0 -0.4553652866229031 0.19812390853730849 0 -0.45283971357182312 0.22381499832142371 0 -0.43067986422853077 0.20940139548392031 0 -0.47640830067555312 0.21143876786933641 0 -0.4553652866229031 0.19812390853730849 0 -0.45283971357182312 0.22381499832142371 0 -0.47640830067555312 0.21143876786933641 0 -0.45283971357182312 0.22381499832142371 0 -0.47450648191078398 0.23293413722231679 0 -0.45283971357182312 0.22381499832142371 0 -0.45078000859246359 0.24156244513336969 0 -0.47450648191078398 0.23293413722231679 0 -0.47640830067555312 0.21143876786933641 0 -0.45283971357182312 0.22381499832142371 0 -0.45283971357182312 0.22381499832142371 0 -0.43294786837480398 0.2404538296894207 0 -0.42927112646809362 0.23619122877351181 0 -0.45283971357182312 0.22381499832142371 0 -0.42927112646809362 0.23619122877351181 0 -0.45283971357182312 0.22381499832142371 0 -0.42927112646809362 0.23619122877351181 0 -0.43067986422853077 0.20940139548392031 0 -0.45283971357182312 0.22381499832142371 0 -0.45078000859246359 0.24156244513336969 0 -0.43294786837480398 0.2404538296894207 0 -0.43294786837480398 0.2404538296894207 0 -0.44957601688056159 0.25938839971938082 0 -0.45078000859246359 0.24156244513336969 0 -0.43294786837480398 0.2404538296894207 0 -0.44957601688056159 0.25938839971938082 0 -0.45078000859246359 0.24156244513336969 0 -0.4662317729600568 0.24711617116125539 0 -0.44957601688056159 0.25938839971938082 0 -0.47450648191078398 0.23293413722231679 0 -0.45078000859246359 0.24156244513336969 0 -0.4662317729600568 0.24711617116125539 0 -0.42927112646809362 0.23619122877351181 0 -0.40439403923729561 0.237116777479636 0 -0.40570253936436479 0.24856745922560119 0 -0.42927112646809362 0.23619122877351181 0 -0.40570253936436479 0.24856745922560119 0 -0.43294786837480398 0.2404538296894207 0 -0.42927112646809362 0.23619122877351181 0 -0.40570253936436479 0.24856745922560119 0 -0.42927112646809362 0.23619122877351181 0 -0.41099867150134572 0.22378265931279079 0 -0.43067986422853077 0.20940139548392031 0 -0.42927112646809362 0.23619122877351181 0 -0.41099867150134572 0.22378265931279079 0 -0.40439403923729561 0.237116777479636 0 -0.40693149157881192 0.20854646138297669 0 -0.43067986422853077 0.20940139548392031 0 -0.41468845130467291 0.19268004053423909 0 -0.41099867150134572 0.22378265931279079 0 -0.40693149157881192 0.20854646138297669 0 -0.43067986422853077 0.20940139548392031 0 -0.43974358763926291 0.18039709061644729 0 -0.43067986422853077 0.20940139548392031 0 -0.41468845130467291 0.19268004053423909 0 -0.40693149157881192 0.20854646138297669 0 -0.41468845130467291 0.19268004053423909 0 -0.3971577940731173 0.19827573187671929 0 -0.41468845130467291 0.19268004053423909 0 -0.3971577940731173 0.19827573187671929 0 -0.39721082993519219 0.18448993107768991 0 -0.3971577940731173 0.19827573187671929 0 -0.38589476142810619 0.19424352100093389 0 -0.39721082993519219 0.18448993107768991 0 -0.38589476142810619 0.19424352100093389 0 -0.37633455857784293 0.18261391494179069 0 -0.37360736010814782 0.20134128663860251 0 -0.38589476142810619 0.19424352100093389 0 -0.388204088430469 0.2080493245121296 0 -0.37360736010814782 0.20134128663860251 0 -0.3971577940731173 0.19827573187671929 0 -0.38589476142810619 0.19424352100093389 0 -0.388204088430469 0.2080493245121296 0 -0.388204088430469 0.2080493245121296 0 -0.37752279527241261 0.21261086987475841 0 -0.37360736010814782 0.20134128663860251 0 -0.388204088430469 0.2080493245121296 0 -0.39698893960476778 0.22105750592270679 0 -0.38334950790794681 0.2216260941536595 0 -0.388204088430469 0.2080493245121296 0 -0.37752279527241261 0.21261086987475841 0 -0.38334950790794681 0.2216260941536595 0 -0.40693149157881192 0.20854646138297669 0 -0.3971577940731173 0.19827573187671929 0 -0.388204088430469 0.2080493245121296 0 -0.40693149157881192 0.20854646138297669 0 -0.388204088430469 0.2080493245121296 0 -0.39698893960476778 0.22105750592270679 0 -0.41099867150134572 0.22378265931279079 0 -0.40693149157881192 0.20854646138297669 0 -0.39698893960476778 0.22105750592270679 0 -0.41099867150134572 0.22378265931279079 0 -0.39817935363044121 0.2307605800777236 0 -0.39698893960476778 0.22105750592270679 0 -0.41099867150134572 0.22378265931279079 0 -0.39817935363044121 0.2307605800777236 0 -0.40439403923729561 0.237116777479636 0 -0.39817935363044121 0.2307605800777236 0 -0.39698893960476778 0.22105750592270679 0 -0.38938082192181989 0.23429513208400299 0 -0.39698893960476778 0.22105750592270679 0 -0.38334950790794681 0.2216260941536595 0 -0.38938082192181989 0.23429513208400299 0 -0.37752279527241261 0.21261086987475841 0 -0.38334950790794681 0.2216260941536595 0 -0.37349668708843092 0.2226496950895116 0 -0.38334950790794681 0.2216260941536595 0 -0.37780308712422273 0.23309721308500589 0 -0.37349668708843092 0.2226496950895116 0 -0.38334950790794681 0.2216260941536595 0 -0.37780308712422273 0.23309721308500589 0 -0.38938082192181989 0.23429513208400299 0 -0.37780308712422273 0.23309721308500589 0 -0.38938082192181989 0.23429513208400299 0 -0.38455494932564349 0.24416718140159829 0 -0.38938082192181989 0.23429513208400299 0 -0.38455494932564349 0.24416718140159829 0 -0.39556747567899392 0.24292135359640349 0 -0.37780308712422273 0.23309721308500589 0 -0.37552267705158737 0.2431978490864326 0 -0.38455494932564349 0.24416718140159829 0 -0.37552267705158737 0.2431978490864326 0 -0.38455494932564349 0.24416718140159829 0 -0.37675611103540763 0.25409865512553548 0 -0.38455494932564349 0.24416718140159829 0 -0.39556747567899392 0.24292135359640349 0 -0.38900306751682168 0.25733661077056619 0 -0.39556747567899392 0.24292135359640349 0 -0.40570253936436479 0.24856745922560119 0 -0.38900306751682168 0.25733661077056619 0 -0.39817935363044121 0.2307605800777236 0 -0.38938082192181989 0.23429513208400299 0 -0.39556747567899392 0.24292135359640349 0 -0.39817935363044121 0.2307605800777236 0 -0.39556747567899392 0.24292135359640349 0 -0.40439403923729561 0.237116777479636 0 -0.39556747567899392 0.24292135359640349 0 -0.40439403923729561 0.237116777479636 0 -0.40570253936436479 0.24856745922560119 0 -0.40439403923729561 0.237116777479636 0 -0.40570253936436479 0.24856745922560119 0 -0.41854804079657681 0.1335618185962307 0 -0.42914581421791992 0.156979454606339 0 -0.40043471814444209 0.15516303321545699 0 -0.41854804079657681 0.1335618185962307 0 -0.39914528189259102 0.13642314956862331 0 -0.40406865080306442 0.1250183431131778 0 -0.4361514068569779 0.1212930370016405 0 -0.43890233478009338 0.1378395493323826 0 -0.41854804079657681 0.1335618185962307 0 -0.41854804079657681 0.1335618185962307 0 -0.42914581421791992 0.156979454606339 0 -0.43890233478009338 0.1378395493323826 0 -0.41854804079657681 0.1335618185962307 0 -0.42914581421791992 0.156979454606339 0 -0.43974358763926291 0.18039709061644729 0 -0.42914581421791992 0.156979454606339 0 -0.43974358763926291 0.18039709061644729 0 -0.42914581421791992 0.156979454606339 0 -0.41320507520050959 0.17295104721716609 0 -0.43974358763926291 0.18039709061644729 0 -0.41468845130467291 0.19268004053423909 0 -0.41320507520050959 0.17295104721716609 0 -0.41468845130467291 0.19268004053423909 0 -0.41320507520050959 0.17295104721716609 0 -0.39721082993519219 0.18448993107768991 0 -0.42914581421791992 0.156979454606339 0 -0.41320507520050959 0.17295104721716609 0 -0.40043471814444209 0.15516303321545699 0 -0.41320507520050959 0.17295104721716609 0 -0.39020731289493082 0.17075062011690681 0 -0.40043471814444209 0.15516303321545699 0 -0.41320507520050959 0.17295104721716609 0 -0.39721082993519219 0.18448993107768991 0 -0.39020731289493082 0.17075062011690681 0 -0.38589476142810619 0.19424352100093389 0 -0.39721082993519219 0.18448993107768991 0 -0.37633455857784293 0.18261391494179069 0 -0.39721082993519219 0.18448993107768991 0 -0.37633455857784293 0.18261391494179069 0 -0.39020731289493082 0.17075062011690681 0 -0.37604315808934557 0.1616159605326225 0 -0.39020731289493082 0.17075062011690681 0 -0.40043471814444209 0.15516303321545699 0 -0.37633455857784293 0.18261391494179069 0 -0.37604315808934557 0.1616159605326225 0 -0.39020731289493082 0.17075062011690681 0 -0.37604315808934557 0.1616159605326225 0 -0.40043471814444209 0.15516303321545699 0 -0.37471140407559322 0.1435474845347986 0 -0.40043471814444209 0.15516303321545699 0 -0.39914528189259102 0.13642314956862331 0 -0.37471140407559322 0.1435474845347986 0 -0.41854804079657681 0.1335618185962307 0 -0.40043471814444209 0.15516303321545699 0 -0.39914528189259102 0.13642314956862331 0 -0.39063101314785642 0.1199442217017349 0 -0.39914528189259102 0.13642314956862331 0 -0.40406865080306442 0.1250183431131778 0 -0.39063101314785642 0.1199442217017349 0 -0.37471140407559322 0.1435474845347986 0 -0.39063101314785642 0.1199442217017349 0 -0.39914528189259102 0.13642314956862331 0 -0.37471140407559322 0.1435474845347986 0 -0.39063101314785642 0.1199442217017349 0 -0.37471140407559322 0.1435474845347986 0 -0.36716541190589658 0.118616890008602 0 -0.35994195951422209 0.1344452768815545 0 -0.37471140407559322 0.1435474845347986 0 -0.36716541190589658 0.118616890008602 0 -0.35994195951422209 0.1344452768815545 0 -0.36716541190589658 0.118616890008602 0 -0.35352278934268327 0.12307152153672141 0 -0.34641309729257957 0.13731862859844601 0 -0.34013489564456101 0.1359120708212119 0 -0.34492978578452338 0.1096826786703838 0 -0.35994195951422209 0.1344452768815545 0 -0.34641309729257957 0.13731862859844601 0 -0.35352278934268327 0.12307152153672141 0 -0.35994195951422209 0.1344452768815545 0 -0.34641309729257957 0.13731862859844601 0 -0.35789709495435779 0.14967185972920441 0 -0.34641309729257957 0.13731862859844601 0 -0.34789640880063583 0.16495457852650819 0 -0.34475730797662613 0.16425129963789131 0 -0.34641309729257957 0.13731862859844601 0 -0.34789640880063583 0.16495457852650819 0 -0.34641309729257957 0.13731862859844601 0 -0.35789709495435779 0.14967185972920441 0 -0.34789640880063583 0.16495457852650819 0 -0.34641309729257957 0.13731862859844601 0 -0.34475730797662613 0.16425129963789131 0 -0.34013489564456101 0.1359120708212119 0 -0.35994195951422209 0.1344452768815545 0 -0.35789709495435779 0.14967185972920441 0 -0.37471140407559322 0.1435474845347986 0 -0.37471140407559322 0.1435474845347986 0 -0.35879179500333003 0.16715074736786231 0 -0.35789709495435779 0.14967185972920441 0 -0.37471140407559322 0.1435474845347986 0 -0.35879179500333003 0.16715074736786231 0 -0.37604315808934557 0.1616159605326225 0 -0.37471140407559322 0.1435474845347986 0 -0.35879179500333003 0.16715074736786231 0 -0.37604315808934557 0.1616159605326225 0 -0.36770080355277779 0.17295393471821821 0 -0.35879179500333003 0.16715074736786231 0 -0.37633455857784293 0.18261391494179069 0 -0.37604315808934557 0.1616159605326225 0 -0.36770080355277779 0.17295393471821821 0 -0.37633455857784293 0.18261391494179069 0 -0.36024484160731629 0.17922248672973989 0 -0.36412185028301147 0.19234279238731111 0 -0.37633455857784293 0.18261391494179069 0 -0.36770080355277779 0.17295393471821821 0 -0.36024484160731629 0.17922248672973989 0 -0.36770080355277779 0.17295393471821821 0 -0.36024484160731629 0.17922248672973989 0 -0.35879179500333003 0.16715074736786231 0 -0.34475730797662613 0.16425129963789131 0 -0.34937972030869158 0.1925905284545705 0 -0.34475730797662613 0.16425129963789131 0 -0.33955964773429331 0.17429409395644799 0 -0.34937972030869158 0.1925905284545705 0 -0.34789640880063583 0.16495457852650819 0 -0.34937972030869158 0.1925905284545705 0 -0.36024484160731629 0.17922248672973989 0 -0.34789640880063583 0.16495457852650819 0 -0.34937972030869158 0.1925905284545705 0 -0.34789640880063583 0.16495457852650819 0 -0.34475730797662613 0.16425129963789131 0 -0.34937972030869158 0.1925905284545705 0 -0.35789709495435779 0.14967185972920441 0 -0.35879179500333003 0.16715074736786231 0 -0.34789640880063583 0.16495457852650819 0 -0.36024484160731629 0.17922248672973989 0 -0.35879179500333003 0.16715074736786231 0 -0.34789640880063583 0.16495457852650819 0 -0.34475730797662613 0.16425129963789131 0 -0.33718479128260948 0.15937809544746401 0 -0.33738994680948231 0.15124435901621999 0 -0.34475730797662613 0.16425129963789131 0 -0.33718479128260948 0.15937809544746401 0 -0.33813633189250208 0.16634522180797001 0 -0.34475730797662613 0.16425129963789131 0 -0.33813633189250208 0.16634522180797001 0 -0.33955964773429331 0.17429409395644799 0 -0.33813633189250208 0.16634522180797001 0 -0.33104358057647992 0.16745739819007679 0 -0.33955964773429331 0.17429409395644799 0 -0.33718479128260948 0.15937809544746401 0 -0.33813633189250208 0.16634522180797001 0 -0.33104358057647992 0.16745739819007679 0 -0.33718479128260948 0.15937809544746401 0 -0.33104358057647992 0.16745739819007679 0 -0.33026858376101731 0.15190637449176561 0 -0.33104358057647992 0.16745739819007679 0 -0.33403331992976748 0.18227938602527921 0 -0.31962491903722229 0.18594758427241961 0 -0.33955964773429331 0.17429409395644799 0 -0.33403331992976748 0.18227938602527921 0 -0.34937972030869158 0.1925905284545705 0 -0.33104358057647992 0.16745739819007679 0 -0.33955964773429331 0.17429409395644799 0 -0.33403331992976748 0.18227938602527921 0 -0.31962491903722229 0.18594758427241961 0 -0.31796283648197832 0.1633337389314328 0 -0.30596240671843039 0.18080678990447141 0 -0.31962491903722229 0.18594758427241961 0 -0.31796283648197832 0.1633337389314328 0 -0.33104358057647992 0.16745739819007679 0 -0.31962491903722229 0.18594758427241961 0 -0.31796283648197832 0.1633337389314328 0 -0.33104358057647992 0.16745739819007679 0 -0.31796283648197832 0.1633337389314328 0 -0.33026858376101731 0.15190637449176561 0 -0.31796283648197832 0.1633337389314328 0 -0.31630075392673418 0.14071989359044609 0 -0.31796283648197832 0.1633337389314328 0 -0.31630075392673418 0.14071989359044609 0 -0.33026858376101731 0.15190637449176561 0 -0.31630075392673418 0.14071989359044609 0 -0.32855297285770901 0.13997743418302819 0 -0.33026858376101731 0.15190637449176561 0 -0.31630075392673418 0.14071989359044609 0 -0.30835875028686138 0.12836861128214669 0 -0.32196666651361477 0.12487749701900901 0 -0.31630075392673418 0.14071989359044609 0 -0.32855297285770901 0.13997743418302819 0 -0.32196666651361477 0.12487749701900901 0 -0.32855297285770901 0.13997743418302819 0 -0.33106980320980312 0.1246503866679774 0 -0.32196666651361477 0.12487749701900901 0 -0.32855297285770901 0.13997743418302819 0 -0.34013489564456101 0.1359120708212119 0 -0.3346041553825978 0.14477395468276741 0 -0.32855297285770901 0.13997743418302819 0 -0.34013489564456101 0.1359120708212119 0 -0.33106980320980312 0.1246503866679774 0 -0.34475730797662613 0.16425129963789131 0 -0.34013489564456101 0.1359120708212119 0 -0.34013489564456101 0.1359120708212119 0 -0.33738994680948231 0.15124435901621999 0 -0.3346041553825978 0.14477395468276741 0 -0.34475730797662613 0.16425129963789131 0 -0.34013489564456101 0.1359120708212119 0 -0.33738994680948231 0.15124435901621999 0 -0.33718479128260948 0.15937809544746401 0 -0.33738994680948231 0.15124435901621999 0 -0.33026858376101731 0.15190637449176561 0 -0.33738994680948231 0.15124435901621999 0 -0.33026858376101731 0.15190637449176561 0 -0.3346041553825978 0.14477395468276741 0 -0.32855297285770901 0.13997743418302819 0 -0.33026858376101731 0.15190637449176561 0 -0.3346041553825978 0.14477395468276741 0 -0.35208907389890948 0.24306917690434299 0 -0.33787454055877381 0.24529314191448051 0 -0.34142207509263922 0.25572960106260723 0 -0.35208907389890948 0.24306917690434299 0 -0.34508884738596168 0.2342440782649087 0 -0.33787454055877381 0.24529314191448051 0 -0.35689366634974828 0.23865726176967661 0 -0.35926376548055328 0.2486735779402334 0 -0.35208907389890948 0.24306917690434299 0 -0.35926376548055328 0.2486735779402334 0 -0.36665925593476811 0.2402392529692276 0 -0.36723308052532222 0.25309369692869038 0 -0.35689366634974828 0.23865726176967661 0 -0.35926376548055328 0.2486735779402334 0 -0.36665925593476811 0.2402392529692276 0 -0.37552267705158737 0.2431978490864326 0 -0.36665925593476811 0.2402392529692276 0 -0.36723308052532222 0.25309369692869038 0 -0.37780308712422273 0.23309721308500589 0 -0.37552267705158737 0.2431978490864326 0 -0.36665925593476811 0.2402392529692276 0 -0.37780308712422273 0.23309721308500589 0 -0.36665925593476811 0.2402392529692276 0 -0.36843053074319038 0.2307028505946831 0 -0.3637449320256837 0.23462317477255459 0 -0.36665925593476811 0.2402392529692276 0 -0.36843053074319038 0.2307028505946831 0 -0.35689366634974828 0.23865726176967661 0 -0.3637449320256837 0.23462317477255459 0 -0.36304404037139409 0.23042929735762199 0 -0.35689366634974828 0.23865726176967661 0 -0.3637449320256837 0.23462317477255459 0 -0.36665925593476811 0.2402392529692276 0 -0.35689366634974828 0.23865726176967661 0 -0.36304404037139409 0.23042929735762199 0 -0.36041387714694573 0.22521835140317789 0 -0.36304404037139409 0.23042929735762199 0 -0.36843053074319038 0.2307028505946831 0 -0.36573719559140289 0.222944848248018 0 -0.3637449320256837 0.23462317477255459 0 -0.36304404037139409 0.23042929735762199 0 -0.36843053074319038 0.2307028505946831 0 -0.37780308712422273 0.23309721308500589 0 -0.36843053074319038 0.2307028505946831 0 -0.37349668708843092 0.2226496950895116 0 -0.36843053074319038 0.2307028505946831 0 -0.37349668708843092 0.2226496950895116 0 -0.36573719559140289 0.222944848248018 0 -0.37349668708843092 0.2226496950895116 0 -0.36573719559140289 0.222944848248018 0 -0.36813700589141007 0.21491629458094519 0 -0.36304404037139409 0.23042929735762199 0 -0.36573719559140289 0.222944848248018 0 -0.36041387714694573 0.22521835140317789 0 -0.36573719559140289 0.222944848248018 0 -0.36041387714694573 0.22521835140317789 0 -0.36096209089537368 0.21759825830877291 0 -0.36041387714694573 0.22521835140317789 0 -0.35785158193032179 0.22427444164843771 0 -0.36096209089537368 0.21759825830877291 0 -0.35689366634974828 0.23865726176967661 0 -0.35785158193032179 0.22427444164843771 0 -0.35313669332921982 0.21562389511212349 0 -0.35785158193032179 0.22427444164843771 0 -0.35313669332921982 0.21562389511212349 0 -0.36096209089537368 0.21759825830877291 0 -0.35689366634974828 0.23865726176967661 0 -0.35313669332921982 0.21562389511212349 0 -0.35208907389890948 0.24306917690434299 0 -0.34508884738596168 0.2342440782649087 0 -0.35073439710380072 0.2178298526794567 0 -0.34508884738596168 0.2342440782649087 0 -0.35073439710380072 0.2178298526794567 0 -0.33965737798236312 0.2307841415613546 0 -0.35208907389890948 0.24306917690434299 0 -0.35073439710380072 0.2178298526794567 0 -0.35689366634974828 0.23865726176967661 0 -0.35073439710380072 0.2178298526794567 0 -0.35313669332921982 0.21562389511212349 0 -0.35689366634974828 0.23865726176967661 0 -0.35208907389890948 0.24306917690434299 0 -0.35073439710380072 0.2178298526794567 0 -0.35689366634974828 0.23865726176967661 0 -0.36041387714694573 0.22521835140317789 0 -0.35785158193032179 0.22427444164843771 0 -0.35073439710380072 0.2178298526794567 0 -0.34937972030869158 0.1925905284545705 0 -0.35313669332921982 0.21562389511212349 0 -0.36104277081305908 0.20594574517185199 0 -0.34937972030869158 0.1925905284545705 0 -0.35073439710380072 0.2178298526794567 0 -0.35313669332921982 0.21562389511212349 0 -0.34937972030869158 0.1925905284545705 0 -0.35313669332921982 0.21562389511212349 0 -0.34937972030869158 0.1925905284545705 0 -0.35073439710380072 0.2178298526794567 0 -0.34937972030869158 0.1925905284545705 0 -0.34310613959102931 0.2055031457500841 0 -0.35073439710380072 0.2178298526794567 0 -0.34310613959102931 0.2055031457500841 0 -0.34102096872395049 0.21330790674795511 0 -0.35073439710380072 0.2178298526794567 0 -0.34102096872395049 0.21330790674795511 0 -0.34050958406480097 0.2204489809667724 0 -0.35313669332921982 0.21562389511212349 0 -0.36096209089537368 0.21759825830877291 0 -0.36104277081305908 0.20594574517185199 0 -0.36573719559140289 0.222944848248018 0 -0.36096209089537368 0.21759825830877291 0 -0.36813700589141007 0.21491629458094519 0 -0.36096209089537368 0.21759825830877291 0 -0.36813700589141007 0.21491629458094519 0 -0.36104277081305908 0.20594574517185199 0 -0.37752279527241261 0.21261086987475841 0 -0.37349668708843092 0.2226496950895116 0 -0.36813700589141007 0.21491629458094519 0 -0.37752279527241261 0.21261086987475841 0 -0.36813700589141007 0.21491629458094519 0 -0.37360736010814782 0.20134128663860251 0 -0.36813700589141007 0.21491629458094519 0 -0.36104277081305908 0.20594574517185199 0 -0.37360736010814782 0.20134128663860251 0 -0.37633455857784293 0.18261391494179069 0 -0.37360736010814782 0.20134128663860251 0 -0.36412185028301147 0.19234279238731111 0 -0.36104277081305908 0.20594574517185199 0 -0.37360736010814782 0.20134128663860251 0 -0.36412185028301147 0.19234279238731111 0 -0.36024484160731629 0.17922248672973989 0 -0.36412185028301147 0.19234279238731111 0 -0.34937972030869158 0.1925905284545705 0 -0.36104277081305908 0.20594574517185199 0 -0.36412185028301147 0.19234279238731111 0 -0.34937972030869158 0.1925905284545705 0 -0.33403331992976748 0.18227938602527921 0 -0.34937972030869158 0.1925905284545705 0 -0.33132558757267788 0.19645560619981381 0 -0.34937972030869158 0.1925905284545705 0 -0.33132558757267788 0.19645560619981381 0 -0.34310613959102931 0.2055031457500841 0 -0.33132558757267788 0.19645560619981381 0 -0.33206760714527173 0.20694684499318661 0 -0.34310613959102931 0.2055031457500841 0 -0.33403331992976748 0.18227938602527921 0 -0.31962491903722229 0.18594758427241961 0 -0.33132558757267788 0.19645560619981381 0 -0.31962491903722229 0.18594758427241961 0 -0.33132558757267788 0.19645560619981381 0 -0.32128700159246643 0.2085614296134064 0 -0.31962491903722229 0.18594758427241961 0 -0.32128700159246643 0.2085614296134064 0 -0.31094130810426679 0.20146887601233149 0 -0.31962491903722229 0.18594758427241961 0 -0.32128700159246643 0.2085614296134064 0 -0.32128700159246643 0.2085614296134064 0 -0.30991457648112369 0.2265504040794763 0 -0.30833129431909739 0.21334832502430981 0 -0.32128700159246643 0.2085614296134064 0 -0.30833129431909739 0.21334832502430981 0 -0.31094130810426679 0.20146887601233149 0 -0.32128700159246643 0.2085614296134064 0 -0.334517009846864 0.21514148884522391 0 -0.33414886994078158 0.22469785659874761 0 -0.334517009846864 0.21514148884522391 0 -0.33206760714527173 0.20694684499318661 0 -0.34102096872395049 0.21330790674795511 0 -0.33132558757267788 0.19645560619981381 0 -0.32128700159246643 0.2085614296134064 0 -0.33206760714527173 0.20694684499318661 0 -0.32128700159246643 0.2085614296134064 0 -0.334517009846864 0.21514148884522391 0 -0.33206760714527173 0.20694684499318661 0 -0.33206760714527173 0.20694684499318661 0 -0.34310613959102931 0.2055031457500841 0 -0.34102096872395049 0.21330790674795511 0 -0.334517009846864 0.21514148884522391 0 -0.34102096872395049 0.21330790674795511 0 -0.34050958406480097 0.2204489809667724 0 -0.33965737798236312 0.2307841415613546 0 -0.33414886994078158 0.22469785659874761 0 -0.32294908414771051 0.231175274954393 0 -0.34050958406480097 0.2204489809667724 0 -0.33965737798236312 0.2307841415613546 0 -0.33414886994078158 0.22469785659874761 0 -0.334517009846864 0.21514148884522391 0 -0.34050958406480097 0.2204489809667724 0 -0.33414886994078158 0.22469785659874761 0 -0.35073439710380072 0.2178298526794567 0 -0.34050958406480097 0.2204489809667724 0 -0.33965737798236312 0.2307841415613546 0 -0.32128700159246643 0.2085614296134064 0 -0.33414886994078158 0.22469785659874761 0 -0.32294908414771051 0.231175274954393 0 -0.32128700159246643 0.2085614296134064 0 -0.32294908414771051 0.231175274954393 0 -0.32128700159246643 0.2085614296134064 0 -0.32294908414771051 0.231175274954393 0 -0.30991457648112369 0.2265504040794763 0 -0.32294908414771051 0.231175274954393 0 -0.30659471691689572 0.242716670786389 0 -0.30991457648112369 0.2265504040794763 0 -0.32294908414771051 0.231175274954393 0 -0.30659471691689572 0.242716670786389 0 -0.32493898666941562 0.25370598596143412 0 -0.33965737798236312 0.2307841415613546 0 -0.32294908414771051 0.231175274954393 0 -0.33787454055877381 0.24529314191448051 0 -0.32294908414771051 0.231175274954393 0 -0.33787454055877381 0.24529314191448051 0 -0.32493898666941562 0.25370598596143412 0 -0.34508884738596168 0.2342440782649087 0 -0.33965737798236312 0.2307841415613546 0 -0.33787454055877381 0.24529314191448051 0 -0.28392805579818597 0.24584677119781029 0 -0.30659471691689572 0.242716670786389 0 -0.29475597619187288 0.23283261746471121 0 -0.28392805579818597 0.24584677119781029 0 -0.29475597619187288 0.23283261746471121 0 -0.28109078806307641 0.23123665432302171 0 -0.30991457648112369 0.2265504040794763 0 -0.2995127007984647 0.22240216811521779 0 -0.29475597619187288 0.23283261746471121 0 -0.30659471691689572 0.242716670786389 0 -0.30991457648112369 0.2265504040794763 0 -0.29475597619187288 0.23283261746471121 0 -0.30991457648112369 0.2265504040794763 0 -0.2995127007984647 0.22240216811521779 0 -0.30833129431909739 0.21334832502430981 0 -0.2995127007984647 0.22240216811521779 0 -0.29475597619187288 0.23283261746471121 0 -0.28658767146556752 0.2208426317688808 0 -0.29475597619187288 0.23283261746471121 0 -0.28658767146556752 0.2208426317688808 0 -0.28109078806307641 0.23123665432302171 0 -0.28658767146556752 0.2208426317688808 0 -0.28549164962408852 0.20589081089837991 0 -0.27599235506858921 0.213338138612501 0 -0.2995127007984647 0.22240216811521779 0 -0.28658767146556752 0.2208426317688808 0 -0.29782091388006071 0.2077851852193662 0 -0.28658767146556752 0.2208426317688808 0 -0.28549164962408852 0.20589081089837991 0 -0.29782091388006071 0.2077851852193662 0 -0.2995127007984647 0.22240216811521779 0 -0.30833129431909739 0.21334832502430981 0 -0.29782091388006071 0.2077851852193662 0 -0.30833129431909739 0.21334832502430981 0 -0.29782091388006071 0.2077851852193662 0 -0.31094130810426679 0.20146887601233149 0 -0.31094130810426679 0.20146887601233149 0 -0.28918285092023371 0.18809301854234381 0 -0.30596240671843039 0.18080678990447141 0 -0.31094130810426679 0.20146887601233149 0 -0.28918285092023371 0.18809301854234381 0 -0.31962491903722229 0.18594758427241961 0 -0.31094130810426679 0.20146887601233149 0 -0.30596240671843039 0.18080678990447141 0 -0.29782091388006071 0.2077851852193662 0 -0.31094130810426679 0.20146887601233149 0 -0.28918285092023371 0.18809301854234381 0 -0.28549164962408852 0.20589081089837991 0 -0.28918285092023371 0.18809301854234381 0 -0.27469451239495962 0.19856643751398209 0 -0.28549164962408852 0.20589081089837991 0 -0.29782091388006071 0.2077851852193662 0 -0.28918285092023371 0.18809301854234381 0 -0.27469451239495962 0.19856643751398209 0 -0.25846339158769432 0.19477026040294029 0 -0.26742439373620053 0.1747171610723561 0 -0.27469451239495962 0.19856643751398209 0 -0.25846339158769432 0.19477026040294029 0 -0.26373521695980739 0.20854805576629271 0 -0.25846339158769432 0.19477026040294029 0 -0.25264776582176801 0.2054066783297176 0 -0.24512564856919611 0.1966003761625241 0 -0.25846339158769432 0.19477026040294029 0 -0.26373521695980739 0.20854805576629271 0 -0.25264776582176801 0.2054066783297176 0 -0.26373521695980739 0.20854805576629271 0 -0.25264776582176801 0.2054066783297176 0 -0.25326648915379463 0.21765104414027969 0 -0.26373521695980739 0.20854805576629271 0 -0.25326648915379463 0.21765104414027969 0 -0.26696116117740232 0.2188897629996385 0 -0.26373521695980739 0.20854805576629271 0 -0.27599235506858921 0.213338138612501 0 -0.26696116117740232 0.2188897629996385 0 -0.27469451239495962 0.19856643751398209 0 -0.26373521695980739 0.20854805576629271 0 -0.27599235506858921 0.213338138612501 0 -0.28549164962408852 0.20589081089837991 0 -0.27469451239495962 0.19856643751398209 0 -0.27599235506858921 0.213338138612501 0 -0.28658767146556752 0.2208426317688808 0 -0.27599235506858921 0.213338138612501 0 -0.27366575233363138 0.22408994750137051 0 -0.28658767146556752 0.2208426317688808 0 -0.27366575233363138 0.22408994750137051 0 -0.28109078806307641 0.23123665432302171 0 -0.27366575233363138 0.22408994750137051 0 -0.28109078806307641 0.23123665432302171 0 -0.26613842301448931 0.22948780180005629 0 -0.27366575233363138 0.22408994750137051 0 -0.26613842301448931 0.22948780180005629 0 -0.27599235506858921 0.213338138612501 0 -0.27366575233363138 0.22408994750137051 0 -0.26696116117740232 0.2188897629996385 0 -0.27366575233363138 0.22408994750137051 0 -0.26613842301448931 0.22948780180005629 0 -0.26696116117740232 0.2188897629996385 0 -0.25326648915379463 0.21765104414027969 0 -0.26613842301448931 0.22948780180005629 0 -0.25326648915379463 0.21765104414027969 0 -0.26613842301448931 0.22948780180005629 0 -0.26696116117740232 0.2188897629996385 0 -0.26613842301448931 0.22948780180005629 0 -0.25250373055295899 0.22903132158689779 0 -0.2468893326351202 0.24329134098969171 0 -0.25326648915379463 0.21765104414027969 0 -0.26613842301448931 0.22948780180005629 0 -0.25250373055295899 0.22903132158689779 0 -0.26613842301448931 0.22948780180005629 0 -0.2468893326351202 0.24329134098969171 0 -0.26613842301448931 0.22948780180005629 0 -0.26514282027817931 0.24842266601513599 0 -0.2468893326351202 0.24329134098969171 0 -0.28392805579818597 0.24584677119781029 0 -0.26613842301448931 0.22948780180005629 0 -0.26514282027817931 0.24842266601513599 0 -0.28392805579818597 0.24584677119781029 0 -0.26613842301448931 0.22948780180005629 0 -0.28392805579818597 0.24584677119781029 0 -0.28109078806307641 0.23123665432302171 0 -0.26613842301448931 0.22948780180005629 0 -0.29674228528268098 0.14167201189203629 0 -0.29210011904845101 0.16519073176382951 0 -0.2788144627000812 0.14703818685698561 0 -0.29674228528268098 0.14167201189203629 0 -0.2788144627000812 0.14703818685698561 0 -0.2804226891664876 0.12940513594623221 0 -0.29674228528268098 0.14167201189203629 0 -0.2804226891664876 0.12940513594623221 0 -0.29563289833704792 0.1211109261551389 0 -0.29674228528268098 0.14167201189203629 0 -0.30835875028686138 0.12836861128214669 0 -0.29563289833704792 0.1211109261551389 0 -0.31630075392673418 0.14071989359044609 0 -0.29674228528268098 0.14167201189203629 0 -0.30835875028686138 0.12836861128214669 0 -0.31796283648197832 0.1633337389314328 0 -0.31630075392673418 0.14071989359044609 0 -0.29674228528268098 0.14167201189203629 0 -0.31796283648197832 0.1633337389314328 0 -0.30596240671843039 0.18080678990447141 0 -0.29210011904845101 0.16519073176382951 0 -0.31796283648197832 0.1633337389314328 0 -0.29674228528268098 0.14167201189203629 0 -0.29210011904845101 0.16519073176382951 0 -0.28918285092023371 0.18809301854234381 0 -0.30596240671843039 0.18080678990447141 0 -0.29210011904845101 0.16519073176382951 0 -0.28918285092023371 0.18809301854234381 0 -0.29210011904845101 0.16519073176382951 0 -0.26742439373620053 0.1747171610723561 0 -0.29210011904845101 0.16519073176382951 0 -0.26645859331151961 0.15770478106228089 0 -0.2788144627000812 0.14703818685698561 0 -0.29210011904845101 0.16519073176382951 0 -0.26645859331151961 0.15770478106228089 0 -0.26742439373620053 0.1747171610723561 0 -0.28918285092023371 0.18809301854234381 0 -0.27469451239495962 0.19856643751398209 0 -0.26742439373620053 0.1747171610723561 0 -0.28918285092023371 0.18809301854234381 0 -0.26742439373620053 0.1747171610723561 0 -0.25846339158769432 0.19477026040294029 0 -0.26742439373620053 0.1747171610723561 0 -0.2425545525554833 0.18325607046718431 0 -0.26742439373620053 0.1747171610723561 0 -0.24566593655216731 0.1613413036023684 0 -0.2425545525554833 0.18325607046718431 0 -0.26742439373620053 0.1747171610723561 0 -0.24566593655216731 0.1613413036023684 0 -0.26645859331151961 0.15770478106228089 0 -0.26742439373620053 0.1747171610723561 0 -0.24566593655216731 0.1613413036023684 0 -0.26645859331151961 0.15770478106228089 0 -0.26077588748637798 0.14053443996503889 0 -0.24566593655216731 0.1613413036023684 0 -0.26645859331151961 0.15770478106228089 0 -0.2788144627000812 0.14703818685698561 0 -0.26077588748637798 0.14053443996503889 0 -0.2788144627000812 0.14703818685698561 0 -0.2804226891664876 0.12940513594623221 0 -0.26077588748637798 0.14053443996503889 0 -0.2804226891664876 0.12940513594623221 0 -0.26077588748637798 0.14053443996503889 0 -0.26620622488190782 0.1187168322113534 0 -0.26077588748637798 0.14053443996503889 0 -0.25033803458298193 0.12914144363467839 0 -0.2394413917758374 0.14053574488666021 0 -0.26077588748637798 0.14053443996503889 0 -0.25033803458298193 0.12914144363467839 0 -0.26620622488190782 0.1187168322113534 0 -0.25033803458298193 0.12914144363467839 0 -0.25364395357421121 0.10678394025260531 0 -0.26620622488190782 0.1187168322113534 0 -0.25364395357421121 0.10678394025260531 0 -0.26910496068450029 0.10059928658519129 0 -0.26340159681891351 0.087305486383429762 0 -0.25364395357421121 0.10678394025260531 0 -0.26910496068450029 0.10059928658519129 0 -0.26620622488190782 0.1187168322113534 0 -0.26910496068450029 0.10059928658519129 0 -0.28436437631082973 0.10735841859683989 0 -0.28176033911896858 0.090840469038767704 0 -0.26910496068450029 0.10059928658519129 0 -0.26620622488190782 0.1187168322113534 0 -0.28436437631082973 0.10735841859683989 0 -0.2804226891664876 0.12940513594623221 0 -0.26620622488190782 0.1187168322113534 0 -0.28436437631082973 0.10735841859683989 0 -0.2804226891664876 0.12940513594623221 0 -0.29563289833704792 0.1211109261551389 0 -0.28436437631082973 0.10735841859683989 0 -0.29563289833704792 0.1211109261551389 0 -0.28436437631082973 0.10735841859683989 0 -0.30333203744139958 0.1018092028156232 0 -0.28436437631082973 0.10735841859683989 0 -0.30333203744139958 0.1018092028156232 0 -0.29505738772415852 0.092466809089677027 0 -0.28436437631082973 0.10735841859683989 0 -0.29505738772415852 0.092466809089677027 0 -0.28176033911896858 0.090840469038767704 0 -0.30333203744139958 0.1018092028156232 0 -0.31115114737422961 0.1134627277541034 0 -0.31621893882499519 0.096173217231134644 0 -0.29563289833704792 0.1211109261551389 0 -0.30333203744139958 0.1018092028156232 0 -0.31115114737422961 0.1134627277541034 0 -0.30835875028686138 0.12836861128214669 0 -0.29563289833704792 0.1211109261551389 0 -0.31115114737422961 0.1134627277541034 0 -0.2988364877494265 0.069896585727329402 0 -0.3095990562077543 0.082833834969606807 0 -0.31708477734686968 0.066938799678275263 0 -0.2988364877494265 0.069896585727329402 0 -0.30266664287706341 0.054708362279179482 0 -0.31708477734686968 0.066938799678275263 0 -0.2988364877494265 0.069896585727329402 0 -0.28935545939309398 0.062964548691125152 0 -0.30266664287706341 0.054708362279179482 0 -0.30333203744139958 0.1018092028156232 0 -0.3095990562077543 0.082833834969606807 0 -0.31621893882499519 0.096173217231134644 0 -0.30333203744139958 0.1018092028156232 0 -0.3095990562077543 0.082833834969606807 0 -0.29505738772415852 0.092466809089677027 0 -0.3095990562077543 0.082833834969606807 0 -0.29687345717375091 0.081902945336330912 0 -0.29505738772415852 0.092466809089677027 0 -0.2988364877494265 0.069896585727329402 0 -0.3095990562077543 0.082833834969606807 0 -0.29687345717375091 0.081902945336330912 0 -0.29687345717375091 0.081902945336330912 0 -0.28176033911896858 0.090840469038767704 0 -0.2804463735768567 0.075556206852953223 0 -0.29687345717375091 0.081902945336330912 0 -0.29505738772415852 0.092466809089677027 0 -0.28176033911896858 0.090840469038767704 0 -0.2988364877494265 0.069896585727329402 0 -0.28935545939309398 0.062964548691125152 0 -0.2804463735768567 0.075556206852953223 0 -0.2988364877494265 0.069896585727329402 0 -0.29687345717375091 0.081902945336330912 0 -0.2804463735768567 0.075556206852953223 0 -0.28935545939309398 0.062964548691125152 0 -0.28020443427428848 0.065937434716272045 0 -0.28232948387749679 0.060243429622273227 0 -0.28935545939309398 0.062964548691125152 0 -0.28020443427428848 0.065937434716272045 0 -0.2804463735768567 0.075556206852953223 0 -0.2804463735768567 0.075556206852953223 0 -0.26340159681891351 0.087305486383429762 0 -0.26195798501385009 0.070226375813507561 0 -0.28020443427428848 0.065937434716272045 0 -0.26195798501385009 0.070226375813507561 0 -0.2800946942601637 0.055740888585776333 0 -0.28020443427428848 0.065937434716272045 0 -0.2804463735768567 0.075556206852953223 0 -0.26195798501385009 0.070226375813507561 0 -0.26195798501385009 0.070226375813507561 0 -0.2800946942601637 0.055740888585776333 0 -0.26910496068450029 0.10059928658519129 0 -0.28176033911896858 0.090840469038767704 0 -0.26340159681891351 0.087305486383429762 0 -0.28176033911896858 0.090840469038767704 0 -0.2804463735768567 0.075556206852953223 0 -0.26340159681891351 0.087305486383429762 0 -0.26340159681891351 0.087305486383429762 0 -0.26195798501385009 0.070226375813507561 0 -0.24382127576753621 0.084711863041238192 0 -0.25364395357421121 0.10678394025260531 0 -0.26340159681891351 0.087305486383429762 0 -0.24382127576753621 0.084711863041238192 0 -0.26195798501385009 0.070226375813507561 0 -0.24382127576753621 0.084711863041238192 0 -0.26195798501385009 0.070226375813507561 0 -0.26253060434091768 0.04486583530805522 0 -0.24534917185526489 0.049526218608574313 0 -0.26253060434091768 0.04486583530805522 0 -0.25642639863326749 0.02710060176493858 0 -0.24534917185526489 0.049526218608574313 0 -0.26253060434091768 0.04486583530805522 0 -0.27431483662099609 0.037465275048419483 0 -0.25642639863326749 0.02710060176493858 0 -0.26253060434091768 0.04486583530805522 0 -0.27431483662099609 0.037465275048419483 0 -0.2800946942601637 0.055740888585776333 0 -0.26195798501385009 0.070226375813507561 0 -0.26253060434091768 0.04486583530805522 0 -0.2800946942601637 0.055740888585776333 0 -0.28020443427428848 0.065937434716272045 0 -0.2800946942601637 0.055740888585776333 0 -0.28232948387749679 0.060243429622273227 0 -0.26431478179583978 -0.01186883573312463 0 -0.25132042997239518 0.0027134119798401068 0 -0.26646431581863778 0.01029557754540468 0 -0.25132042997239518 0.0027134119798401068 0 -0.25642639863326749 0.02710060176493858 0 -0.26646431581863778 0.01029557754540468 0 -0.27431483662099609 0.037465275048419483 0 -0.25642639863326749 0.02710060176493858 0 -0.27962863155723588 0.021383722316491719 0 -0.25642639863326749 0.02710060176493858 0 -0.27962863155723588 0.021383722316491719 0 -0.26646431581863778 0.01029557754540468 0 -0.2820771903446922 -0.0013122005201030101 0 -0.27962863155723588 0.021383722316491719 0 -0.26646431581863778 0.01029557754540468 0 -0.2820771903446922 -0.0013122005201030101 0 -0.30047775033007851 -0.00039401612408775783 0 -0.29196914664965867 0.01010181790504874 0 -0.2820771903446922 -0.0013122005201030101 0 -0.27962863155723588 0.021383722316491719 0 -0.29196914664965867 0.01010181790504874 0 -0.27962863155723588 0.021383722316491719 0 -0.29196914664965867 0.01010181790504874 0 -0.3056930143666281 0.020729765947894 0 -0.27962863155723588 0.021383722316491719 0 -0.3056930143666281 0.020729765947894 0 -0.2928938543133956 0.038235327266834943 0 -0.3056930143666281 0.020729765947894 0 -0.2928938543133956 0.038235327266834943 0 -0.3056930143666281 0.020729765947894 0 -0.30086997028822832 0.039148022070134687 0 -0.32164524631629432 0.022555155554494829 0 -0.30086997028822832 0.039148022070134687 0 -0.32164524631629432 0.022555155554494829 0 -0.3056930143666281 0.020729765947894 0 -0.31849217441985911 0.0032242046289520012 0 -0.30047775033007851 -0.00039401612408775783 0 -0.3056930143666281 0.020729765947894 0 -0.31849217441985911 0.0032242046289520012 0 -0.30047775033007851 -0.00039401612408775783 0 -0.29196914664965867 0.01010181790504874 0 -0.3056930143666281 0.020729765947894 0 -0.2800946942601637 0.055740888585776333 0 -0.30086997028822832 0.039148022070134687 0 -0.28935545939309398 0.062964548691125152 0 -0.2800946942601637 0.055740888585776333 0 -0.30266664287706341 0.054708362279179482 0 -0.2800946942601637 0.055740888585776333 0 -0.2928938543133956 0.038235327266834943 0 -0.2800946942601637 0.055740888585776333 0 -0.30086997028822832 0.039148022070134687 0 -0.30266664287706341 0.054708362279179482 0 -0.28935545939309398 0.062964548691125152 0 -0.2800946942601637 0.055740888585776333 0 -0.28232948387749679 0.060243429622273227 0 -0.2800946942601637 0.055740888585776333 0 -0.2928938543133956 0.038235327266834943 0 -0.30086997028822832 0.039148022070134687 0 -0.27431483662099609 0.037465275048419483 0 -0.27962863155723588 0.021383722316491719 0 -0.2928938543133956 0.038235327266834943 0 -0.27431483662099609 0.037465275048419483 0 -0.2800946942601637 0.055740888585776333 0 -0.2928938543133956 0.038235327266834943 0 -0.3056930143666281 0.020729765947894 0 -0.2928938543133956 0.038235327266834943 0 -0.30086997028822832 0.039148022070134687 0 -0.30086997028822832 0.039148022070134687 0 -0.30266664287706341 0.054708362279179482 0 -0.3262676586483656 0.050894384371173287 0 -0.30266664287706341 0.054708362279179482 0 -0.3262676586483656 0.050894384371173287 0 -0.31708477734686968 0.066938799678275263 0 -0.3262676586483656 0.050894384371173287 0 -0.32164524631629432 0.022555155554494829 0 -0.30086997028822832 0.039148022070134687 0 -0.3262676586483656 0.050894384371173287 0 -0.32164524631629432 0.022555155554494829 0 -0.3262676586483656 0.050894384371173287 0 -0.32164524631629432 0.022555155554494829 0 -0.34047985126035502 0.026774828886197279 0 -0.3419631627684111 0.054410778814259472 0 -0.34047985126035502 0.026774828886197279 0 -0.3262676586483656 0.050894384371173287 0 -0.3419631627684111 0.054410778814259472 0 -0.34047985126035502 0.026774828886197279 0 -0.3262676586483656 0.050894384371173287 0 -0.3419631627684111 0.054410778814259472 0 -0.33089007098043072 0.079233613187852742 0 -0.3056930143666281 0.020729765947894 0 -0.31849217441985911 0.0032242046289520012 0 -0.32164524631629432 0.022555155554494829 0 -0.31849217441985911 0.0032242046289520012 0 -0.32164524631629432 0.022555155554494829 0 -0.33742136738088668 0.0099550307423931228 0 -0.31849217441985911 0.0032242046289520012 0 -0.32164524631629432 0.022555155554494829 0 -0.32164524631629432 0.022555155554494829 0 -0.33742136738088668 0.0099550307423931228 0 -0.32164524631629432 0.022555155554494829 0 -0.34047985126035502 0.026774828886197279 0 -0.33742136738088668 0.0099550307423931228 0 -0.35319748844548088 -0.0026450940697062141 0 -0.33742136738088668 0.0099550307423931228 0 -0.35319748844548088 -0.0026450940697062141 0 -0.33742136738088668 0.0099550307423931228 0 -0.35568472126330458 0.01398178967161531 0 -0.34047985126035502 0.026774828886197279 0 -0.35568472126330458 0.01398178967161531 0 -0.36050468596179641 0.029201478886372499 0 -0.34047985126035502 0.026774828886197279 0 -0.33742136738088668 0.0099550307423931228 0 -0.35568472126330458 0.01398178967161531 0 -0.35568472126330458 0.01398178967161531 0 -0.36050468596179641 0.029201478886372499 0 -0.37274578052696178 0.01868977009819147 0 -0.37753126207020948 0.034899308803226177 0 -0.36050468596179641 0.029201478886372499 0 -0.37274578052696178 0.01868977009819147 0 -0.35319748844548088 -0.0026450940697062141 0 -0.35568472126330458 0.01398178967161531 0 -0.36979036210562988 0.0025511841975563729 0 -0.35568472126330458 0.01398178967161531 0 -0.37274578052696178 0.01868977009819147 0 -0.36979036210562988 0.0025511841975563729 0 -0.35367539322405089 0.052192583201526178 0 -0.35229578078182711 0.042127528613546239 0 -0.36485581069452189 0.048057973279375742 0 -0.35367539322405089 0.052192583201526178 0 -0.36174043644781612 0.059537200304905107 0 -0.34707042967454638 0.066493871458924422 0 -0.3419631627684111 0.054410778814259472 0 -0.35367539322405089 0.052192583201526178 0 -0.34707042967454638 0.066493871458924422 0 -0.3419631627684111 0.054410778814259472 0 -0.35367539322405089 0.052192583201526178 0 -0.35229578078182711 0.042127528613546239 0 -0.34047985126035502 0.026774828886197279 0 -0.36050468596179641 0.029201478886372499 0 -0.35229578078182711 0.042127528613546239 0 -0.3419631627684111 0.054410778814259472 0 -0.34047985126035502 0.026774828886197279 0 -0.35229578078182711 0.042127528613546239 0 -0.36050468596179641 0.029201478886372499 0 -0.35229578078182711 0.042127528613546239 0 -0.36485581069452189 0.048057973279375742 0 -0.37753126207020948 0.034899308803226177 0 -0.36050468596179641 0.029201478886372499 0 -0.36485581069452189 0.048057973279375742 0 -0.37830855690199738 0.048851891747440382 0 -0.37753126207020948 0.034899308803226177 0 -0.36485581069452189 0.048057973279375742 0 -0.37830855690199738 0.048851891747440382 0 -0.36485581069452189 0.048057973279375742 0 -0.37119345183321822 0.058853827639881867 0 -0.35367539322405089 0.052192583201526178 0 -0.36485581069452189 0.048057973279375742 0 -0.36174043644781612 0.059537200304905107 0 -0.36485581069452189 0.048057973279375742 0 -0.36174043644781612 0.059537200304905107 0 -0.37119345183321822 0.058853827639881867 0 -0.37201358599706058 0.070711840939253895 0 -0.36026946930678239 0.075913175113325196 0 -0.34707042967454638 0.066493871458924422 0 -0.37904886912469499 0.067110231928434197 0 -0.37119345183321822 0.058853827639881867 0 -0.37201358599706058 0.070711840939253895 0 -0.37201358599706058 0.070711840939253895 0 -0.34707042967454638 0.066493871458924422 0 -0.36174043644781612 0.059537200304905107 0 -0.37119345183321822 0.058853827639881867 0 -0.37201358599706058 0.070711840939253895 0 -0.36174043644781612 0.059537200304905107 0 -0.37201358599706058 0.070711840939253895 0 -0.34707042967454638 0.066493871458924422 0 -0.37201358599706058 0.070711840939253895 0 -0.36026946930678239 0.075913175113325196 0 -0.37016311523106599 0.083751267223082917 0 -0.38119130922167832 0.078766060501995444 0 -0.37201358599706058 0.070711840939253895 0 -0.37016311523106599 0.083751267223082917 0 -0.3419631627684111 0.054410778814259472 0 -0.34707042967454638 0.066493871458924422 0 -0.34344647427646718 0.082046728742321648 0 -0.36026946930678239 0.075913175113325196 0 -0.35274187612612162 0.077211514003190262 0 -0.34707042967454638 0.066493871458924422 0 -0.35274187612612162 0.077211514003190262 0 -0.34707042967454638 0.066493871458924422 0 -0.34344647427646718 0.082046728742321648 0 -0.35295667425925747 0.085123838591775802 0 -0.35001973748798287 0.095551702326820934 0 -0.34344647427646718 0.082046728742321648 0 -0.35274187612612162 0.077211514003190262 0 -0.35295667425925747 0.085123838591775802 0 -0.34344647427646718 0.082046728742321648 0 -0.35274187612612162 0.077211514003190262 0 -0.35295667425925747 0.085123838591775802 0 -0.35935833950511731 0.08139738194217451 0 -0.35295667425925747 0.085123838591775802 0 -0.35935833950511731 0.08139738194217451 0 -0.35921694390059838 0.089411865944371699 0 -0.36026946930678239 0.075913175113325196 0 -0.35274187612612162 0.077211514003190262 0 -0.35935833950511731 0.08139738194217451 0 -0.35295667425925747 0.085123838591775802 0 -0.35921694390059838 0.089411865944371699 0 -0.35001973748798287 0.095551702326820934 0 -0.35921694390059838 0.089411865944371699 0 -0.37016311523106599 0.083751267223082917 0 -0.36611800641667808 0.094109198156665408 0 -0.36026946930678239 0.075913175113325196 0 -0.35935833950511731 0.08139738194217451 0 -0.37016311523106599 0.083751267223082917 0 -0.35935833950511731 0.08139738194217451 0 -0.35921694390059838 0.089411865944371699 0 -0.37016311523106599 0.083751267223082917 0 -0.37643332436138899 0.09558572737664002 0 -0.37016311523106599 0.083751267223082917 0 -0.36611800641667808 0.094109198156665408 0 -0.37643332436138899 0.09558572737664002 0 -0.36831342086492491 0.1042920553550029 0 -0.36611800641667808 0.094109198156665408 0 -0.37896648635229202 0.10715504183998489 0 -0.37643332436138899 0.09558572737664002 0 -0.36831342086492491 0.1042920553550029 0 -0.36831342086492491 0.1042920553550029 0 -0.35948680904503588 0.10793893666500461 0 -0.35938862515943509 0.099383552161339872 0 -0.35921694390059838 0.089411865944371699 0 -0.35938862515943509 0.099383552161339872 0 -0.36611800641667808 0.094109198156665408 0 -0.36831342086492491 0.1042920553550029 0 -0.35938862515943509 0.099383552161339872 0 -0.36611800641667808 0.094109198156665408 0 -0.37896648635229202 0.10715504183998489 0 -0.36831342086492491 0.1042920553550029 0 -0.36716541190589658 0.118616890008602 0 -0.36831342086492491 0.1042920553550029 0 -0.35948680904503588 0.10793893666500461 0 -0.36716541190589658 0.118616890008602 0 -0.35948680904503588 0.10793893666500461 0 -0.36716541190589658 0.118616890008602 0 -0.35375916145188291 0.11350041634001019 0 -0.34641309729257957 0.13731862859844601 0 -0.34492978578452338 0.1096826786703838 0 -0.34641309729257957 0.13731862859844601 0 -0.35352278934268327 0.12307152153672141 0 -0.34492978578452338 0.1096826786703838 0 -0.36716541190589658 0.118616890008602 0 -0.35352278934268327 0.12307152153672141 0 -0.35375916145188291 0.11350041634001019 0 -0.35375916145188291 0.11350041634001019 0 -0.34492978578452338 0.1096826786703838 0 -0.35317683324139082 0.10499755452017361 0 -0.35352278934268327 0.12307152153672141 0 -0.35375916145188291 0.11350041634001019 0 -0.34492978578452338 0.1096826786703838 0 -0.34492978578452338 0.1096826786703838 0 -0.35001973748798287 0.095551702326820934 0 -0.34344647427646718 0.082046728742321648 0 -0.34492978578452338 0.1096826786703838 0 -0.34344647427646718 0.082046728742321648 0 -0.35921694390059838 0.089411865944371699 0 -0.35938862515943509 0.099383552161339872 0 -0.35001973748798287 0.095551702326820934 0 -0.35938862515943509 0.099383552161339872 0 -0.35317683324139082 0.10499755452017361 0 -0.35001973748798287 0.095551702326820934 0 -0.35948680904503588 0.10793893666500461 0 -0.35938862515943509 0.099383552161339872 0 -0.35317683324139082 0.10499755452017361 0 -0.35948680904503588 0.10793893666500461 0 -0.35375916145188291 0.11350041634001019 0 -0.35317683324139082 0.10499755452017361 0 -0.34492978578452338 0.1096826786703838 0 -0.35317683324139082 0.10499755452017361 0 -0.35001973748798287 0.095551702326820934 0 -0.33551248331249578 0.10757284200453231 0 -0.32636827877939262 0.096437598311714251 0 -0.33089007098043072 0.079233613187852742 0 -0.34492978578452338 0.1096826786703838 0 -0.33551248331249578 0.10757284200453231 0 -0.34344647427646718 0.082046728742321648 0 -0.34013489564456101 0.1359120708212119 0 -0.33551248331249578 0.10757284200453231 0 -0.33106980320980312 0.1246503866679774 0 -0.33551248331249578 0.10757284200453231 0 -0.33106980320980312 0.1246503866679774 0 -0.3276422557938925 0.11637059862038419 0 -0.34013489564456101 0.1359120708212119 0 -0.33551248331249578 0.10757284200453231 0 -0.34013489564456101 0.1359120708212119 0 -0.34492978578452338 0.1096826786703838 0 -0.33551248331249578 0.10757284200453231 0 -0.33551248331249578 0.10757284200453231 0 -0.3276422557938925 0.11637059862038419 0 -0.32202007013965611 0.108381668790018 0 -0.31115114737422961 0.1134627277541034 0 -0.32196666651361477 0.12487749701900901 0 -0.32202007013965611 0.108381668790018 0 -0.32196666651361477 0.12487749701900901 0 -0.3276422557938925 0.11637059862038419 0 -0.32202007013965611 0.108381668790018 0 -0.33106980320980312 0.1246503866679774 0 -0.32196666651361477 0.12487749701900901 0 -0.3276422557938925 0.11637059862038419 0 -0.30835875028686138 0.12836861128214669 0 -0.31115114737422961 0.1134627277541034 0 -0.32196666651361477 0.12487749701900901 0 -0.31115114737422961 0.1134627277541034 0 -0.32202007013965611 0.108381668790018 0 -0.31621893882499519 0.096173217231134644 0 -0.32636827877939262 0.096437598311714251 0 -0.32202007013965611 0.108381668790018 0 -0.31621893882499519 0.096173217231134644 0 -0.33551248331249578 0.10757284200453231 0 -0.32636827877939262 0.096437598311714251 0 -0.32202007013965611 0.108381668790018 0 -0.32636827877939262 0.096437598311714251 0 -0.3206518095107353 0.086423961441370711 0 -0.33089007098043072 0.079233613187852742 0 -0.3095990562077543 0.082833834969606807 0 -0.31621893882499519 0.096173217231134644 0 -0.3206518095107353 0.086423961441370711 0 -0.32636827877939262 0.096437598311714251 0 -0.31621893882499519 0.096173217231134644 0 -0.3206518095107353 0.086423961441370711 0 -0.3206518095107353 0.086423961441370711 0 -0.3195564285114475 0.078857552319276381 0 -0.33089007098043072 0.079233613187852742 0 -0.3095990562077543 0.082833834969606807 0 -0.3206518095107353 0.086423961441370711 0 -0.3195564285114475 0.078857552319276381 0 -0.3095990562077543 0.082833834969606807 0 -0.3195564285114475 0.078857552319276381 0 -0.31708477734686968 0.066938799678275263 0 -0.3262676586483656 0.050894384371173287 0 -0.31708477734686968 0.066938799678275263 0 -0.33089007098043072 0.079233613187852742 0 -0.3195564285114475 0.078857552319276381 0 -0.31708477734686968 0.066938799678275263 0 -0.33089007098043072 0.079233613187852742 0 -0.3262676586483656 0.050894384371173287 0 -0.33089007098043072 0.079233613187852742 0 -0.3419631627684111 0.054410778814259472 0 -0.34344647427646718 0.082046728742321648 0 -0.3419631627684111 0.054410778814259472 0 -0.34344647427646718 0.082046728742321648 0 -0.33089007098043072 0.079233613187852742 0 -0.33551248331249578 0.10757284200453231 0 -0.34344647427646718 0.082046728742321648 0 -0.33089007098043072 0.079233613187852742 0 -0.33551248331249578 0.10757284200453231 0 -0.33089007098043072 0.079233613187852742 0 -0.38413367002432852 0.48466820949397371 0 -0.39197467039505129 0.46611734068214988 0 -0.41460981883164078 0.48516798004791117 0 -0.3981750166650535 0.50000000000000056 0 -0.38413367002432852 0.48466820949397371 0 -0.41460981883164078 0.48516798004791117 0 -0.3981750166650535 0.50000000000000056 0 -0.38413367002432852 0.48466820949397371 0 -0.37107410569903487 0.5 0 -0.39197467039505129 0.46611734068214988 0 -0.36482960672615539 0.47476559140937902 0 -0.38413367002432852 0.48466820949397371 0 -0.39197467039505129 0.46611734068214988 0 -0.36580706476392733 0.47631646954851292 0 -0.38785270990024268 0.44600589254376838 0 -0.39197467039505129 0.46611734068214988 0 -0.37006527051019528 0.45259743283909409 0 -0.39197467039505129 0.46611734068214988 0 -0.37006527051019528 0.45259743283909409 0 -0.36482960672615539 0.47476559140937902 0 -0.38785270990024268 0.44600589254376838 0 -0.37388199021079188 0.43349662060099697 0 -0.37006527051019528 0.45259743283909409 0 -0.38785270990024268 0.44600589254376838 0 -0.40320620376676342 0.45007503942677379 0 -0.39595691431975 0.42995942871021692 0 -0.38785270990024268 0.44600589254376838 0 -0.40320620376676342 0.45007503942677379 0 -0.39197467039505129 0.46611734068214988 0 -0.40320620376676342 0.45007503942677379 0 -0.39197467039505129 0.46611734068214988 0 -0.41277096383307582 0.46532813801804862 0 -0.40320620376676342 0.45007503942677379 0 -0.42781315099835598 0.44205737320498029 0 -0.39595691431975 0.42995942871021692 0 -0.40320620376676342 0.45007503942677379 0 -0.41277096383307582 0.46532813801804862 0 -0.42781315099835598 0.44205737320498029 0 -0.42781315099835598 0.44205737320498029 0 -0.43466730821188831 0.46706657063262308 0 -0.44460389203804629 0.44806533343805571 0 -0.42781315099835598 0.44205737320498029 0 -0.4310446209982266 0.47033596009582029 0 -0.42781315099835598 0.44205737320498029 0 -0.43466730821188831 0.46706657063262308 0 -0.4310446209982266 0.47033596009582029 0 -0.41277096383307582 0.46532813801804862 0 -0.42781315099835598 0.44205737320498029 0 -0.4310446209982266 0.47033596009582029 0 -0.43466730821188831 0.46706657063262308 0 -0.4310446209982266 0.47033596009582029 0 -0.4310446209982266 0.47033596009582029 0 -0.43443441043131342 0.50000000000000755 0 -0.4447827686264566 0.47926022536349122 0 -0.4310446209982266 0.47033596009582029 0 -0.41460981883164078 0.48516798004791117 0 -0.4310446209982266 0.47033596009582029 0 -0.41460981883164078 0.48516798004791117 0 -0.42409839095234109 0.48887598503593521 0 -0.43466730821188831 0.46706657063262308 0 -0.4310446209982266 0.47033596009582029 0 -0.4447827686264566 0.47926022536349122 0 -0.39197467039505129 0.46611734068214988 0 -0.41277096383307582 0.46532813801804862 0 -0.41460981883164078 0.48516798004791117 0 -0.41277096383307582 0.46532813801804862 0 -0.4310446209982266 0.47033596009582029 0 -0.41460981883164078 0.48516798004791117 0 -0.3981750166650535 0.50000000000000056 0 -0.41460981883164078 0.48516798004791117 0 -0.3981750166650535 0.50000000000000056 0 -0.41460981883164078 0.48516798004791117 0 -0.41630471354818338 0.5 0 -0.41460981883164078 0.48516798004791117 0 -0.41630471354818338 0.5 0 -0.42409839095234109 0.48887598503593521 0 -0.41630471354818338 0.5 0 -0.43443441043131342 0.50000000000000755 0 -0.42409839095234109 0.48887598503593521 0 -0.4310446209982266 0.47033596009582029 0 -0.43443441043131342 0.50000000000000755 0 -0.4310446209982266 0.47033596009582029 0 -0.43443441043131342 0.50000000000000755 0 -0.42409839095234109 0.48887598503593521 0 -0.43443441043131342 0.50000000000000755 0 -0.4447827686264566 0.47926022536349122 0 -0.4595127163698095 0.50000000000000022 0 -0.5 0.5 0 -0.47335596745111108 0.44169355163120572 0 -0.5 0.40038011321019712 0 -0.43466730821188831 0.46706657063262308 0 -0.4447827686264566 0.47926022536349122 0 -0.44899911668232212 0.46303481381032341 0 -0.4447827686264566 0.47926022536349122 0 -0.46015144363500948 0.47359397987248231 0 -0.44899911668232212 0.46303481381032341 0 -0.4447827686264566 0.47926022536349122 0 -0.46015144363500948 0.47359397987248231 0 -0.4595127163698095 0.50000000000000022 0 -0.46015144363500948 0.47359397987248231 0 -0.4595127163698095 0.50000000000000022 0 -0.46015144363500948 0.47359397987248231 0 -0.4595127163698095 0.50000000000000022 0 -0.5 0.5 0 -0.46015144363500948 0.47359397987248231 0 -0.5 0.5 0 -0.47335596745111108 0.44169355163120572 0 -0.46015144363500948 0.47359397987248231 0 -0.47335596745111108 0.44169355163120572 0 -0.46079017090020952 0.44718795974496428 0 -0.46079017090020952 0.44718795974496428 0 -0.44460389203804629 0.44806533343805571 0 -0.45590269758544211 0.43346995798949911 0 -0.47335596745111108 0.44169355163120572 0 -0.46079017090020952 0.44718795974496428 0 -0.45590269758544211 0.43346995798949911 0 -0.46015144363500948 0.47359397987248231 0 -0.46079017090020952 0.44718795974496428 0 -0.44899911668232212 0.46303481381032341 0 -0.46015144363500948 0.47359397987248231 0 -0.46079017090020952 0.44718795974496428 0 -0.43466730821188831 0.46706657063262308 0 -0.44899911668232212 0.46303481381032341 0 -0.44460389203804629 0.44806533343805571 0 -0.42781315099835598 0.44205737320498029 0 -0.44460389203804629 0.44806533343805571 0 -0.44268906624812487 0.42665452579602331 0 -0.46079017090020952 0.44718795974496428 0 -0.44899911668232212 0.46303481381032341 0 -0.44460389203804629 0.44806533343805571 0 -0.44460389203804629 0.44806533343805571 0 -0.44268906624812487 0.42665452579602331 0 -0.45590269758544211 0.43346995798949911 0 -0.44268906624812487 0.42665452579602331 0 -0.45186506472241439 0.42144574071262142 0 -0.45590269758544211 0.43346995798949911 0 -0.44268906624812487 0.42665452579602331 0 -0.45186506472241439 0.42144574071262142 0 -0.44576315445017062 0.40546276927260178 0 -0.44268906624812487 0.42665452579602331 0 -0.44576315445017062 0.40546276927260178 0 -0.42458168099848842 0.41377878631413989 0 -0.46310534060592018 0.42019570979236182 0 -0.47346151536459102 0.41731684507507272 0 -0.46374026742882618 0.39151162716981691 0 -0.45186506472241439 0.42144574071262142 0 -0.46310534060592018 0.42019570979236182 0 -0.44576315445017062 0.40546276927260178 0 -0.47335596745111108 0.44169355163120572 0 -0.46310534060592018 0.42019570979236182 0 -0.45590269758544211 0.43346995798949911 0 -0.45186506472241439 0.42144574071262142 0 -0.46310534060592018 0.42019570979236182 0 -0.45590269758544211 0.43346995798949911 0 -0.47335596745111108 0.44169355163120572 0 -0.46310534060592018 0.42019570979236182 0 -0.47346151536459102 0.41731684507507272 0 -0.47335596745111108 0.44169355163120572 0 -0.47346151536459102 0.41731684507507272 0 -0.5 0.40038011321019712 0 -0.47346151536459102 0.41731684507507272 0 -0.5 0.40038011321019712 0 -0.47533567507008778 0.39330498401591851 0 -0.47346151536459102 0.41731684507507272 0 -0.47533567507008778 0.39330498401591851 0 -0.47346151536459102 0.41731684507507272 0 -0.47533567507008778 0.39330498401591851 0 -0.46374026742882618 0.39151162716981691 0 -0.5 0.40038011321019712 0 -0.47533567507008778 0.39330498401591851 0 -0.47720983477558448 0.36929312295676431 0 -0.47533567507008778 0.39330498401591851 0 -0.47720983477558448 0.36929312295676431 0 -0.47533567507008778 0.39330498401591851 0 -0.46374026742882618 0.39151162716981691 0 -0.47720983477558448 0.36929312295676431 0 -0.46374026742882618 0.39151162716981691 0 -0.45297946443592813 0.37787116286410599 0 -0.46437519425173218 0.36282754454727217 0 -0.46374026742882618 0.39151162716981691 0 -0.45297946443592813 0.37787116286410599 0 -0.44807155782876301 0.39051600802545461 0 -0.46374026742882618 0.39151162716981691 0 -0.46437519425173218 0.36282754454727217 0 -0.46310534060592018 0.42019570979236182 0 -0.46374026742882618 0.39151162716981691 0 -0.46310534060592018 0.42019570979236182 0 -0.46374026742882618 0.39151162716981691 0 -0.44576315445017062 0.40546276927260178 0 -0.46374026742882618 0.39151162716981691 0 -0.44576315445017062 0.40546276927260178 0 -0.44807155782876301 0.39051600802545461 0 -0.44576315445017062 0.40546276927260178 0 -0.44807155782876301 0.39051600802545461 0 -0.43603237714897469 0.39502180629923989 0 -0.45297946443592813 0.37787116286410599 0 -0.44807155782876301 0.39051600802545461 0 -0.44039528146883089 0.37985126846070372 0 -0.44807155782876301 0.39051600802545461 0 -0.44039528146883089 0.37985126846070372 0 -0.43603237714897469 0.39502180629923989 0 -0.44039528146883089 0.37985126846070372 0 -0.42135021099862069 0.38550019942329938 0 -0.43603237714897469 0.39502180629923989 0 -0.44039528146883089 0.37985126846070372 0 -0.42135021099862069 0.38550019942329938 0 -0.43330693618304927 0.36743111704715392 0 -0.42135021099862069 0.38550019942329938 0 -0.3928737426436214 0.38288862872844909 0 -0.41811874099875312 0.35722161253245888 0 -0.42135021099862069 0.38550019942329938 0 -0.42458168099848842 0.41377878631413989 0 -0.40302940150938782 0.40252809503019821 0 -0.44576315445017062 0.40546276927260178 0 -0.43603237714897469 0.39502180629923989 0 -0.42458168099848842 0.41377878631413989 0 -0.42135021099862069 0.38550019942329938 0 -0.42458168099848842 0.41377878631413989 0 -0.42135021099862069 0.38550019942329938 0 -0.43603237714897469 0.39502180629923989 0 -0.42458168099848842 0.41377878631413989 0 -0.42781315099835598 0.44205737320498029 0 -0.42458168099848842 0.41377878631413989 0 -0.39595691431975 0.42995942871021692 0 -0.42781315099835598 0.44205737320498029 0 -0.44268906624812487 0.42665452579602331 0 -0.42458168099848842 0.41377878631413989 0 -0.42781315099835598 0.44205737320498029 0 -0.42458168099848842 0.41377878631413989 0 -0.42458168099848842 0.41377878631413989 0 -0.39595691431975 0.42995942871021692 0 -0.40302940150938782 0.40252809503019821 0 -0.39595691431975 0.42995942871021692 0 -0.38133644129271771 0.41060795377957438 0 -0.40302940150938782 0.40252809503019821 0 -0.39595691431975 0.42995942871021692 0 -0.38133644129271771 0.41060795377957438 0 -0.37388199021079188 0.43349662060099697 0 -0.38785270990024268 0.44600589254376838 0 -0.39595691431975 0.42995942871021692 0 -0.37388199021079188 0.43349662060099697 0 -0.39595691431975 0.42995942871021692 0 -0.38133644129271771 0.41060795377957438 0 -0.38133644129271771 0.41060795377957438 0 -0.3928737426436214 0.38288862872844909 0 -0.36671596826568531 0.39125647884893172 0 -0.3928737426436214 0.38288862872844909 0 -0.37126589511329411 0.37377724987418581 0 -0.36671596826568531 0.39125647884893172 0 -0.42135021099862069 0.38550019942329938 0 -0.3928737426436214 0.38288862872844909 0 -0.40302940150938782 0.40252809503019821 0 -0.38133644129271771 0.41060795377957438 0 -0.3928737426436214 0.38288862872844909 0 -0.40302940150938782 0.40252809503019821 0 -0.39068435811404417 0.36093702398180222 0 -0.39395667907880888 0.34326368506717603 0 -0.41811874099875312 0.35722161253245888 0 -0.3928737426436214 0.38288862872844909 0 -0.39068435811404417 0.36093702398180222 0 -0.41811874099875312 0.35722161253245888 0 -0.3928737426436214 0.38288862872844909 0 -0.39068435811404417 0.36093702398180222 0 -0.37126589511329411 0.37377724987418581 0 -0.39068435811404417 0.36093702398180222 0 -0.37302608715873109 0.35758434449273291 0 -0.37126589511329411 0.37377724987418581 0 -0.39395667907880888 0.34326368506717603 0 -0.37302608715873109 0.35758434449273291 0 -0.39068435811404417 0.36093702398180222 0 -0.39395667907880888 0.34326368506717603 0 -0.37302608715873109 0.35758434449273291 0 -0.37563375498023588 0.33893957100260502 0 -0.39395667907880888 0.34326368506717603 0 -0.37302608715873109 0.35758434449273291 0 -0.37563375498023588 0.33893957100260502 0 -0.3809584867257152 0.31995934924364311 0 -0.39395667907880888 0.34326368506717603 0 -0.3809584867257152 0.31995934924364311 0 -0.40019053093036899 0.31727751782089808 0 -0.39395667907880888 0.34326368506717603 0 -0.40019053093036899 0.31727751782089808 0 -0.39395667907880888 0.34326368506717603 0 -0.414887270998886 0.32894302564161831 0 -0.39395667907880888 0.34326368506717603 0 -0.414887270998886 0.32894302564161831 0 -0.414887270998886 0.32894302564161831 0 -0.41811874099875312 0.35722161253245888 0 -0.39395667907880888 0.34326368506717603 0 -0.414887270998886 0.32894302564161831 0 -0.41811874099875312 0.35722161253245888 0 -0.414887270998886 0.32894302564161831 0 -0.4287524947490482 0.33739992334137159 0 -0.41811874099875312 0.35722161253245888 0 -0.414887270998886 0.32894302564161831 0 -0.42784370751339318 0.3200782636988328 0 -0.41182569378737999 0.30215117016961263 0 -0.414887270998886 0.32894302564161831 0 -0.41182569378737999 0.30215117016961263 0 -0.40019053093036899 0.31727751782089808 0 -0.414887270998886 0.32894302564161831 0 -0.41182569378737999 0.30215117016961263 0 -0.414887270998886 0.32894302564161831 0 -0.42784370751339318 0.3200782636988328 0 -0.42784370751339318 0.3200782636988328 0 -0.44080014402789969 0.3112135017560464 0 -0.414887270998886 0.32894302564161831 0 -0.42784370751339318 0.3200782636988328 0 -0.4287524947490482 0.33739992334137159 0 -0.42784370751339318 0.3200782636988328 0 -0.4287524947490482 0.33739992334137159 0 -0.44455732798665581 0.33082357613192309 0 -0.4287524947490482 0.33739992334137159 0 -0.43835542624755341 0.34993313870202492 0 -0.44455732798665581 0.33082357613192309 0 -0.4287524947490482 0.33739992334137159 0 -0.41811874099875312 0.35722161253245888 0 -0.43835542624755341 0.34993313870202492 0 -0.41811874099875312 0.35722161253245888 0 -0.43330693618304927 0.36743111704715392 0 -0.43835542624755341 0.34993313870202492 0 -0.42135021099862069 0.38550019942329938 0 -0.41811874099875312 0.35722161253245888 0 -0.42135021099862069 0.38550019942329938 0 -0.41811874099875312 0.35722161253245888 0 -0.43330693618304927 0.36743111704715392 0 -0.44039528146883089 0.37985126846070372 0 -0.43330693618304927 0.36743111704715392 0 -0.44831502120148831 0.36464936611728249 0 -0.5 0.40038011321019712 0 -0.47720983477558448 0.36929312295676431 0 -0.5 0.32588146503443682 0 -0.43330693618304927 0.36743111704715392 0 -0.44831502120148831 0.36464936611728249 0 -0.43835542624755341 0.34993313870202492 0 -0.45297946443592813 0.37787116286410599 0 -0.44039528146883089 0.37985126846070372 0 -0.44831502120148831 0.36464936611728249 0 -0.44831502120148831 0.36464936611728249 0 -0.45212261815241361 0.34847541748464589 0 -0.43835542624755341 0.34993313870202492 0 -0.46437519425173218 0.36282754454727217 0 -0.46501012107463818 0.3341434619247271 0 -0.45212261815241361 0.34847541748464589 0 -0.46437519425173218 0.36282754454727217 0 -0.46501012107463818 0.3341434619247271 0 -0.44831502120148831 0.36464936611728249 0 -0.45212261815241361 0.34847541748464589 0 -0.46437519425173218 0.36282754454727217 0 -0.45297946443592813 0.37787116286410599 0 -0.44831502120148831 0.36464936611728249 0 -0.46437519425173218 0.36282754454727217 0 -0.46374026742882618 0.39151162716981691 0 -0.46437519425173218 0.36282754454727217 0 -0.47720983477558448 0.36929312295676431 0 -0.47720983477558448 0.36929312295676431 0 -0.4790839944810813 0.34528126189761021 0 -0.5 0.32588146503443682 0 -0.46437519425173218 0.36282754454727217 0 -0.47720983477558448 0.36929312295676431 0 -0.4790839944810813 0.34528126189761021 0 -0.46437519425173218 0.36282754454727217 0 -0.4790839944810813 0.34528126189761021 0 -0.46501012107463818 0.3341434619247271 0 -0.47720983477558448 0.36929312295676431 0 -0.4790839944810813 0.34528126189761021 0 -0.5 0.32588146503443682 0 -0.48095815418657811 0.32126940083845601 0 -0.48438341280173691 0.2990237851864897 0 -0.4790839944810813 0.34528126189761021 0 -0.5 0.32588146503443682 0 -0.48095815418657811 0.32126940083845601 0 -0.4790839944810813 0.34528126189761021 0 -0.48095815418657811 0.32126940083845601 0 -0.4790839944810813 0.34528126189761021 0 -0.48095815418657811 0.32126940083845601 0 -0.46501012107463818 0.3341434619247271 0 -0.48095815418657811 0.32126940083845601 0 -0.46501012107463818 0.3341434619247271 0 -0.46564504789754418 0.30545937930218209 0 -0.46501012107463818 0.3341434619247271 0 -0.46564504789754418 0.30545937930218209 0 -0.45334860311094782 0.31584311053598302 0 -0.46501012107463818 0.3341434619247271 0 -0.44455732798665581 0.33082357613192309 0 -0.45334860311094782 0.31584311053598302 0 -0.46501012107463818 0.3341434619247271 0 -0.46564504789754418 0.30545937930218209 0 -0.45212261815241361 0.34847541748464589 0 -0.46501012107463818 0.3341434619247271 0 -0.44455732798665581 0.33082357613192309 0 -0.45212261815241361 0.34847541748464589 0 -0.43835542624755341 0.34993313870202492 0 -0.44455732798665581 0.33082357613192309 0 -0.45334860311094782 0.31584311053598302 0 -0.44455732798665581 0.33082357613192309 0 -0.44080014402789969 0.3112135017560464 0 -0.42784370751339318 0.3200782636988328 0 -0.44455732798665581 0.33082357613192309 0 -0.44080014402789969 0.3112135017560464 0 -0.45334860311094782 0.31584311053598302 0 -0.44080014402789969 0.3112135017560464 0 -0.45212090372732222 0.29751224224269018 0 -0.44080014402789969 0.3112135017560464 0 -0.45212090372732222 0.29751224224269018 0 -0.43098419661848369 0.29848737705662681 0 -0.45212090372732222 0.29751224224269018 0 -0.44106680473088589 0.27968718865599468 0 -0.43098419661848369 0.29848737705662681 0 -0.45212090372732222 0.29751224224269018 0 -0.46878861662768212 0.293945894508436 0 -0.46620416538631942 0.27832296974934079 0 -0.45212090372732222 0.29751224224269018 0 -0.46620416538631942 0.27832296974934079 0 -0.44106680473088589 0.27968718865599468 0 -0.45334860311094782 0.31584311053598302 0 -0.45212090372732222 0.29751224224269018 0 -0.46564504789754418 0.30545937930218209 0 -0.45212090372732222 0.29751224224269018 0 -0.46564504789754418 0.30545937930218209 0 -0.46878861662768212 0.293945894508436 0 -0.48095815418657811 0.32126940083845601 0 -0.46564504789754418 0.30545937930218209 0 -0.47422271850004488 0.30257989257828583 0 -0.48095815418657811 0.32126940083845601 0 -0.48283231389207593 0.29725753977930192 0 -0.48095815418657811 0.32126940083845601 0 -0.48283231389207593 0.29725753977930192 0 -0.48438341280173691 0.2990237851864897 0 -0.48095815418657811 0.32126940083845601 0 -0.48283231389207593 0.29725753977930192 0 -0.47422271850004488 0.30257989257828583 0 -0.5 0.32588146503443682 0 -0.48438341280173691 0.2990237851864897 0 -0.5 0.27058277969487637 0 -0.48283231389207593 0.29725753977930192 0 -0.48438341280173691 0.2990237851864897 0 -0.48283231389207593 0.29725753977930192 0 -0.47422271850004488 0.30257989257828583 0 -0.46878861662768212 0.293945894508436 0 -0.46564504789754418 0.30545937930218209 0 -0.47422271850004488 0.30257989257828583 0 -0.46878861662768212 0.293945894508436 0 -0.48283231389207593 0.29725753977930192 0 -0.46620416538631942 0.27832296974934079 0 -0.4832665619079245 0.29169392479429618 0 -0.48272378290968532 0.2745465744653578 0 -0.46620416538631942 0.27832296974934079 0 -0.48283231389207593 0.29725753977930192 0 -0.46878861662768212 0.293945894508436 0 -0.46620416538631942 0.27832296974934079 0 -0.48283231389207593 0.29725753977930192 0 -0.4832665619079245 0.29169392479429618 0 -0.46620416538631942 0.27832296974934079 0 -0.48283231389207593 0.29725753977930192 0 -0.4832665619079245 0.29169392479429618 0 -0.48438341280173691 0.2990237851864897 0 -0.48283231389207593 0.29725753977930192 0 -0.4832665619079245 0.29169392479429618 0 -0.4832665619079245 0.29169392479429618 0 -0.48438341280173691 0.2990237851864897 0 -0.5 0.27058277969487637 0 -0.48510068849613291 0.2464952989699998 0 -0.5 0.27058277969487637 0 -0.47736829551405641 0.25971614189080378 0 -0.4832665619079245 0.29169392479429618 0 -0.5 0.27058277969487637 0 -0.48272378290968532 0.2745465744653578 0 -0.5 0.27058277969487637 0 -0.48272378290968532 0.2745465744653578 0 -0.47736829551405641 0.25971614189080378 0 -0.48272378290968532 0.2745465744653578 0 -0.47736829551405641 0.25971614189080378 0 -0.46620416538631942 0.27832296974934079 0 -0.48510068849613291 0.2464952989699998 0 -0.4662317729600568 0.24711617116125539 0 -0.47736829551405641 0.25971614189080378 0 -0.4662317729600568 0.24711617116125539 0 -0.47736829551405641 0.25971614189080378 0 -0.44957601688056159 0.25938839971938082 0 -0.47736829551405641 0.25971614189080378 0 -0.46620416538631942 0.27832296974934079 0 -0.44957601688056159 0.25938839971938082 0 -0.46620416538631942 0.27832296974934079 0 -0.44957601688056159 0.25938839971938082 0 -0.46620416538631942 0.27832296974934079 0 -0.44106680473088589 0.27968718865599468 0 -0.44957601688056159 0.25938839971938082 0 -0.44106680473088589 0.27968718865599468 0 -0.44957601688056159 0.25938839971938082 0 -0.42702456861835142 0.26373592368695459 0 -0.43294786837480398 0.2404538296894207 0 -0.44957601688056159 0.25938839971938082 0 -0.42702456861835142 0.26373592368695459 0 -0.43294786837480398 0.2404538296894207 0 -0.40570253936436479 0.24856745922560119 0 -0.42702456861835142 0.26373592368695459 0 -0.40570253936436479 0.24856745922560119 0 -0.40876411657587441 0.27535931469760672 0 -0.40570253936436479 0.24856745922560119 0 -0.42702456861835142 0.26373592368695459 0 -0.40876411657587441 0.27535931469760672 0 -0.42702456861835142 0.26373592368695459 0 -0.40876411657587441 0.27535931469760672 0 -0.42393307606619501 0.28388419485335897 0 -0.44106680473088589 0.27968718865599468 0 -0.42702456861835142 0.26373592368695459 0 -0.42393307606619501 0.28388419485335897 0 -0.44106680473088589 0.27968718865599468 0 -0.42393307606619501 0.28388419485335897 0 -0.43098419661848369 0.29848737705662681 0 -0.42393307606619501 0.28388419485335897 0 -0.43098419661848369 0.29848737705662681 0 -0.41182569378737999 0.30215117016961263 0 -0.42784370751339318 0.3200782636988328 0 -0.44080014402789969 0.3112135017560464 0 -0.43098419661848369 0.29848737705662681 0 -0.42784370751339318 0.3200782636988328 0 -0.43098419661848369 0.29848737705662681 0 -0.41182569378737999 0.30215117016961263 0 -0.40876411657587441 0.27535931469760672 0 -0.42393307606619501 0.28388419485335897 0 -0.41182569378737999 0.30215117016961263 0 -0.40876411657587441 0.27535931469760672 0 -0.41182569378737999 0.30215117016961263 0 -0.40876411657587441 0.27535931469760672 0 -0.41182569378737999 0.30215117016961263 0 -0.38942632587964537 0.29641120061531351 0 -0.40876411657587441 0.27535931469760672 0 -0.38942632587964537 0.29641120061531351 0 -0.38778179087320769 0.27529621765694001 0 -0.40019053093036899 0.31727751782089808 0 -0.41182569378737999 0.30215117016961263 0 -0.38942632587964537 0.29641120061531351 0 -0.3809584867257152 0.31995934924364311 0 -0.38942632587964537 0.29641120061531351 0 -0.36990774782730562 0.30465198401604282 0 -0.3809584867257152 0.31995934924364311 0 -0.40019053093036899 0.31727751782089808 0 -0.38942632587964537 0.29641120061531351 0 -0.38942632587964537 0.29641120061531351 0 -0.38778179087320769 0.27529621765694001 0 -0.37124129201382 0.2841753332327091 0 -0.38942632587964537 0.29641120061531351 0 -0.37124129201382 0.2841753332327091 0 -0.36990774782730562 0.30465198401604282 0 -0.38778179087320769 0.27529621765694001 0 -0.37230359566927929 0.26610576231553251 0 -0.37124129201382 0.2841753332327091 0 -0.38778179087320769 0.27529621765694001 0 -0.38900306751682168 0.25733661077056619 0 -0.37230359566927929 0.26610576231553251 0 -0.38900306751682168 0.25733661077056619 0 -0.37230359566927929 0.26610576231553251 0 -0.37675611103540763 0.25409865512553548 0 -0.38900306751682168 0.25733661077056619 0 -0.37230359566927929 0.26610576231553251 0 -0.38455494932564349 0.24416718140159829 0 -0.37675611103540763 0.25409865512553548 0 -0.38900306751682168 0.25733661077056619 0 -0.40570253936436479 0.24856745922560119 0 -0.40876411657587441 0.27535931469760672 0 -0.38900306751682168 0.25733661077056619 0 -0.40570253936436479 0.24856745922560119 0 -0.38900306751682168 0.25733661077056619 0 -0.40876411657587441 0.27535931469760672 0 -0.38778179087320769 0.27529621765694001 0 -0.38900306751682168 0.25733661077056619 0 -0.35344375069401829 0.26830850112922933 0 -0.35479842748912699 0.29354782535411539 0 -0.33783775680192157 0.27023153782616838 0 -0.35344375069401829 0.26830850112922933 0 -0.35479842748912699 0.29354782535411539 0 -0.35926376548055328 0.2486735779402334 0 -0.35208907389890948 0.24306917690434299 0 -0.35344375069401829 0.26830850112922933 0 -0.35208907389890948 0.24306917690434299 0 -0.35344375069401829 0.26830850112922933 0 -0.34142207509263922 0.25572960106260723 0 -0.35208907389890948 0.24306917690434299 0 -0.35344375069401829 0.26830850112922933 0 -0.35344375069401829 0.26830850112922933 0 -0.33783775680192157 0.27023153782616838 0 -0.34142207509263922 0.25572960106260723 0 -0.35344375069401829 0.26830850112922933 0 -0.36723308052532222 0.25309369692869038 0 -0.37230359566927929 0.26610576231553251 0 -0.35926376548055328 0.2486735779402334 0 -0.35344375069401829 0.26830850112922933 0 -0.36723308052532222 0.25309369692869038 0 -0.37552267705158737 0.2431978490864326 0 -0.37675611103540763 0.25409865512553548 0 -0.36723308052532222 0.25309369692869038 0 -0.37675611103540763 0.25409865512553548 0 -0.36723308052532222 0.25309369692869038 0 -0.37230359566927929 0.26610576231553251 0 -0.35344375069401829 0.26830850112922933 0 -0.37230359566927929 0.26610576231553251 0 -0.37124129201382 0.2841753332327091 0 -0.37124129201382 0.2841753332327091 0 -0.36990774782730562 0.30465198401604282 0 -0.35479842748912699 0.29354782535411539 0 -0.35344375069401829 0.26830850112922933 0 -0.37124129201382 0.2841753332327091 0 -0.35479842748912699 0.29354782535411539 0 -0.36990774782730562 0.30465198401604282 0 -0.35479842748912699 0.29354782535411539 0 -0.35615310428423591 0.31878714957900162 0 -0.35479842748912699 0.29354782535411539 0 -0.35615310428423591 0.31878714957900162 0 -0.35479842748912699 0.29354782535411539 0 -0.33790089425573833 0.30106400074382289 0 -0.35615310428423591 0.31878714957900162 0 -0.35479842748912699 0.29354782535411539 0 -0.32994760687178648 0.28429515218691809 0 -0.33783775680192157 0.27023153782616838 0 -0.35479842748912699 0.29354782535411539 0 -0.32994760687178648 0.28429515218691809 0 -0.33790089425573833 0.30106400074382289 0 -0.33790089425573833 0.30106400074382289 0 -0.31376474629655843 0.30225304786416751 0 -0.33257481532433891 0.31836647764434117 0 -0.32994760687178648 0.28429515218691809 0 -0.33790089425573833 0.30106400074382289 0 -0.31376474629655843 0.30225304786416751 0 -0.32994760687178648 0.28429515218691809 0 -0.31376474629655843 0.30225304786416751 0 -0.30745975664346697 0.28108303278283259 0 -0.32994760687178648 0.28429515218691809 0 -0.32025265357816562 0.27050697347699348 0 -0.30745975664346697 0.28108303278283259 0 -0.32994760687178648 0.28429515218691809 0 -0.32025265357816562 0.27050697347699348 0 -0.33783775680192157 0.27023153782616838 0 -0.33783775680192157 0.27023153782616838 0 -0.34142207509263922 0.25572960106260723 0 -0.32493898666941562 0.25370598596143412 0 -0.33787454055877381 0.24529314191448051 0 -0.34142207509263922 0.25572960106260723 0 -0.32493898666941562 0.25370598596143412 0 -0.32025265357816562 0.27050697347699348 0 -0.32493898666941562 0.25370598596143412 0 -0.3017176885818823 0.26220574059556451 0 -0.32025265357816562 0.27050697347699348 0 -0.33783775680192157 0.27023153782616838 0 -0.32493898666941562 0.25370598596143412 0 -0.28392805579818597 0.24584677119781029 0 -0.30659471691689572 0.242716670786389 0 -0.3017176885818823 0.26220574059556451 0 -0.30659471691689572 0.242716670786389 0 -0.32493898666941562 0.25370598596143412 0 -0.3017176885818823 0.26220574059556451 0 -0.32025265357816562 0.27050697347699348 0 -0.3017176885818823 0.26220574059556451 0 -0.30745975664346697 0.28108303278283259 0 -0.3017176885818823 0.26220574059556451 0 -0.30745975664346697 0.28108303278283259 0 -0.28581088023419748 0.27213864639403801 0 -0.28392805579818597 0.24584677119781029 0 -0.3017176885818823 0.26220574059556451 0 -0.28392805579818597 0.24584677119781029 0 -0.3017176885818823 0.26220574059556451 0 -0.28581088023419748 0.27213864639403801 0 -0.28392805579818597 0.24584677119781029 0 -0.28581088023419748 0.27213864639403801 0 -0.26655259030946182 0.26726307071448002 0 -0.28392805579818597 0.24584677119781029 0 -0.26514282027817931 0.24842266601513599 0 -0.26655259030946182 0.26726307071448002 0 -0.28581088023419748 0.27213864639403801 0 -0.26655259030946182 0.26726307071448002 0 -0.26709784128719349 0.28662765883125513 0 -0.26655259030946182 0.26726307071448002 0 -0.26709784128719349 0.28662765883125513 0 -0.24190471242523851 0.27972751922608308 0 -0.26655259030946182 0.26726307071448002 0 -0.24943129659764751 0.26000894523212309 0 -0.24190471242523851 0.27972751922608308 0 -0.26514282027817931 0.24842266601513599 0 -0.26655259030946182 0.26726307071448002 0 -0.24943129659764751 0.26000894523212309 0 -0.26514282027817931 0.24842266601513599 0 -0.24943129659764751 0.26000894523212309 0 -0.2468893326351202 0.24329134098969171 0 -0.25616918259472732 0.30236015827283808 0 -0.26709784128719349 0.28662765883125513 0 -0.24190471242523851 0.27972751922608308 0 -0.28581088023419748 0.27213864639403801 0 -0.26709784128719349 0.28662765883125513 0 -0.29016097772449478 0.2935014559625142 0 -0.26709784128719349 0.28662765883125513 0 -0.27491611994182802 0.30516871221215541 0 -0.29016097772449478 0.2935014559625142 0 -0.25616918259472732 0.30236015827283808 0 -0.27491611994182802 0.30516871221215541 0 -0.27043365276421599 0.32499279731959319 0 -0.25616918259472732 0.30236015827283808 0 -0.26709784128719349 0.28662765883125513 0 -0.27491611994182802 0.30516871221215541 0 -0.27491611994182802 0.30516871221215541 0 -0.29016097772449478 0.2935014559625142 0 -0.29169578744288521 0.31398791816734961 0 -0.30745975664346697 0.28108303278283259 0 -0.28581088023419748 0.27213864639403801 0 -0.29016097772449478 0.2935014559625142 0 -0.31376474629655843 0.30225304786416751 0 -0.30745975664346697 0.28108303278283259 0 -0.29016097772449478 0.2935014559625142 0 -0.31376474629655843 0.30225304786416751 0 -0.29016097772449478 0.2935014559625142 0 -0.29169578744288521 0.31398791816734961 0 -0.31376474629655843 0.30225304786416751 0 -0.31074538478735791 0.32738191455196902 0 -0.29169578744288521 0.31398791816734961 0 -0.31074538478735791 0.32738191455196902 0 -0.29170910681836448 0.3316805874579164 0 -0.29169578744288521 0.31398791816734961 0 -0.31074538478735791 0.32738191455196902 0 -0.30097258616365841 0.34441487088432199 0 -0.31556783578130437 0.34561409599239279 0 -0.31074538478735791 0.32738191455196902 0 -0.29170910681836448 0.3316805874579164 0 -0.30097258616365841 0.34441487088432199 0 -0.29170910681836448 0.3316805874579164 0 -0.28469812293370489 0.34762543636634829 0 -0.30097258616365841 0.34441487088432199 0 -0.29170910681836448 0.3316805874579164 0 -0.27043365276421599 0.32499279731959319 0 -0.28469812293370489 0.34762543636634829 0 -0.29170910681836448 0.3316805874579164 0 -0.29169578744288521 0.31398791816734961 0 -0.27043365276421599 0.32499279731959319 0 -0.27491611994182802 0.30516871221215541 0 -0.29169578744288521 0.31398791816734961 0 -0.27043365276421599 0.32499279731959319 0 -0.27043365276421599 0.32499279731959319 0 -0.26243222306204511 0.35090504016953772 0 -0.28469812293370489 0.34762543636634829 0 -0.27043365276421599 0.32499279731959319 0 -0.28469812293370489 0.34762543636634829 0 -0.27043365276421599 0.32499279731959319 0 -0.25002058798003007 0.3320526588471332 0 -0.26243222306204511 0.35090504016953772 0 -0.25616918259472732 0.30236015827283808 0 -0.27043365276421599 0.32499279731959319 0 -0.25616918259472732 0.30236015827283808 0 -0.27043365276421599 0.32499279731959319 0 -0.25002058798003007 0.3320526588471332 0 -0.25717133997193298 0.37426095615225607 0 -0.26243222306204511 0.35090504016953772 0 -0.27169383631612543 0.36953364855257259 0 -0.25717133997193298 0.37426095615225607 0 -0.26243222306204511 0.35090504016953772 0 -0.24481421723968019 0.36490975255658048 0 -0.27524778858216448 0.35766291394235578 0 -0.28324842690769031 0.36508823660180101 0 -0.28469812293370489 0.34762543636634829 0 -0.26243222306204511 0.35090504016953772 0 -0.27524778858216448 0.35766291394235578 0 -0.27169383631612543 0.36953364855257259 0 -0.26243222306204511 0.35090504016953772 0 -0.27524778858216448 0.35766291394235578 0 -0.28469812293370489 0.34762543636634829 0 -0.27524778858216448 0.35766291394235578 0 -0.27169383631612543 0.36953364855257259 0 -0.28324842690769031 0.36508823660180101 0 -0.27169383631612543 0.36953364855257259 0 -0.28324842690769031 0.36508823660180101 0 -0.28209338532393202 0.38222600668133688 0 -0.28324842690769031 0.36508823660180101 0 -0.28469812293370489 0.34762543636634829 0 -0.29896259310319367 0.37025807541310352 0 -0.28324842690769031 0.36508823660180101 0 -0.29896259310319367 0.37025807541310352 0 -0.28209338532393202 0.38222600668133688 0 -0.28469812293370489 0.34762543636634829 0 -0.29896259310319367 0.37025807541310352 0 -0.28469812293370489 0.34762543636634829 0 -0.30097258616365841 0.34441487088432199 0 -0.29896259310319367 0.37025807541310352 0 -0.30097258616365841 0.34441487088432199 0 -0.30971140611047582 0.35873879640362499 0 -0.29896259310319367 0.37025807541310352 0 -0.30097258616365841 0.34441487088432199 0 -0.29896259310319367 0.37025807541310352 0 -0.30097258616365841 0.34441487088432199 0 -0.30971140611047582 0.35873879640362499 0 -0.31556783578130437 0.34561409599239279 0 -0.30971140611047582 0.35873879640362499 0 -0.29896259310319367 0.37025807541310352 0 -0.31229554397435733 0.37005867265250031 0 -0.29896259310319367 0.37025807541310352 0 -0.31229554397435733 0.37005867265250031 0 -0.30732872976294823 0.38353215772995369 0 -0.31229554397435733 0.37005867265250031 0 -0.32118050234516199 0.36201264788746418 0 -0.32091897818789411 0.37757395005697603 0 -0.30971140611047582 0.35873879640362499 0 -0.31229554397435733 0.37005867265250031 0 -0.32118050234516199 0.36201264788746418 0 -0.32118050234516199 0.36201264788746418 0 -0.33508210951592582 0.36870163953731322 0 -0.32091897818789411 0.37757395005697603 0 -0.33508210951592582 0.36870163953731322 0 -0.35209549523865291 0.37190500391828912 0 -0.33393211710626841 0.38433234248782061 0 -0.32118050234516199 0.36201264788746418 0 -0.33508210951592582 0.36870163953731322 0 -0.33321476088078839 0.35466849371962073 0 -0.33508210951592582 0.36870163953731322 0 -0.33321476088078839 0.35466849371962073 0 -0.34577529297467657 0.36353966338233001 0 -0.33321476088078839 0.35466849371962073 0 -0.34577529297467657 0.36353966338233001 0 -0.34447532111727192 0.34884924989517158 0 -0.33321476088078839 0.35466849371962073 0 -0.33003563329740881 0.33925758124412497 0 -0.34447532111727192 0.34884924989517158 0 -0.32118050234516199 0.36201264788746418 0 -0.33321476088078839 0.35466849371962073 0 -0.31556783578130437 0.34561409599239279 0 -0.30971140611047582 0.35873879640362499 0 -0.32118050234516199 0.36201264788746418 0 -0.31556783578130437 0.34561409599239279 0 -0.33321476088078839 0.35466849371962073 0 -0.31556783578130437 0.34561409599239279 0 -0.33003563329740881 0.33925758124412497 0 -0.31074538478735791 0.32738191455196902 0 -0.33257481532433891 0.31836647764434117 0 -0.33003563329740881 0.33925758124412497 0 -0.31074538478735791 0.32738191455196902 0 -0.31556783578130437 0.34561409599239279 0 -0.33003563329740881 0.33925758124412497 0 -0.31376474629655843 0.30225304786416751 0 -0.31074538478735791 0.32738191455196902 0 -0.33257481532433891 0.31836647764434117 0 -0.33790089425573833 0.30106400074382289 0 -0.33257481532433891 0.31836647764434117 0 -0.35615310428423591 0.31878714957900162 0 -0.33257481532433891 0.31836647764434117 0 -0.33003563329740881 0.33925758124412497 0 -0.34490357793898208 0.33379293979876401 0 -0.33003563329740881 0.33925758124412497 0 -0.34490357793898208 0.33379293979876401 0 -0.34447532111727192 0.34884924989517158 0 -0.34490357793898208 0.33379293979876401 0 -0.34447532111727192 0.34884924989517158 0 -0.35750778107934472 0.34402647380388779 0 -0.35615310428423591 0.31878714957900162 0 -0.35750778107934472 0.34402647380388779 0 -0.34490357793898208 0.33379293979876401 0 -0.35615310428423591 0.31878714957900162 0 -0.35750778107934472 0.34402647380388779 0 -0.33257481532433891 0.31836647764434117 0 -0.34490357793898208 0.33379293979876401 0 -0.35615310428423591 0.31878714957900162 0 -0.3809584867257152 0.31995934924364311 0 -0.36990774782730562 0.30465198401604282 0 -0.35615310428423591 0.31878714957900162 0 -0.37563375498023588 0.33893957100260502 0 -0.3809584867257152 0.31995934924364311 0 -0.35615310428423591 0.31878714957900162 0 -0.37563375498023588 0.33893957100260502 0 -0.35615310428423591 0.31878714957900162 0 -0.35750778107934472 0.34402647380388779 0 -0.37563375498023588 0.33893957100260502 0 -0.37302608715873109 0.35758434449273291 0 -0.35750778107934472 0.34402647380388779 0 -0.37302608715873109 0.35758434449273291 0 -0.35750778107934472 0.34402647380388779 0 -0.35541488053243109 0.35781034742230239 0 -0.37302608715873109 0.35758434449273291 0 -0.35209549523865291 0.37190500391828912 0 -0.35541488053243109 0.35781034742230239 0 -0.37302608715873109 0.35758434449273291 0 -0.37126589511329411 0.37377724987418581 0 -0.35209549523865291 0.37190500391828912 0 -0.37302608715873109 0.35758434449273291 0 -0.35209549523865291 0.37190500391828912 0 -0.33508210951592582 0.36870163953731322 0 -0.35209549523865291 0.37190500391828912 0 -0.34577529297467657 0.36353966338233001 0 -0.35209549523865291 0.37190500391828912 0 -0.34577529297467657 0.36353966338233001 0 -0.35209549523865291 0.37190500391828912 0 -0.34577529297467657 0.36353966338233001 0 -0.35541488053243109 0.35781034742230239 0 -0.34577529297467657 0.36353966338233001 0 -0.34447532111727192 0.34884924989517158 0 -0.35541488053243109 0.35781034742230239 0 -0.34447532111727192 0.34884924989517158 0 -0.35750778107934472 0.34402647380388779 0 -0.35541488053243109 0.35781034742230239 0 -0.35026082972236822 0.40458613969335172 0 -0.34862050747833878 0.38874946299455448 0 -0.33552343261133938 0.40009846525415782 0 -0.35026082972236822 0.40458613969335172 0 -0.34862050747833878 0.38874946299455448 0 -0.36671596826568531 0.39125647884893172 0 -0.35209549523865291 0.37190500391828912 0 -0.34862050747833878 0.38874946299455448 0 -0.33393211710626841 0.38433234248782061 0 -0.35209549523865291 0.37190500391828912 0 -0.34862050747833878 0.38874946299455448 0 -0.36671596826568531 0.39125647884893172 0 -0.35209549523865291 0.37190500391828912 0 -0.36671596826568531 0.39125647884893172 0 -0.37126589511329411 0.37377724987418581 0 -0.35209549523865291 0.37190500391828912 0 -0.36671596826568531 0.39125647884893172 0 -0.38133644129271771 0.41060795377957438 0 -0.36671596826568531 0.39125647884893172 0 -0.35026082972236822 0.40458613969335172 0 -0.36671596826568531 0.39125647884893172 0 -0.36333227490387549 0.41594406858258898 0 -0.38133644129271771 0.41060795377957438 0 -0.36671596826568531 0.39125647884893172 0 -0.36333227490387549 0.41594406858258898 0 -0.38133644129271771 0.41060795377957438 0 -0.36333227490387549 0.41594406858258898 0 -0.37388199021079188 0.43349662060099697 0 -0.36333227490387549 0.41594406858258898 0 -0.37388199021079188 0.43349662060099697 0 -0.35906691460358248 0.43302642702751659 0 -0.36333227490387549 0.41594406858258898 0 -0.35906691460358248 0.43302642702751659 0 -0.35160825139420282 0.41805423523185442 0 -0.35906691460358248 0.43302642702751659 0 -0.34586475289765162 0.42738691828786168 0 -0.34964894770477822 0.45067928662270329 0 -0.35906691460358248 0.43302642702751659 0 -0.34586475289765162 0.42738691828786168 0 -0.35160825139420282 0.41805423523185442 0 -0.35026082972236822 0.40458613969335172 0 -0.36333227490387549 0.41594406858258898 0 -0.35160825139420282 0.41805423523185442 0 -0.34586475289765162 0.42738691828786168 0 -0.35160825139420282 0.41805423523185442 0 -0.33955069738530769 0.4144169953609998 0 -0.35026082972236822 0.40458613969335172 0 -0.35160825139420282 0.41805423523185442 0 -0.33955069738530769 0.4144169953609998 0 -0.35026082972236822 0.40458613969335172 0 -0.33955069738530769 0.4144169953609998 0 -0.33552343261133938 0.40009846525415782 0 -0.33446828868340289 0.42659298183602629 0 -0.325081577553051 0.41169961094141633 0 -0.33955069738530769 0.4144169953609998 0 -0.33446828868340289 0.42659298183602629 0 -0.325081577553051 0.41169961094141633 0 -0.33955069738530769 0.4144169953609998 0 -0.325081577553051 0.41169961094141633 0 -0.33552343261133938 0.40009846525415782 0 -0.33446828868340289 0.42659298183602629 0 -0.32353211865850812 0.43458959004027897 0 -0.33054677899099522 0.44587833955602901 0 -0.34586475289765162 0.42738691828786168 0 -0.33446828868340289 0.42659298183602629 0 -0.34964894770477822 0.45067928662270329 0 -0.34586475289765162 0.42738691828786168 0 -0.33446828868340289 0.42659298183602629 0 -0.34586475289765162 0.42738691828786168 0 -0.33955069738530769 0.4144169953609998 0 -0.33446828868340289 0.42659298183602629 0 -0.33446828868340289 0.42659298183602629 0 -0.31463215430362917 0.42521109444957261 0 -0.33446828868340289 0.42659298183602629 0 -0.31463215430362917 0.42521109444957261 0 -0.32353211865850812 0.43458959004027897 0 -0.31463215430362917 0.42521109444957261 0 -0.32353211865850812 0.43458959004027897 0 -0.30632691414132052 0.4383163993433048 0 -0.325081577553051 0.41169961094141633 0 -0.31576873897388319 0.39675968105735149 0 -0.30808160252936673 0.4121977433748496 0 -0.31463215430362917 0.42521109444957261 0 -0.325081577553051 0.41169961094141633 0 -0.30808160252936673 0.4121977433748496 0 -0.33446828868340289 0.42659298183602629 0 -0.31463215430362917 0.42521109444957261 0 -0.325081577553051 0.41169961094141633 0 -0.325081577553051 0.41169961094141633 0 -0.31576873897388319 0.39675968105735149 0 -0.33552343261133938 0.40009846525415782 0 -0.325081577553051 0.41169961094141633 0 -0.31576873897388319 0.39675968105735149 0 -0.34862050747833878 0.38874946299455448 0 -0.33552343261133938 0.40009846525415782 0 -0.33393211710626841 0.38433234248782061 0 -0.31576873897388319 0.39675968105735149 0 -0.33552343261133938 0.40009846525415782 0 -0.33393211710626841 0.38433234248782061 0 -0.35209549523865291 0.37190500391828912 0 -0.33393211710626841 0.38433234248782061 0 -0.33508210951592582 0.36870163953731322 0 -0.33393211710626841 0.38433234248782061 0 -0.32091897818789411 0.37757395005697603 0 -0.31576873897388319 0.39675968105735149 0 -0.32091897818789411 0.37757395005697603 0 -0.30732872976294823 0.38353215772995369 0 -0.31576873897388319 0.39675968105735149 0 -0.33393211710626841 0.38433234248782061 0 -0.31576873897388319 0.39675968105735149 0 -0.33393211710626841 0.38433234248782061 0 -0.32091897818789411 0.37757395005697603 0 -0.31229554397435733 0.37005867265250031 0 -0.32091897818789411 0.37757395005697603 0 -0.30732872976294823 0.38353215772995369 0 -0.29896259310319367 0.37025807541310352 0 -0.30732872976294823 0.38353215772995369 0 -0.29700674132229032 0.39540516601558717 0 -0.29896259310319367 0.37025807541310352 0 -0.29700674132229032 0.39540516601558717 0 -0.31576873897388319 0.39675968105735149 0 -0.30732872976294823 0.38353215772995369 0 -0.29896259310319367 0.37025807541310352 0 -0.30732872976294823 0.38353215772995369 0 -0.29700674132229032 0.39540516601558717 0 -0.30259284054109448 0.40478096048040529 0 -0.29641605771867308 0.41403951143914192 0 -0.31576873897388319 0.39675968105735149 0 -0.29700674132229032 0.39540516601558717 0 -0.30259284054109448 0.40478096048040529 0 -0.31576873897388319 0.39675968105735149 0 -0.30732872976294823 0.38353215772995369 0 -0.29700674132229032 0.39540516601558717 0 -0.31576873897388319 0.39675968105735149 0 -0.30259284054109448 0.40478096048040529 0 -0.30808160252936673 0.4121977433748496 0 -0.29700674132229032 0.39540516601558717 0 -0.28209338532393202 0.38222600668133688 0 -0.27839968129949771 0.4031848713431353 0 -0.29896259310319367 0.37025807541310352 0 -0.29700674132229032 0.39540516601558717 0 -0.28209338532393202 0.38222600668133688 0 -0.27169383631612543 0.36953364855257259 0 -0.28209338532393202 0.38222600668133688 0 -0.26324903299479457 0.38988604216182182 0 -0.27839968129949771 0.4031848713431353 0 -0.26324903299479457 0.38988604216182182 0 -0.26044543261494202 0.40722350202507612 0 -0.28209338532393202 0.38222600668133688 0 -0.27839968129949771 0.4031848713431353 0 -0.26324903299479457 0.38988604216182182 0 -0.26324903299479457 0.38988604216182182 0 -0.26044543261494202 0.40722350202507612 0 -0.24448809762487089 0.40050868906775772 0 -0.25717133997193298 0.37426095615225607 0 -0.26324903299479457 0.38988604216182182 0 -0.24074374520667241 0.38242687998337299 0 -0.25717133997193298 0.37426095615225607 0 -0.27169383631612543 0.36953364855257259 0 -0.26324903299479457 0.38988604216182182 0 -0.25382358621835049 0.43542260228310259 0 -0.27015352040741047 0.42211248350195679 0 -0.2459368307481366 0.42042542405070832 0 -0.27015352040741047 0.42211248350195679 0 -0.2459368307481366 0.42042542405070832 0 -0.26044543261494202 0.40722350202507612 0 -0.2459368307481366 0.42042542405070832 0 -0.24448809762487089 0.40050868906775772 0 -0.26044543261494202 0.40722350202507612 0 -0.27015352040741047 0.42211248350195679 0 -0.2459368307481366 0.42042542405070832 0 -0.27839968129949771 0.4031848713431353 0 -0.26044543261494202 0.40722350202507612 0 -0.27015352040741047 0.42211248350195679 0 -0.27839968129949771 0.4031848713431353 0 -0.27015352040741047 0.42211248350195679 0 -0.2950508895413867 0.42055225661807089 0 -0.25382358621835049 0.43542260228310259 0 -0.27015352040741047 0.42211248350195679 0 -0.27451598641054692 0.44016370142941202 0 -0.27015352040741047 0.42211248350195679 0 -0.28251112199335982 0.43211478794536817 0 -0.27451598641054692 0.44016370142941202 0 -0.28251112199335982 0.43211478794536817 0 -0.29479601992385501 0.42382920706312738 0 -0.29069111349206073 0.44135124015641658 0 -0.29479601992385501 0.42382920706312738 0 -0.29069111349206073 0.44135124015641658 0 -0.27015352040741047 0.42211248350195679 0 -0.28251112199335982 0.43211478794536817 0 -0.29479601992385501 0.42382920706312738 0 -0.27015352040741047 0.42211248350195679 0 -0.29479601992385501 0.42382920706312738 0 -0.27015352040741047 0.42211248350195679 0 -0.29479601992385501 0.42382920706312738 0 -0.2950508895413867 0.42055225661807089 0 -0.29479601992385501 0.42382920706312738 0 -0.2950508895413867 0.42055225661807089 0 -0.29700674132229032 0.39540516601558717 0 -0.2950508895413867 0.42055225661807089 0 -0.29641605771867308 0.41403951143914192 0 -0.29700674132229032 0.39540516601558717 0 -0.27839968129949771 0.4031848713431353 0 -0.2950508895413867 0.42055225661807089 0 -0.29700674132229032 0.39540516601558717 0 -0.2950508895413867 0.42055225661807089 0 -0.2950508895413867 0.42055225661807089 0 -0.29641605771867308 0.41403951143914192 0 -0.31463215430362917 0.42521109444957261 0 -0.2950508895413867 0.42055225661807089 0 -0.30808160252936673 0.4121977433748496 0 -0.30259284054109448 0.40478096048040529 0 -0.29641605771867308 0.41403951143914192 0 -0.30808160252936673 0.4121977433748496 0 -0.2950508895413867 0.42055225661807089 0 -0.29641605771867308 0.41403951143914192 0 -0.30808160252936673 0.4121977433748496 0 -0.31463215430362917 0.42521109444957261 0 -0.29479601992385501 0.42382920706312738 0 -0.2950508895413867 0.42055225661807089 0 -0.31463215430362917 0.42521109444957261 0 -0.29479601992385501 0.42382920706312738 0 -0.30632691414132052 0.4383163993433048 0 -0.29479601992385501 0.42382920706312738 0 -0.30632691414132052 0.4383163993433048 0 -0.29069111349206073 0.44135124015641658 0 -0.31463215430362917 0.42521109444957261 0 -0.29479601992385501 0.42382920706312738 0 -0.30632691414132052 0.4383163993433048 0 -0.3106014077299023 0.45452137664490028 0 -0.31918078655937843 0.44538174228416588 0 -0.30632691414132052 0.4383163993433048 0 -0.29796494780926752 0.45236230629258078 0 -0.3106014077299023 0.45452137664490028 0 -0.30632691414132052 0.4383163993433048 0 -0.29796494780926752 0.45236230629258078 0 -0.29069111349206073 0.44135124015641658 0 -0.3106014077299023 0.45452137664490028 0 -0.30192672627001949 0.46374394226332799 0 -0.31684143562260331 0.46858494716702748 0 -0.30192672627001949 0.46374394226332799 0 -0.31684143562260331 0.46858494716702748 0 -0.29796494780926752 0.45236230629258078 0 -0.3106014077299023 0.45452137664490028 0 -0.30192672627001949 0.46374394226332799 0 -0.28701201691743577 0.45890293735962839 0 -0.28352738281579593 0.4755269213664215 0 -0.30192672627001949 0.46374394226332799 0 -0.28701201691743577 0.45890293735962839 0 -0.30030559437380339 0.47420586516231239 0 -0.30192672627001949 0.46374394226332799 0 -0.28701201691743577 0.45890293735962839 0 -0.29796494780926752 0.45236230629258078 0 -0.30192672627001949 0.46374394226332799 0 -0.28701201691743577 0.45890293735962839 0 -0.28701201691743577 0.45890293735962839 0 -0.29069111349206073 0.44135124015641658 0 -0.28701201691743577 0.45890293735962839 0 -0.29069111349206073 0.44135124015641658 0 -0.27451598641054692 0.44016370142941202 0 -0.29796494780926752 0.45236230629258078 0 -0.28701201691743577 0.45890293735962839 0 -0.29069111349206073 0.44135124015641658 0 -0.28251112199335982 0.43211478794536817 0 -0.29069111349206073 0.44135124015641658 0 -0.27451598641054692 0.44016370142941202 0 -0.28701201691743577 0.45890293735962839 0 -0.27451598641054692 0.44016370142941202 0 -0.2629045594346644 0.45107815732999917 0 -0.28701201691743577 0.45890293735962839 0 -0.2629045594346644 0.45107815732999917 0 -0.28701201691743577 0.45890293735962839 0 -0.27023974482395158 0.46466667776273851 0 -0.28352738281579593 0.4755269213664215 0 -0.28701201691743577 0.45890293735962839 0 -0.27023974482395158 0.46466667776273851 0 -0.2629045594346644 0.45107815732999917 0 -0.27023974482395158 0.46466667776273851 0 -0.2629045594346644 0.45107815732999917 0 -0.2489120775907421 0.45611132706247232 0 -0.27023974482395158 0.46466667776273851 0 -0.24576275637927339 0.47027392540463459 0 -0.2489120775907421 0.45611132706247232 0 -0.25382358621835049 0.43542260228310259 0 -0.2629045594346644 0.45107815732999917 0 -0.2387971019518931 0.44325337730036979 0 -0.2629045594346644 0.45107815732999917 0 -0.2387971019518931 0.44325337730036979 0 -0.2629045594346644 0.45107815732999917 0 -0.2387971019518931 0.44325337730036979 0 -0.2489120775907421 0.45611132706247232 0 -0.25382358621835049 0.43542260228310259 0 -0.27451598641054692 0.44016370142941202 0 -0.2629045594346644 0.45107815732999917 0 -0.26267046183496029 0.5 0 -0.26550391405888962 0.48189416376756322 0 -0.24740973726578031 0.48747235416832729 0 -0.26550391405888962 0.48189416376756322 0 -0.24576275637927339 0.47027392540463459 0 -0.24740973726578031 0.48747235416832729 0 -0.27023974482395158 0.46466667776273851 0 -0.26550391405888962 0.48189416376756322 0 -0.24576275637927339 0.47027392540463459 0 -0.27023974482395158 0.46466667776273851 0 -0.26550391405888962 0.48189416376756322 0 -0.28352738281579593 0.4755269213664215 0 -0.26550391405888962 0.48189416376756322 0 -0.28004274871415491 0.49215090537321432 0 -0.28352738281579593 0.4755269213664215 0 -0.26267046183496029 0.5 0 -0.26550391405888962 0.48189416376756322 0 -0.28004274871415491 0.49215090537321432 0 -0.26267046183496029 0.5 0 -0.28004274871415491 0.49215090537321432 0 -0.28977137280097909 0.5 0 -0.28004274871415491 0.49215090537321432 0 -0.29422506909847679 0.48481709335143458 0 -0.28977137280097909 0.5 0 -0.29422506909847679 0.48481709335143458 0 -0.28977137280097909 0.5 0 -0.30059562840125281 0.49523014277448563 0 -0.29422506909847679 0.48481709335143458 0 -0.28352738281579593 0.4755269213664215 0 -0.30030559437380339 0.47420586516231239 0 -0.28004274871415491 0.49215090537321432 0 -0.29422506909847679 0.48481709335143458 0 -0.28352738281579593 0.4755269213664215 0 -0.28701201691743577 0.45890293735962839 0 -0.28352738281579593 0.4755269213664215 0 -0.30030559437380339 0.47420586516231239 0 -0.28004274871415491 0.49215090537321432 0 -0.28352738281579593 0.4755269213664215 0 -0.30192672627001949 0.46374394226332799 0 -0.30030559437380339 0.47420586516231239 0 -0.31684143562260331 0.46858494716702748 0 -0.30030559437380339 0.47420586516231239 0 -0.3087338265938282 0.48140676030859753 0 -0.31684143562260331 0.46858494716702748 0 -0.29422506909847679 0.48481709335143458 0 -0.30030559437380339 0.47420586516231239 0 -0.3087338265938282 0.48140676030859753 0 -0.28977137280097909 0.5 0 -0.30059562840125281 0.49523014277448563 0 -0.31687228376699761 0.5 0 -0.3087338265938282 0.48140676030859753 0 -0.30059562840125281 0.49523014277448563 0 -0.32200695450955369 0.48840862565278359 0 -0.30059562840125281 0.49523014277448563 0 -0.32200695450955369 0.48840862565278359 0 -0.29422506909847679 0.48481709335143458 0 -0.3087338265938282 0.48140676030859753 0 -0.30059562840125281 0.49523014277448563 0 -0.30059562840125281 0.49523014277448563 0 -0.31687228376699761 0.5 0 -0.32200695450955369 0.48840862565278359 0 -0.31687228376699761 0.5 0 -0.32200695450955369 0.48840862565278359 0 -0.33307541777069588 0.49179723018598798 0 -0.32200695450955369 0.48840862565278359 0 -0.34341828061785462 0.48158710853108161 0 -0.32200695450955369 0.48840862565278359 0 -0.33307541777069588 0.49179723018598798 0 -0.34341828061785462 0.48158710853108161 0 -0.33307541777069588 0.49179723018598798 0 -0.34341828061785462 0.48158710853108161 0 -0.34397319473301619 0.5 0 -0.31687228376699761 0.5 0 -0.33307541777069588 0.49179723018598798 0 -0.34397319473301619 0.5 0 -0.32200695450955369 0.48840862565278359 0 -0.34341828061785462 0.48158710853108161 0 -0.32987443399239552 0.47516769423785971 0 -0.34341828061785462 0.48158710853108161 0 -0.32987443399239552 0.47516769423785971 0 -0.34602126269748001 0.46829680282094799 0 -0.32987443399239552 0.47516769423785971 0 -0.31870391104731738 0.47862303310617538 0 -0.31684143562260331 0.46858494716702748 0 -0.32200695450955369 0.48840862565278359 0 -0.32987443399239552 0.47516769423785971 0 -0.31870391104731738 0.47862303310617538 0 -0.3087338265938282 0.48140676030859753 0 -0.32200695450955369 0.48840862565278359 0 -0.31870391104731738 0.47862303310617538 0 -0.3087338265938282 0.48140676030859753 0 -0.31870391104731738 0.47862303310617538 0 -0.31684143562260331 0.46858494716702748 0 -0.31684143562260331 0.46858494716702748 0 -0.32297313966047753 0.4563916054492167 0 -0.33347739267942988 0.46163483110378051 0 -0.32987443399239552 0.47516769423785971 0 -0.31684143562260331 0.46858494716702748 0 -0.33347739267942988 0.46163483110378051 0 -0.3106014077299023 0.45452137664490028 0 -0.31684143562260331 0.46858494716702748 0 -0.32297313966047753 0.4563916054492167 0 -0.32353211865850812 0.43458959004027897 0 -0.30632691414132052 0.4383163993433048 0 -0.31918078655937843 0.44538174228416588 0 -0.3106014077299023 0.45452137664490028 0 -0.32297313966047753 0.4563916054492167 0 -0.31918078655937843 0.44538174228416588 0 -0.32297313966047753 0.4563916054492167 0 -0.31918078655937843 0.44538174228416588 0 -0.33054677899099522 0.44587833955602901 0 -0.32353211865850812 0.43458959004027897 0 -0.31918078655937843 0.44538174228416588 0 -0.33054677899099522 0.44587833955602901 0 -0.33054677899099522 0.44587833955602901 0 -0.33347739267942988 0.46163483110378051 0 -0.34964894770477822 0.45067928662270329 0 -0.33446828868340289 0.42659298183602629 0 -0.34964894770477822 0.45067928662270329 0 -0.33446828868340289 0.42659298183602629 0 -0.33054677899099522 0.44587833955602901 0 -0.34964894770477822 0.45067928662270329 0 -0.32297313966047753 0.4563916054492167 0 -0.33054677899099522 0.44587833955602901 0 -0.33347739267942988 0.46163483110378051 0 -0.33347739267942988 0.46163483110378051 0 -0.34602126269748001 0.46829680282094799 0 -0.34964894770477822 0.45067928662270329 0 -0.32987443399239552 0.47516769423785971 0 -0.33347739267942988 0.46163483110378051 0 -0.34602126269748001 0.46829680282094799 0 -0.34964894770477822 0.45067928662270329 0 -0.36482960672615539 0.47476559140937902 0 -0.34602126269748001 0.46829680282094799 0 -0.34964894770477822 0.45067928662270329 0 -0.36482960672615539 0.47476559140937902 0 -0.37388199021079188 0.43349662060099697 0 -0.35906691460358248 0.43302642702751659 0 -0.37006527051019528 0.45259743283909409 0 -0.35906691460358248 0.43302642702751659 0 -0.34964894770477822 0.45067928662270329 0 -0.37006527051019528 0.45259743283909409 0 -0.34964894770477822 0.45067928662270329 0 -0.37006527051019528 0.45259743283909409 0 -0.36482960672615539 0.47476559140937902 0 -0.39197467039505129 0.46611734068214988 0 -0.36580706476392733 0.47631646954851292 0 -0.36482960672615539 0.47476559140937902 0 -0.38413367002432852 0.48466820949397371 0 -0.36580706476392733 0.47631646954851292 0 -0.36922226322768142 0.48798439540463678 0 -0.36580706476392733 0.47631646954851292 0 -0.36482960672615539 0.47476559140937902 0 -0.36580706476392733 0.47631646954851292 0 -0.36011621247549508 0.48220740160321018 0 -0.36922226322768142 0.48798439540463678 0 -0.36580706476392733 0.47631646954851292 0 -0.36482960672615539 0.47476559140937902 0 -0.36011621247549508 0.48220740160321018 0 -0.38413367002432852 0.48466820949397371 0 -0.36922226322768142 0.48798439540463678 0 -0.37107410569903487 0.5 0 -0.36922226322768142 0.48798439540463678 0 -0.37107410569903487 0.5 0 -0.35730384704185653 0.49038344312244059 0 -0.36011621247549508 0.48220740160321018 0 -0.36922226322768142 0.48798439540463678 0 -0.35730384704185653 0.49038344312244059 0 -0.34341828061785462 0.48158710853108161 0 -0.36011621247549508 0.48220740160321018 0 -0.35730384704185653 0.49038344312244059 0 -0.37107410569903487 0.5 0 -0.35730384704185653 0.49038344312244059 0 -0.34397319473301619 0.5 0 -0.34341828061785462 0.48158710853108161 0 -0.35730384704185653 0.49038344312244059 0 -0.34397319473301619 0.5 0 -0.34341828061785462 0.48158710853108161 0 -0.36482960672615539 0.47476559140937902 0 -0.36011621247549508 0.48220740160321018 0 -0.34341828061785462 0.48158710853108161 0 -0.34602126269748001 0.46829680282094799 0 -0.36482960672615539 0.47476559140937902 0 -0.34341828061785462 0.48158710853108161 0 -0.36482960672615539 0.47476559140937902 0 -0.14108182703901029 0.47856052106912539 0 -0.15218575011213231 0.48928026053456308 0 -0.15838645381207381 0.47784012782054008 0 -0.14108182703901029 0.47856052106912539 0 -0.15141758041572639 0.46790752156545012 0 -0.15838645381207381 0.47784012782054008 0 -0.14108182703901029 0.47856052106912539 0 -0.15218575011213231 0.48928026053456308 0 -0.14103512141071931 0.48261116844817892 0 -0.14108182703901029 0.47856052106912539 0 -0.15218575011213231 0.48928026053456308 0 -0.14103512141071931 0.48261116844817892 0 -0.14108182703901029 0.47856052106912539 0 -0.15218575011213231 0.48928026053456308 0 -0.14247376316698551 0.5 0 -0.1632896731852537 0.50000000000000155 0 -0.15218575011213231 0.48928026053456308 0 -0.14247376316698551 0.5 0 -0.14194011071192181 0.49099964735320722 0 -0.14103512141071931 0.48261116844817892 0 -0.15218575011213231 0.48928026053456308 0 -0.14194011071192181 0.49099964735320722 0 -0.14247376316698551 0.5 0 -0.13206580815784999 0.49210716043008701 0 -0.1216578531487173 0.50000000000000155 0 -0.13206580815784999 0.49210716043008701 0 -0.1215246548466888 0.48036061179670092 0 -0.1216578531487173 0.50000000000000155 0 -0.14103512141071931 0.48261116844817892 0 -0.13206580815784999 0.49210716043008701 0 -0.1215246548466888 0.48036061179670092 0 -0.14103512141071931 0.48261116844817892 0 -0.14194011071192181 0.49099964735320722 0 -0.13206580815784999 0.49210716043008701 0 -0.14247376316698551 0.5 0 -0.14194011071192181 0.49099964735320722 0 -0.13206580815784999 0.49210716043008701 0 -0.14103512141071931 0.48261116844817892 0 -0.14108182703901029 0.47856052106912539 0 -0.1215246548466888 0.48036061179670092 0 -0.14108182703901029 0.47856052106912539 0 -0.11987972175203609 0.45809198546251739 0 -0.1215246548466888 0.48036061179670092 0 -0.14108182703901029 0.47856052106912539 0 -0.14131813266979709 0.45806640035822538 0 -0.11987972175203609 0.45809198546251739 0 -0.14108182703901029 0.47856052106912539 0 -0.11987972175203609 0.45809198546251739 0 -0.12509104342100061 0.44188941827772182 0 -0.14131813266979709 0.45806640035822538 0 -0.11987972175203609 0.45809198546251739 0 -0.12509104342100061 0.44188941827772182 0 -0.14155443830058789 0.43757227964732542 0 -0.14131813266979709 0.45806640035822538 0 -0.14155443830058789 0.43757227964732542 0 -0.1590732886589914 0.44456462379371309 0 -0.14157918638415079 0.43542594817740249 0 -0.1590732886589914 0.44456462379371309 0 -0.1665175895587078 0.4467511244817659 0 -0.14157918638415079 0.43542594817740249 0 -0.1665175895587078 0.4467511244817659 0 -0.15486041744653839 0.43233395996053492 0 -0.14157918638415079 0.43542594817740249 0 -0.14155443830058789 0.43757227964732542 0 -0.14890115189103559 0.44846787442591368 0 -0.1590732886589914 0.44456462379371309 0 -0.1665175895587078 0.4467511244817659 0 -0.14157918638415079 0.43542594817740249 0 -0.14155443830058789 0.43757227964732542 0 -0.14890115189103559 0.44846787442591368 0 -0.14131813266979709 0.45806640035822538 0 -0.14155443830058789 0.43757227964732542 0 -0.1590732886589914 0.44456462379371309 0 -0.14155443830058789 0.43757227964732542 0 -0.14131813266979709 0.45806640035822538 0 -0.14890115189103559 0.44846787442591368 0 -0.15489186999573309 0.45643812449532861 0 -0.1590732886589914 0.44456462379371309 0 -0.14108182703901029 0.47856052106912539 0 -0.14131813266979709 0.45806640035822538 0 -0.14108182703901029 0.47856052106912539 0 -0.14131813266979709 0.45806640035822538 0 -0.15141758041572639 0.46790752156545012 0 -0.14890115189103559 0.44846787442591368 0 -0.14131813266979709 0.45806640035822538 0 -0.15489186999573309 0.45643812449532861 0 -0.14131813266979709 0.45806640035822538 0 -0.15489186999573309 0.45643812449532861 0 -0.15141758041572639 0.46790752156545012 0 -0.15489186999573309 0.45643812449532861 0 -0.15141758041572639 0.46790752156545012 0 -0.1637083375647361 0.46571847743475431 0 -0.15489186999573309 0.45643812449532861 0 -0.1637083375647361 0.46571847743475431 0 -0.16576602081972819 0.45650349861697093 0 -0.1637083375647361 0.46571847743475431 0 -0.1745644688617857 0.46423929942095737 0 -0.17520348646433229 0.47613194070040032 0 -0.1637083375647361 0.46571847743475431 0 -0.16576602081972819 0.45650349861697093 0 -0.1745644688617857 0.46423929942095737 0 -0.1590732886589914 0.44456462379371309 0 -0.17659213901739471 0.45155696794010108 0 -0.1590732886589914 0.44456462379371309 0 -0.1665175895587078 0.4467511244817659 0 -0.17659213901739471 0.45155696794010108 0 -0.16576602081972819 0.45650349861697093 0 -0.1590732886589914 0.44456462379371309 0 -0.17659213901739471 0.45155696794010108 0 -0.1665175895587078 0.4467511244817659 0 -0.1659354897241099 0.43449929542802312 0 -0.15486041744653839 0.43233395996053492 0 -0.15489186999573309 0.45643812449532861 0 -0.16576602081972819 0.45650349861697093 0 -0.1590732886589914 0.44456462379371309 0 -0.1665175895587078 0.4467511244817659 0 -0.1740586998674569 0.43899754936367941 0 -0.1659354897241099 0.43449929542802312 0 -0.1740586998674569 0.43899754936367941 0 -0.17659213901739471 0.45155696794010108 0 -0.1868590329817707 0.43357197228301869 0 -0.1665175895587078 0.4467511244817659 0 -0.1740586998674569 0.43899754936367941 0 -0.17659213901739471 0.45155696794010108 0 -0.1745644688617857 0.46423929942095737 0 -0.18738907724301901 0.4651958722260251 0 -0.17520348646433229 0.47613194070040032 0 -0.17659213901739471 0.45155696794010108 0 -0.1745644688617857 0.46423929942095737 0 -0.18738907724301901 0.4651958722260251 0 -0.16576602081972819 0.45650349861697093 0 -0.17659213901739471 0.45155696794010108 0 -0.1745644688617857 0.46423929942095737 0 -0.17520348646433229 0.47613194070040032 0 -0.17737148462513211 0.4885994124146576 0 -0.1949767913905355 0.48049775525153071 0 -0.18738907724301901 0.4651958722260251 0 -0.17520348646433229 0.47613194070040032 0 -0.1949767913905355 0.48049775525153071 0 -0.17520348646433229 0.47613194070040032 0 -0.1660045063390565 0.48636736612135473 0 -0.17737148462513211 0.4885994124146576 0 -0.17520348646433229 0.47613194070040032 0 -0.15838645381207381 0.47784012782054008 0 -0.1660045063390565 0.48636736612135473 0 -0.1637083375647361 0.46571847743475431 0 -0.17520348646433229 0.47613194070040032 0 -0.15838645381207381 0.47784012782054008 0 -0.15141758041572639 0.46790752156545012 0 -0.1637083375647361 0.46571847743475431 0 -0.15838645381207381 0.47784012782054008 0 -0.15218575011213231 0.48928026053456308 0 -0.1632896731852537 0.50000000000000155 0 -0.15218575011213231 0.48928026053456308 0 -0.15838645381207381 0.47784012782054008 0 -0.1660045063390565 0.48636736612135473 0 -0.15218575011213231 0.48928026053456308 0 -0.1632896731852537 0.50000000000000155 0 -0.1660045063390565 0.48636736612135473 0 -0.1632896731852537 0.50000000000000155 0 -0.1660045063390565 0.48636736612135473 0 -0.17737148462513211 0.4885994124146576 0 -0.1632896731852537 0.50000000000000155 0 -0.18738296574648311 0.5 0 -0.17737148462513211 0.4885994124146576 0 -0.18738296574648311 0.5 0 -0.17737148462513211 0.4885994124146576 0 -0.1949767913905355 0.48049775525153071 0 -0.18738296574648311 0.5 0 -0.1949767913905355 0.48049775525153071 0 -0.21147625830771241 0.5 0 -0.1949767913905355 0.48049775525153071 0 -0.2193327115732171 0.47785732409434201 0 -0.2030958722774939 0.45571464818868052 0 -0.1949767913905355 0.48049775525153071 0 -0.21147625830771241 0.5 0 -0.2193327115732171 0.47785732409434201 0 -0.21147625830771241 0.5 0 -0.2193327115732171 0.47785732409434201 0 -0.23556955086894171 0.50000000000000278 0 -0.2193327115732171 0.47785732409434201 0 -0.24740973726578031 0.48747235416832729 0 -0.23556955086894171 0.50000000000000278 0 -0.2193327115732171 0.47785732409434201 0 -0.23556955086894171 0.50000000000000278 0 -0.2193327115732171 0.47785732409434201 0 -0.24576275637927339 0.47027392540463459 0 -0.24740973726578031 0.48747235416832729 0 -0.26267046183496029 0.5 0 -0.24740973726578031 0.48747235416832729 0 -0.23556955086894171 0.50000000000000278 0 -0.2387971019518931 0.44325337730036979 0 -0.2489120775907421 0.45611132706247232 0 -0.22784244863720851 0.45419089524536999 0 -0.24576275637927339 0.47027392540463459 0 -0.2489120775907421 0.45611132706247232 0 -0.22784244863720851 0.45419089524536999 0 -0.2193327115732171 0.47785732409434201 0 -0.24576275637927339 0.47027392540463459 0 -0.22784244863720851 0.45419089524536999 0 -0.2387971019518931 0.44325337730036979 0 -0.22784244863720851 0.45419089524536999 0 -0.22695118484456259 0.43760496865691229 0 -0.22784244863720851 0.45419089524536999 0 -0.22695118484456259 0.43760496865691229 0 -0.21077827595677989 0.43843038173964088 0 -0.2387971019518931 0.44325337730036979 0 -0.22695118484456259 0.43760496865691229 0 -0.23717077667227929 0.4322920750106754 0 -0.22784244863720851 0.45419089524536999 0 -0.21077827595677989 0.43843038173964088 0 -0.2030958722774939 0.45571464818868052 0 -0.2193327115732171 0.47785732409434201 0 -0.22784244863720851 0.45419089524536999 0 -0.2030958722774939 0.45571464818868052 0 -0.2193327115732171 0.47785732409434201 0 -0.2030958722774939 0.45571464818868052 0 -0.18738907724301901 0.4651958722260251 0 -0.1949767913905355 0.48049775525153071 0 -0.2030958722774939 0.45571464818868052 0 -0.17659213901739471 0.45155696794010108 0 -0.18738907724301901 0.4651958722260251 0 -0.2030958722774939 0.45571464818868052 0 -0.17659213901739471 0.45155696794010108 0 -0.2030958722774939 0.45571464818868052 0 -0.1868590329817707 0.43357197228301869 0 -0.21077827595677989 0.43843038173964088 0 -0.2030958722774939 0.45571464818868052 0 -0.1868590329817707 0.43357197228301869 0 -0.2030958722774939 0.45571464818868052 0 -0.1868590329817707 0.43357197228301869 0 -0.21077827595677989 0.43843038173964088 0 -0.20038953475864499 0.42285930103310698 0 -0.1868590329817707 0.43357197228301869 0 -0.20038953475864499 0.42285930103310698 0 -0.18865851951403981 0.41114723081592358 0 -0.1868590329817707 0.43357197228301869 0 -0.20038953475864499 0.42285930103310698 0 -0.18865851951403981 0.41114723081592358 0 -0.20316386533702549 0.40742415296633488 0 -0.20038953475864499 0.42285930103310698 0 -0.20316386533702549 0.40742415296633488 0 -0.22016732100465239 0.41985811398850509 0 -0.20316386533702549 0.40742415296633488 0 -0.22016732100465239 0.41985811398850509 0 -0.21769018938602511 0.40540249138439582 0 -0.20316386533702549 0.40742415296633488 0 -0.22016732100465239 0.41985811398850509 0 -0.21077827595677989 0.43843038173964088 0 -0.20038953475864499 0.42285930103310698 0 -0.22016732100465239 0.41985811398850509 0 -0.22695118484456259 0.43760496865691229 0 -0.22016732100465239 0.41985811398850509 0 -0.23717077667227929 0.4322920750106754 0 -0.22695118484456259 0.43760496865691229 0 -0.21077827595677989 0.43843038173964088 0 -0.22016732100465239 0.41985811398850509 0 -0.22016732100465239 0.41985811398850509 0 -0.23358788463652869 0.41983625247023992 0 -0.23717077667227929 0.4322920750106754 0 -0.22016732100465239 0.41985811398850509 0 -0.23717077667227929 0.4322920750106754 0 -0.22016732100465239 0.41985811398850509 0 -0.23115288141678619 0.40759276862782062 0 -0.21769018938602511 0.40540249138439582 0 -0.22016732100465239 0.41985811398850509 0 -0.23115288141678619 0.40759276862782062 0 -0.23358788463652869 0.41983625247023992 0 -0.23115288141678619 0.40759276862782062 0 -0.2459368307481366 0.42042542405070832 0 -0.24448809762487089 0.40050868906775772 0 -0.23115288141678619 0.40759276862782062 0 -0.23358788463652869 0.41983625247023992 0 -0.2459368307481366 0.42042542405070832 0 -0.25382358621835049 0.43542260228310259 0 -0.2459368307481366 0.42042542405070832 0 -0.23717077667227929 0.4322920750106754 0 -0.25382358621835049 0.43542260228310259 0 -0.2387971019518931 0.44325337730036979 0 -0.23717077667227929 0.4322920750106754 0 -0.23358788463652869 0.41983625247023992 0 -0.2459368307481366 0.42042542405070832 0 -0.23717077667227929 0.4322920750106754 0 -0.26324903299479457 0.38988604216182182 0 -0.24074374520667241 0.38242687998337299 0 -0.24448809762487089 0.40050868906775772 0 -0.24074374520667241 0.38242687998337299 0 -0.24448809762487089 0.40050868906775772 0 -0.22634736018434309 0.39356380059118778 0 -0.23115288141678619 0.40759276862782062 0 -0.24448809762487089 0.40050868906775772 0 -0.22634736018434309 0.39356380059118778 0 -0.23115288141678619 0.40759276862782062 0 -0.22634736018434309 0.39356380059118778 0 -0.21769018938602511 0.40540249138439582 0 -0.24074374520667241 0.38242687998337299 0 -0.22634736018434309 0.39356380059118778 0 -0.21798062289891881 0.38062313327343511 0 -0.24074374520667241 0.38242687998337299 0 -0.21798062289891881 0.38062313327343511 0 -0.22441740966967141 0.36662202833489849 0 -0.21798062289891881 0.38062313327343511 0 -0.2053182195646632 0.38898911660535768 0 -0.20402060209966261 0.36833430411321649 0 -0.22634736018434309 0.39356380059118778 0 -0.21798062289891881 0.38062313327343511 0 -0.2053182195646632 0.38898911660535768 0 -0.22634736018434309 0.39356380059118778 0 -0.2053182195646632 0.38898911660535768 0 -0.21769018938602511 0.40540249138439582 0 -0.20316386533702549 0.40742415296633488 0 -0.2053182195646632 0.38898911660535768 0 -0.21769018938602511 0.40540249138439582 0 -0.20316386533702549 0.40742415296633488 0 -0.2053182195646632 0.38898911660535768 0 -0.18616040966939809 0.39499019194416529 0 -0.20316386533702549 0.40742415296633488 0 -0.18616040966939809 0.39499019194416529 0 -0.18865851951403981 0.41114723081592358 0 -0.20316386533702549 0.40742415296633488 0 -0.18616040966939809 0.39499019194416529 0 -0.2053182195646632 0.38898911660535768 0 -0.1927326532436788 0.38193994064591369 0 -0.18616040966939809 0.39499019194416529 0 -0.2053182195646632 0.38898911660535768 0 -0.1927326532436788 0.38193994064591369 0 -0.20402060209966261 0.36833430411321649 0 -0.1927326532436788 0.38193994064591369 0 -0.18374665136976759 0.37937871402705908 0 -0.18616040966939809 0.39499019194416529 0 -0.1744309637910503 0.37769149803556362 0 -0.1642142843906749 0.3789418502636645 0 -0.1838985270783616 0.39091510453828221 0 -0.1642142843906749 0.3789418502636645 0 -0.18616040966939809 0.39499019194416529 0 -0.1838985270783616 0.39091510453828221 0 -0.1927326532436788 0.38193994064591369 0 -0.18374665136976759 0.37937871402705908 0 -0.18362379452965399 0.37004657989153639 0 -0.18374665136976759 0.37937871402705908 0 -0.1744309637910503 0.37769149803556362 0 -0.1838985270783616 0.39091510453828221 0 -0.1642142843906749 0.3789418502636645 0 -0.18616040966939809 0.39499019194416529 0 -0.18374665136976759 0.37937871402705908 0 -0.1744309637910503 0.37769149803556362 0 -0.18362379452965399 0.37004657989153639 0 -0.18374665136976759 0.37937871402705908 0 -0.18616040966939809 0.39499019194416529 0 -0.18374665136976759 0.37937871402705908 0 -0.1838985270783616 0.39091510453828221 0 -0.18374665136976759 0.37937871402705908 0 -0.18616040966939809 0.39499019194416529 0 -0.1838985270783616 0.39091510453828221 0 -0.1642142843906749 0.3789418502636645 0 -0.1639919076143399 0.3974747808383628 0 -0.1489802686125267 0.38257497248127392 0 -0.1642142843906749 0.3789418502636645 0 -0.1639919076143399 0.3974747808383628 0 -0.18616040966939809 0.39499019194416529 0 -0.1744309637910503 0.37769149803556362 0 -0.1642142843906749 0.3789418502636645 0 -0.15874130784498061 0.37213542046662212 0 -0.1639919076143399 0.3974747808383628 0 -0.17750104491285451 0.40432040146684922 0 -0.17119334285363949 0.41366940226894577 0 -0.18865851951403981 0.41114723081592358 0 -0.18616040966939809 0.39499019194416529 0 -0.18865851951403981 0.41114723081592358 0 -0.17750104491285451 0.40432040146684922 0 -0.18616040966939809 0.39499019194416529 0 -0.1639919076143399 0.3974747808383628 0 -0.17750104491285451 0.40432040146684922 0 -0.18616040966939809 0.39499019194416529 0 -0.18865851951403981 0.41114723081592358 0 -0.17750104491285451 0.40432040146684922 0 -0.17119334285363949 0.41366940226894577 0 -0.18865851951403981 0.41114723081592358 0 -0.17459283461559361 0.42601523789076512 0 -0.17119334285363949 0.41366940226894577 0 -0.18865851951403981 0.41114723081592358 0 -0.1868590329817707 0.43357197228301869 0 -0.17459283461559361 0.42601523789076512 0 -0.1740586998674569 0.43899754936367941 0 -0.1868590329817707 0.43357197228301869 0 -0.17459283461559361 0.42601523789076512 0 -0.1740586998674569 0.43899754936367941 0 -0.17459283461559361 0.42601523789076512 0 -0.1659354897241099 0.43449929542802312 0 -0.17459283461559361 0.42601523789076512 0 -0.1659354897241099 0.43449929542802312 0 -0.16085192275254509 0.42420597718500008 0 -0.1659354897241099 0.43449929542802312 0 -0.16085192275254509 0.42420597718500008 0 -0.15486041744653839 0.43233395996053492 0 -0.1639919076143399 0.3974747808383628 0 -0.17119334285363949 0.41366940226894577 0 -0.1558060921739825 0.41026488178479492 0 -0.17459283461559361 0.42601523789076512 0 -0.16085192275254509 0.42420597718500008 0 -0.17119334285363949 0.41366940226894577 0 -0.16085192275254509 0.42420597718500008 0 -0.17119334285363949 0.41366940226894577 0 -0.1558060921739825 0.41026488178479492 0 -0.1558060921739825 0.41026488178479492 0 -0.1418117271851779 0.41525834053060801 0 -0.14204426798620681 0.39509073288381358 0 -0.16085192275254509 0.42420597718500008 0 -0.1558060921739825 0.41026488178479492 0 -0.1418117271851779 0.41525834053060801 0 -0.1418117271851779 0.41525834053060801 0 -0.14157918638415079 0.43542594817740249 0 -0.16085192275254509 0.42420597718500008 0 -0.1418117271851779 0.41525834053060801 0 -0.15486041744653839 0.43233395996053492 0 -0.1418117271851779 0.41525834053060801 0 -0.15486041744653839 0.43233395996053492 0 -0.14157918638415079 0.43542594817740249 0 -0.14155443830058789 0.43757227964732542 0 -0.14157918638415079 0.43542594817740249 0 -0.14155443830058789 0.43757227964732542 0 -0.14157918638415079 0.43542594817740249 0 -0.12025274126089 0.42574105579372712 0 -0.14155443830058789 0.43757227964732542 0 -0.1161249595423428 0.42742254588607831 0 -0.14157918638415079 0.43542594817740249 0 -0.12025274126089 0.42574105579372712 0 -0.1418117271851779 0.41525834053060801 0 -0.14157918638415079 0.43542594817740249 0 -0.12025274126089 0.42574105579372712 0 -0.14155443830058789 0.43757227964732542 0 -0.12025274126089 0.42574105579372712 0 -0.1161249595423428 0.42742254588607831 0 -0.12509104342100061 0.44188941827772182 0 -0.14155443830058789 0.43757227964732542 0 -0.1161249595423428 0.42742254588607831 0 -0.1418117271851779 0.41525834053060801 0 -0.1277268958593005 0.40709158096490278 0 -0.12025274126089 0.42574105579372712 0 -0.1418117271851779 0.41525834053060801 0 -0.1277268958593005 0.40709158096490278 0 -0.14204426798620681 0.39509073288381358 0 -0.1277268958593005 0.40709158096490278 0 -0.14204426798620681 0.39509073288381358 0 -0.1224972888069677 0.39405447109156733 0 -0.13238272395945991 0.37847398983736519 0 -0.1224972888069677 0.39405447109156733 0 -0.13238272395945991 0.37847398983736519 0 -0.14204426798620681 0.39509073288381358 0 -0.1224972888069677 0.39405447109156733 0 -0.13238272395945991 0.37847398983736519 0 -0.1489802686125267 0.38257497248127392 0 -0.14204426798620681 0.39509073288381358 0 -0.1639919076143399 0.3974747808383628 0 -0.1558060921739825 0.41026488178479492 0 -0.14204426798620681 0.39509073288381358 0 -0.1639919076143399 0.3974747808383628 0 -0.1489802686125267 0.38257497248127392 0 -0.14204426798620681 0.39509073288381358 0 -0.1418117271851779 0.41525834053060801 0 -0.14204426798620681 0.39509073288381358 0 -0.15552397359905151 0.35856797270850038 0 -0.1422681591119519 0.36289350858316322 0 -0.15574239997404821 0.34165669361972989 0 -0.1422681591119519 0.36289350858316322 0 -0.15574239997404821 0.34165669361972989 0 -0.13774544015442541 0.3595862213862932 0 -0.1344905665345571 0.34689990383467079 0 -0.15574239997404821 0.34165669361972989 0 -0.1422681591119519 0.36289350858316322 0 -0.13774544015442541 0.3595862213862932 0 -0.15574239997404821 0.34165669361972989 0 -0.1642142843906749 0.3789418502636645 0 -0.1422681591119519 0.36289350858316322 0 -0.13238272395945991 0.37847398983736519 0 -0.1489802686125267 0.38257497248127392 0 -0.1422681591119519 0.36289350858316322 0 -0.1642142843906749 0.3789418502636645 0 -0.1422681591119519 0.36289350858316322 0 -0.15874130784498061 0.37213542046662212 0 -0.1642142843906749 0.3789418502636645 0 -0.1489802686125267 0.38257497248127392 0 -0.1422681591119519 0.36289350858316322 0 -0.15552397359905151 0.35856797270850038 0 -0.1422681591119519 0.36289350858316322 0 -0.15874130784498061 0.37213542046662212 0 -0.1422681591119519 0.36289350858316322 0 -0.13774544015442541 0.3595862213862932 0 -0.12881796099468981 0.36725667352730101 0 -0.13238272395945991 0.37847398983736519 0 -0.12881796099468981 0.36725667352730101 0 -0.114951385737499 0.37611001703161828 0 -0.1422681591119519 0.36289350858316322 0 -0.13774544015442541 0.3595862213862932 0 -0.13238272395945991 0.37847398983736519 0 -0.1422681591119519 0.36289350858316322 0 -0.13238272395945991 0.37847398983736519 0 -0.1422681591119519 0.36289350858316322 0 -0.12881796099468981 0.36725667352730101 0 -0.13774544015442541 0.3595862213862932 0 -0.12881796099468981 0.36725667352730101 0 -0.13085154266849261 0.35745626259395852 0 -0.12881796099468981 0.36725667352730101 0 -0.13085154266849261 0.35745626259395852 0 -0.1223522029902982 0.35608225162756879 0 -0.13085154266849261 0.35745626259395852 0 -0.1344905665345571 0.34689990383467079 0 -0.1223522029902982 0.35608225162756879 0 -0.1344905665345571 0.34689990383467079 0 -0.1215793900664241 0.33965542352680428 0 -0.1223522029902982 0.35608225162756879 0 -0.13774544015442541 0.3595862213862932 0 -0.13085154266849261 0.35745626259395852 0 -0.1344905665345571 0.34689990383467079 0 -0.13871584827508379 0.32805163350527011 0 -0.1213981112161233 0.32606083512094008 0 -0.1215793900664241 0.33965542352680428 0 -0.1344905665345571 0.34689990383467079 0 -0.13871584827508379 0.32805163350527011 0 -0.1215793900664241 0.33965542352680428 0 -0.13871584827508379 0.32805163350527011 0 -0.122665507124936 0.30739316482981133 0 -0.1213981112161233 0.32606083512094008 0 -0.13871584827508379 0.32805163350527011 0 -0.1433184724342442 0.30536206331891741 0 -0.122665507124936 0.30739316482981133 0 -0.13871584827508379 0.32805163350527011 0 -0.1692166408361446 0.32041987865629651 0 -0.1433184724342442 0.30536206331891741 0 -0.1344905665345571 0.34689990383467079 0 -0.13871584827508379 0.32805163350527011 0 -0.15574239997404821 0.34165669361972989 0 -0.13871584827508379 0.32805163350527011 0 -0.15574239997404821 0.34165669361972989 0 -0.1692166408361446 0.32041987865629651 0 -0.15574239997404821 0.34165669361972989 0 -0.16882657531294051 0.33343050367394028 0 -0.16727942812343491 0.34541839291957183 0 -0.16882657531294051 0.33343050367394028 0 -0.1740652221397718 0.31676208059972089 0 -0.17253785706623809 0.33742704001517521 0 -0.15574239997404821 0.34165669361972989 0 -0.1692166408361446 0.32041987865629651 0 -0.15574239997404821 0.34165669361972989 0 -0.16882657531294051 0.33343050367394028 0 -0.1692166408361446 0.32041987865629651 0 -0.17253785706623809 0.33742704001517521 0 -0.17248005025835489 0.34536210115862542 0 -0.16727942812343491 0.34541839291957183 0 -0.16882657531294051 0.33343050367394028 0 -0.17253785706623809 0.33742704001517521 0 -0.16727942812343491 0.34541839291957183 0 -0.16882657531294051 0.33343050367394028 0 -0.1692166408361446 0.32041987865629651 0 -0.1740652221397718 0.31676208059972089 0 -0.18300185264204469 0.32280423575908729 0 -0.1740652221397718 0.31676208059972089 0 -0.17819295282042311 0.34345902717413063 0 -0.18300185264204469 0.32280423575908729 0 -0.1740652221397718 0.31676208059972089 0 -0.18269088169824049 0.29918306369286279 0 -0.18300185264204469 0.32280423575908729 0 -0.17819295282042311 0.34345902717413063 0 -0.18331282358584941 0.34642540782531189 0 -0.1740652221397718 0.31676208059972089 0 -0.17819295282042311 0.34345902717413063 0 -0.1740652221397718 0.31676208059972089 0 -0.17253785706623809 0.33742704001517521 0 -0.17819295282042311 0.34345902717413063 0 -0.18300185264204469 0.32280423575908729 0 -0.18331282358584941 0.34642540782531189 0 -0.17253785706623809 0.33742704001517521 0 -0.17819295282042311 0.34345902717413063 0 -0.17248005025835489 0.34536210115862542 0 -0.17819295282042311 0.34345902717413063 0 -0.17266476351591969 0.35237730914779941 0 -0.18362379452965399 0.37004657989153639 0 -0.17819295282042311 0.34345902717413063 0 -0.18331282358584941 0.34642540782531189 0 -0.18362379452965399 0.37004657989153639 0 -0.17819295282042311 0.34345902717413063 0 -0.18362379452965399 0.37004657989153639 0 -0.18331282358584941 0.34642540782531189 0 -0.18362379452965399 0.37004657989153639 0 -0.19396205315185269 0.35773027909378607 0 -0.18331282358584941 0.34642540782531189 0 -0.18362379452965399 0.37004657989153639 0 -0.17819295282042311 0.34345902717413063 0 -0.17266476351591969 0.35237730914779941 0 -0.17248005025835489 0.34536210115862542 0 -0.17266476351591969 0.35237730914779941 0 -0.16727942812343491 0.34541839291957183 0 -0.16404697378228 0.35342911006401911 0 -0.15552397359905151 0.35856797270850038 0 -0.15574239997404821 0.34165669361972989 0 -0.16404697378228 0.35342911006401911 0 -0.17266476351591969 0.35237730914779941 0 -0.17248005025835489 0.34536210115862542 0 -0.16727942812343491 0.34541839291957183 0 -0.17266476351591969 0.35237730914779941 0 -0.1697011683865553 0.35883091161224728 0 -0.16404697378228 0.35342911006401911 0 -0.1697011683865553 0.35883091161224728 0 -0.16404697378228 0.35342911006401911 0 -0.1633701090946704 0.36372338037626623 0 -0.15552397359905151 0.35856797270850038 0 -0.16404697378228 0.35342911006401911 0 -0.1633701090946704 0.36372338037626623 0 -0.15574239997404821 0.34165669361972989 0 -0.16727942812343491 0.34541839291957183 0 -0.16404697378228 0.35342911006401911 0 -0.15874130784498061 0.37213542046662212 0 -0.18362379452965399 0.37004657989153639 0 -0.15874130784498061 0.37213542046662212 0 -0.1633701090946704 0.36372338037626623 0 -0.18362379452965399 0.37004657989153639 0 -0.15552397359905151 0.35856797270850038 0 -0.15874130784498061 0.37213542046662212 0 -0.1633701090946704 0.36372338037626623 0 -0.17266476351591969 0.35237730914779941 0 -0.1697011683865553 0.35883091161224728 0 -0.18362379452965399 0.37004657989153639 0 -0.1697011683865553 0.35883091161224728 0 -0.1633701090946704 0.36372338037626623 0 -0.18362379452965399 0.37004657989153639 0 -0.1744309637910503 0.37769149803556362 0 -0.15874130784498061 0.37213542046662212 0 -0.18362379452965399 0.37004657989153639 0 -0.18374665136976759 0.37937871402705908 0 -0.18362379452965399 0.37004657989153639 0 -0.1927326532436788 0.38193994064591369 0 -0.18362379452965399 0.37004657989153639 0 -0.20402060209966261 0.36833430411321649 0 -0.18362379452965399 0.37004657989153639 0 -0.20402060209966261 0.36833430411321649 0 -0.18362379452965399 0.37004657989153639 0 -0.19396205315185269 0.35773027909378607 0 -0.20402060209966261 0.36833430411321649 0 -0.19396205315185269 0.35773027909378607 0 -0.208999317395312 0.3446492875548014 0 -0.20402060209966261 0.36833430411321649 0 -0.18331282358584941 0.34642540782531189 0 -0.19396205315185269 0.35773027909378607 0 -0.208999317395312 0.3446492875548014 0 -0.208999317395312 0.3446492875548014 0 -0.20402060209966261 0.36833430411321649 0 -0.22441740966967141 0.36662202833489849 0 -0.20402060209966261 0.36833430411321649 0 -0.22441740966967141 0.36662202833489849 0 -0.21798062289891881 0.38062313327343511 0 -0.20402060209966261 0.36833430411321649 0 -0.22441740966967141 0.36662202833489849 0 -0.208999317395312 0.3446492875548014 0 -0.23479591562654789 0.35148704487088239 0 -0.2313273246892763 0.33558392302215828 0 -0.208999317395312 0.3446492875548014 0 -0.22441740966967141 0.36662202833489849 0 -0.23479591562654789 0.35148704487088239 0 -0.25002058798003007 0.3320526588471332 0 -0.26243222306204511 0.35090504016953772 0 -0.23479591562654789 0.35148704487088239 0 -0.26243222306204511 0.35090504016953772 0 -0.23479591562654789 0.35148704487088239 0 -0.24481421723968019 0.36490975255658048 0 -0.22441740966967141 0.36662202833489849 0 -0.24481421723968019 0.36490975255658048 0 -0.24074374520667241 0.38242687998337299 0 -0.22441740966967141 0.36662202833489849 0 -0.24481421723968019 0.36490975255658048 0 -0.22441740966967141 0.36662202833489849 0 -0.23479591562654789 0.35148704487088239 0 -0.24481421723968019 0.36490975255658048 0 -0.25717133997193298 0.37426095615225607 0 -0.24074374520667241 0.38242687998337299 0 -0.24481421723968019 0.36490975255658048 0 -0.25616918259472732 0.30236015827283808 0 -0.25002058798003007 0.3320526588471332 0 -0.23403114015321011 0.31709209002172778 0 -0.25002058798003007 0.3320526588471332 0 -0.23479591562654789 0.35148704487088239 0 -0.2313273246892763 0.33558392302215828 0 -0.25002058798003007 0.3320526588471332 0 -0.2313273246892763 0.33558392302215828 0 -0.23403114015321011 0.31709209002172778 0 -0.208999317395312 0.3446492875548014 0 -0.2313273246892763 0.33558392302215828 0 -0.21850591254547599 0.32628872173457818 0 -0.23403114015321011 0.31709209002172778 0 -0.21850591254547599 0.32628872173457818 0 -0.21603293622121081 0.30879617143541382 0 -0.2313273246892763 0.33558392302215828 0 -0.23403114015321011 0.31709209002172778 0 -0.21850591254547599 0.32628872173457818 0 -0.21850591254547599 0.32628872173457818 0 -0.20213884426837089 0.32532213663878978 0 -0.21603293622121081 0.30879617143541382 0 -0.20213884426837089 0.32532213663878978 0 -0.19725183072938909 0.30509230858372249 0 -0.21603293622121081 0.30879617143541382 0 -0.208999317395312 0.3446492875548014 0 -0.21850591254547599 0.32628872173457818 0 -0.20213884426837089 0.32532213663878978 0 -0.18331282358584941 0.34642540782531189 0 -0.208999317395312 0.3446492875548014 0 -0.20213884426837089 0.32532213663878978 0 -0.18300185264204469 0.32280423575908729 0 -0.18331282358584941 0.34642540782531189 0 -0.20213884426837089 0.32532213663878978 0 -0.18300185264204469 0.32280423575908729 0 -0.20213884426837089 0.32532213663878978 0 -0.19725183072938909 0.30509230858372249 0 -0.19725183072938909 0.30509230858372249 0 -0.1906964717749009 0.28656541518329992 0 -0.18269088169824049 0.29918306369286279 0 -0.18300185264204469 0.32280423575908729 0 -0.19725183072938909 0.30509230858372249 0 -0.18269088169824049 0.29918306369286279 0 -0.19725183072938909 0.30509230858372249 0 -0.1906964717749009 0.28656541518329992 0 -0.20894999777156681 0.28788282879288141 0 -0.1906964717749009 0.28656541518329992 0 -0.20894999777156681 0.28788282879288141 0 -0.19560748054403571 0.27391850694798181 0 -0.19725183072938909 0.30509230858372249 0 -0.20894999777156681 0.28788282879288141 0 -0.21603293622121081 0.30879617143541382 0 -0.20894999777156681 0.28788282879288141 0 -0.21603293622121081 0.30879617143541382 0 -0.23010937568771669 0.29589673977315029 0 -0.23403114015321011 0.31709209002172778 0 -0.21603293622121081 0.30879617143541382 0 -0.23010937568771669 0.29589673977315029 0 -0.20894999777156681 0.28788282879288141 0 -0.23010937568771669 0.29589673977315029 0 -0.2234747025956966 0.27824585991597089 0 -0.23010937568771669 0.29589673977315029 0 -0.24190471242523851 0.27972751922608308 0 -0.2234747025956966 0.27824585991597089 0 -0.25616918259472732 0.30236015827283808 0 -0.24190471242523851 0.27972751922608308 0 -0.25616918259472732 0.30236015827283808 0 -0.23010937568771669 0.29589673977315029 0 -0.24190471242523851 0.27972751922608308 0 -0.25616918259472732 0.30236015827283808 0 -0.23403114015321011 0.31709209002172778 0 -0.23010937568771669 0.29589673977315029 0 -0.24943129659764751 0.26000894523212309 0 -0.24190471242523851 0.27972751922608308 0 -0.22764024225575111 0.25709488017932702 0 -0.22764024225575111 0.25709488017932702 0 -0.2468893326351202 0.24329134098969171 0 -0.24943129659764751 0.26000894523212309 0 -0.22764024225575111 0.25709488017932702 0 -0.2468893326351202 0.24329134098969171 0 -0.24190471242523851 0.27972751922608308 0 -0.22764024225575111 0.25709488017932702 0 -0.24190471242523851 0.27972751922608308 0 -0.2234747025956966 0.27824585991597089 0 -0.22764024225575111 0.25709488017932702 0 -0.2234747025956966 0.27824585991597089 0 -0.22764024225575111 0.25709488017932702 0 -0.20876918483820989 0.27062733160841262 0 -0.22764024225575111 0.25709488017932702 0 -0.21239874098331929 0.25437807278244762 0 -0.20876918483820989 0.27062733160841262 0 -0.22764024225575111 0.25709488017932702 0 -0.20876918483820989 0.27062733160841262 0 -0.21239874098331929 0.25437807278244762 0 -0.20876918483820989 0.27062733160841262 0 -0.2025020270240801 0.26019521754276942 0 -0.21239874098331929 0.25437807278244762 0 -0.2025020270240801 0.26019521754276942 0 -0.2046840695697589 0.2451395929661444 0 -0.20894999777156681 0.28788282879288141 0 -0.2234747025956966 0.27824585991597089 0 -0.20876918483820989 0.27062733160841262 0 -0.20894999777156681 0.28788282879288141 0 -0.20876918483820989 0.27062733160841262 0 -0.19560748054403571 0.27391850694798181 0 -0.19560748054403571 0.27391850694798181 0 -0.18940688912330481 0.25610334311205268 0 -0.18232207730982461 0.27116889680334472 0 -0.20876918483820989 0.27062733160841262 0 -0.19560748054403571 0.27391850694798181 0 -0.2025020270240801 0.26019521754276942 0 -0.1906964717749009 0.28656541518329992 0 -0.19560748054403571 0.27391850694798181 0 -0.18232207730982461 0.27116889680334472 0 -0.19560748054403571 0.27391850694798181 0 -0.2025020270240801 0.26019521754276942 0 -0.18940688912330481 0.25610334311205268 0 -0.2025020270240801 0.26019521754276942 0 -0.18940688912330481 0.25610334311205268 0 -0.2046840695697589 0.2451395929661444 0 -0.18940688912330481 0.25610334311205268 0 -0.17508206900779469 0.25918785244088571 0 -0.18195408303730121 0.23534357450296481 0 -0.18940688912330481 0.25610334311205268 0 -0.17508206900779469 0.25918785244088571 0 -0.18232207730982461 0.27116889680334472 0 -0.16225317791305921 0.25358582624422438 0 -0.1601147340924314 0.27132493958040771 0 -0.14746997276257359 0.25293699741112718 0 -0.17508206900779469 0.25918785244088571 0 -0.16225317791305921 0.25358582624422438 0 -0.1601147340924314 0.27132493958040771 0 -0.1601147340924314 0.27132493958040771 0 -0.18232207730982461 0.27116889680334472 0 -0.1715163911286523 0.28419500503467149 0 -0.17508206900779469 0.25918785244088571 0 -0.1601147340924314 0.27132493958040771 0 -0.18232207730982461 0.27116889680334472 0 -0.1906964717749009 0.28656541518329992 0 -0.18232207730982461 0.27116889680334472 0 -0.18269088169824049 0.29918306369286279 0 -0.18232207730982461 0.27116889680334472 0 -0.18269088169824049 0.29918306369286279 0 -0.1715163911286523 0.28419500503467149 0 -0.18232207730982461 0.27116889680334472 0 -0.18269088169824049 0.29918306369286279 0 -0.1906964717749009 0.28656541518329992 0 -0.18269088169824049 0.29918306369286279 0 -0.18300185264204469 0.32280423575908729 0 -0.18269088169824049 0.29918306369286279 0 -0.1692166408361446 0.32041987865629651 0 -0.18269088169824049 0.29918306369286279 0 -0.1692166408361446 0.32041987865629651 0 -0.1740652221397718 0.31676208059972089 0 -0.18269088169824049 0.29918306369286279 0 -0.1692166408361446 0.32041987865629651 0 -0.16093787141411231 0.2951031200620709 0 -0.1433184724342442 0.30536206331891741 0 -0.1692166408361446 0.32041987865629651 0 -0.18269088169824049 0.29918306369286279 0 -0.16093787141411231 0.2951031200620709 0 -0.18269088169824049 0.29918306369286279 0 -0.1715163911286523 0.28419500503467149 0 -0.16093787141411231 0.2951031200620709 0 -0.1601147340924314 0.27132493958040771 0 -0.1715163911286523 0.28419500503467149 0 -0.16093787141411231 0.2951031200620709 0 -0.1601147340924314 0.27132493958040771 0 -0.16093787141411231 0.2951031200620709 0 -0.140940242444347 0.28770890845956881 0 -0.16093787141411231 0.2951031200620709 0 -0.140940242444347 0.28770890845956881 0 -0.16093787141411231 0.2951031200620709 0 -0.140940242444347 0.28770890845956881 0 -0.1433184724342442 0.30536206331891741 0 -0.1433184724342442 0.30536206331891741 0 -0.12743472451084159 0.29349567440048657 0 -0.122665507124936 0.30739316482981133 0 -0.140940242444347 0.28770890845956881 0 -0.1433184724342442 0.30536206331891741 0 -0.12743472451084159 0.29349567440048657 0 -0.140940242444347 0.28770890845956881 0 -0.1209426134745812 0.28031469685706822 0 -0.140940242444347 0.28770890845956881 0 -0.12743472451084159 0.29349567440048657 0 -0.1209426134745812 0.28031469685706822 0 -0.140940242444347 0.28770890845956881 0 -0.12748957136376979 0.2697364722205553 0 -0.1209426134745812 0.28031469685706822 0 -0.140940242444347 0.28770890845956881 0 -0.1385418352730507 0.26582091200169278 0 -0.12748957136376979 0.2697364722205553 0 -0.1385418352730507 0.26582091200169278 0 -0.1252623291810667 0.25912953992318971 0 -0.13357218109292621 0.2499317644564327 0 -0.1385418352730507 0.26582091200169278 0 -0.14746997276257359 0.25293699741112718 0 -0.13357218109292621 0.2499317644564327 0 -0.1385418352730507 0.26582091200169278 0 -0.12748957136376979 0.2697364722205553 0 -0.1252623291810667 0.25912953992318971 0 -0.1252623291810667 0.25912953992318971 0 -0.13357218109292621 0.2499317644564327 0 -0.1213089330464012 0.24626659804535689 0 -0.1601147340924314 0.27132493958040771 0 -0.1385418352730507 0.26582091200169278 0 -0.14746997276257359 0.25293699741112718 0 -0.1601147340924314 0.27132493958040771 0 -0.140940242444347 0.28770890845956881 0 -0.1385418352730507 0.26582091200169278 0 -0.095230237001734636 0.27080743213428882 0 -0.101831548476812 0.26048951589785008 0 -0.1165241005361865 0.26558405137515151 0 -0.095230237001734636 0.27080743213428882 0 -0.1209426134745812 0.28031469685706822 0 -0.095230237001734636 0.27080743213428882 0 -0.101831548476812 0.26048951589785008 0 -0.101831548476812 0.26048951589785008 0 -0.112097455783086 0.24444379951602521 0 -0.096974545082976191 0.25880538532589209 0 -0.101831548476812 0.26048951589785008 0 -0.112097455783086 0.24444379951602521 0 -0.095230237001734636 0.27080743213428882 0 -0.096974545082976191 0.25880538532589209 0 -0.101831548476812 0.26048951589785008 0 -0.096974545082976191 0.25880538532589209 0 -0.101831548476812 0.26048951589785008 0 -0.101831548476812 0.26048951589785008 0 -0.1165241005361865 0.26558405137515151 0 -0.101831548476812 0.26048951589785008 0 -0.11521273165378559 0.25497892835963998 0 -0.112097455783086 0.24444379951602521 0 -0.101831548476812 0.26048951589785008 0 -0.1165241005361865 0.26558405137515151 0 -0.11521273165378559 0.25497892835963998 0 -0.1252623291810667 0.25912953992318971 0 -0.11521273165378559 0.25497892835963998 0 -0.1213089330464012 0.24626659804535689 0 -0.12748957136376979 0.2697364722205553 0 -0.1252623291810667 0.25912953992318971 0 -0.1165241005361865 0.26558405137515151 0 -0.1252623291810667 0.25912953992318971 0 -0.1165241005361865 0.26558405137515151 0 -0.11521273165378559 0.25497892835963998 0 -0.12748957136376979 0.2697364722205553 0 -0.1165241005361865 0.26558405137515151 0 -0.11826192468166601 0.27279143104315778 0 -0.095230237001734636 0.27080743213428882 0 -0.1165241005361865 0.26558405137515151 0 -0.11826192468166601 0.27279143104315778 0 -0.095230237001734636 0.27080743213428882 0 -0.11826192468166601 0.27279143104315778 0 -0.1209426134745812 0.28031469685706822 0 -0.12748957136376979 0.2697364722205553 0 -0.11826192468166601 0.27279143104315778 0 -0.1209426134745812 0.28031469685706822 0 -0.1209426134745812 0.28031469685706822 0 -0.099156256926613839 0.29556062278638268 0 -0.12743472451084159 0.29349567440048657 0 -0.1209426134745812 0.28031469685706822 0 -0.099156256926613839 0.29556062278638268 0 -0.12743472451084159 0.29349567440048657 0 -0.122665507124936 0.30739316482981133 0 -0.099156256926613839 0.29556062278638268 0 -0.1041414057358224 0.31201579539373148 0 -0.099156256926613839 0.29556062278638268 0 -0.091673901452025128 0.31746800270450398 0 -0.122665507124936 0.30739316482981133 0 -0.1041414057358224 0.31201579539373148 0 -0.099156256926613839 0.29556062278638268 0 -0.095230237001734636 0.27080743213428882 0 -0.1209426134745812 0.28031469685706822 0 -0.099156256926613839 0.29556062278638268 0 -0.081993310338176556 0.29149688165626692 0 -0.071574905525993715 0.28647654560898889 0 -0.088307373389434785 0.26824767274871397 0 -0.095230237001734636 0.27080743213428882 0 -0.099156256926613839 0.29556062278638268 0 -0.081993310338176556 0.29149688165626692 0 -0.099156256926613839 0.29556062278638268 0 -0.0773699003786468 0.31080654871569757 0 -0.091673901452025128 0.31746800270450398 0 -0.099156256926613839 0.29556062278638268 0 -0.0773699003786468 0.31080654871569757 0 -0.081993310338176556 0.29149688165626692 0 -0.0773699003786468 0.31080654871569757 0 -0.099156256926613839 0.29556062278638268 0 -0.081993310338176556 0.29149688165626692 0 -0.0773699003786468 0.31080654871569757 0 -0.081993310338176556 0.29149688165626692 0 -0.0773699003786468 0.31080654871569757 0 -0.07000108740115632 0.31024084673351238 0 -0.081993310338176556 0.29149688165626692 0 -0.07000108740115632 0.31024084673351238 0 -0.07082691849754412 0.29686868922251758 0 -0.081993310338176556 0.29149688165626692 0 -0.07000108740115632 0.31024084673351238 0 -0.06406362287003417 0.30105685935529619 0 -0.07000108740115632 0.31024084673351238 0 -0.07082691849754412 0.29686868922251758 0 -0.06406362287003417 0.30105685935529619 0 -0.07000108740115632 0.31024084673351238 0 -0.05903493703298672 0.30842013861035528 0 -0.081993310338176556 0.29149688165626692 0 -0.071574905525993715 0.28647654560898889 0 -0.07082691849754412 0.29686868922251758 0 -0.071574905525993715 0.28647654560898889 0 -0.07082691849754412 0.29686868922251758 0 -0.064150197611200194 0.29028153745804169 0 -0.06406362287003417 0.30105685935529619 0 -0.07082691849754412 0.29686868922251758 0 -0.064150197611200194 0.29028153745804169 0 -0.071574905525993715 0.28647654560898889 0 -0.064150197611200194 0.29028153745804169 0 -0.066272470786091969 0.27951596978905408 0 -0.066272470786091969 0.27951596978905408 0 -0.064867048676514966 0.26815492676469338 0 -0.075116873927680253 0.27479103085629453 0 -0.066272470786091969 0.27951596978905408 0 -0.064867048676514966 0.26815492676469338 0 -0.056753075498150757 0.28085207326825551 0 -0.064867048676514966 0.26815492676469338 0 -0.075116873927680253 0.27479103085629453 0 -0.074399806026204385 0.26466482186588819 0 -0.075116873927680253 0.27479103085629453 0 -0.079975847673146208 0.26885948770409202 0 -0.074399806026204385 0.26466482186588819 0 -0.071574905525993715 0.28647654560898889 0 -0.066272470786091969 0.27951596978905408 0 -0.075116873927680253 0.27479103085629453 0 -0.095230237001734636 0.27080743213428882 0 -0.081993310338176556 0.29149688165626692 0 -0.095230237001734636 0.27080743213428882 0 -0.081993310338176556 0.29149688165626692 0 -0.088307373389434785 0.26824767274871397 0 -0.071574905525993715 0.28647654560898889 0 -0.088307373389434785 0.26824767274871397 0 -0.071574905525993715 0.28647654560898889 0 -0.075116873927680253 0.27479103085629453 0 -0.088307373389434785 0.26824767274871397 0 -0.079975847673146208 0.26885948770409202 0 -0.084329260359261832 0.26677674789216088 0 -0.074399806026204385 0.26466482186588819 0 -0.075116873927680253 0.27479103085629453 0 -0.079975847673146208 0.26885948770409202 0 -0.088307373389434785 0.26824767274871397 0 -0.079975847673146208 0.26885948770409202 0 -0.084329260359261832 0.26677674789216088 0 -0.088307373389434785 0.26824767274871397 0 -0.095230237001734636 0.27080743213428882 0 -0.096974545082976191 0.25880538532589209 0 -0.088307373389434785 0.26824767274871397 0 -0.084329260359261832 0.26677674789216088 0 -0.088307373389434785 0.26824767274871397 0 -0.095230237001734636 0.27080743213428882 0 -0.088307373389434785 0.26824767274871397 0 -0.096974545082976191 0.25880538532589209 0 -0.073553522625709841 0.25068431627396631 0 -0.088715331182393942 0.2449718195011524 0 -0.096974545082976191 0.25880538532589209 0 -0.084329260359261832 0.26677674789216088 0 -0.073553522625709841 0.25068431627396631 0 -0.096974545082976191 0.25880538532589209 0 -0.073553522625709841 0.25068431627396631 0 -0.096974545082976191 0.25880538532589209 0 -0.088307373389434785 0.26824767274871397 0 -0.096974545082976191 0.25880538532589209 0 -0.084329260359261832 0.26677674789216088 0 -0.088307373389434785 0.26824767274871397 0 -0.084329260359261832 0.26677674789216088 0 -0.073553522625709841 0.25068431627396631 0 -0.074399806026204385 0.26466482186588819 0 -0.064867048676514966 0.26815492676469338 0 -0.073553522625709841 0.25068431627396631 0 -0.050450936449665702 0.26047062327699849 0 -0.064867048676514966 0.26815492676469338 0 -0.073553522625709841 0.25068431627396631 0 -0.074399806026204385 0.26466482186588819 0 -0.073553522625709841 0.25068431627396631 0 -0.050450936449665702 0.26047062327699849 0 -0.050132500168443887 0.2425632472220397 0 -0.064867048676514966 0.26815492676469338 0 -0.050450936449665702 0.26047062327699849 0 -0.056753075498150757 0.28085207326825551 0 -0.050450936449665702 0.26047062327699849 0 -0.056753075498150757 0.28085207326825551 0 -0.041567118232982071 0.28155035039042642 0 -0.050450936449665702 0.26047062327699849 0 -0.032664289439585513 0.26886008103247921 0 -0.041567118232982071 0.28155035039042642 0 -0.032664289439585513 0.26886008103247921 0 -0.025724023578003428 0.28484302527062832 0 -0.041567118232982071 0.28155035039042642 0 -0.050450936449665702 0.26047062327699849 0 -0.032664289439585513 0.26886008103247921 0 -0.029881977245259539 0.25372898958001938 0 -0.050450936449665702 0.26047062327699849 0 -0.029881977245259539 0.25372898958001938 0 -0.050132500168443887 0.2425632472220397 0 -0.029881977245259539 0.25372898958001938 0 -0.019473314891880141 0.26767922737850353 0 -0.0082457657602449386 0.25246627485226031 0 -0.032664289439585513 0.26886008103247921 0 -0.029881977245259539 0.25372898958001938 0 -0.019473314891880141 0.26767922737850353 0 -0.019473314891880141 0.26767922737850353 0 -0.0042610585373493576 0.2771562680236046 0 -0.025724023578003428 0.28484302527062832 0 -0.032664289439585513 0.26886008103247921 0 -0.019473314891880141 0.26767922737850353 0 -0.025724023578003428 0.28484302527062832 0 -0.019473314891880141 0.26767922737850353 0 -0.0042610585373493576 0.2771562680236046 0 -0.0082457657602449386 0.25246627485226031 0 -0.0042610585373493576 0.2771562680236046 0 -0.0082457657602449386 0.25246627485226031 0 0.0071094060709509964 0.26564087220093879 0 -0.0069555348311276686 0.31079851600377723 0 -0.00058836015198596755 0.32088344941533808 0 0.0054341821912287152 0.30403492879740468 0 -0.013098506886936411 0.29875518722530359 0 -0.0069555348311276686 0.31079851600377723 0 0.0054341821912287152 0.30403492879740468 0 -0.013098506886936411 0.29875518722530359 0 -0.0069555348311276686 0.31079851600377723 0 -0.020687787070248039 0.31403805852116051 0 -0.0042610585373493576 0.2771562680236046 0 -0.013098506886936411 0.29875518722530359 0 -0.025724023578003428 0.28484302527062832 0 -0.0042610585373493576 0.2771562680236046 0 -0.013098506886936411 0.29875518722530359 0 0.0054341821912287152 0.30403492879740468 0 -0.013098506886936411 0.29875518722530359 0 -0.025724023578003428 0.28484302527062832 0 -0.02904570801181227 0.30414560716861699 0 -0.013098506886936411 0.29875518722530359 0 -0.02904570801181227 0.30414560716861699 0 -0.020687787070248039 0.31403805852116051 0 -0.02904570801181227 0.30414560716861699 0 -0.034308890996313193 0.31619803717231232 0 -0.020687787070248039 0.31403805852116051 0 -0.02904570801181227 0.30414560716861699 0 -0.04581664775108537 0.30961879620062571 0 -0.039958169045478269 0.29575445567546388 0 -0.02904570801181227 0.30414560716861699 0 -0.04581664775108537 0.30961879620062571 0 -0.034308890996313193 0.31619803717231232 0 -0.025724023578003428 0.28484302527062832 0 -0.02904570801181227 0.30414560716861699 0 -0.039958169045478269 0.29575445567546388 0 -0.025724023578003428 0.28484302527062832 0 -0.039958169045478269 0.29575445567546388 0 -0.041567118232982071 0.28155035039042642 0 -0.039958169045478269 0.29575445567546388 0 -0.041567118232982071 0.28155035039042642 0 -0.055410192489386563 0.29691908750413831 0 -0.056753075498150757 0.28085207326825551 0 -0.041567118232982071 0.28155035039042642 0 -0.055410192489386563 0.29691908750413831 0 -0.064150197611200194 0.29028153745804169 0 -0.056753075498150757 0.28085207326825551 0 -0.055410192489386563 0.29691908750413831 0 -0.06406362287003417 0.30105685935529619 0 -0.064150197611200194 0.29028153745804169 0 -0.055410192489386563 0.29691908750413831 0 -0.064150197611200194 0.29028153745804169 0 -0.066272470786091969 0.27951596978905408 0 -0.056753075498150757 0.28085207326825551 0 -0.04581664775108537 0.30961879620062571 0 -0.055410192489386563 0.29691908750413831 0 -0.05903493703298672 0.30842013861035528 0 -0.04581664775108537 0.30961879620062571 0 -0.039958169045478269 0.29575445567546388 0 -0.055410192489386563 0.29691908750413831 0 -0.06406362287003417 0.30105685935529619 0 -0.055410192489386563 0.29691908750413831 0 -0.05903493703298672 0.30842013861035528 0 -0.04581664775108537 0.30961879620062571 0 -0.05999398685661865 0.32296608029812152 0 -0.042756171354298787 0.3224483405388896 0 -0.05999398685661865 0.32296608029812152 0 -0.04261807333459134 0.33512561188054663 0 -0.042756171354298787 0.3224483405388896 0 -0.04581664775108537 0.30961879620062571 0 -0.05903493703298672 0.30842013861035528 0 -0.05999398685661865 0.32296608029812152 0 -0.05999398685661865 0.32296608029812152 0 -0.056804034856699187 0.33429177223338907 0 -0.04261807333459134 0.33512561188054663 0 -0.056804034856699187 0.33429177223338907 0 -0.046192251460743447 0.34598703554363702 0 -0.071259793987160716 0.33632540193228971 0 -0.046192251460743447 0.34598703554363702 0 -0.071259793987160716 0.33632540193228971 0 -0.05999398685661865 0.32296608029812152 0 -0.04261807333459134 0.33512561188054663 0 -0.05999398685661865 0.32296608029812152 0 -0.056804034856699187 0.33429177223338907 0 -0.064831017760781137 0.32924814232959693 0 -0.056804034856699187 0.33429177223338907 0 -0.04261807333459134 0.33512561188054663 0 -0.046192251460743447 0.34598703554363702 0 -0.04261807333459134 0.33512561188054663 0 -0.034276320251641283 0.34282206612864702 0 -0.046192251460743447 0.34598703554363702 0 -0.04261807333459134 0.33512561188054663 0 -0.034276320251641283 0.34282206612864702 0 -0.031043257832885369 0.32833317714284199 0 -0.04261807333459134 0.33512561188054663 0 -0.042756171354298787 0.3224483405388896 0 -0.031043257832885369 0.32833317714284199 0 -0.04581664775108537 0.30961879620062571 0 -0.042756171354298787 0.3224483405388896 0 -0.034308890996313193 0.31619803717231232 0 -0.042756171354298787 0.3224483405388896 0 -0.034308890996313193 0.31619803717231232 0 -0.031043257832885369 0.32833317714284199 0 -0.020687787070248039 0.31403805852116051 0 -0.031043257832885369 0.32833317714284199 0 -0.01426308592107553 0.32709781564023149 0 -0.034308890996313193 0.31619803717231232 0 -0.020687787070248039 0.31403805852116051 0 -0.031043257832885369 0.32833317714284199 0 -0.025032962324117471 0.33875149869244531 0 -0.01426308592107553 0.32709781564023149 0 -0.014716180493599089 0.34442071988127893 0 -0.031043257832885369 0.32833317714284199 0 -0.025032962324117471 0.33875149869244531 0 -0.01426308592107553 0.32709781564023149 0 -0.034276320251641283 0.34282206612864702 0 -0.025032962324117471 0.33875149869244531 0 -0.023787543000920942 0.34541073846433867 0 -0.034276320251641283 0.34282206612864702 0 -0.031043257832885369 0.32833317714284199 0 -0.025032962324117471 0.33875149869244531 0 -0.025032962324117471 0.33875149869244531 0 -0.014716180493599089 0.34442071988127893 0 -0.023787543000920942 0.34541073846433867 0 -0.0025616559074486049 0.3329031852911295 0 -0.01426308592107553 0.32709781564023149 0 -0.014716180493599089 0.34442071988127893 0 -0.0025616559074486049 0.3329031852911295 0 -0.002583240235104544 0.34489224502179239 0 -0.014716180493599089 0.34442071988127893 0 -0.0069555348311276686 0.31079851600377723 0 -0.020687787070248039 0.31403805852116051 0 -0.01426308592107553 0.32709781564023149 0 -0.0025616559074486049 0.3329031852911295 0 -0.00058836015198596755 0.32088344941533808 0 -0.01426308592107553 0.32709781564023149 0 -0.0069555348311276686 0.31079851600377723 0 -0.00058836015198596755 0.32088344941533808 0 -0.01426308592107553 0.32709781564023149 0 -0.012102714267097759 0.36590539057294968 0 -0.001064505034491721 0.37161458349227261 0 0.0039428335920915006 0.36531030276633031 0 -0.021124708934325921 0.35564866915498361 0 0.0039428335920915006 0.36531030276633031 0 -0.001064505034491721 0.37161458349227261 0 -0.017677659244944521 0.37122807787390621 0 -0.017803283764421592 0.37921609746689411 0 -0.012102714267097759 0.36590539057294968 0 -0.001064505034491721 0.37161458349227261 0 -0.017677659244944521 0.37122807787390621 0 -0.012102714267097759 0.36590539057294968 0 -0.021124708934325921 0.35564866915498361 0 0.0039428335920915006 0.36531030276633031 0 -0.0064988099748367559 0.35299106404641623 0 -0.021124708934325921 0.35564866915498361 0 0.0039428335920915006 0.36531030276633031 0 -0.0064988099748367559 0.35299106404641623 0 -0.002583240235104544 0.34489224502179239 0 0.0032447233134405931 0.35422125060834359 0 -0.0064988099748367559 0.35299106404641623 0 -0.002583240235104544 0.34489224502179239 0 -0.014716180493599089 0.34442071988127893 0 -0.0064988099748367559 0.35299106404641623 0 -0.014716180493599089 0.34442071988127893 0 -0.021124708934325921 0.35564866915498361 0 -0.021124708934325921 0.35564866915498361 0 -0.03312405361854439 0.36059385714354403 0 -0.039104805720823227 0.35618275869992938 0 -0.014716180493599089 0.34442071988127893 0 -0.021124708934325921 0.35564866915498361 0 -0.023787543000920942 0.34541073846433867 0 -0.034276320251641283 0.34282206612864702 0 -0.021124708934325921 0.35564866915498361 0 -0.023787543000920942 0.34541073846433867 0 -0.021124708934325921 0.35564866915498361 0 -0.0246585823330631 0.36616539344166837 0 -0.03312405361854439 0.36059385714354403 0 -0.0246585823330631 0.36616539344166837 0 -0.033447590357386023 0.36570071259042941 0 -0.03312405361854439 0.36059385714354403 0 -0.012102714267097759 0.36590539057294968 0 -0.021124708934325921 0.35564866915498361 0 -0.0246585823330631 0.36616539344166837 0 -0.017677659244944521 0.37122807787390621 0 -0.032897312064139907 0.37411907212457252 0 -0.017803283764421592 0.37921609746689411 0 -0.012102714267097759 0.36590539057294968 0 -0.0246585823330631 0.36616539344166837 0 -0.017677659244944521 0.37122807787390621 0 -0.0246585823330631 0.36616539344166837 0 -0.017677659244944521 0.37122807787390621 0 -0.032897312064139907 0.37411907212457252 0 -0.0246585823330631 0.36616539344166837 0 -0.032897312064139907 0.37411907212457252 0 -0.0246585823330631 0.36616539344166837 0 -0.032897312064139907 0.37411907212457252 0 -0.033447590357386023 0.36570071259042941 0 -0.032897312064139907 0.37411907212457252 0 -0.059723517795068168 0.36506026769318489 0 -0.032897312064139907 0.37411907212457252 0 -0.033447590357386023 0.36570071259042941 0 -0.04311041341379776 0.36192452765193173 0 -0.032897312064139907 0.37411907212457252 0 -0.046925961112427347 0.36446589286881009 0 -0.059723517795068168 0.36506026769318489 0 -0.032897312064139907 0.37411907212457252 0 -0.049098878804771373 0.3725140996878949 0 -0.043775979817191349 0.37615739516056462 0 -0.03312405361854439 0.36059385714354403 0 -0.04311041341379776 0.36192452765193173 0 -0.039104805720823227 0.35618275869992938 0 -0.033447590357386023 0.36570071259042941 0 -0.03312405361854439 0.36059385714354403 0 -0.04311041341379776 0.36192452765193173 0 -0.032897312064139907 0.37411907212457252 0 -0.04311041341379776 0.36192452765193173 0 -0.046925961112427347 0.36446589286881009 0 -0.034276320251641283 0.34282206612864702 0 -0.021124708934325921 0.35564866915498361 0 -0.046192251460743447 0.34598703554363702 0 -0.021124708934325921 0.35564866915498361 0 -0.039104805720823227 0.35618275869992938 0 -0.046192251460743447 0.34598703554363702 0 -0.021124708934325921 0.35564866915498361 0 -0.046192251460743447 0.34598703554363702 0 -0.039104805720823227 0.35618275869992938 0 -0.046192251460743447 0.34598703554363702 0 -0.051972601176704672 0.35675970400555063 0 -0.04311041341379776 0.36192452765193173 0 -0.039104805720823227 0.35618275869992938 0 -0.051972601176704672 0.35675970400555063 0 -0.046192251460743447 0.34598703554363702 0 -0.066911938965716039 0.35448421406914471 0 -0.071259793987160716 0.33632540193228971 0 -0.046192251460743447 0.34598703554363702 0 -0.051972601176704672 0.35675970400555063 0 -0.066911938965716039 0.35448421406914471 0 -0.051972601176704672 0.35675970400555063 0 -0.059723517795068168 0.36506026769318489 0 -0.066911938965716039 0.35448421406914471 0 -0.032897312064139907 0.37411907212457252 0 -0.049098878804771373 0.3725140996878949 0 -0.059723517795068168 0.36506026769318489 0 -0.049098878804771373 0.3725140996878949 0 -0.056089193364373929 0.37273715424054699 0 -0.050724207312953518 0.37700173675436199 0 -0.051972601176704672 0.35675970400555063 0 -0.046925961112427347 0.36446589286881009 0 -0.059723517795068168 0.36506026769318489 0 -0.04311041341379776 0.36192452765193173 0 -0.051972601176704672 0.35675970400555063 0 -0.046925961112427347 0.36446589286881009 0 -0.049098878804771373 0.3725140996878949 0 -0.059723517795068168 0.36506026769318489 0 -0.056089193364373929 0.37273715424054699 0 -0.059723517795068168 0.36506026769318489 0 -0.056089193364373929 0.37273715424054699 0 -0.062564083944274151 0.37264302620600032 0 -0.062075486208271788 0.37468365416042188 0 -0.062564083944274151 0.37264302620600032 0 -0.062075486208271788 0.37468365416042188 0 -0.062564083944274151 0.37264302620600032 0 -0.064607287490063475 0.3752877934920828 0 -0.069626031180744216 0.37451783031500979 0 -0.079039419043354958 0.3748493973737258 0 -0.082597891671162132 0.35089307241393791 0 -0.062564083944274151 0.37264302620600032 0 -0.066911938965716039 0.35448421406914471 0 -0.062564083944274151 0.37264302620600032 0 -0.069626031180744216 0.37451783031500979 0 -0.064607287490063475 0.3752877934920828 0 -0.062564083944274151 0.37264302620600032 0 -0.069626031180744216 0.37451783031500979 0 -0.082597891671162132 0.35089307241393791 0 -0.062564083944274151 0.37264302620600032 0 -0.082597891671162132 0.35089307241393791 0 -0.059723517795068168 0.36506026769318489 0 -0.062564083944274151 0.37264302620600032 0 -0.066911938965716039 0.35448421406914471 0 -0.090941745129797052 0.36956363188929697 0 -0.082597891671162132 0.35089307241393791 0 -0.097939085056313616 0.35825468271447503 0 -0.079039419043354958 0.3748493973737258 0 -0.090941745129797052 0.36956363188929697 0 -0.082597891671162132 0.35089307241393791 0 -0.082597891671162132 0.35089307241393791 0 -0.097939085056313616 0.35825468271447503 0 -0.099795521962392192 0.34663223796478099 0 -0.066911938965716039 0.35448421406914471 0 -0.071259793987160716 0.33632540193228971 0 -0.082597891671162132 0.35089307241393791 0 -0.066911938965716039 0.35448421406914471 0 -0.079003984513522238 0.34200566120660753 0 -0.066911938965716039 0.35448421406914471 0 -0.071259793987160716 0.33632540193228971 0 -0.079003984513522238 0.34200566120660753 0 -0.062564083944274151 0.37264302620600032 0 -0.082597891671162132 0.35089307241393791 0 -0.066911938965716039 0.35448421406914471 0 -0.056804034856699187 0.33429177223338907 0 -0.064831017760781137 0.32924814232959693 0 -0.071259793987160716 0.33632540193228971 0 -0.071259793987160716 0.33632540193228971 0 -0.079659291821908368 0.33308803351003258 0 -0.071259793987160716 0.33632540193228971 0 -0.079003984513522238 0.34200566120660753 0 -0.079659291821908368 0.33308803351003258 0 -0.0773699003786468 0.31080654871569757 0 -0.07000108740115632 0.31024084673351238 0 -0.05999398685661865 0.32296608029812152 0 -0.0773699003786468 0.31080654871569757 0 -0.071259793987160716 0.33632540193228971 0 -0.0773699003786468 0.31080654871569757 0 -0.071259793987160716 0.33632540193228971 0 -0.079659291821908368 0.33308803351003258 0 -0.0773699003786468 0.31080654871569757 0 -0.05999398685661865 0.32296608029812152 0 -0.0773699003786468 0.31080654871569757 0 -0.064831017760781137 0.32924814232959693 0 -0.071259793987160716 0.33632540193228971 0 -0.0773699003786468 0.31080654871569757 0 -0.05999398685661865 0.32296608029812152 0 -0.064831017760781137 0.32924814232959693 0 -0.07000108740115632 0.31024084673351238 0 -0.05903493703298672 0.30842013861035528 0 -0.05999398685661865 0.32296608029812152 0 -0.091673901452025128 0.31746800270450398 0 -0.079659291821908368 0.33308803351003258 0 -0.1026316993980491 0.32914311862187462 0 -0.0773699003786468 0.31080654871569757 0 -0.091673901452025128 0.31746800270450398 0 -0.079659291821908368 0.33308803351003258 0 -0.082597891671162132 0.35089307241393791 0 -0.1026316993980491 0.32914311862187462 0 -0.082597891671162132 0.35089307241393791 0 -0.079003984513522238 0.34200566120660753 0 -0.1026316993980491 0.32914311862187462 0 -0.079003984513522238 0.34200566120660753 0 -0.079659291821908368 0.33308803351003258 0 -0.1026316993980491 0.32914311862187462 0 -0.082597891671162132 0.35089307241393791 0 -0.1026316993980491 0.32914311862187462 0 -0.099795521962392192 0.34663223796478099 0 -0.1026316993980491 0.32914311862187462 0 -0.11309959964963499 0.35023802862820708 0 -0.099795521962392192 0.34663223796478099 0 -0.1041414057358224 0.31201579539373148 0 -0.091673901452025128 0.31746800270450398 0 -0.1026316993980491 0.32914311862187462 0 -0.122665507124936 0.30739316482981133 0 -0.1041414057358224 0.31201579539373148 0 -0.1026316993980491 0.32914311862187462 0 -0.122665507124936 0.30739316482981133 0 -0.1026316993980491 0.32914311862187462 0 -0.1213981112161233 0.32606083512094008 0 -0.122665507124936 0.30739316482981133 0 -0.1026316993980491 0.32914311862187462 0 -0.1026316993980491 0.32914311862187462 0 -0.1215793900664241 0.33965542352680428 0 -0.11309959964963499 0.35023802862820708 0 -0.1026316993980491 0.32914311862187462 0 -0.1213981112161233 0.32606083512094008 0 -0.1215793900664241 0.33965542352680428 0 -0.1215793900664241 0.33965542352680428 0 -0.11309959964963499 0.35023802862820708 0 -0.1223522029902982 0.35608225162756879 0 -0.11309959964963499 0.35023802862820708 0 -0.1223522029902982 0.35608225162756879 0 -0.1091573093543224 0.361674516205302 0 -0.12881796099468981 0.36725667352730101 0 -0.1223522029902982 0.35608225162756879 0 -0.11881971476920231 0.36528086459794751 0 -0.12881796099468981 0.36725667352730101 0 -0.11881971476920231 0.36528086459794751 0 -0.114951385737499 0.37611001703161828 0 -0.11881971476920231 0.36528086459794751 0 -0.1091573093543224 0.361674516205302 0 -0.114951385737499 0.37611001703161828 0 -0.1223522029902982 0.35608225162756879 0 -0.11881971476920231 0.36528086459794751 0 -0.1091573093543224 0.361674516205302 0 -0.1091573093543224 0.361674516205302 0 -0.1012990589455684 0.36953412384373102 0 -0.097939085056313616 0.35825468271447503 0 -0.1091573093543224 0.361674516205302 0 -0.1012990589455684 0.36953412384373102 0 -0.114951385737499 0.37611001703161828 0 -0.090941745129797052 0.36956363188929697 0 -0.1012990589455684 0.36953412384373102 0 -0.098890550417286477 0.38099249480062602 0 -0.090941745129797052 0.36956363188929697 0 -0.1012990589455684 0.36953412384373102 0 -0.097939085056313616 0.35825468271447503 0 -0.11309959964963499 0.35023802862820708 0 -0.097939085056313616 0.35825468271447503 0 -0.099795521962392192 0.34663223796478099 0 -0.11309959964963499 0.35023802862820708 0 -0.1091573093543224 0.361674516205302 0 -0.097939085056313616 0.35825468271447503 0 -0.094424665366596924 0.39634464281418252 0 -0.11202845405726 0.40531330452479791 0 -0.098926296137628822 0.41605616341005208 0 -0.1085605322944487 0.39079571404043828 0 -0.094424665366596924 0.39634464281418252 0 -0.11202845405726 0.40531330452479791 0 -0.1085605322944487 0.39079571404043828 0 -0.098890550417286477 0.38099249480062602 0 -0.114951385737499 0.37611001703161828 0 -0.1085605322944487 0.39079571404043828 0 -0.094424665366596924 0.39634464281418252 0 -0.098890550417286477 0.38099249480062602 0 -0.1012990589455684 0.36953412384373102 0 -0.098890550417286477 0.38099249480062602 0 -0.114951385737499 0.37611001703161828 0 -0.1085605322944487 0.39079571404043828 0 -0.114951385737499 0.37611001703161828 0 -0.1224972888069677 0.39405447109156733 0 -0.13238272395945991 0.37847398983736519 0 -0.114951385737499 0.37611001703161828 0 -0.1224972888069677 0.39405447109156733 0 -0.1277268958593005 0.40709158096490278 0 -0.1224972888069677 0.39405447109156733 0 -0.11202845405726 0.40531330452479791 0 -0.1085605322944487 0.39079571404043828 0 -0.1224972888069677 0.39405447109156733 0 -0.11202845405726 0.40531330452479791 0 -0.11202845405726 0.40531330452479791 0 -0.12025274126089 0.42574105579372712 0 -0.098926296137628822 0.41605616341005208 0 -0.12025274126089 0.42574105579372712 0 -0.098926296137628822 0.41605616341005208 0 -0.1277268958593005 0.40709158096490278 0 -0.11202845405726 0.40531330452479791 0 -0.12025274126089 0.42574105579372712 0 -0.12025274126089 0.42574105579372712 0 -0.1161249595423428 0.42742254588607831 0 -0.098926296137628822 0.41605616341005208 0 -0.12509104342100061 0.44188941827772182 0 -0.1161249595423428 0.42742254588607831 0 -0.098677616465060528 0.43762344985591101 0 -0.1161249595423428 0.42742254588607831 0 -0.090695480784097504 0.41727281212483158 0 -0.1161249595423428 0.42742254588607831 0 -0.090695480784097504 0.41727281212483158 0 -0.098677616465060528 0.43762344985591101 0 -0.1161249595423428 0.42742254588607831 0 -0.098926296137628822 0.41605616341005208 0 -0.090695480784097504 0.41727281212483158 0 -0.098926296137628822 0.41605616341005208 0 -0.077599851014367602 0.40637127102637732 0 -0.094424665366596924 0.39634464281418252 0 -0.098926296137628822 0.41605616341005208 0 -0.077599851014367602 0.40637127102637732 0 -0.098926296137628822 0.41605616341005208 0 -0.090695480784097504 0.41727281212483158 0 -0.077599851014367602 0.40637127102637732 0 -0.090695480784097504 0.41727281212483158 0 -0.077599851014367602 0.40637127102637732 0 -0.077475511178084946 0.4171549142493044 0 -0.077475511178084946 0.4171549142493044 0 -0.098677616465060528 0.43762344985591101 0 -0.090695480784097504 0.41727281212483158 0 -0.077475511178084946 0.4171549142493044 0 -0.098677616465060528 0.43762344985591101 0 -0.077475511178084946 0.4171549142493044 0 -0.078698858269308614 0.44343419105434712 0 -0.098677616465060528 0.43762344985591101 0 -0.077475511178084946 0.4171549142493044 0 -0.059178928229814701 0.4365201208845606 0 -0.055106871557328428 0.42305161159228227 0 -0.077475511178084946 0.4171549142493044 0 -0.059178928229814701 0.4365201208845606 0 -0.078698858269308614 0.44343419105434712 0 -0.077475511178084946 0.4171549142493044 0 -0.056273405891107527 0.39668637864269979 0 -0.077599851014367602 0.40637127102637732 0 -0.077475511178084946 0.4171549142493044 0 -0.056273405891107527 0.39668637864269979 0 -0.077599851014367602 0.40637127102637732 0 -0.056273405891107527 0.39668637864269979 0 -0.077599851014367602 0.40637127102637732 0 -0.078331801269405671 0.3911923311589619 0 -0.056273405891107527 0.39668637864269979 0 -0.094424665366596924 0.39634464281418252 0 -0.077599851014367602 0.40637127102637732 0 -0.078331801269405671 0.3911923311589619 0 -0.094424665366596924 0.39634464281418252 0 -0.078331801269405671 0.3911923311589619 0 -0.087166581823546807 0.38268142547449258 0 -0.079039419043354958 0.3748493973737258 0 -0.078331801269405671 0.3911923311589619 0 -0.087166581823546807 0.38268142547449258 0 -0.090941745129797052 0.36956363188929697 0 -0.098890550417286477 0.38099249480062602 0 -0.087166581823546807 0.38268142547449258 0 -0.094424665366596924 0.39634464281418252 0 -0.098890550417286477 0.38099249480062602 0 -0.087166581823546807 0.38268142547449258 0 -0.079039419043354958 0.3748493973737258 0 -0.090941745129797052 0.36956363188929697 0 -0.087166581823546807 0.38268142547449258 0 -0.078331801269405671 0.3911923311589619 0 -0.070241768304658683 0.38125320512289401 0 -0.062400115896225239 0.38328565763688038 0 -0.078331801269405671 0.3911923311589619 0 -0.047880784994249512 0.38858413326022379 0 -0.069626031180744216 0.37451783031500979 0 -0.079039419043354958 0.3748493973737258 0 -0.070241768304658683 0.38125320512289401 0 -0.078331801269405671 0.3911923311589619 0 -0.062400115896225239 0.38328565763688038 0 -0.047880784994249512 0.38858413326022379 0 -0.079039419043354958 0.3748493973737258 0 -0.078331801269405671 0.3911923311589619 0 -0.070241768304658683 0.38125320512289401 0 -0.070241768304658683 0.38125320512289401 0 -0.064210651178174066 0.37904237845721811 0 -0.062400115896225239 0.38328565763688038 0 -0.069626031180744216 0.37451783031500979 0 -0.070241768304658683 0.38125320512289401 0 -0.064210651178174066 0.37904237845721811 0 -0.069626031180744216 0.37451783031500979 0 -0.064210651178174066 0.37904237845721811 0 -0.064607287490063475 0.3752877934920828 0 -0.062075486208271788 0.37468365416042188 0 -0.064210651178174066 0.37904237845721811 0 -0.064607287490063475 0.3752877934920828 0 -0.062075486208271788 0.37468365416042188 0 -0.064210651178174066 0.37904237845721811 0 -0.059083848751135488 0.37840884602566088 0 -0.059083848751135488 0.37840884602566088 0 -0.062400115896225239 0.38328565763688038 0 -0.054293362626053041 0.38162223819359442 0 -0.062075486208271788 0.37468365416042188 0 -0.062564083944274151 0.37264302620600032 0 -0.059083848751135488 0.37840884602566088 0 -0.062564083944274151 0.37264302620600032 0 -0.054293362626053041 0.38162223819359442 0 -0.062564083944274151 0.37264302620600032 0 -0.059083848751135488 0.37840884602566088 0 -0.054293362626053041 0.38162223819359442 0 -0.056089193364373929 0.37273715424054699 0 -0.062564083944274151 0.37264302620600032 0 -0.054293362626053041 0.38162223819359442 0 -0.059083848751135488 0.37840884602566088 0 -0.054293362626053041 0.38162223819359442 0 -0.064210651178174066 0.37904237845721811 0 -0.059083848751135488 0.37840884602566088 0 -0.062400115896225239 0.38328565763688038 0 -0.062400115896225239 0.38328565763688038 0 -0.047880784994249512 0.38858413326022379 0 -0.054293362626053041 0.38162223819359442 0 -0.047880784994249512 0.38858413326022379 0 -0.054293362626053041 0.38162223819359442 0 -0.047880784994249512 0.38858413326022379 0 -0.054293362626053041 0.38162223819359442 0 -0.046254793771615982 0.3870143995575549 0 -0.047836657145122599 0.38128015361824008 0 -0.054293362626053041 0.38162223819359442 0 -0.046254793771615982 0.3870143995575549 0 -0.054293362626053041 0.38162223819359442 0 -0.046254793771615982 0.3870143995575549 0 -0.047880784994249512 0.38858413326022379 0 -0.046254793771615982 0.3870143995575549 0 -0.056089193364373929 0.37273715424054699 0 -0.050724207312953518 0.37700173675436199 0 -0.054293362626053041 0.38162223819359442 0 -0.049098878804771373 0.3725140996878949 0 -0.050724207312953518 0.37700173675436199 0 -0.043775979817191349 0.37615739516056462 0 -0.047836657145122599 0.38128015361824008 0 -0.050724207312953518 0.37700173675436199 0 -0.043775979817191349 0.37615739516056462 0 -0.047836657145122599 0.38128015361824008 0 -0.050724207312953518 0.37700173675436199 0 -0.054293362626053041 0.38162223819359442 0 -0.078331801269405671 0.3911923311589619 0 -0.047880784994249512 0.38858413326022379 0 -0.056273405891107527 0.39668637864269979 0 -0.047880784994249512 0.38858413326022379 0 -0.056273405891107527 0.39668637864269979 0 -0.045094078598563243 0.39160955589403151 0 -0.056273405891107527 0.39668637864269979 0 -0.048342871606355781 0.40097934792702961 0 -0.045094078598563243 0.39160955589403151 0 -0.047880784994249512 0.38858413326022379 0 -0.056273405891107527 0.39668637864269979 0 -0.056273405891107527 0.39668637864269979 0 -0.045094078598563243 0.39160955589403151 0 -0.056273405891107527 0.39668637864269979 0 -0.048342871606355781 0.40097934792702961 0 -0.051161828253680347 0.40954535298997258 0 -0.04342775431262437 0.39341862168501102 0 -0.028839939204686131 0.40925606551247828 0 -0.042973684961738069 0.41592643291826231 0 -0.048342871606355781 0.40097934792702961 0 -0.04342775431262437 0.39341862168501102 0 -0.042973684961738069 0.41592643291826231 0 -0.041701311968281377 0.39006881248802111 0 -0.02243782954129785 0.40299049140363558 0 -0.041701311968281377 0.39006881248802111 0 -0.03457878247319518 0.38683428693719679 0 -0.02243782954129785 0.40299049140363558 0 -0.04342775431262437 0.39341862168501102 0 -0.041701311968281377 0.39006881248802111 0 -0.02243782954129785 0.40299049140363558 0 -0.04342775431262437 0.39341862168501102 0 -0.028839939204686131 0.40925606551247828 0 -0.04342775431262437 0.39341862168501102 0 -0.042973684961738069 0.41592643291826231 0 -0.04342775431262437 0.39341862168501102 0 -0.02243782954129785 0.40299049140363558 0 -0.028839939204686131 0.40925606551247828 0 -0.048342871606355781 0.40097934792702961 0 -0.04342775431262437 0.39341862168501102 0 -0.045094078598563243 0.39160955589403151 0 -0.04342775431262437 0.39341862168501102 0 -0.045094078598563243 0.39160955589403151 0 -0.043479046219812342 0.39087612776318198 0 -0.04342775431262437 0.39341862168501102 0 -0.043479046219812342 0.39087612776318198 0 -0.045094078598563243 0.39160955589403151 0 -0.043479046219812342 0.39087612776318198 0 -0.045094078598563243 0.39160955589403151 0 -0.043479046219812342 0.39087612776318198 0 -0.045172553619539632 0.38973569244798251 0 -0.04342775431262437 0.39341862168501102 0 -0.045094078598563243 0.39160955589403151 0 -0.04342775431262437 0.39341862168501102 0 -0.043479046219812342 0.39087612776318198 0 -0.041701311968281377 0.39006881248802111 0 -0.047836657145122599 0.38128015361824008 0 -0.043775979817191349 0.37615739516056462 0 -0.043608491196287617 0.38445965616034072 0 -0.043775979817191349 0.37615739516056462 0 -0.043608491196287617 0.38445965616034072 0 -0.032897312064139907 0.37411907212457252 0 -0.043775979817191349 0.37615739516056462 0 -0.043608491196287617 0.38445965616034072 0 -0.047836657145122599 0.38128015361824008 0 -0.043608491196287617 0.38445965616034072 0 -0.046254793771615982 0.3870143995575549 0 -0.043542573639619581 0.38772713043400647 0 -0.041701311968281377 0.39006881248802111 0 -0.03457878247319518 0.38683428693719679 0 -0.043608491196287617 0.38445965616034072 0 -0.043542573639619581 0.38772713043400647 0 -0.03457878247319518 0.38683428693719679 0 -0.043608491196287617 0.38445965616034072 0 -0.046254793771615982 0.3870143995575549 0 -0.043608491196287617 0.38445965616034072 0 -0.046254793771615982 0.3870143995575549 0 -0.043542573639619581 0.38772713043400647 0 -0.043608491196287617 0.38445965616034072 0 -0.043542573639619581 0.38772713043400647 0 -0.047880784994249512 0.38858413326022379 0 -0.045094078598563243 0.39160955589403151 0 -0.047880784994249512 0.38858413326022379 0 -0.045094078598563243 0.39160955589403151 0 -0.045172553619539632 0.38973569244798251 0 -0.047880784994249512 0.38858413326022379 0 -0.045172553619539632 0.38973569244798251 0 -0.046254793771615982 0.3870143995575549 0 -0.045172553619539632 0.38973569244798251 0 -0.046254793771615982 0.3870143995575549 0 -0.043542573639619581 0.38772713043400647 0 -0.046254793771615982 0.3870143995575549 0 -0.043542573639619581 0.38772713043400647 0 -0.043479046219812342 0.39087612776318198 0 -0.045172553619539632 0.38973569244798251 0 -0.043542573639619581 0.38772713043400647 0 -0.043479046219812342 0.39087612776318198 0 -0.043542573639619581 0.38772713043400647 0 -0.043542573639619581 0.38772713043400647 0 -0.041701311968281377 0.39006881248802111 0 -0.043479046219812342 0.39087612776318198 0 -0.043542573639619581 0.38772713043400647 0 -0.041701311968281377 0.39006881248802111 0 -0.043479046219812342 0.39087612776318198 0 -0.041701311968281377 0.39006881248802111 0 -0.043542573639619581 0.38772713043400647 0 -0.03457878247319518 0.38683428693719679 0 -0.041701311968281377 0.39006881248802111 0 -0.03457878247319518 0.38683428693719679 0 -0.032897312064139907 0.37411907212457252 0 -0.043608491196287617 0.38445965616034072 0 -0.032897312064139907 0.37411907212457252 0 -0.043608491196287617 0.38445965616034072 0 -0.03457878247319518 0.38683428693719679 0 -0.03457878247319518 0.38683428693719679 0 -0.017803283764421592 0.37921609746689411 0 -0.03457878247319518 0.38683428693719679 0 -0.017803283764421592 0.37921609746689411 0 -0.019390911734903489 0.38532149046890818 0 -0.032897312064139907 0.37411907212457252 0 -0.017803283764421592 0.37921609746689411 0 -0.032897312064139907 0.37411907212457252 0 -0.03457878247319518 0.38683428693719679 0 -0.017803283764421592 0.37921609746689411 0 -0.03457878247319518 0.38683428693719679 0 -0.019390911734903489 0.38532149046890818 0 -0.019390911734903489 0.38532149046890818 0 -0.02243782954129785 0.40299049140363558 0 -0.0064316016559190746 0.3999483233353413 0 -0.03457878247319518 0.38683428693719679 0 -0.019390911734903489 0.38532149046890818 0 -0.02243782954129785 0.40299049140363558 0 -0.0064316016559190746 0.3999483233353413 0 -0.0042030409966118051 0.38380869400061962 0 0.010437450069317761 0.40463061763750507 0 -0.001064505034491721 0.37161458349227261 0 -0.017803283764421592 0.37921609746689411 0 -0.001064505034491721 0.37161458349227261 0 -0.017803283764421592 0.37921609746689411 0 -0.0042030409966118051 0.38380869400061962 0 -0.019390911734903489 0.38532149046890818 0 -0.0064316016559190746 0.3999483233353413 0 -0.0042030409966118051 0.38380869400061962 0 -0.017803283764421592 0.37921609746689411 0 -0.0042030409966118051 0.38380869400061962 0 -0.017803283764421592 0.37921609746689411 0 -0.019390911734903489 0.38532149046890818 0 -0.0042030409966118051 0.38380869400061962 0 -0.019390911734903489 0.38532149046890818 0 -0.0042030409966118051 0.38380869400061962 0 -0.014252124096747171 0.42509350933994478 0 0.0048617880261327502 0.44584476697033082 0 -0.014252124096747171 0.42509350933994478 0 -0.010454900682288101 0.44126855924159908 0 0.0048617880261327502 0.44584476697033082 0 -0.014252124096747171 0.42509350933994478 0 -0.0026301228576318379 0.42717885202372191 0 0.0048617880261327502 0.44584476697033082 0 -0.014252124096747171 0.42509350933994478 0 -0.0026301228576318379 0.42717885202372191 0 -0.003174347114314008 0.41591217031924949 0 -0.02243782954129785 0.40299049140363558 0 -0.0064316016559190746 0.3999483233353413 0 -0.003174347114314008 0.41591217031924949 0 -0.02243782954129785 0.40299049140363558 0 -0.003174347114314008 0.41591217031924949 0 -0.02243782954129785 0.40299049140363558 0 -0.014252124096747171 0.42509350933994478 0 -0.003174347114314008 0.41591217031924949 0 -0.014252124096747171 0.42509350933994478 0 -0.003174347114314008 0.41591217031924949 0 -0.014252124096747171 0.42509350933994478 0 -0.028839939204686131 0.40925606551247828 0 -0.02243782954129785 0.40299049140363558 0 -0.014252124096747171 0.42509350933994478 0 -0.028839939204686131 0.40925606551247828 0 -0.014252124096747171 0.42509350933994478 0 -0.028839939204686131 0.40925606551247828 0 -0.022470349574322469 0.43190483207895858 0 -0.014252124096747171 0.42509350933994478 0 -0.022470349574322469 0.43190483207895858 0 -0.010454900682288101 0.44126855924159908 0 -0.014252124096747171 0.42509350933994478 0 -0.022470349574322469 0.43190483207895858 0 -0.022470349574322469 0.43190483207895858 0 -0.010454900682288101 0.44126855924159908 0 -0.022470349574322469 0.43190483207895858 0 -0.042646571141636773 0.43214117214318359 0 -0.04231945732153318 0.44835591136810488 0 -0.022470349574322469 0.43190483207895858 0 -0.042646571141636773 0.43214117214318359 0 -0.042973684961738069 0.41592643291826231 0 -0.042646571141636773 0.43214117214318359 0 -0.042973684961738069 0.41592643291826231 0 -0.022470349574322469 0.43190483207895858 0 -0.042973684961738069 0.41592643291826231 0 -0.028839939204686131 0.40925606551247828 0 -0.022470349574322469 0.43190483207895858 0 -0.042973684961738069 0.41592643291826231 0 -0.077475511178084946 0.4171549142493044 0 -0.051161828253680347 0.40954535298997258 0 -0.055106871557328428 0.42305161159228227 0 -0.077475511178084946 0.4171549142493044 0 -0.056273405891107527 0.39668637864269979 0 -0.051161828253680347 0.40954535298997258 0 -0.048342871606355781 0.40097934792702961 0 -0.042973684961738069 0.41592643291826231 0 -0.051161828253680347 0.40954535298997258 0 -0.042973684961738069 0.41592643291826231 0 -0.051161828253680347 0.40954535298997258 0 -0.042973684961738069 0.41592643291826231 0 -0.051161828253680347 0.40954535298997258 0 -0.055106871557328428 0.42305161159228227 0 -0.042646571141636773 0.43214117214318359 0 -0.059178928229814701 0.4365201208845606 0 -0.055106871557328428 0.42305161159228227 0 -0.042646571141636773 0.43214117214318359 0 -0.042973684961738069 0.41592643291826231 0 -0.055106871557328428 0.42305161159228227 0 -0.042646571141636773 0.43214117214318359 0 -0.059178928229814701 0.4365201208845606 0 -0.049245987713513212 0.44319563894678482 0 -0.059178928229814701 0.4365201208845606 0 -0.050742244958162368 0.46439359559444437 0 -0.049245987713513212 0.44319563894678482 0 -0.050742244958162368 0.46439359559444437 0 -0.044608833217136261 0.45025336211807931 0 -0.059178928229814701 0.4365201208845606 0 -0.050742244958162368 0.46439359559444437 0 -0.065484051744298263 0.4513847118260722 0 -0.059178928229814701 0.4365201208845606 0 -0.049245987713513212 0.44319563894678482 0 -0.050742244958162368 0.46439359559444437 0 -0.050742244958162368 0.46439359559444437 0 -0.061707257777874093 0.47273252787991399 0 -0.073231504917427276 0.46237159316971249 0 -0.050742244958162368 0.46439359559444437 0 -0.073231504917427276 0.46237159316971249 0 -0.0419800222431604 0.46518140433549732 0 -0.04231945732153318 0.44835591136810488 0 -0.025697431038521311 0.45487791879973932 0 -0.0419800222431604 0.46518140433549732 0 -0.04231945732153318 0.44835591136810488 0 -0.0419800222431604 0.46518140433549732 0 -0.044608833217136261 0.45025336211807931 0 -0.04231945732153318 0.44835591136810488 0 -0.050742244958162368 0.46439359559444437 0 -0.0419800222431604 0.46518140433549732 0 -0.050742244958162368 0.46439359559444437 0 -0.0419800222431604 0.46518140433549732 0 -0.044608833217136261 0.45025336211807931 0 -0.022470349574322469 0.43190483207895858 0 -0.04231945732153318 0.44835591136810488 0 -0.042646571141636773 0.43214117214318359 0 -0.049245987713513212 0.44319563894678482 0 -0.04231945732153318 0.44835591136810488 0 -0.042646571141636773 0.43214117214318359 0 -0.04231945732153318 0.44835591136810488 0 -0.049245987713513212 0.44319563894678482 0 -0.044608833217136261 0.45025336211807931 0 -0.04231945732153318 0.44835591136810488 0 -0.044608833217136261 0.45025336211807931 0 -0.04231945732153318 0.44835591136810488 0 -0.022470349574322469 0.43190483207895858 0 -0.04231945732153318 0.44835591136810488 0 -0.022362297003099281 0.44511471557515531 0 -0.04231945732153318 0.44835591136810488 0 -0.022362297003099281 0.44511471557515531 0 -0.025697431038521311 0.45487791879973932 0 -0.022470349574322469 0.43190483207895858 0 -0.022362297003099281 0.44511471557515531 0 -0.010454900682288101 0.44126855924159908 0 -0.022362297003099281 0.44511471557515531 0 -0.025697431038521311 0.45487791879973932 0 -0.01311544116488466 0.453963754661173 0 -0.0419800222431604 0.46518140433549732 0 -0.025697431038521311 0.45487791879973932 0 -0.01345201465746383 0.46774634869629322 0 -0.0419800222431604 0.46518140433549732 0 -0.01345201465746383 0.46774634869629322 0 -0.025697431038521311 0.45487791879973932 0 -0.01311544116488466 0.453963754661173 0 -0.01345201465746383 0.46774634869629322 0 -0.0094095992007081283 0.46654139838691122 0 -0.010427957625441169 0.46801824073108461 0 0.0053167838454733218 0.46943384557929257 0 -0.0094095992007081283 0.46654139838691122 0 0.0015605482097463411 0.45063228640423969 0 -0.010427957625441169 0.46801824073108461 0 0.0053167838454733218 0.46943384557929257 0 -0.0094095992007081283 0.46654139838691122 0 0.0080738590363113663 0.46132998490476868 0 -0.01311544116488466 0.453963754661173 0 -0.0094095992007081283 0.46654139838691122 0 0.0015605482097463411 0.45063228640423969 0 -0.01311544116488466 0.453963754661173 0 -0.01345201465746383 0.46774634869629322 0 -0.0094095992007081283 0.46654139838691122 0 -0.01345201465746383 0.46774634869629322 0 -0.010427957625441169 0.46801824073108461 0 -0.01345201465746383 0.46774634869629322 0 -0.0094095992007081283 0.46654139838691122 0 -0.01345201465746383 0.46774634869629322 0 -0.0094095992007081283 0.46654139838691122 0 -0.010427957625441169 0.46801824073108461 0 -0.0094095992007081283 0.46654139838691122 0 -0.010427957625441169 0.46801824073108461 0 -0.01311544116488466 0.453963754661173 0 -0.010454900682288101 0.44126855924159908 0 0.0015605482097463411 0.45063228640423969 0 -0.010454900682288101 0.44126855924159908 0 0.0048617880261327502 0.44584476697033082 0 0.0015605482097463411 0.45063228640423969 0 -0.010454900682288101 0.44126855924159908 0 0.0015605482097463411 0.45063228640423969 0 -0.022362297003099281 0.44511471557515531 0 -0.01311544116488466 0.453963754661173 0 -0.010454900682288101 0.44126855924159908 0 -0.0067005321321746969 0.5 0 -0.003880604538310756 0.48346324919380129 0 -0.021454488019086362 0.48400912036554289 0 -0.01345201465746383 0.46774634869629322 0 -0.010427957625441169 0.46801824073108461 0 -0.021454488019086362 0.48400912036554289 0 -0.010427957625441169 0.46801824073108461 0 -0.003880604538310756 0.48346324919380129 0 -0.021454488019086362 0.48400912036554289 0 -0.010427957625441169 0.46801824073108461 0 -0.001026908195020756 0.47486914558720472 0 0.0053167838454733218 0.46943384557929257 0 -0.010427957625441169 0.46801824073108461 0 -0.003880604538310756 0.48346324919380129 0 -0.001026908195020756 0.47486914558720472 0 -0.010427957625441169 0.46801824073108461 0 -0.021454488019086362 0.48400912036554289 0 -0.01345201465746383 0.46774634869629322 0 -0.021454488019086362 0.48400912036554289 0 -0.032447842195153342 0.48378293317924542 0 -0.01345201465746383 0.46774634869629322 0 -0.032447842195153342 0.48378293317924542 0 -0.041758062999807367 0.47618372532725728 0 -0.01345201465746383 0.46774634869629322 0 -0.041758062999807367 0.47618372532725728 0 -0.021454488019086362 0.48400912036554289 0 -0.032481018412731863 0.50000000000000089 0 -0.033555046977316587 0.49207813668870121 0 -0.021454488019086362 0.48400912036554289 0 -0.032481018412731863 0.50000000000000089 0 -0.021454488019086362 0.48400912036554289 0 -0.033555046977316587 0.49207813668870121 0 -0.032447842195153342 0.48378293317924542 0 -0.0067005321321746969 0.5 0 -0.021454488019086362 0.48400912036554289 0 -0.032481018412731863 0.50000000000000089 0 -0.033555046977316587 0.49207813668870121 0 -0.039964975186860582 0.49999999999999872 0 -0.042139887415076342 0.49281443204190178 0 -0.032481018412731863 0.50000000000000089 0 -0.033555046977316587 0.49207813668870121 0 -0.039964975186860582 0.49999999999999872 0 -0.042139887415076342 0.49281443204190178 0 -0.041758062999807367 0.47618372532725728 0 -0.033555046977316587 0.49207813668870121 0 -0.042139887415076342 0.49281443204190178 0 -0.032447842195153342 0.48378293317924542 0 -0.042139887415076342 0.49281443204190178 0 -0.046725468384182907 0.47766439368476649 0 -0.039964975186860582 0.49999999999999872 0 -0.042139887415076342 0.49281443204190178 0 -0.053580454847170257 0.49193017513362319 0 -0.039964975186860582 0.49999999999999872 0 -0.042139887415076342 0.49281443204190178 0 -0.042139887415076342 0.49281443204190178 0 -0.046725468384182907 0.47766439368476649 0 -0.041758062999807367 0.47618372532725728 0 -0.0419800222431604 0.46518140433549732 0 -0.01345201465746383 0.46774634869629322 0 -0.041758062999807367 0.47618372532725728 0 -0.042139887415076342 0.49281443204190178 0 -0.032447842195153342 0.48378293317924542 0 -0.041758062999807367 0.47618372532725728 0 -0.046725468384182907 0.47766439368476649 0 -0.041758062999807367 0.47618372532725728 0 -0.0419800222431604 0.46518140433549732 0 -0.046725468384182907 0.47766439368476649 0 -0.041758062999807367 0.47618372532725728 0 -0.050742244958162368 0.46439359559444437 0 -0.0419800222431604 0.46518140433549732 0 -0.046725468384182907 0.47766439368476649 0 -0.0419800222431604 0.46518140433549732 0 -0.041758062999807367 0.47618372532725728 0 -0.046725468384182907 0.47766439368476649 0 -0.061707257777874093 0.47273252787991399 0 -0.071702929972361051 0.48510959578984503 0 -0.046725468384182907 0.47766439368476649 0 -0.071702929972361051 0.48510959578984503 0 -0.050742244958162368 0.46439359559444437 0 -0.046725468384182907 0.47766439368476649 0 -0.061707257777874093 0.47273252787991399 0 -0.050742244958162368 0.46439359559444437 0 -0.046725468384182907 0.47766439368476649 0 -0.046725468384182907 0.47766439368476649 0 -0.053580454847170257 0.49193017513362319 0 -0.071702929972361051 0.48510959578984503 0 -0.039964975186860582 0.49999999999999872 0 -0.053580454847170257 0.49193017513362319 0 -0.067195934507479516 0.5 0 -0.042139887415076342 0.49281443204190178 0 -0.046725468384182907 0.47766439368476649 0 -0.053580454847170257 0.49193017513362319 0 -0.053580454847170257 0.49193017513362319 0 -0.067195934507479516 0.5 0 -0.071702929972361051 0.48510959578984503 0 -0.067195934507479516 0.5 0 -0.071702929972361051 0.48510959578984503 0 -0.094426893828098324 0.5 0 -0.071702929972361051 0.48510959578984503 0 -0.096680391560538939 0.49255479789492401 0 -0.071702929972361051 0.48510959578984503 0 -0.094426893828098324 0.5 0 -0.096680391560538939 0.49255479789492401 0 -0.071702929972361051 0.48510959578984503 0 -0.094342239683345888 0.46564946071770819 0 -0.096680391560538939 0.49255479789492401 0 -0.071702929972361051 0.48510959578984503 0 -0.073231504917427276 0.46237159316971249 0 -0.094342239683345888 0.46564946071770819 0 -0.061707257777874093 0.47273252787991399 0 -0.071702929972361051 0.48510959578984503 0 -0.073231504917427276 0.46237159316971249 0 -0.050742244958162368 0.46439359559444437 0 -0.073231504917427276 0.46237159316971249 0 -0.065484051744298263 0.4513847118260722 0 -0.059178928229814701 0.4365201208845606 0 -0.065484051744298263 0.4513847118260722 0 -0.078698858269308614 0.44343419105434712 0 -0.073231504917427276 0.46237159316971249 0 -0.065484051744298263 0.4513847118260722 0 -0.078698858269308614 0.44343419105434712 0 -0.078698858269308614 0.44343419105434712 0 -0.094342239683345888 0.46564946071770819 0 -0.098677616465060528 0.43762344985591101 0 -0.073231504917427276 0.46237159316971249 0 -0.078698858269308614 0.44343419105434712 0 -0.094342239683345888 0.46564946071770819 0 -0.094342239683345888 0.46564946071770819 0 -0.098677616465060528 0.43762344985591101 0 -0.11987972175203609 0.45809198546251739 0 -0.098677616465060528 0.43762344985591101 0 -0.11987972175203609 0.45809198546251739 0 -0.12509104342100061 0.44188941827772182 0 -0.098677616465060528 0.43762344985591101 0 -0.11987972175203609 0.45809198546251739 0 -0.094342239683345888 0.46564946071770819 0 -0.11987972175203609 0.45809198546251739 0 -0.1215246548466888 0.48036061179670092 0 -0.1215246548466888 0.48036061179670092 0 -0.1216578531487173 0.50000000000000155 0 -0.096680391560538939 0.49255479789492401 0 -0.1216578531487173 0.50000000000000155 0 -0.094426893828098324 0.5 0 -0.096680391560538939 0.49255479789492401 0 -0.1216578531487173 0.50000000000000155 0 -0.096680391560538939 0.49255479789492401 0 -0.094342239683345888 0.46564946071770819 0 -0.1215246548466888 0.48036061179670092 0 -0.096680391560538939 0.49255479789492401 0 -0.16310986573530631 0.084156321085019567 0 -0.17544541039362899 0.09436804860009354 0 -0.15783765240444911 0.096274401630791262 0 -0.16310986573530631 0.084156321085019567 0 -0.15783765240444911 0.096274401630791262 0 -0.16310986573530631 0.084156321085019567 0 -0.1657815390990264 0.070802932860687437 0 -0.15463431661472629 0.07014553381523804 0 -0.16310986573530631 0.084156321085019567 0 -0.1657815390990264 0.070802932860687437 0 -0.17966236107341149 0.074300518116336353 0 -0.1657815390990264 0.070802932860687437 0 -0.17966236107341149 0.074300518116336353 0 -0.1657196129726615 0.054609358426155781 0 -0.1657815390990264 0.070802932860687437 0 -0.15463431661472629 0.07014553381523804 0 -0.1657196129726615 0.054609358426155781 0 -0.17966236107341149 0.074300518116336353 0 -0.1657196129726615 0.054609358426155781 0 -0.19326118210642521 0.060262893486061127 0 -0.17966236107341149 0.074300518116336353 0 -0.1657196129726615 0.054609358426155781 0 -0.16310986573530631 0.084156321085019567 0 -0.17966236107341149 0.074300518116336353 0 -0.17544541039362899 0.09436804860009354 0 -0.17966236107341149 0.074300518116336353 0 -0.17544541039362899 0.09436804860009354 0 -0.19360510917416149 0.093991677806516877 0 -0.17966236107341149 0.074300518116336353 0 -0.19360510917416149 0.093991677806516877 0 -0.17544541039362899 0.09436804860009354 0 -0.18934336527218601 0.1087413065502997 0 -0.19360510917416149 0.093991677806516877 0 -0.17544541039362899 0.09436804860009354 0 -0.16911410870225951 0.1087440664115976 0 -0.18934336527218601 0.1087413065502997 0 -0.18039056500006781 0.12121373119240569 0 -0.16911410870225951 0.1087440664115976 0 -0.18934336527218601 0.1087413065502997 0 -0.18039056500006781 0.12121373119240569 0 -0.16911410870225951 0.1087440664115976 0 -0.18039056500006781 0.12121373119240569 0 -0.16911410870225951 0.1087440664115976 0 -0.15507510040999009 0.1056512286087255 0 -0.18039056500006781 0.12121373119240569 0 -0.15507510040999009 0.1056512286087255 0 -0.1628447509754036 0.1248738178506951 0 -0.15507510040999009 0.1056512286087255 0 -0.15358711882774939 0.11801712706942639 0 -0.18039056500006781 0.12121373119240569 0 -0.1628447509754036 0.1248738178506951 0 -0.15507510040999009 0.1056512286087255 0 -0.17544541039362899 0.09436804860009354 0 -0.16911410870225951 0.1087440664115976 0 -0.15783765240444911 0.096274401630791262 0 -0.16911410870225951 0.1087440664115976 0 -0.15783765240444911 0.096274401630791262 0 -0.16911410870225951 0.1087440664115976 0 -0.15783765240444911 0.096274401630791262 0 -0.15507510040999009 0.1056512286087255 0 -0.15783765240444911 0.096274401630791262 0 -0.14455303356647331 0.096744639073681929 0 -0.15139402388202119 0.11108495737684999 0 -0.14455303356647331 0.096744639073681929 0 -0.15139402388202119 0.11108495737684999 0 -0.12991930243541749 0.1020465165188278 0 -0.15783765240444911 0.096274401630791262 0 -0.15507510040999009 0.1056512286087255 0 -0.15139402388202119 0.11108495737684999 0 -0.15783765240444911 0.096274401630791262 0 -0.15139402388202119 0.11108495737684999 0 -0.15139402388202119 0.11108495737684999 0 -0.12991930243541749 0.1020465165188278 0 -0.14495039535959489 0.12589551312290931 0 -0.1628447509754036 0.1248738178506951 0 -0.15358711882774939 0.11801712706942639 0 -0.14495039535959489 0.12589551312290931 0 -0.15358711882774939 0.11801712706942639 0 -0.15139402388202119 0.11108495737684999 0 -0.14495039535959489 0.12589551312290931 0 -0.15507510040999009 0.1056512286087255 0 -0.15358711882774939 0.11801712706942639 0 -0.15139402388202119 0.11108495737684999 0 -0.15139402388202119 0.11108495737684999 0 -0.14495039535959489 0.12589551312290931 0 -0.12991930243541749 0.1020465165188278 0 -0.14495039535959489 0.12589551312290931 0 -0.12991930243541749 0.1020465165188278 0 -0.14495039535959489 0.12589551312290931 0 -0.13028426483969929 0.13221647237215789 0 -0.14455303356647331 0.096744639073681929 0 -0.12991930243541749 0.1020465165188278 0 -0.13683438329036771 0.088098653177494879 0 -0.12991930243541749 0.1020465165188278 0 -0.13683438329036771 0.088098653177494879 0 -0.1248370695698198 0.083226530136874921 0 -0.13683438329036771 0.088098653177494879 0 -0.13729578978526799 0.073558919561796721 0 -0.1248370695698198 0.083226530136874921 0 -0.13683438329036771 0.088098653177494879 0 -0.14756672109485969 0.08491666059629295 0 -0.13729578978526799 0.073558919561796721 0 -0.14455303356647331 0.096744639073681929 0 -0.13683438329036771 0.088098653177494879 0 -0.14756672109485969 0.08491666059629295 0 -0.14756672109485969 0.08491666059629295 0 -0.13729578978526799 0.073558919561796721 0 -0.16310986573530631 0.084156321085019567 0 -0.14756672109485969 0.08491666059629295 0 -0.15463431661472629 0.07014553381523804 0 -0.16310986573530631 0.084156321085019567 0 -0.15783765240444911 0.096274401630791262 0 -0.14756672109485969 0.08491666059629295 0 -0.15783765240444911 0.096274401630791262 0 -0.14756672109485969 0.08491666059629295 0 -0.15783765240444911 0.096274401630791262 0 -0.14455303356647331 0.096744639073681929 0 -0.14756672109485969 0.08491666059629295 0 -0.14756672109485969 0.08491666059629295 0 -0.15463431661472629 0.07014553381523804 0 -0.13729578978526799 0.073558919561796721 0 -0.15463431661472629 0.07014553381523804 0 -0.13729578978526799 0.073558919561796721 0 -0.14428807100988511 0.057223156242914672 0 -0.13729578978526799 0.073558919561796721 0 -0.1311901693420546 0.060374133793646992 0 -0.14428807100988511 0.057223156242914672 0 -0.13729578978526799 0.073558919561796721 0 -0.12498233095038511 0.069533312171706482 0 -0.1248370695698198 0.083226530136874921 0 -0.13729578978526799 0.073558919561796721 0 -0.1311901693420546 0.060374133793646992 0 -0.12498233095038511 0.069533312171706482 0 -0.1311901693420546 0.060374133793646992 0 -0.1304591025064194 0.044551821316570157 0 -0.1169815729820268 0.057446916627697332 0 -0.1311901693420546 0.060374133793646992 0 -0.1304591025064194 0.044551821316570157 0 -0.14428807100988511 0.057223156242914672 0 -0.1304591025064194 0.044551821316570157 0 -0.1338093633065561 0.031702984145267947 0 -0.14718764802187309 0.041237794311798179 0 -0.1304591025064194 0.044551821316570157 0 -0.1338093633065561 0.031702984145267947 0 -0.120950474974805 0.030974477430810402 0 -0.14718764802187309 0.041237794311798179 0 -0.14507935476777459 0.024735833563247479 0 -0.16332082262574071 0.033969476032413119 0 -0.1338093633065561 0.031702984145267947 0 -0.14718764802187309 0.041237794311798179 0 -0.14507935476777459 0.024735833563247479 0 -0.1304591025064194 0.044551821316570157 0 -0.14718764802187309 0.041237794311798179 0 -0.14428807100988511 0.057223156242914672 0 -0.15463431661472629 0.07014553381523804 0 -0.14428807100988511 0.057223156242914672 0 -0.1657196129726615 0.054609358426155781 0 -0.14718764802187309 0.041237794311798179 0 -0.14428807100988511 0.057223156242914672 0 -0.1657196129726615 0.054609358426155781 0 -0.1273771369441013 0.0023450629401116992 0 -0.12537023626190849 0.01701499410391356 0 -0.14358534871595791 0.0085390787577918573 0 -0.14275634286812811 -0.006203461430080404 0 -0.1273771369441013 0.0023450629401116992 0 -0.14358534871595791 0.0085390787577918573 0 -0.1338093633065561 0.031702984145267947 0 -0.12537023626190849 0.01701499410391356 0 -0.14507935476777459 0.024735833563247479 0 -0.12537023626190849 0.01701499410391356 0 -0.14507935476777459 0.024735833563247479 0 -0.14358534871595791 0.0085390787577918573 0 -0.1338093633065561 0.031702984145267947 0 -0.12537023626190849 0.01701499410391356 0 -0.120950474974805 0.030974477430810402 0 -0.14507935476777459 0.024735833563247479 0 -0.14358534871595791 0.0085390787577918573 0 -0.1631610812614456 0.0141265482177085 0 -0.15796117991031841 -0.00029962151665172479 0 -0.14358534871595791 0.0085390787577918573 0 -0.1631610812614456 0.0141265482177085 0 -0.14275634286812811 -0.006203461430080404 0 -0.15796117991031841 -0.00029962151665172479 0 -0.14358534871595791 0.0085390787577918573 0 -0.15796117991031841 -0.00029962151665172479 0 -0.17967452986780849 -0.0030086181600807401 0 -0.1631610812614456 0.0141265482177085 0 -0.1631610812614456 0.0141265482177085 0 -0.18063081477410151 0.02444866588981499 0 -0.16332082262574071 0.033969476032413119 0 -0.14507935476777459 0.024735833563247479 0 -0.1631610812614456 0.0141265482177085 0 -0.16332082262574071 0.033969476032413119 0 -0.17967452986780849 -0.0030086181600807401 0 -0.1631610812614456 0.0141265482177085 0 -0.18063081477410151 0.02444866588981499 0 -0.17967452986780849 -0.0030086181600807401 0 -0.18063081477410151 0.02444866588981499 0 -0.19591489879339791 0.012499298725408061 0 -0.1657196129726615 0.054609358426155781 0 -0.16332082262574071 0.033969476032413119 0 -0.1853408533429271 0.041769259974547668 0 -0.14718764802187309 0.041237794311798179 0 -0.1657196129726615 0.054609358426155781 0 -0.16332082262574071 0.033969476032413119 0 -0.18063081477410151 0.02444866588981499 0 -0.16332082262574071 0.033969476032413119 0 -0.1853408533429271 0.041769259974547668 0 -0.1657196129726615 0.054609358426155781 0 -0.1853408533429271 0.041769259974547668 0 -0.19326118210642521 0.060262893486061127 0 -0.1853408533429271 0.041769259974547668 0 -0.19326118210642521 0.060262893486061127 0 -0.20638984228336041 0.047204147208118788 0 -0.18063081477410151 0.02444866588981499 0 -0.1853408533429271 0.041769259974547668 0 -0.2003712226561333 0.029120430419108619 0 -0.1853408533429271 0.041769259974547668 0 -0.20638984228336041 0.047204147208118788 0 -0.2003712226561333 0.029120430419108619 0 -0.20638984228336041 0.047204147208118788 0 -0.2003712226561333 0.029120430419108619 0 -0.21890969838457369 0.03387481538926377 0 -0.20638984228336041 0.047204147208118788 0 -0.2248274879423891 0.050626958701997932 0 -0.21890969838457369 0.03387481538926377 0 -0.20638984228336041 0.047204147208118788 0 -0.2248274879423891 0.050626958701997932 0 -0.21240822864659401 0.064474545157398255 0 -0.19326118210642521 0.060262893486061127 0 -0.20638984228336041 0.047204147208118788 0 -0.21240822864659401 0.064474545157398255 0 -0.17967452986780849 -0.0030086181600807401 0 -0.20680301002479959 -0.0020434230711429339 0 -0.19591489879339791 0.012499298725408061 0 -0.18063081477410151 0.02444866588981499 0 -0.19591489879339791 0.012499298725408061 0 -0.2003712226561333 0.029120430419108619 0 -0.2003712226561333 0.029120430419108619 0 -0.2150412283584397 0.01492639532749848 0 -0.21890969838457369 0.03387481538926377 0 -0.19591489879339791 0.012499298725408061 0 -0.2003712226561333 0.029120430419108619 0 -0.2150412283584397 0.01492639532749848 0 -0.20680301002479959 -0.0020434230711429339 0 -0.19591489879339791 0.012499298725408061 0 -0.2150412283584397 0.01492639532749848 0 -0.20680301002479959 -0.0020434230711429339 0 -0.2150412283584397 0.01492639532749848 0 -0.22850437187820721 0.00061554774341724197 0 -0.2150412283584397 0.01492639532749848 0 -0.22850437187820721 0.00061554774341724197 0 -0.23416676111704099 0.01917273774715204 0 -0.23416676111704099 0.01917273774715204 0 -0.21890969838457369 0.03387481538926377 0 -0.23451298379830759 0.036058925104307242 0 -0.2150412283584397 0.01492639532749848 0 -0.23416676111704099 0.01917273774715204 0 -0.21890969838457369 0.03387481538926377 0 -0.25132042997239518 0.0027134119798401068 0 -0.25642639863326749 0.02710060176493858 0 -0.23416676111704099 0.01917273774715204 0 -0.25642639863326749 0.02710060176493858 0 -0.23416676111704099 0.01917273774715204 0 -0.23451298379830759 0.036058925104307242 0 -0.25132042997239518 0.0027134119798401068 0 -0.22850437187820721 0.00061554774341724197 0 -0.23416676111704099 0.01917273774715204 0 -0.2248274879423891 0.050626958701997932 0 -0.234130504556473 0.067172247096954504 0 -0.21240822864659401 0.064474545157398255 0 -0.2248274879423891 0.050626958701997932 0 -0.21890969838457369 0.03387481538926377 0 -0.23451298379830759 0.036058925104307242 0 -0.25642639863326749 0.02710060176493858 0 -0.23451298379830759 0.036058925104307242 0 -0.24534917185526489 0.049526218608574313 0 -0.2248274879423891 0.050626958701997932 0 -0.23451298379830759 0.036058925104307242 0 -0.24534917185526489 0.049526218608574313 0 -0.26195798501385009 0.070226375813507561 0 -0.24534917185526489 0.049526218608574313 0 -0.234130504556473 0.067172247096954504 0 -0.2248274879423891 0.050626958701997932 0 -0.24534917185526489 0.049526218608574313 0 -0.234130504556473 0.067172247096954504 0 -0.26195798501385009 0.070226375813507561 0 -0.24382127576753621 0.084711863041238192 0 -0.234130504556473 0.067172247096954504 0 -0.24382127576753621 0.084711863041238192 0 -0.22568456652122221 0.099197350268968809 0 -0.24382127576753621 0.084711863041238192 0 -0.221160002309051 0.081738136999685213 0 -0.22568456652122221 0.099197350268968809 0 -0.221160002309051 0.081738136999685213 0 -0.20949418686790969 0.097522886253834359 0 -0.22568456652122221 0.099197350268968809 0 -0.24382127576753621 0.084711863041238192 0 -0.221160002309051 0.081738136999685213 0 -0.234130504556473 0.067172247096954504 0 -0.221160002309051 0.081738136999685213 0 -0.234130504556473 0.067172247096954504 0 -0.21240822864659401 0.064474545157398255 0 -0.221160002309051 0.081738136999685213 0 -0.21240822864659401 0.064474545157398255 0 -0.19789508720454749 0.077516785054754192 0 -0.221160002309051 0.081738136999685213 0 -0.19789508720454749 0.077516785054754192 0 -0.20949418686790969 0.097522886253834359 0 -0.17966236107341149 0.074300518116336353 0 -0.19789508720454749 0.077516785054754192 0 -0.19360510917416149 0.093991677806516877 0 -0.19789508720454749 0.077516785054754192 0 -0.19360510917416149 0.093991677806516877 0 -0.20949418686790969 0.097522886253834359 0 -0.19326118210642521 0.060262893486061127 0 -0.21240822864659401 0.064474545157398255 0 -0.19789508720454749 0.077516785054754192 0 -0.17966236107341149 0.074300518116336353 0 -0.19326118210642521 0.060262893486061127 0 -0.19789508720454749 0.077516785054754192 0 -0.20040659369392541 0.1193864456313013 0 -0.18934336527218601 0.1087413065502997 0 -0.2075478572749084 0.11368283749669961 0 -0.18039056500006781 0.12121373119240569 0 -0.20040659369392541 0.1193864456313013 0 -0.18934336527218601 0.1087413065502997 0 -0.19360510917416149 0.093991677806516877 0 -0.2075478572749084 0.11368283749669961 0 -0.18934336527218601 0.1087413065502997 0 -0.19360510917416149 0.093991677806516877 0 -0.2075478572749084 0.11368283749669961 0 -0.19360510917416149 0.093991677806516877 0 -0.20949418686790969 0.097522886253834359 0 -0.2075478572749084 0.11368283749669961 0 -0.2075478572749084 0.11368283749669961 0 -0.22568456652122221 0.099197350268968809 0 -0.20949418686790969 0.097522886253834359 0 -0.2075478572749084 0.11368283749669961 0 -0.22568456652122221 0.099197350268968809 0 -0.2075478572749084 0.11368283749669961 0 -0.22488407219564061 0.1186598638475915 0 -0.22370276663374011 0.1364982034250237 0 -0.20040659369392541 0.1193864456313013 0 -0.2075478572749084 0.11368283749669961 0 -0.20214902218410111 0.13458958866239301 0 -0.20040659369392541 0.1193864456313013 0 -0.2075478572749084 0.11368283749669961 0 -0.2075478572749084 0.11368283749669961 0 -0.22488407219564061 0.1186598638475915 0 -0.22568456652122221 0.099197350268968809 0 -0.22488407219564061 0.1186598638475915 0 -0.23975573915859391 0.1186480270080747 0 -0.23562440086935879 0.12869665656040569 0 -0.22488407219564061 0.1186598638475915 0 -0.22568456652122221 0.099197350268968809 0 -0.23888908650362611 0.1045060591559635 0 -0.24382127576753621 0.084711863041238192 0 -0.22568456652122221 0.099197350268968809 0 -0.23888908650362611 0.1045060591559635 0 -0.25364395357421121 0.10678394025260531 0 -0.24382127576753621 0.084711863041238192 0 -0.23888908650362611 0.1045060591559635 0 -0.25033803458298193 0.12914144363467839 0 -0.25364395357421121 0.10678394025260531 0 -0.23975573915859391 0.1186480270080747 0 -0.22488407219564061 0.1186598638475915 0 -0.23888908650362611 0.1045060591559635 0 -0.23975573915859391 0.1186480270080747 0 -0.25364395357421121 0.10678394025260531 0 -0.23888908650362611 0.1045060591559635 0 -0.23975573915859391 0.1186480270080747 0 -0.25033803458298193 0.12914144363467839 0 -0.23975573915859391 0.1186480270080747 0 -0.23562440086935879 0.12869665656040569 0 -0.25033803458298193 0.12914144363467839 0 -0.2394413917758374 0.14053574488666021 0 -0.23562440086935879 0.12869665656040569 0 -0.2394413917758374 0.14053574488666021 0 -0.23562440086935879 0.12869665656040569 0 -0.22370276663374011 0.1364982034250237 0 -0.22488407219564061 0.1186598638475915 0 -0.23562440086935879 0.12869665656040569 0 -0.22370276663374011 0.1364982034250237 0 -0.2394413917758374 0.14053574488666021 0 -0.22370276663374011 0.1364982034250237 0 -0.22390747936813421 0.14796544613238069 0 -0.22390747936813421 0.14796544613238069 0 -0.22774584105848089 0.15976823357977049 0 -0.2168312664826515 0.15850745189495519 0 -0.2394413917758374 0.14053574488666021 0 -0.22390747936813421 0.14796544613238069 0 -0.24566593655216731 0.1613413036023684 0 -0.22390747936813421 0.14796544613238069 0 -0.24566593655216731 0.1613413036023684 0 -0.26077588748637798 0.14053443996503889 0 -0.2394413917758374 0.14053574488666021 0 -0.24566593655216731 0.1613413036023684 0 -0.24566593655216731 0.1613413036023684 0 -0.2425545525554833 0.18325607046718431 0 -0.22457868183097049 0.171258732689378 0 -0.2425545525554833 0.18325607046718431 0 -0.2235130486054053 0.18492553164669809 0 -0.22457868183097049 0.171258732689378 0 -0.2425545525554833 0.18325607046718431 0 -0.2235130486054053 0.18492553164669809 0 -0.2315679775879351 0.19375458513227489 0 -0.2235130486054053 0.18492553164669809 0 -0.22457868183097049 0.171258732689378 0 -0.209750232499154 0.17791844316711489 0 -0.24566593655216731 0.1613413036023684 0 -0.22774584105848089 0.15976823357977049 0 -0.22457868183097049 0.171258732689378 0 -0.22390747936813421 0.14796544613238069 0 -0.24566593655216731 0.1613413036023684 0 -0.22774584105848089 0.15976823357977049 0 -0.22774584105848089 0.15976823357977049 0 -0.22457868183097049 0.171258732689378 0 -0.2168312664826515 0.15850745189495519 0 -0.2168312664826515 0.15850745189495519 0 -0.21186753860838101 0.16733255095299371 0 -0.20758447520558959 0.15683863127083711 0 -0.22457868183097049 0.171258732689378 0 -0.2168312664826515 0.15850745189495519 0 -0.21186753860838101 0.16733255095299371 0 -0.21186753860838101 0.16733255095299371 0 -0.209750232499154 0.17791844316711489 0 -0.20173639765426299 0.1643971743801825 0 -0.21186753860838101 0.16733255095299371 0 -0.20758447520558959 0.15683863127083711 0 -0.20173639765426299 0.1643971743801825 0 -0.20758447520558959 0.15683863127083711 0 -0.20173639765426299 0.1643971743801825 0 -0.20024290349544879 0.15519061181074151 0 -0.22457868183097049 0.171258732689378 0 -0.21186753860838101 0.16733255095299371 0 -0.209750232499154 0.17791844316711489 0 -0.19610042498268601 0.17522502183351021 0 -0.19038698318195549 0.16711234260031069 0 -0.17752183765376101 0.1775748035498933 0 -0.19610042498268601 0.17522502183351021 0 -0.19785886193094021 0.18900131099286041 0 -0.17752183765376101 0.1775748035498933 0 -0.19785886193094021 0.18900131099286041 0 -0.17752183765376101 0.1775748035498933 0 -0.209750232499154 0.17791844316711489 0 -0.19610042498268601 0.17522502183351021 0 -0.19785886193094021 0.18900131099286041 0 -0.209750232499154 0.17791844316711489 0 -0.19610042498268601 0.17522502183351021 0 -0.20173639765426299 0.1643971743801825 0 -0.20173639765426299 0.1643971743801825 0 -0.1927705130470404 0.15866088515044 0 -0.20024290349544879 0.15519061181074151 0 -0.19610042498268601 0.17522502183351021 0 -0.20173639765426299 0.1643971743801825 0 -0.19038698318195549 0.16711234260031069 0 -0.20173639765426299 0.1643971743801825 0 -0.19038698318195549 0.16711234260031069 0 -0.1927705130470404 0.15866088515044 0 -0.19038698318195549 0.16711234260031069 0 -0.1927705130470404 0.15866088515044 0 -0.18413510522225521 0.16259499244525211 0 -0.1927705130470404 0.15866088515044 0 -0.19507878308752141 0.1486405391940768 0 -0.1852646507768699 0.1545619776798173 0 -0.19507878308752141 0.1486405391940768 0 -0.18706065072040501 0.14468661846275019 0 -0.1852646507768699 0.1545619776798173 0 -0.19507878308752141 0.1486405391940768 0 -0.20024290349544879 0.15519061181074151 0 -0.20390252305447459 0.15036513687703029 0 -0.1927705130470404 0.15866088515044 0 -0.19507878308752141 0.1486405391940768 0 -0.20024290349544879 0.15519061181074151 0 -0.19507878308752141 0.1486405391940768 0 -0.202312374299252 0.1441640524023215 0 -0.19563802519160789 0.13807458821396759 0 -0.19507878308752141 0.1486405391940768 0 -0.202312374299252 0.1441640524023215 0 -0.20390252305447459 0.15036513687703029 0 -0.19507878308752141 0.1486405391940768 0 -0.19563802519160789 0.13807458821396759 0 -0.18706065072040501 0.14468661846275019 0 -0.18039056500006781 0.12121373119240569 0 -0.20214902218410111 0.13458958866239301 0 -0.18039056500006781 0.12121373119240569 0 -0.20040659369392541 0.1193864456313013 0 -0.20214902218410111 0.13458958866239301 0 -0.18039056500006781 0.12121373119240569 0 -0.19563802519160789 0.13807458821396759 0 -0.20214902218410111 0.13458958866239301 0 -0.18039056500006781 0.12121373119240569 0 -0.19563802519160789 0.13807458821396759 0 -0.202312374299252 0.1441640524023215 0 -0.19563802519160789 0.13807458821396759 0 -0.20214902218410111 0.13458958866239301 0 -0.2075478572749084 0.11368283749669961 0 -0.22370276663374011 0.1364982034250237 0 -0.20214902218410111 0.13458958866239301 0 -0.2075478572749084 0.11368283749669961 0 -0.22370276663374011 0.1364982034250237 0 -0.22370276663374011 0.1364982034250237 0 -0.22390747936813421 0.14796544613238069 0 -0.20214902218410111 0.13458958866239301 0 -0.22390747936813421 0.14796544613238069 0 -0.20214902218410111 0.13458958866239301 0 -0.22390747936813421 0.14796544613238069 0 -0.20214902218410111 0.13458958866239301 0 -0.20948943058945241 0.14863997276184041 0 -0.22390747936813421 0.14796544613238069 0 -0.2168312664826515 0.15850745189495519 0 -0.20948943058945241 0.14863997276184041 0 -0.2168312664826515 0.15850745189495519 0 -0.20758447520558959 0.15683863127083711 0 -0.20948943058945241 0.14863997276184041 0 -0.20758447520558959 0.15683863127083711 0 -0.20948943058945241 0.14863997276184041 0 -0.20390252305447459 0.15036513687703029 0 -0.20758447520558959 0.15683863127083711 0 -0.20024290349544879 0.15519061181074151 0 -0.20390252305447459 0.15036513687703029 0 -0.202312374299252 0.1441640524023215 0 -0.20214902218410111 0.13458958866239301 0 -0.20948943058945241 0.14863997276184041 0 -0.202312374299252 0.1441640524023215 0 -0.20948943058945241 0.14863997276184041 0 -0.20390252305447459 0.15036513687703029 0 -0.22764024225575111 0.25709488017932702 0 -0.2151106411052526 0.2372148610219694 0 -0.22764024225575111 0.25709488017932702 0 -0.2283272457552897 0.2411225242229286 0 -0.2468893326351202 0.24329134098969171 0 -0.22764024225575111 0.25709488017932702 0 -0.2283272457552897 0.2411225242229286 0 -0.2151106411052526 0.2372148610219694 0 -0.2283272457552897 0.2411225242229286 0 -0.22236430254422471 0.22707510271615991 0 -0.2151106411052526 0.2372148610219694 0 -0.2283272457552897 0.2411225242229286 0 -0.2468893326351202 0.24329134098969171 0 -0.2329273297721271 0.2301735095518313 0 -0.25250373055295899 0.22903132158689779 0 -0.2468893326351202 0.24329134098969171 0 -0.24260825180894061 0.22311859240920151 0 -0.2468893326351202 0.24329134098969171 0 -0.24260825180894061 0.22311859240920151 0 -0.2329273297721271 0.2301735095518313 0 -0.25326648915379463 0.21765104414027969 0 -0.25250373055295899 0.22903132158689779 0 -0.24260825180894061 0.22311859240920151 0 -0.24260825180894061 0.22311859240920151 0 -0.23239639752576971 0.22100751879425451 0 -0.2329273297721271 0.2301735095518313 0 -0.23239639752576971 0.22100751879425451 0 -0.2329273297721271 0.2301735095518313 0 -0.22236430254422471 0.22707510271615991 0 -0.2283272457552897 0.2411225242229286 0 -0.2329273297721271 0.2301735095518313 0 -0.22236430254422471 0.22707510271615991 0 -0.23239639752576971 0.22100751879425451 0 -0.22236430254422471 0.22707510271615991 0 -0.2228431611521535 0.2155973608413651 0 -0.2228431611521535 0.2155973608413651 0 -0.2385329104852989 0.2118543258787943 0 -0.21819588620811961 0.20042781843582741 0 -0.2385329104852989 0.2118543258787943 0 -0.21819588620811961 0.20042781843582741 0 -0.23239639752576971 0.22100751879425451 0 -0.2228431611521535 0.2155973608413651 0 -0.2385329104852989 0.2118543258787943 0 -0.2385329104852989 0.2118543258787943 0 -0.24039455529309961 0.2058142864805034 0 -0.21819588620811961 0.20042781843582741 0 -0.24260825180894061 0.22311859240920151 0 -0.23239639752576971 0.22100751879425451 0 -0.2385329104852989 0.2118543258787943 0 -0.25326648915379463 0.21765104414027969 0 -0.24039455529309961 0.2058142864805034 0 -0.25326648915379463 0.21765104414027969 0 -0.2385329104852989 0.2118543258787943 0 -0.24039455529309961 0.2058142864805034 0 -0.25326648915379463 0.21765104414027969 0 -0.24260825180894061 0.22311859240920151 0 -0.2385329104852989 0.2118543258787943 0 -0.25264776582176801 0.2054066783297176 0 -0.25326648915379463 0.21765104414027969 0 -0.24039455529309961 0.2058142864805034 0 -0.25846339158769432 0.19477026040294029 0 -0.2425545525554833 0.18325607046718431 0 -0.24512564856919611 0.1966003761625241 0 -0.24039455529309961 0.2058142864805034 0 -0.24512564856919611 0.1966003761625241 0 -0.2315679775879351 0.19375458513227489 0 -0.25264776582176801 0.2054066783297176 0 -0.24039455529309961 0.2058142864805034 0 -0.24512564856919611 0.1966003761625241 0 -0.2425545525554833 0.18325607046718431 0 -0.24512564856919611 0.1966003761625241 0 -0.2315679775879351 0.19375458513227489 0 -0.24039455529309961 0.2058142864805034 0 -0.2315679775879351 0.19375458513227489 0 -0.21819588620811961 0.20042781843582741 0 -0.2235130486054053 0.18492553164669809 0 -0.2315679775879351 0.19375458513227489 0 -0.21819588620811961 0.20042781843582741 0 -0.21819588620811961 0.20042781843582741 0 -0.19785886193094021 0.18900131099286041 0 -0.2235130486054053 0.18492553164669809 0 -0.209750232499154 0.17791844316711489 0 -0.21819588620811961 0.20042781843582741 0 -0.209750232499154 0.17791844316711489 0 -0.21819588620811961 0.20042781843582741 0 -0.19785886193094021 0.18900131099286041 0 -0.21819588620811961 0.20042781843582741 0 -0.20376966825666501 0.2022924765927995 0 -0.19785886193094021 0.18900131099286041 0 -0.19785886193094021 0.18900131099286041 0 -0.19005143880425829 0.1974548227072519 0 -0.17752183765376101 0.1775748035498933 0 -0.20376966825666501 0.2022924765927995 0 -0.19785886193094021 0.18900131099286041 0 -0.19005143880425829 0.1974548227072519 0 -0.19005143880425829 0.1974548227072519 0 -0.187650486280975 0.21451757224245291 0 -0.20258103995475549 0.21733484186461069 0 -0.19005143880425829 0.1974548227072519 0 -0.20258103995475549 0.21733484186461069 0 -0.20376966825666501 0.2022924765927995 0 -0.19005143880425829 0.1974548227072519 0 -0.20258103995475549 0.21733484186461069 0 -0.2228431611521535 0.2155973608413651 0 -0.21819588620811961 0.20042781843582741 0 -0.20258103995475549 0.21733484186461069 0 -0.21819588620811961 0.20042781843582741 0 -0.20376966825666501 0.2022924765927995 0 -0.20258103995475549 0.21733484186461069 0 -0.20258103995475549 0.21733484186461069 0 -0.19839606398960871 0.22991008851962841 0 -0.2151106411052526 0.2372148610219694 0 -0.22236430254422471 0.22707510271615991 0 -0.2228431611521535 0.2155973608413651 0 -0.20258103995475549 0.21733484186461069 0 -0.22236430254422471 0.22707510271615991 0 -0.20258103995475549 0.21733484186461069 0 -0.2151106411052526 0.2372148610219694 0 -0.20258103995475549 0.21733484186461069 0 -0.2151106411052526 0.2372148610219694 0 -0.187650486280975 0.21451757224245291 0 -0.20258103995475549 0.21733484186461069 0 -0.19839606398960871 0.22991008851962841 0 -0.187650486280975 0.21451757224245291 0 -0.19839606398960871 0.22991008851962841 0 -0.18195408303730121 0.23534357450296481 0 -0.18940688912330481 0.25610334311205268 0 -0.2046840695697589 0.2451395929661444 0 -0.18195408303730121 0.23534357450296481 0 -0.2046840695697589 0.2451395929661444 0 -0.18195408303730121 0.23534357450296481 0 -0.19839606398960871 0.22991008851962841 0 -0.2046840695697589 0.2451395929661444 0 -0.18195408303730121 0.23534357450296481 0 -0.21239874098331929 0.25437807278244762 0 -0.2046840695697589 0.2451395929661444 0 -0.2151106411052526 0.2372148610219694 0 -0.19839606398960871 0.22991008851962841 0 -0.2046840695697589 0.2451395929661444 0 -0.2151106411052526 0.2372148610219694 0 -0.22764024225575111 0.25709488017932702 0 -0.21239874098331929 0.25437807278244762 0 -0.2151106411052526 0.2372148610219694 0 -0.16225317791305921 0.25358582624422438 0 -0.18195408303730121 0.23534357450296481 0 -0.155242522585569 0.24016045739440639 0 -0.17508206900779469 0.25918785244088571 0 -0.16225317791305921 0.25358582624422438 0 -0.18195408303730121 0.23534357450296481 0 -0.187650486280975 0.21451757224245291 0 -0.18195408303730121 0.23534357450296481 0 -0.17144823439391829 0.2141895330645725 0 -0.18195408303730121 0.23534357450296481 0 -0.15922409650484359 0.2255475560397853 0 -0.18195408303730121 0.23534357450296481 0 -0.15922409650484359 0.2255475560397853 0 -0.155242522585569 0.24016045739440639 0 -0.18195408303730121 0.23534357450296481 0 -0.15922409650484359 0.2255475560397853 0 -0.17144823439391829 0.2141895330645725 0 -0.15922409650484359 0.2255475560397853 0 -0.15900733689739069 0.21062159977010589 0 -0.17144823439391829 0.2141895330645725 0 -0.15900733689739069 0.21062159977010589 0 -0.1653418357915476 0.2018213455952054 0 -0.15361129879784891 0.20139719057542019 0 -0.17144823439391829 0.2141895330645725 0 -0.17723797391968729 0.20390802022475071 0 -0.1653418357915476 0.2018213455952054 0 -0.15900733689739069 0.21062159977010589 0 -0.17144823439391829 0.2141895330645725 0 -0.1653418357915476 0.2018213455952054 0 -0.187650486280975 0.21451757224245291 0 -0.17144823439391829 0.2141895330645725 0 -0.17723797391968729 0.20390802022475071 0 -0.19005143880425829 0.1974548227072519 0 -0.187650486280975 0.21451757224245291 0 -0.17723797391968729 0.20390802022475071 0 -0.19005143880425829 0.1974548227072519 0 -0.17169787432773731 0.19155682751427069 0 -0.17752183765376101 0.1775748035498933 0 -0.19005143880425829 0.1974548227072519 0 -0.17723797391968729 0.20390802022475071 0 -0.17169787432773731 0.19155682751427069 0 -0.19005143880425829 0.1974548227072519 0 -0.17752183765376101 0.1775748035498933 0 -0.17169787432773731 0.19155682751427069 0 -0.1653418357915476 0.2018213455952054 0 -0.15791164184663151 0.19274793286901881 0 -0.17723797391968729 0.20390802022475071 0 -0.17169787432773731 0.19155682751427069 0 -0.1653418357915476 0.2018213455952054 0 -0.1653418357915476 0.2018213455952054 0 -0.15791164184663151 0.19274793286901881 0 -0.15361129879784891 0.20139719057542019 0 -0.17169787432773731 0.19155682751427069 0 -0.15791164184663151 0.19274793286901881 0 -0.16134243263699979 0.18146195783717889 0 -0.15791164184663151 0.19274793286901881 0 -0.15361129879784891 0.20139719057542019 0 -0.14754997702249989 0.19123102061556399 0 -0.15791164184663151 0.19274793286901881 0 -0.14754997702249989 0.19123102061556399 0 -0.15378055215212841 0.1853342336718547 0 -0.15361129879784891 0.20139719057542019 0 -0.144337775963609 0.20069921068637719 0 -0.14754997702249989 0.19123102061556399 0 -0.14754997702249989 0.19123102061556399 0 -0.13411435042981179 0.19106266128805069 0 -0.1463292802833521 0.18023770330257241 0 -0.144337775963609 0.20069921068637719 0 -0.14754997702249989 0.19123102061556399 0 -0.13411435042981179 0.19106266128805069 0 -0.13411435042981179 0.19106266128805069 0 -0.12967955466007261 0.2074258594294596 0 -0.1235431789710726 0.1969801993001162 0 -0.13411435042981179 0.19106266128805069 0 -0.13770187294137159 0.2043383794177894 0 -0.12967955466007261 0.2074258594294596 0 -0.144337775963609 0.20069921068637719 0 -0.13411435042981179 0.19106266128805069 0 -0.13770187294137159 0.2043383794177894 0 -0.13770187294137159 0.2043383794177894 0 -0.13855706597983281 0.21350408889879899 0 -0.14247480998137141 0.20718589651263181 0 -0.1364941099723872 0.21575153757660309 0 -0.120958802369795 0.22183359367242919 0 -0.11894773722242739 0.20818951851535461 0 -0.12967955466007261 0.2074258594294596 0 -0.1364941099723872 0.21575153757660309 0 -0.11894773722242739 0.20818951851535461 0 -0.13770187294137159 0.2043383794177894 0 -0.12967955466007261 0.2074258594294596 0 -0.13855706597983281 0.21350408889879899 0 -0.1364941099723872 0.21575153757660309 0 -0.11894773722242739 0.20818951851535461 0 -0.12967955466007261 0.2074258594294596 0 -0.1364941099723872 0.21575153757660309 0 -0.13855706597983281 0.21350408889879899 0 -0.1364941099723872 0.21575153757660309 0 -0.13855706597983281 0.21350408889879899 0 -0.15922409650484359 0.2255475560397853 0 -0.1364941099723872 0.21575153757660309 0 -0.13855706597983281 0.21350408889879899 0 -0.15922409650484359 0.2255475560397853 0 -0.13855706597983281 0.21350408889879899 0 -0.14930252504067221 0.21020190704756139 0 -0.13855706597983281 0.21350408889879899 0 -0.14247480998137141 0.20718589651263181 0 -0.14930252504067221 0.21020190704756139 0 -0.144337775963609 0.20069921068637719 0 -0.14247480998137141 0.20718589651263181 0 -0.14930252504067221 0.21020190704756139 0 -0.144337775963609 0.20069921068637719 0 -0.13770187294137159 0.2043383794177894 0 -0.14247480998137141 0.20718589651263181 0 -0.15900733689739069 0.21062159977010589 0 -0.15361129879784891 0.20139719057542019 0 -0.14930252504067221 0.21020190704756139 0 -0.15361129879784891 0.20139719057542019 0 -0.144337775963609 0.20069921068637719 0 -0.14930252504067221 0.21020190704756139 0 -0.15922409650484359 0.2255475560397853 0 -0.15900733689739069 0.21062159977010589 0 -0.14930252504067221 0.21020190704756139 0 -0.15922409650484359 0.2255475560397853 0 -0.13635804662702189 0.23039018670563211 0 -0.14207867318260539 0.23889574066385899 0 -0.15922409650484359 0.2255475560397853 0 -0.1364941099723872 0.21575153757660309 0 -0.13635804662702189 0.23039018670563211 0 -0.15922409650484359 0.2255475560397853 0 -0.1364941099723872 0.21575153757660309 0 -0.1364941099723872 0.21575153757660309 0 -0.13635804662702189 0.23039018670563211 0 -0.11673432752768111 0.2372784614512472 0 -0.1364941099723872 0.21575153757660309 0 -0.11673432752768111 0.2372784614512472 0 -0.13635804662702189 0.23039018670563211 0 -0.12961957513534 0.23973743310435161 0 -0.11673432752768111 0.2372784614512472 0 -0.13635804662702189 0.23039018670563211 0 -0.12961957513534 0.23973743310435161 0 -0.14207867318260539 0.23889574066385899 0 -0.12961957513534 0.23973743310435161 0 -0.13357218109292621 0.2499317644564327 0 -0.1213089330464012 0.24626659804535689 0 -0.12961957513534 0.23973743310435161 0 -0.13357218109292621 0.2499317644564327 0 -0.14207867318260539 0.23889574066385899 0 -0.14746997276257359 0.25293699741112718 0 -0.13357218109292621 0.2499317644564327 0 -0.14207867318260539 0.23889574066385899 0 -0.15922409650484359 0.2255475560397853 0 -0.14207867318260539 0.23889574066385899 0 -0.155242522585569 0.24016045739440639 0 -0.14746997276257359 0.25293699741112718 0 -0.14207867318260539 0.23889574066385899 0 -0.155242522585569 0.24016045739440639 0 -0.16225317791305921 0.25358582624422438 0 -0.14746997276257359 0.25293699741112718 0 -0.155242522585569 0.24016045739440639 0 -0.166988808872575 0.14091924592242799 0 -0.1736883691443292 0.1501381655411517 0 -0.1666646902223726 0.16034837340756511 0 -0.166988808872575 0.14091924592242799 0 -0.1666646902223726 0.16034837340756511 0 -0.15580754279098399 0.143121943265237 0 -0.1666646902223726 0.16034837340756511 0 -0.1549726550285947 0.15674585516748279 0 -0.15580754279098399 0.143121943265237 0 -0.1666646902223726 0.16034837340756511 0 -0.15580754279098399 0.143121943265237 0 -0.1628447509754036 0.1248738178506951 0 -0.166988808872575 0.14091924592242799 0 -0.17824709647023271 0.1379937977022469 0 -0.1628447509754036 0.1248738178506951 0 -0.166988808872575 0.14091924592242799 0 -0.15580754279098399 0.143121943265237 0 -0.18039056500006781 0.12121373119240569 0 -0.1628447509754036 0.1248738178506951 0 -0.17824709647023271 0.1379937977022469 0 -0.19563802519160789 0.13807458821396759 0 -0.17824709647023271 0.1379937977022469 0 -0.18706065072040501 0.14468661846275019 0 -0.18039056500006781 0.12121373119240569 0 -0.19563802519160789 0.13807458821396759 0 -0.17824709647023271 0.1379937977022469 0 -0.17824709647023271 0.1379937977022469 0 -0.18706065072040501 0.14468661846275019 0 -0.1811623126986891 0.14793864394101769 0 -0.166988808872575 0.14091924592242799 0 -0.17824709647023271 0.1379937977022469 0 -0.1736883691443292 0.1501381655411517 0 -0.17824709647023271 0.1379937977022469 0 -0.1811623126986891 0.14793864394101769 0 -0.1736883691443292 0.1501381655411517 0 -0.1811623126986891 0.14793864394101769 0 -0.1736883691443292 0.1501381655411517 0 -0.17666515903818969 0.15970684649729899 0 -0.1811623126986891 0.14793864394101769 0 -0.1852646507768699 0.1545619776798173 0 -0.17666515903818969 0.15970684649729899 0 -0.18706065072040501 0.14468661846275019 0 -0.1811623126986891 0.14793864394101769 0 -0.1852646507768699 0.1545619776798173 0 -0.17752183765376101 0.1775748035498933 0 -0.1666646902223726 0.16034837340756511 0 -0.1927705130470404 0.15866088515044 0 -0.1852646507768699 0.1545619776798173 0 -0.18413510522225521 0.16259499244525211 0 -0.17666515903818969 0.15970684649729899 0 -0.17752183765376101 0.1775748035498933 0 -0.1666646902223726 0.16034837340756511 0 -0.1852646507768699 0.1545619776798173 0 -0.18413510522225521 0.16259499244525211 0 -0.17666515903818969 0.15970684649729899 0 -0.18413510522225521 0.16259499244525211 0 -0.17666515903818969 0.15970684649729899 0 -0.17752183765376101 0.1775748035498933 0 -0.19038698318195549 0.16711234260031069 0 -0.18413510522225521 0.16259499244525211 0 -0.17752183765376101 0.1775748035498933 0 -0.1736883691443292 0.1501381655411517 0 -0.17666515903818969 0.15970684649729899 0 -0.1666646902223726 0.16034837340756511 0 -0.17169787432773731 0.19155682751427069 0 -0.17752183765376101 0.1775748035498933 0 -0.16134243263699979 0.18146195783717889 0 -0.17752183765376101 0.1775748035498933 0 -0.160166055014445 0.16782332876165751 0 -0.17752183765376101 0.1775748035498933 0 -0.16134243263699979 0.18146195783717889 0 -0.160166055014445 0.16782332876165751 0 -0.16134243263699979 0.18146195783717889 0 -0.160166055014445 0.16782332876165751 0 -0.1543363168372556 0.17604552304072019 0 -0.16134243263699979 0.18146195783717889 0 -0.15378055215212841 0.1853342336718547 0 -0.1543363168372556 0.17604552304072019 0 -0.15791164184663151 0.19274793286901881 0 -0.16134243263699979 0.18146195783717889 0 -0.15378055215212841 0.1853342336718547 0 -0.17752183765376101 0.1775748035498933 0 -0.1666646902223726 0.16034837340756511 0 -0.160166055014445 0.16782332876165751 0 -0.1666646902223726 0.16034837340756511 0 -0.160166055014445 0.16782332876165751 0 -0.1549726550285947 0.15674585516748279 0 -0.160166055014445 0.16782332876165751 0 -0.1549726550285947 0.15674585516748279 0 -0.14281027237512919 0.15807185397342149 0 -0.160166055014445 0.16782332876165751 0 -0.14281027237512919 0.15807185397342149 0 -0.160166055014445 0.16782332876165751 0 -0.1483000089644074 0.1706867490983929 0 -0.14281027237512919 0.15807185397342149 0 -0.160166055014445 0.16782332876165751 0 -0.1483000089644074 0.1706867490983929 0 -0.1543363168372556 0.17604552304072019 0 -0.1483000089644074 0.1706867490983929 0 -0.14281027237512919 0.15807185397342149 0 -0.13856119746919621 0.1732320213376258 0 -0.14754997702249989 0.19123102061556399 0 -0.15378055215212841 0.1853342336718547 0 -0.1463292802833521 0.18023770330257241 0 -0.15378055215212841 0.1853342336718547 0 -0.1543363168372556 0.17604552304072019 0 -0.1463292802833521 0.18023770330257241 0 -0.1483000089644074 0.1706867490983929 0 -0.1543363168372556 0.17604552304072019 0 -0.1463292802833521 0.18023770330257241 0 -0.1483000089644074 0.1706867490983929 0 -0.1463292802833521 0.18023770330257241 0 -0.13856119746919621 0.1732320213376258 0 -0.13411435042981179 0.19106266128805069 0 -0.13856119746919621 0.1732320213376258 0 -0.12609153575556739 0.16924223779836581 0 -0.13411435042981179 0.19106266128805069 0 -0.12609153575556739 0.16924223779836581 0 -0.1152399272795421 0.1851742901109647 0 -0.13411435042981179 0.19106266128805069 0 -0.1463292802833521 0.18023770330257241 0 -0.13856119746919621 0.1732320213376258 0 -0.14281027237512919 0.15807185397342149 0 -0.12609153575556739 0.16924223779836581 0 -0.135520965557581 0.14756887546063741 0 -0.12609153575556739 0.16924223779836581 0 -0.135520965557581 0.14756887546063741 0 -0.14281027237512919 0.15807185397342149 0 -0.13856119746919621 0.1732320213376258 0 -0.12609153575556739 0.16924223779836581 0 -0.135520965557581 0.14756887546063741 0 -0.13028426483969929 0.13221647237215789 0 -0.1192914655824909 0.15059360814623801 0 -0.12609153575556739 0.16924223779836581 0 -0.135520965557581 0.14756887546063741 0 -0.1192914655824909 0.15059360814623801 0 -0.1549726550285947 0.15674585516748279 0 -0.14281027237512919 0.15807185397342149 0 -0.14652630769324659 0.14708303210739521 0 -0.14281027237512919 0.15807185397342149 0 -0.135520965557581 0.14756887546063741 0 -0.14652630769324659 0.14708303210739521 0 -0.1549726550285947 0.15674585516748279 0 -0.14652630769324659 0.14708303210739521 0 -0.15580754279098399 0.143121943265237 0 -0.1628447509754036 0.1248738178506951 0 -0.15580754279098399 0.143121943265237 0 -0.14495039535959489 0.12589551312290931 0 -0.135520965557581 0.14756887546063741 0 -0.14652630769324659 0.14708303210739521 0 -0.14495039535959489 0.12589551312290931 0 -0.15580754279098399 0.143121943265237 0 -0.14495039535959489 0.12589551312290931 0 -0.14652630769324659 0.14708303210739521 0 -0.15580754279098399 0.143121943265237 0 -0.14495039535959489 0.12589551312290931 0 -0.135520965557581 0.14756887546063741 0 -0.14495039535959489 0.12589551312290931 0 -0.135520965557581 0.14756887546063741 0 -0.14495039535959489 0.12589551312290931 0 -0.13028426483969929 0.13221647237215789 0 -0.13028426483969929 0.13221647237215789 0 -0.1131006250587715 0.12959615498317961 0 -0.1192914655824909 0.15059360814623801 0 -0.1131006250587715 0.12959615498317961 0 -0.10078539792307099 0.15464240809582361 0 -0.092802426943272898 0.12960292979422991 0 -0.1131006250587715 0.12959615498317961 0 -0.10078539792307099 0.15464240809582361 0 -0.1192914655824909 0.15059360814623801 0 -0.10078539792307099 0.15464240809582361 0 -0.1192914655824909 0.15059360814623801 0 -0.10897534263953949 0.16967833346669081 0 -0.12609153575556739 0.16924223779836581 0 -0.1192914655824909 0.15059360814623801 0 -0.10897534263953949 0.16967833346669081 0 -0.12609153575556739 0.16924223779836581 0 -0.1152399272795421 0.1851742901109647 0 -0.10897534263953949 0.16967833346669081 0 -0.1152399272795421 0.1851742901109647 0 -0.098409264142157865 0.1851788001203086 0 -0.10897534263953949 0.16967833346669081 0 -0.098409264142157865 0.1851788001203086 0 -0.10897534263953949 0.16967833346669081 0 -0.082277471490505807 0.17420718144711089 0 -0.10078539792307099 0.15464240809582361 0 -0.10897534263953949 0.16967833346669081 0 -0.082277471490505807 0.17420718144711089 0 -0.10078539792307099 0.15464240809582361 0 -0.082277471490505807 0.17420718144711089 0 -0.082277471490505807 0.17420718144711089 0 -0.065615427061545384 0.16058384892905991 0 -0.074642854581774637 0.14147916649728479 0 -0.10078539792307099 0.15464240809582361 0 -0.082277471490505807 0.17420718144711089 0 -0.074642854581774637 0.14147916649728479 0 -0.098409264142157865 0.1851788001203086 0 -0.082277471490505807 0.17420718144711089 0 -0.084152214828733252 0.19620669612267311 0 -0.082277471490505807 0.17420718144711089 0 -0.063769545057940663 0.19377195479839809 0 -0.082277471490505807 0.17420718144711089 0 -0.063769545057940663 0.19377195479839809 0 -0.051824687549248197 0.17345858692208871 0 -0.082277471490505807 0.17420718144711089 0 -0.065615427061545384 0.16058384892905991 0 -0.051824687549248197 0.17345858692208871 0 -0.074642854581774637 0.14147916649728479 0 -0.055186524828957063 0.1281687789626855 0 -0.07438317581125764 0.1124407737129243 0 -0.074642854581774637 0.14147916649728479 0 -0.092802426943272898 0.12960292979422991 0 -0.07438317581125764 0.1124407737129243 0 -0.10078539792307099 0.15464240809582361 0 -0.074642854581774637 0.14147916649728479 0 -0.092802426943272898 0.12960292979422991 0 -0.10058650277722481 0.24229521027045481 0 -0.11673432752768111 0.2372784614512472 0 -0.1053270170515283 0.2324499666522013 0 -0.096974545082976191 0.25880538532589209 0 -0.10058650277722481 0.24229521027045481 0 -0.088715331182393942 0.2449718195011524 0 -0.096974545082976191 0.25880538532589209 0 -0.10058650277722481 0.24229521027045481 0 -0.11673432752768111 0.2372784614512472 0 -0.096974545082976191 0.25880538532589209 0 -0.112097455783086 0.24444379951602521 0 -0.11673432752768111 0.2372784614512472 0 -0.096974545082976191 0.25880538532589209 0 -0.11673432752768111 0.2372784614512472 0 -0.10058650277722481 0.24229521027045481 0 -0.091983872440322634 0.23323291704093771 0 -0.088715331182393942 0.2449718195011524 0 -0.10058650277722481 0.24229521027045481 0 -0.1053270170515283 0.2324499666522013 0 -0.091983872440322634 0.23323291704093771 0 -0.11521273165378559 0.25497892835963998 0 -0.112097455783086 0.24444379951602521 0 -0.1213089330464012 0.24626659804535689 0 -0.112097455783086 0.24444379951602521 0 -0.1213089330464012 0.24626659804535689 0 -0.11673432752768111 0.2372784614512472 0 -0.12961957513534 0.23973743310435161 0 -0.1213089330464012 0.24626659804535689 0 -0.11673432752768111 0.2372784614512472 0 -0.11673432752768111 0.2372784614512472 0 -0.111977792011399 0.2261119040305537 0 -0.1053270170515283 0.2324499666522013 0 -0.1364941099723872 0.21575153757660309 0 -0.11673432752768111 0.2372784614512472 0 -0.120958802369795 0.22183359367242919 0 -0.11673432752768111 0.2372784614512472 0 -0.120958802369795 0.22183359367242919 0 -0.111977792011399 0.2261119040305537 0 -0.120958802369795 0.22183359367242919 0 -0.111977792011399 0.2261119040305537 0 -0.11263418842693861 0.21654350143059611 0 -0.111977792011399 0.2261119040305537 0 -0.1027476190553803 0.22153268259517769 0 -0.11263418842693861 0.21654350143059611 0 -0.1027476190553803 0.22153268259517769 0 -0.088008266818085573 0.21525264443096179 0 -0.091983872440322634 0.23323291704093771 0 -0.111977792011399 0.2261119040305537 0 -0.1027476190553803 0.22153268259517769 0 -0.1053270170515283 0.2324499666522013 0 -0.1027476190553803 0.22153268259517769 0 -0.1053270170515283 0.2324499666522013 0 -0.091983872440322634 0.23323291704093771 0 -0.1027476190553803 0.22153268259517769 0 -0.1014013644724687 0.20062749945410349 0 -0.088008266818085573 0.21525264443096179 0 -0.1027476190553803 0.22153268259517769 0 -0.11263418842693861 0.21654350143059611 0 -0.1014013644724687 0.20062749945410349 0 -0.11263418842693861 0.21654350143059611 0 -0.11894773722242739 0.20818951851535461 0 -0.1014013644724687 0.20062749945410349 0 -0.11894773722242739 0.20818951851535461 0 -0.1014013644724687 0.20062749945410349 0 -0.120958802369795 0.22183359367242919 0 -0.11263418842693861 0.21654350143059611 0 -0.11894773722242739 0.20818951851535461 0 -0.12967955466007261 0.2074258594294596 0 -0.11894773722242739 0.20818951851535461 0 -0.1235431789710726 0.1969801993001162 0 -0.11894773722242739 0.20818951851535461 0 -0.1235431789710726 0.1969801993001162 0 -0.1014013644724687 0.20062749945410349 0 -0.13411435042981179 0.19106266128805069 0 -0.1152399272795421 0.1851742901109647 0 -0.1235431789710726 0.1969801993001162 0 -0.1152399272795421 0.1851742901109647 0 -0.1235431789710726 0.1969801993001162 0 -0.1014013644724687 0.20062749945410349 0 -0.1152399272795421 0.1851742901109647 0 -0.098409264142157865 0.1851788001203086 0 -0.1014013644724687 0.20062749945410349 0 -0.098409264142157865 0.1851788001203086 0 -0.1014013644724687 0.20062749945410349 0 -0.084152214828733252 0.19620669612267311 0 -0.084152214828733252 0.19620669612267311 0 -0.063769545057940663 0.19377195479839809 0 -0.072142849724606259 0.2099260872470029 0 -0.082277471490505807 0.17420718144711089 0 -0.084152214828733252 0.19620669612267311 0 -0.063769545057940663 0.19377195479839809 0 -0.072142849724606259 0.2099260872470029 0 -0.088008266818085573 0.21525264443096179 0 -0.068407602306599244 0.22780678473085289 0 -0.084152214828733252 0.19620669612267311 0 -0.072142849724606259 0.2099260872470029 0 -0.088008266818085573 0.21525264443096179 0 -0.1014013644724687 0.20062749945410349 0 -0.084152214828733252 0.19620669612267311 0 -0.088008266818085573 0.21525264443096179 0 -0.091983872440322634 0.23323291704093771 0 -0.068407602306599244 0.22780678473085289 0 -0.080478212985736569 0.23984126859451149 0 -0.088008266818085573 0.21525264443096179 0 -0.091983872440322634 0.23323291704093771 0 -0.068407602306599244 0.22780678473085289 0 -0.073553522625709841 0.25068431627396631 0 -0.068407602306599244 0.22780678473085289 0 -0.080478212985736569 0.23984126859451149 0 -0.073553522625709841 0.25068431627396631 0 -0.068407602306599244 0.22780678473085289 0 -0.050132500168443887 0.2425632472220397 0 -0.073553522625709841 0.25068431627396631 0 -0.080478212985736569 0.23984126859451149 0 -0.088715331182393942 0.2449718195011524 0 -0.091983872440322634 0.23323291704093771 0 -0.080478212985736569 0.23984126859451149 0 -0.088715331182393942 0.2449718195011524 0 -0.050132500168443887 0.2425632472220397 0 -0.026711477711177899 0.23444217817011309 0 -0.029881977245259539 0.25372898958001938 0 -0.050132500168443887 0.2425632472220397 0 -0.026711477711177899 0.23444217817011309 0 -0.050132500168443887 0.2425632472220397 0 -0.042100384295285467 0.22888272761933071 0 -0.026711477711177899 0.23444217817011309 0 -0.073553522625709841 0.25068431627396631 0 -0.050132500168443887 0.2425632472220397 0 -0.068407602306599244 0.22780678473085289 0 -0.050132500168443887 0.2425632472220397 0 -0.042100384295285467 0.22888272761933071 0 -0.068407602306599244 0.22780678473085289 0 -0.042100384295285467 0.22888272761933071 0 -0.045261618625375449 0.21333672814968549 0 -0.045261618625375449 0.21333672814968549 0 -0.02675369219281019 0.23290150150097291 0 -0.045261618625375449 0.21333672814968549 0 -0.02772339752401377 0.22169904798743939 0 -0.02675369219281019 0.23290150150097291 0 -0.042100384295285467 0.22888272761933071 0 -0.045261618625375449 0.21333672814968549 0 -0.02675369219281019 0.23290150150097291 0 -0.042100384295285467 0.22888272761933071 0 -0.02675369219281019 0.23290150150097291 0 -0.026711477711177899 0.23444217817011309 0 -0.045261618625375449 0.21333672814968549 0 -0.025983012380334781 0.2115930184476672 0 -0.02772339752401377 0.22169904798743939 0 -0.045261618625375449 0.21333672814968549 0 -0.029252980350323681 0.1977376245802884 0 -0.025983012380334781 0.2115930184476672 0 -0.063769545057940663 0.19377195479839809 0 -0.045261618625375449 0.21333672814968549 0 -0.063769545057940663 0.19377195479839809 0 -0.072142849724606259 0.2099260872470029 0 -0.045261618625375449 0.21333672814968549 0 -0.072142849724606259 0.2099260872470029 0 -0.068407602306599244 0.22780678473085289 0 -0.045261618625375449 0.21333672814968549 0 -0.063769545057940663 0.19377195479839809 0 -0.045261618625375449 0.21333672814968549 0 -0.041349789320347038 0.18749549167170951 0 -0.029252980350323681 0.1977376245802884 0 -0.041349789320347038 0.18749549167170951 0 -0.02440704960050057 0.1813667693045137 0 -0.045261618625375449 0.21333672814968549 0 -0.029252980350323681 0.1977376245802884 0 -0.041349789320347038 0.18749549167170951 0 -0.029252980350323681 0.1977376245802884 0 -0.01949536222664228 0.1923427933584827 0 -0.02440704960050057 0.1813667693045137 0 -0.029252980350323681 0.1977376245802884 0 -0.019383630886315679 0.20246845033521829 0 -0.01949536222664228 0.1923427933584827 0 -0.019383630886315679 0.20246845033521829 0 -0.01949536222664228 0.1923427933584827 0 -0.011799668219416901 0.19617813045667529 0 -0.01949536222664228 0.1923427933584827 0 -0.011799668219416901 0.19617813045667529 0 -0.0099503170468955675 0.185467411183286 0 -0.0047591026019954026 0.19332022418589959 0 -0.011799668219416901 0.19617813045667529 0 -0.0099503170468955675 0.185467411183286 0 -0.0047591026019954026 0.19332022418589959 0 -0.003081975793268537 0.18782002811878001 0 -0.0099503170468955675 0.185467411183286 0 -0.0047591026019954026 0.19332022418589959 0 -2.3422743153838069e-05 0.1988005567515452 0 0.0015327128313205251 0.1915709431207247 0 -0.0047591026019954026 0.19332022418589959 0 -0.003081975793268537 0.18782002811878001 0 0.0015327128313205251 0.1915709431207247 0 -2.3422743153838069e-05 0.1988005567515452 0 -0.0064134676939889088 0.1997865992100484 0 -0.0042090490499692894 0.20625736901624969 0 -0.0047591026019954026 0.19332022418589959 0 -2.3422743153838069e-05 0.1988005567515452 0 -0.0064134676939889088 0.1997865992100484 0 -0.0047591026019954026 0.19332022418589959 0 -0.0064134676939889088 0.1997865992100484 0 -0.011799668219416901 0.19617813045667529 0 -0.019383630886315679 0.20246845033521829 0 -0.011799668219416901 0.19617813045667529 0 -0.01127609585540912 0.20437671563987239 0 -0.0064134676939889088 0.1997865992100484 0 -0.011799668219416901 0.19617813045667529 0 -0.01127609585540912 0.20437671563987239 0 -0.019383630886315679 0.20246845033521829 0 -0.01127609585540912 0.20437671563987239 0 -0.015975625416527989 0.21106072298800291 0 -0.0098363755348389904 0.2097806401996784 0 -0.01127609585540912 0.20437671563987239 0 -0.015975625416527989 0.21106072298800291 0 -0.0098363755348389904 0.2097806401996784 0 -0.01127609585540912 0.20437671563987239 0 -0.0042090490499692894 0.20625736901624969 0 -0.0042090490499692894 0.20625736901624969 0 0.00083142932333707279 0.21381627434491049 0 0.0029581381265264858 0.20519393183106241 0 -0.0064134676939889088 0.1997865992100484 0 -0.01127609585540912 0.20437671563987239 0 -0.0042090490499692894 0.20625736901624969 0 -0.0098363755348389904 0.2097806401996784 0 -0.0042090490499692894 0.20625736901624969 0 -0.0060196598873338584 0.21321125444391051 0 -2.3422743153838069e-05 0.1988005567515452 0 -0.0042090490499692894 0.20625736901624969 0 0.0029581381265264858 0.20519393183106241 0 -0.0055559642639475869 0.21913689448513271 0 0.0001093474821353509 0.22215689039817851 0 0.00083142932333707279 0.21381627434491049 0 -0.0060196598873338584 0.21321125444391051 0 -0.0055559642639475869 0.21913689448513271 0 0.00083142932333707279 0.21381627434491049 0 -0.0042090490499692894 0.20625736901624969 0 -0.0060196598873338584 0.21321125444391051 0 0.00083142932333707279 0.21381627434491049 0 -0.0060196598873338584 0.21321125444391051 0 -0.01091493828254137 0.21625783395607551 0 -0.0055559642639475869 0.21913689448513271 0 -0.01091493828254137 0.21625783395607551 0 -0.015975625416527989 0.21106072298800291 0 -0.017588491814277241 0.22188462813269769 0 -0.0098363755348389904 0.2097806401996784 0 -0.0060196598873338584 0.21321125444391051 0 -0.01091493828254137 0.21625783395607551 0 -0.0098363755348389904 0.2097806401996784 0 -0.01091493828254137 0.21625783395607551 0 -0.015975625416527989 0.21106072298800291 0 -0.015975625416527989 0.21106072298800291 0 -0.025983012380334781 0.2115930184476672 0 -0.017588491814277241 0.22188462813269769 0 -0.019383630886315679 0.20246845033521829 0 -0.015975625416527989 0.21106072298800291 0 -0.025983012380334781 0.2115930184476672 0 -0.029252980350323681 0.1977376245802884 0 -0.019383630886315679 0.20246845033521829 0 -0.025983012380334781 0.2115930184476672 0 -0.025983012380334781 0.2115930184476672 0 -0.02772339752401377 0.22169904798743939 0 -0.017588491814277241 0.22188462813269769 0 -0.02772339752401377 0.22169904798743939 0 -0.02675369219281019 0.23290150150097291 0 -0.022352419066048221 0.22652947853539249 0 -0.02675369219281019 0.23290150150097291 0 -0.017344094733091689 0.22963273652046001 0 -0.01246950101347712 0.23792538229425519 0 -0.02675369219281019 0.23290150150097291 0 -0.017344094733091689 0.22963273652046001 0 -0.022352419066048221 0.22652947853539249 0 -0.017344094733091689 0.22963273652046001 0 -0.017588491814277241 0.22188462813269769 0 -0.01350500053265637 0.2263729039251991 0 -0.017344094733091689 0.22963273652046001 0 -0.022352419066048221 0.22652947853539249 0 -0.017588491814277241 0.22188462813269769 0 -0.02772339752401377 0.22169904798743939 0 -0.022352419066048221 0.22652947853539249 0 -0.017588491814277241 0.22188462813269769 0 -0.01091493828254137 0.21625783395607551 0 -0.017588491814277241 0.22188462813269769 0 -0.01009356448405245 0.2229710377255022 0 -0.017588491814277241 0.22188462813269769 0 -0.01350500053265637 0.2263729039251991 0 -0.01009356448405245 0.2229710377255022 0 -0.01091493828254137 0.21625783395607551 0 -0.01009356448405245 0.2229710377255022 0 -0.0055559642639475869 0.21913689448513271 0 -0.01009356448405245 0.2229710377255022 0 -0.0055559642639475869 0.21913689448513271 0 -0.0046023563546483629 0.22639127835839259 0 -0.0055559642639475869 0.21913689448513271 0 -0.0046023563546483629 0.22639127835839259 0 0.0001093474821353509 0.22215689039817851 0 -0.0046023563546483629 0.22639127835839259 0 0.0010433620948100131 0.23240638127880581 0 0.0001093474821353509 0.22215689039817851 0 -0.0046023563546483629 0.22639127835839259 0 -0.0089938510992040935 0.23100321332213661 0 0.0010433620948100131 0.23240638127880581 0 -0.017344094733091689 0.22963273652046001 0 -0.0089938510992040935 0.23100321332213661 0 -0.01246950101347712 0.23792538229425519 0 -0.01009356448405245 0.2229710377255022 0 -0.0046023563546483629 0.22639127835839259 0 -0.0089938510992040935 0.23100321332213661 0 -0.017344094733091689 0.22963273652046001 0 -0.01350500053265637 0.2263729039251991 0 -0.0089938510992040935 0.23100321332213661 0 -0.01350500053265637 0.2263729039251991 0 -0.01009356448405245 0.2229710377255022 0 -0.0089938510992040935 0.23100321332213661 0 -0.0089938510992040935 0.23100321332213661 0 -0.001965278602122185 0.24182690426762959 0 0.0010433620948100131 0.23240638127880581 0 -0.0089938510992040935 0.23100321332213661 0 -0.01246950101347712 0.23792538229425519 0 -0.001965278602122185 0.24182690426762959 0 -0.0082457657602449386 0.25246627485226031 0 -0.01246950101347712 0.23792538229425519 0 -0.001965278602122185 0.24182690426762959 0 -0.0082457657602449386 0.25246627485226031 0 -0.02675369219281019 0.23290150150097291 0 -0.01246950101347712 0.23792538229425519 0 -0.029881977245259539 0.25372898958001938 0 -0.0082457657602449386 0.25246627485226031 0 -0.026711477711177899 0.23444217817011309 0 -0.0082457657602449386 0.25246627485226031 0 -0.02675369219281019 0.23290150150097291 0 -0.026711477711177899 0.23444217817011309 0 -0.0082457657602449386 0.25246627485226031 0 -0.02675369219281019 0.23290150150097291 0 -0.046893106203257602 0.1507880314475378 0 -0.033582854738693747 0.16530128627528251 0 -0.03096555907766051 0.14775731769023701 0 -0.035508455794597132 0.13046501110523001 0 -0.046893106203257602 0.1507880314475378 0 -0.03096555907766051 0.14775731769023701 0 -0.035508455794597132 0.13046501110523001 0 -0.046893106203257602 0.1507880314475378 0 -0.035508455794597132 0.13046501110523001 0 -0.055186524828957063 0.1281687789626855 0 -0.046893106203257602 0.1507880314475378 0 -0.035508455794597132 0.13046501110523001 0 -0.055186524828957063 0.1281687789626855 0 -0.04045215309894238 0.1165912735558266 0 -0.074642854581774637 0.14147916649728479 0 -0.055186524828957063 0.1281687789626855 0 -0.046893106203257602 0.1507880314475378 0 -0.065615427061545384 0.16058384892905991 0 -0.074642854581774637 0.14147916649728479 0 -0.046893106203257602 0.1507880314475378 0 -0.065615427061545384 0.16058384892905991 0 -0.046893106203257602 0.1507880314475378 0 -0.051824687549248197 0.17345858692208871 0 -0.063769545057940663 0.19377195479839809 0 -0.051824687549248197 0.17345858692208871 0 -0.041349789320347038 0.18749549167170951 0 -0.041349789320347038 0.18749549167170951 0 -0.033582854738693747 0.16530128627528251 0 -0.02440704960050057 0.1813667693045137 0 -0.051824687549248197 0.17345858692208871 0 -0.041349789320347038 0.18749549167170951 0 -0.033582854738693747 0.16530128627528251 0 -0.046893106203257602 0.1507880314475378 0 -0.051824687549248197 0.17345858692208871 0 -0.033582854738693747 0.16530128627528251 0 -0.033582854738693747 0.16530128627528251 0 -0.022139091883514501 0.16815071126606429 0 -0.02440704960050057 0.1813667693045137 0 -0.033582854738693747 0.16530128627528251 0 -0.022139091883514501 0.16815071126606429 0 -0.016648491277264341 0.15771365056650341 0 -0.033582854738693747 0.16530128627528251 0 -0.016648491277264341 0.15771365056650341 0 -0.03096555907766051 0.14775731769023701 0 -0.022139091883514501 0.16815071126606429 0 -0.02440704960050057 0.1813667693045137 0 -0.01283771780100665 0.17547196173435681 0 -0.01949536222664228 0.1923427933584827 0 -0.02440704960050057 0.1813667693045137 0 -0.0099503170468955675 0.185467411183286 0 -0.02440704960050057 0.1813667693045137 0 -0.0099503170468955675 0.185467411183286 0 -0.01283771780100665 0.17547196173435681 0 -0.0099503170468955675 0.185467411183286 0 -0.01283771780100665 0.17547196173435681 0 -0.00450206117857799 0.17688747855202069 0 -0.01283771780100665 0.17547196173435681 0 -0.00450206117857799 0.17688747855202069 0 -0.0026654791677323511 0.16604552865166611 0 -0.00450206117857799 0.17688747855202069 0 -0.0026654791677323511 0.16604552865166611 0 0.0024081860720475369 0.17557227428335351 0 -0.00450206117857799 0.17688747855202069 0 0.00053502205069707774 0.18188021690744111 0 0.0024081860720475369 0.17557227428335351 0 -0.0099503170468955675 0.185467411183286 0 -0.00450206117857799 0.17688747855202069 0 0.00053502205069707774 0.18188021690744111 0 -0.003081975793268537 0.18782002811878001 0 -0.0099503170468955675 0.185467411183286 0 0.00053502205069707774 0.18188021690744111 0 -0.022139091883514501 0.16815071126606429 0 -0.016648491277264341 0.15771365056650341 0 -0.0026654791677323511 0.16604552865166611 0 -0.022139091883514501 0.16815071126606429 0 -0.01283771780100665 0.17547196173435681 0 -0.0026654791677323511 0.16604552865166611 0 -0.016648491277264341 0.15771365056650341 0 -0.0026654791677323511 0.16604552865166611 0 0.00151890392611572 0.15456094484017679 0 -0.016648491277264341 0.15771365056650341 0 -0.0026654791677323511 0.16604552865166611 0 -0.0082797250895681185 0.13474448294352481 0 0.00151890392611572 0.15456094484017679 0 -0.016648491277264341 0.15771365056650341 0 -0.0082797250895681185 0.13474448294352481 0 0.00151890392611572 0.15456094484017679 0 -0.016648491277264341 0.15771365056650341 0 -0.03096555907766051 0.14775731769023701 0 -0.022194887374489752 0.13451860905663129 0 -0.016648491277264341 0.15771365056650341 0 -0.022194887374489752 0.13451860905663129 0 -0.0082797250895681185 0.13474448294352481 0 -0.035508455794597132 0.13046501110523001 0 -0.03096555907766051 0.14775731769023701 0 -0.022194887374489752 0.13451860905663129 0 -0.035508455794597132 0.13046501110523001 0 -0.022194887374489752 0.13451860905663129 0 -0.02222625157844095 0.1227088344756834 0 -0.022194887374489752 0.13451860905663129 0 -0.012678773622269129 0.1213748672570316 0 -0.02222625157844095 0.1227088344756834 0 -0.022194887374489752 0.13451860905663129 0 -0.0082797250895681185 0.13474448294352481 0 -0.012678773622269129 0.1213748672570316 0 -0.0082797250895681185 0.13474448294352481 0 -0.012678773622269129 0.1213748672570316 0 0.0010393500416724941 0.12595831854165979 0 -0.012678773622269129 0.1213748672570316 0 -0.0069683050282923539 0.11495619240176071 0 0.0010393500416724941 0.12595831854165979 0 -0.0069683050282923539 0.11495619240176071 0 0.00039794405216867472 0.112072386291362 0 0.0010393500416724941 0.12595831854165979 0 -0.012678773622269129 0.1213748672570316 0 -0.012248850971573841 0.1125208075020822 0 -0.01744198128355802 0.11503771634109559 0 -0.012678773622269129 0.1213748672570316 0 -0.012248850971573841 0.1125208075020822 0 -0.0069683050282923539 0.11495619240176071 0 -0.012248850971573841 0.1125208075020822 0 -0.0069683050282923539 0.11495619240176071 0 -0.0083997351711877014 0.10895079227570641 0 -0.0069683050282923539 0.11495619240176071 0 -0.0083997351711877014 0.10895079227570641 0 0.00039794405216867472 0.112072386291362 0 -0.011506603279544361 0.087618711973773578 0 0.0058206420146291954 0.1114089238878985 0 0.00039794405216867472 0.112072386291362 0 -0.015837719346710199 0.095350294128549784 0 -0.011506603279544361 0.087618711973773578 0 0.00039794405216867472 0.112072386291362 0 -0.011506603279544361 0.087618711973773578 0 0.0058206420146291954 0.1114089238878985 0 -0.015837719346710199 0.095350294128549784 0 0.00039794405216867472 0.112072386291362 0 -0.0083997351711877014 0.10895079227570641 0 -0.015837719346710199 0.095350294128549784 0 0.00039794405216867472 0.112072386291362 0 -0.011506603279544361 0.087618711973773578 0 0.0017142141577850001 0.096485027642689541 0 0.0058206420146291954 0.1114089238878985 0 -0.0083997351711877014 0.10895079227570641 0 -0.013221823848225379 0.1065091018144344 0 -0.015837719346710199 0.095350294128549784 0 -0.012248850971573841 0.1125208075020822 0 -0.0083997351711877014 0.10895079227570641 0 -0.013221823848225379 0.1065091018144344 0 -0.012248850971573841 0.1125208075020822 0 -0.013221823848225379 0.1065091018144344 0 -0.017997844109414411 0.1087655018954708 0 -0.017997844109414411 0.1087655018954708 0 -0.015837719346710199 0.095350294128549784 0 -0.024123805385937312 0.11014199076292169 0 -0.013221823848225379 0.1065091018144344 0 -0.017997844109414411 0.1087655018954708 0 -0.015837719346710199 0.095350294128549784 0 -0.024123805385937312 0.11014199076292169 0 -0.032300333499350402 0.090057470672271281 0 -0.015837719346710199 0.095350294128549784 0 -0.024123805385937312 0.11014199076292169 0 -0.032300333499350402 0.090057470672271281 0 -0.015837719346710199 0.095350294128549784 0 -0.024123805385937312 0.11014199076292169 0 -0.035508455794597132 0.13046501110523001 0 -0.024123805385937312 0.11014199076292169 0 -0.023307159817290739 0.1121479686184283 0 -0.035508455794597132 0.13046501110523001 0 -0.02222625157844095 0.1227088344756834 0 -0.023307159817290739 0.1121479686184283 0 -0.035508455794597132 0.13046501110523001 0 -0.024123805385937312 0.11014199076292169 0 -0.024123805385937312 0.11014199076292169 0 -0.023307159817290739 0.1121479686184283 0 -0.012678773622269129 0.1213748672570316 0 -0.02222625157844095 0.1227088344756834 0 -0.01744198128355802 0.11503771634109559 0 -0.02222625157844095 0.1227088344756834 0 -0.01744198128355802 0.11503771634109559 0 -0.023307159817290739 0.1121479686184283 0 -0.012248850971573841 0.1125208075020822 0 -0.017997844109414411 0.1087655018954708 0 -0.01744198128355802 0.11503771634109559 0 -0.017997844109414411 0.1087655018954708 0 -0.024123805385937312 0.11014199076292169 0 -0.023307159817290739 0.1121479686184283 0 -0.017997844109414411 0.1087655018954708 0 -0.01744198128355802 0.11503771634109559 0 -0.023307159817290739 0.1121479686184283 0 -0.0046988296279310846 0.075465987257500103 0 -0.004471055932428975 0.061346262570306953 0 0.0079626054049135586 0.052863747179962457 0 -0.0093767874180366029 0.073051079923104223 0 -0.014915188529848109 0.07157527628023079 0 -0.011506603279544361 0.087618711973773578 0 -0.0096267601800840239 0.066065855624376196 0 -0.01690032334888349 0.065021557104339434 0 -0.015766095144715799 0.059221925757037469 0 -0.0096267601800840239 0.066065855624376196 0 -0.014915188529848109 0.07157527628023079 0 -0.01690032334888349 0.065021557104339434 0 -0.0096267601800840239 0.066065855624376196 0 -0.0093767874180366029 0.073051079923104223 0 -0.014915188529848109 0.07157527628023079 0 -0.0096267601800840239 0.066065855624376196 0 -0.0046988296279310846 0.075465987257500103 0 -0.004471055932428975 0.061346262570306953 0 -0.0046988296279310846 0.075465987257500103 0 -0.0093767874180366029 0.073051079923104223 0 -0.0096267601800840239 0.066065855624376196 0 -0.0046988296279310846 0.075465987257500103 0 -0.0093767874180366029 0.073051079923104223 0 -0.0046988296279310846 0.075465987257500103 0 -0.011506603279544361 0.087618711973773578 0 -0.0046988296279310846 0.075465987257500103 0 -0.0093767874180366029 0.073051079923104223 0 -0.011506603279544361 0.087618711973773578 0 -0.0046988296279310846 0.075465987257500103 0 -0.011506603279544361 0.087618711973773578 0 0.00056903788424511365 0.086682396089073327 0 -0.011506603279544361 0.087618711973773578 0 0.00056903788424511365 0.086682396089073327 0 0.0017142141577850001 0.096485027642689541 0 -0.015837719346710199 0.095350294128549784 0 -0.011506603279544361 0.087618711973773578 0 -0.011506603279544361 0.087618711973773578 0 -0.028157290479737571 0.082661622355085798 0 -0.027165468422692102 0.066119176775560506 0 -0.015837719346710199 0.095350294128549784 0 -0.011506603279544361 0.087618711973773578 0 -0.028157290479737571 0.082661622355085798 0 -0.015837719346710199 0.095350294128549784 0 -0.028157290479737571 0.082661622355085798 0 -0.032300333499350402 0.090057470672271281 0 -0.015837719346710199 0.095350294128549784 0 -0.028157290479737571 0.082661622355085798 0 -0.014915188529848109 0.07157527628023079 0 -0.011506603279544361 0.087618711973773578 0 -0.027165468422692102 0.066119176775560506 0 -0.011506603279544361 0.087618711973773578 0 -0.027165468422692102 0.066119176775560506 0 -0.027165468422692102 0.066119176775560506 0 -0.01690032334888349 0.065021557104339434 0 -0.021155304748881689 0.062203044053262727 0 -0.014915188529848109 0.07157527628023079 0 -0.027165468422692102 0.066119176775560506 0 -0.01690032334888349 0.065021557104339434 0 -0.027165468422692102 0.066119176775560506 0 -0.040476861612764189 0.069972950581621118 0 -0.047888547298180387 0.051767161035057033 0 -0.028157290479737571 0.082661622355085798 0 -0.027165468422692102 0.066119176775560506 0 -0.040476861612764189 0.069972950581621118 0 -0.040476861612764189 0.069972950581621118 0 -0.049934811086014087 0.07186746235717667 0 -0.047859912164240369 0.063897566148078455 0 -0.028157290479737571 0.082661622355085798 0 -0.040476861612764189 0.069972950581621118 0 -0.040476861612764189 0.069972950581621118 0 -0.032300333499350402 0.090057470672271281 0 -0.028157290479737571 0.082661622355085798 0 -0.040476861612764189 0.069972950581621118 0 -0.032300333499350402 0.090057470672271281 0 -0.032300333499350402 0.090057470672271281 0 -0.052294403454901703 0.081174947256086191 0 -0.05578440732887191 0.096170589739797752 0 -0.040476861612764189 0.069972950581621118 0 -0.032300333499350402 0.090057470672271281 0 -0.052294403454901703 0.081174947256086191 0 -0.052294403454901703 0.081174947256086191 0 -0.05578440732887191 0.096170589739797752 0 -0.071620526940906107 0.087533684005701329 0 -0.052294403454901703 0.081174947256086191 0 -0.071620526940906107 0.087533684005701329 0 -0.062515526400001881 0.068377579792855414 0 -0.040476861612764189 0.069972950581621118 0 -0.052294403454901703 0.081174947256086191 0 -0.049934811086014087 0.07186746235717667 0 -0.052294403454901703 0.081174947256086191 0 -0.049934811086014087 0.07186746235717667 0 -0.062515526400001881 0.068377579792855414 0 -0.049934811086014087 0.07186746235717667 0 -0.052204780428632629 0.062945341387988421 0 -0.062515526400001881 0.068377579792855414 0 -0.052204780428632629 0.062945341387988421 0 -0.062515526400001881 0.068377579792855414 0 -0.055379183454653792 0.058514889464143828 0 -0.049934811086014087 0.07186746235717667 0 -0.052204780428632629 0.062945341387988421 0 -0.047859912164240369 0.063897566148078455 0 -0.024123805385937312 0.11014199076292169 0 -0.04045215309894238 0.1165912735558266 0 -0.041170092212669533 0.1046411265361262 0 -0.035508455794597132 0.13046501110523001 0 -0.024123805385937312 0.11014199076292169 0 -0.04045215309894238 0.1165912735558266 0 -0.04045215309894238 0.1165912735558266 0 -0.041170092212669533 0.1046411265361262 0 -0.052159737415513489 0.1112025467171566 0 -0.032300333499350402 0.090057470672271281 0 -0.041170092212669533 0.1046411265361262 0 -0.05578440732887191 0.096170589739797752 0 -0.024123805385937312 0.11014199076292169 0 -0.032300333499350402 0.090057470672271281 0 -0.041170092212669533 0.1046411265361262 0 -0.05578440732887191 0.096170589739797752 0 -0.052159737415513489 0.1112025467171566 0 -0.07438317581125764 0.1124407737129243 0 -0.041170092212669533 0.1046411265361262 0 -0.05578440732887191 0.096170589739797752 0 -0.052159737415513489 0.1112025467171566 0 -0.055186524828957063 0.1281687789626855 0 -0.04045215309894238 0.1165912735558266 0 -0.052159737415513489 0.1112025467171566 0 -0.055186524828957063 0.1281687789626855 0 -0.052159737415513489 0.1112025467171566 0 -0.07438317581125764 0.1124407737129243 0 -0.092802426943272898 0.12960292979422991 0 -0.07438317581125764 0.1124407737129243 0 -0.10110008134148971 0.1098561456819369 0 -0.07438317581125764 0.1124407737129243 0 -0.086834659998143784 0.098004038152668241 0 -0.10110008134148971 0.1098561456819369 0 -0.07438317581125764 0.1124407737129243 0 -0.086834659998143784 0.098004038152668241 0 -0.071620526940906107 0.087533684005701329 0 -0.05578440732887191 0.096170589739797752 0 -0.07438317581125764 0.1124407737129243 0 -0.071620526940906107 0.087533684005701329 0 -0.071620526940906107 0.087533684005701329 0 -0.062515526400001881 0.068377579792855414 0 -0.077633089280774809 0.070659037798975324 0 -0.062515526400001881 0.068377579792855414 0 -0.077633089280774809 0.070659037798975324 0 -0.069862538744371955 0.057777113150521288 0 -0.077633089280774809 0.070659037798975324 0 -0.081860045586377939 0.060182951188062161 0 -0.069862538744371955 0.057777113150521288 0 -0.077633089280774809 0.070659037798975324 0 -0.09054666164713164 0.067286880848174316 0 -0.081860045586377939 0.060182951188062161 0 -0.077633089280774809 0.070659037798975324 0 -0.09054666164713164 0.067286880848174316 0 -0.091096470542610469 0.082323341280698709 0 -0.071620526940906107 0.087533684005701329 0 -0.077633089280774809 0.070659037798975324 0 -0.091096470542610469 0.082323341280698709 0 -0.086834659998143784 0.098004038152668241 0 -0.071620526940906107 0.087533684005701329 0 -0.091096470542610469 0.082323341280698709 0 -0.086834659998143784 0.098004038152668241 0 -0.091096470542610469 0.082323341280698709 0 -0.1074822184466613 0.088136729408796272 0 -0.091096470542610469 0.082323341280698709 0 -0.1074822184466613 0.088136729408796272 0 -0.10104646070399111 0.074349611526457776 0 -0.1074822184466613 0.088136729408796272 0 -0.10104646070399111 0.074349611526457776 0 -0.1134486320906168 0.071653759806922179 0 -0.09054666164713164 0.067286880848174316 0 -0.10104646070399111 0.074349611526457776 0 -0.1026583207929353 0.062347346287697412 0 -0.09054666164713164 0.067286880848174316 0 -0.091096470542610469 0.082323341280698709 0 -0.10104646070399111 0.074349611526457776 0 -0.10104646070399111 0.074349611526457776 0 -0.1134486320906168 0.071653759806922179 0 -0.1026583207929353 0.062347346287697412 0 -0.1134486320906168 0.071653759806922179 0 -0.1169815729820268 0.057446916627697332 0 -0.1026583207929353 0.062347346287697412 0 -0.1134486320906168 0.071653759806922179 0 -0.12498233095038511 0.069533312171706482 0 -0.1248370695698198 0.083226530136874921 0 -0.1134486320906168 0.071653759806922179 0 -0.12498233095038511 0.069533312171706482 0 -0.1169815729820268 0.057446916627697332 0 -0.1074822184466613 0.088136729408796272 0 -0.1134486320906168 0.071653759806922179 0 -0.1248370695698198 0.083226530136874921 0 -0.12991930243541749 0.1020465165188278 0 -0.1074822184466613 0.088136729408796272 0 -0.1248370695698198 0.083226530136874921 0 -0.12991930243541749 0.1020465165188278 0 -0.1074822184466613 0.088136729408796272 0 -0.10110008134148971 0.1098561456819369 0 -0.12991930243541749 0.1020465165188278 0 -0.1131006250587715 0.12959615498317961 0 -0.10110008134148971 0.1098561456819369 0 -0.12991930243541749 0.1020465165188278 0 -0.13028426483969929 0.13221647237215789 0 -0.1131006250587715 0.12959615498317961 0 -0.1131006250587715 0.12959615498317961 0 -0.092802426943272898 0.12960292979422991 0 -0.10110008134148971 0.1098561456819369 0 -0.086834659998143784 0.098004038152668241 0 -0.1074822184466613 0.088136729408796272 0 -0.10110008134148971 0.1098561456819369 0 -0.1061587232064081 0.029080734372794698 0 -0.094449021505079139 0.018227913303066591 0 -0.1094215753963574 0.0115277712725063 0 -0.1061587232064081 0.029080734372794698 0 -0.094924595462104619 0.030399760044886301 0 -0.094449021505079139 0.018227913303066591 0 -0.094449021505079139 0.018227913303066591 0 -0.097507665945787692 0.0040820149966005574 0 -0.1094215753963574 0.0115277712725063 0 -0.097507665945787692 0.0040820149966005574 0 -0.1058521268010089 0.00073384547527136773 0 -0.1094215753963574 0.0115277712725063 0 -0.1152652699767374 -0.0044733142422073097 0 -0.1273771369441013 0.0023450629401116992 0 -0.1094215753963574 0.0115277712725063 0 -0.1152652699767374 -0.0044733142422073097 0 -0.1058521268010089 0.00073384547527136773 0 -0.1094215753963574 0.0115277712725063 0 -0.1273771369441013 0.0023450629401116992 0 -0.12537023626190849 0.01701499410391356 0 -0.1094215753963574 0.0115277712725063 0 -0.12537023626190849 0.01701499410391356 0 -0.1094215753963574 0.0115277712725063 0 -0.1154752524598698 0.02214949429500624 0 -0.12537023626190849 0.01701499410391356 0 -0.1154752524598698 0.02214949429500624 0 -0.120950474974805 0.030974477430810402 0 -0.1061587232064081 0.029080734372794698 0 -0.1094215753963574 0.0115277712725063 0 -0.1154752524598698 0.02214949429500624 0 -0.1061587232064081 0.029080734372794698 0 -0.1154752524598698 0.02214949429500624 0 -0.120950474974805 0.030974477430810402 0 -0.1304591025064194 0.044551821316570157 0 -0.120950474974805 0.030974477430810402 0 -0.112428546201817 0.041955624634692393 0 -0.1061587232064081 0.029080734372794698 0 -0.120950474974805 0.030974477430810402 0 -0.112428546201817 0.041955624634692393 0 -0.1304591025064194 0.044551821316570157 0 -0.112428546201817 0.041955624634692393 0 -0.1169815729820268 0.057446916627697332 0 -0.1311901693420546 0.060374133793646992 0 -0.12498233095038511 0.069533312171706482 0 -0.1169815729820268 0.057446916627697332 0 -0.112428546201817 0.041955624634692393 0 -0.1169815729820268 0.057446916627697332 0 -0.10210071185166431 0.050014029354961582 0 -0.1169815729820268 0.057446916627697332 0 -0.1026583207929353 0.062347346287697412 0 -0.10210071185166431 0.050014029354961582 0 -0.10210071185166431 0.050014029354961582 0 -0.091201579857211959 0.041080799774458047 0 -0.091131717688311603 0.055225201160547438 0 -0.1026583207929353 0.062347346287697412 0 -0.10210071185166431 0.050014029354961582 0 -0.091131717688311603 0.055225201160547438 0 -0.09054666164713164 0.067286880848174316 0 -0.1026583207929353 0.062347346287697412 0 -0.091131717688311603 0.055225201160547438 0 -0.1061587232064081 0.029080734372794698 0 -0.112428546201817 0.041955624634692393 0 -0.1016080011228369 0.039407166226836883 0 -0.112428546201817 0.041955624634692393 0 -0.10210071185166431 0.050014029354961582 0 -0.1016080011228369 0.039407166226836883 0 -0.10210071185166431 0.050014029354961582 0 -0.1016080011228369 0.039407166226836883 0 -0.091201579857211959 0.041080799774458047 0 -0.1061587232064081 0.029080734372794698 0 -0.094924595462104619 0.030399760044886301 0 -0.1016080011228369 0.039407166226836883 0 -0.094924595462104619 0.030399760044886301 0 -0.1016080011228369 0.039407166226836883 0 -0.091201579857211959 0.041080799774458047 0 -0.094924595462104619 0.030399760044886301 0 -0.091201579857211959 0.041080799774458047 0 -0.083613433652756419 0.02825823648094046 0 -0.091201579857211959 0.041080799774458047 0 -0.080163505572120847 0.038728335950810322 0 -0.0801262205712997 0.049966522982092462 0 -0.091201579857211959 0.041080799774458047 0 -0.080163505572120847 0.038728335950810322 0 -0.083613433652756419 0.02825823648094046 0 -0.080163505572120847 0.038728335950810322 0 -0.075199828102842814 0.032505994045140242 0 -0.083613433652756419 0.02825823648094046 0 -0.09054666164713164 0.067286880848174316 0 -0.091131717688311603 0.055225201160547438 0 -0.081860045586377939 0.060182951188062161 0 -0.091201579857211959 0.041080799774458047 0 -0.091131717688311603 0.055225201160547438 0 -0.0801262205712997 0.049966522982092462 0 -0.091131717688311603 0.055225201160547438 0 -0.0801262205712997 0.049966522982092462 0 -0.081860045586377939 0.060182951188062161 0 -0.0801262205712997 0.049966522982092462 0 -0.069862538744371955 0.057777113150521288 0 -0.06901267431079619 0.039797487593251017 0 -0.069862538744371955 0.057777113150521288 0 -0.06901267431079619 0.039797487593251017 0 -0.058907879691800273 0.050969475640674493 0 -0.062515526400001881 0.068377579792855414 0 -0.069862538744371955 0.057777113150521288 0 -0.058907879691800273 0.050969475640674493 0 -0.0801262205712997 0.049966522982092462 0 -0.081860045586377939 0.060182951188062161 0 -0.069862538744371955 0.057777113150521288 0 -0.06901267431079619 0.039797487593251017 0 -0.068009698875697827 0.023239916155559141 0 -0.055300232983598208 0.033561371488493641 0 -0.075199828102842814 0.032505994045140242 0 -0.06901267431079619 0.039797487593251017 0 -0.068009698875697827 0.023239916155559141 0 -0.080163505572120847 0.038728335950810322 0 -0.075199828102842814 0.032505994045140242 0 -0.06901267431079619 0.039797487593251017 0 -0.080163505572120847 0.038728335950810322 0 -0.0801262205712997 0.049966522982092462 0 -0.06901267431079619 0.039797487593251017 0 -0.068009698875697827 0.023239916155559141 0 -0.066123158358303874 0.0069763394170788487 0 -0.055300232983598208 0.033561371488493641 0 -0.068009698875697827 0.023239916155559141 0 -0.083613433652756419 0.02825823648094046 0 -0.080050012301679602 0.015705407900093959 0 -0.068009698875697827 0.023239916155559141 0 -0.080050012301679602 0.015705407900093959 0 -0.07274845615251338 0.0135364418571977 0 -0.075199828102842814 0.032505994045140242 0 -0.068009698875697827 0.023239916155559141 0 -0.083613433652756419 0.02825823648094046 0 -0.094449021505079139 0.018227913303066591 0 -0.083613433652756419 0.02825823648094046 0 -0.080050012301679602 0.015705407900093959 0 -0.094924595462104619 0.030399760044886301 0 -0.094449021505079139 0.018227913303066591 0 -0.083613433652756419 0.02825823648094046 0 -0.089124004628701792 -0.0040277377021705899 0 -0.097507665945787692 0.0040820149966005574 0 -0.086098134196158846 0.0059583430860626887 0 -0.094449021505079139 0.018227913303066591 0 -0.080050012301679602 0.015705407900093959 0 -0.086098134196158846 0.0059583430860626887 0 -0.094449021505079139 0.018227913303066591 0 -0.097507665945787692 0.0040820149966005574 0 -0.086098134196158846 0.0059583430860626887 0 -0.080050012301679602 0.015705407900093959 0 -0.086098134196158846 0.0059583430860626887 0 -0.076810955074372203 0.0082241039560588727 0 -0.079764572027605563 -0.001208843295517239 0 -0.086098134196158846 0.0059583430860626887 0 -0.076810955074372203 0.0082241039560588727 0 -0.079764572027605563 -0.001208843295517239 0 -0.089124004628701792 -0.0040277377021705899 0 -0.086098134196158846 0.0059583430860626887 0 -0.079764572027605563 -0.001208843295517239 0 -0.076810955074372203 0.0082241039560588727 0 -0.066123158358303874 0.0069763394170788487 0 -0.068009698875697827 0.023239916155559141 0 -0.07274845615251338 0.0135364418571977 0 -0.066123158358303874 0.0069763394170788487 0 -0.076810955074372203 0.0082241039560588727 0 -0.07274845615251338 0.0135364418571977 0 -0.066123158358303874 0.0069763394170788487 0 -0.080050012301679602 0.015705407900093959 0 -0.076810955074372203 0.0082241039560588727 0 -0.07274845615251338 0.0135364418571977 0 -0.047617207273071643 -0.0035118018543059538 0 -0.059664616745900671 -0.0040500510012267867 0 -0.050798470683601923 0.01183886002179501 0 -0.059664616745900671 -0.0040500510012267867 0 -0.066123158358303874 0.0069763394170788487 0 -0.050798470683601923 0.01183886002179501 0 -0.059664616745900671 -0.0040500510012267867 0 -0.050798470683601923 0.01183886002179501 0 -0.047617207273071643 -0.0035118018543059538 0 -0.050798470683601923 0.01183886002179501 0 -0.050798470683601923 0.01183886002179501 0 -0.055300232983598208 0.033561371488493641 0 -0.04692109718252771 0.035386244484329407 0 -0.066123158358303874 0.0069763394170788487 0 -0.055300232983598208 0.033561371488493641 0 -0.066123158358303874 0.0069763394170788487 0 -0.050798470683601923 0.01183886002179501 0 -0.055300232983598208 0.033561371488493641 0 -0.050798470683601923 0.01183886002179501 0 -0.055300232983598208 0.033561371488493641 0 -0.050798470683601923 0.01183886002179501 0 -0.034391162446891957 0.018187238464497092 0 -0.037793901381418679 0.035144188298954319 0 -0.034391162446891957 0.018187238464497092 0 -0.037793901381418679 0.035144188298954319 0 -0.022455882408961961 0.026825405924253771 0 -0.050798470683601923 0.01183886002179501 0 -0.037793901381418679 0.035144188298954319 0 -0.050798470683601923 0.01183886002179501 0 -0.04692109718252771 0.035386244484329407 0 -0.037793901381418679 0.035144188298954319 0 -0.050798470683601923 0.01183886002179501 0 -0.034391162446891957 0.018187238464497092 0 -0.03671052455766443 0.0037031618858211421 0 -0.034391162446891957 0.018187238464497092 0 -0.03671052455766443 0.0037031618858211421 0 -0.022890364083827771 0.01081673007749915 0 -0.047617207273071643 -0.0035118018543059538 0 -0.050798470683601923 0.01183886002179501 0 -0.03671052455766443 0.0037031618858211421 0 -0.062515526400001881 0.068377579792855414 0 -0.058907879691800273 0.050969475640674493 0 -0.062515526400001881 0.068377579792855414 0 -0.055379183454653792 0.058514889464143828 0 -0.058907879691800273 0.050969475640674493 0 -0.052204780428632629 0.062945341387988421 0 -0.047859912164240369 0.063897566148078455 0 -0.047888547298180387 0.051767161035057033 0 -0.052204780428632629 0.062945341387988421 0 -0.055379183454653792 0.058514889464143828 0 -0.047888547298180387 0.051767161035057033 0 -0.055379183454653792 0.058514889464143828 0 -0.058907879691800273 0.050969475640674493 0 -0.047888547298180387 0.051767161035057033 0 -0.06901267431079619 0.039797487593251017 0 -0.058907879691800273 0.050969475640674493 0 -0.055300232983598208 0.033561371488493641 0 -0.047888547298180387 0.051767161035057033 0 -0.055300232983598208 0.033561371488493641 0 -0.04692109718252771 0.035386244484329407 0 -0.058907879691800273 0.050969475640674493 0 -0.047888547298180387 0.051767161035057033 0 -0.055300232983598208 0.033561371488493641 0 -0.047888547298180387 0.051767161035057033 0 -0.055300232983598208 0.033561371488493641 0 -0.058907879691800273 0.050969475640674493 0 -0.055300232983598208 0.033561371488493641 0 -0.037793901381418679 0.035144188298954319 0 -0.024789332079235359 0.058449516576113518 0 -0.047888547298180387 0.051767161035057033 0 -0.04692109718252771 0.035386244484329407 0 -0.042824333565839388 0.044619641577347061 0 -0.037793901381418679 0.035144188298954319 0 -0.042824333565839388 0.044619641577347061 0 -0.024789332079235359 0.058449516576113518 0 -0.04692109718252771 0.035386244484329407 0 -0.037793901381418679 0.035144188298954319 0 -0.042824333565839388 0.044619641577347061 0 -0.027165468422692102 0.066119176775560506 0 -0.047888547298180387 0.051767161035057033 0 -0.042824333565839388 0.044619641577347061 0 -0.040476861612764189 0.069972950581621118 0 -0.047859912164240369 0.063897566148078455 0 -0.047888547298180387 0.051767161035057033 0 -0.040476861612764189 0.069972950581621118 0 -0.047888547298180387 0.051767161035057033 0 -0.027165468422692102 0.066119176775560506 0 -0.042824333565839388 0.044619641577347061 0 -0.027165468422692102 0.066119176775560506 0 -0.042824333565839388 0.044619641577347061 0 -0.024789332079235359 0.058449516576113518 0 -0.015766095144715799 0.059221925757037469 0 -0.024789332079235359 0.058449516576113518 0 -0.0190365636870411 0.05257699221554326 0 -0.015766095144715799 0.059221925757037469 0 -0.021155304748881689 0.062203044053262727 0 -0.024789332079235359 0.058449516576113518 0 -0.01690032334888349 0.065021557104339434 0 -0.015766095144715799 0.059221925757037469 0 -0.021155304748881689 0.062203044053262727 0 -0.027165468422692102 0.066119176775560506 0 -0.021155304748881689 0.062203044053262727 0 -0.024789332079235359 0.058449516576113518 0 -0.024789332079235359 0.058449516576113518 0 -0.0190365636870411 0.05257699221554326 0 -0.02501616098884394 0.043295095323351421 0 -0.0190365636870411 0.05257699221554326 0 -0.02501616098884394 0.043295095323351421 0 -0.010574666535369299 0.049341431205670631 0 -0.037793901381418679 0.035144188298954319 0 -0.024789332079235359 0.058449516576113518 0 -0.02501616098884394 0.043295095323351421 0 -0.037793901381418679 0.035144188298954319 0 -0.02501616098884394 0.043295095323351421 0 -0.022455882408961961 0.026825405924253771 0 -0.02501616098884394 0.043295095323351421 0 -0.01174883101074616 0.035626247072063598 0 -0.022455882408961961 0.026825405924253771 0 -0.02501616098884394 0.043295095323351421 0 -0.01174883101074616 0.035626247072063598 0 -0.010574666535369299 0.049341431205670631 0 -0.01174883101074616 0.035626247072063598 0 -0.010574666535369299 0.049341431205670631 0 0.0050554059078342702 0.036817447586302399 0 -0.010574666535369299 0.049341431205670631 0 -0.004471055932428975 0.061346262570306953 0 0.0079626054049135586 0.052863747179962457 0 -0.015766095144715799 0.059221925757037469 0 -0.0190365636870411 0.05257699221554326 0 -0.010574666535369299 0.049341431205670631 0 -0.015766095144715799 0.059221925757037469 0 -0.010574666535369299 0.049341431205670631 0 -0.004471055932428975 0.061346262570306953 0 -0.0096267601800840239 0.066065855624376196 0 -0.015766095144715799 0.059221925757037469 0 -0.004471055932428975 0.061346262570306953 0 -0.025670282478897081 -0.0054027298625421993 0 -0.03671052455766443 0.0037031618858211421 0 -0.022890364083827771 0.01081673007749915 0 -0.025670282478897081 -0.0054027298625421993 0 -0.022890364083827771 0.01081673007749915 0 -0.010105069976996849 0.0023765649732562961 0 -0.022890364083827771 0.01081673007749915 0 -0.022455882408961961 0.026825405924253771 0 -0.0028948745420432241 0.01788293630915707 0 -0.034391162446891957 0.018187238464497092 0 -0.022890364083827771 0.01081673007749915 0 -0.022455882408961961 0.026825405924253771 0 -0.01174883101074616 0.035626247072063598 0 -0.022455882408961961 0.026825405924253771 0 -0.0028948745420432241 0.01788293630915707 0 -0.01174883101074616 0.035626247072063598 0 -0.0028948745420432241 0.01788293630915707 0 0.0050554059078342702 0.036817447586302399 0 -0.022890364083827771 0.01081673007749915 0 -0.0028948745420432241 0.01788293630915707 0 -0.010105069976996849 0.0023765649732562961 0 -0.0028948745420432241 0.01788293630915707 0 -0.010105069976996849 0.0023765649732562961 0 0.0047038114401232534 -0.001040937293712483 0 -0.0028948745420432241 0.01788293630915707 0 0.020415517075116841 0.0076517724901667356 0 0.0047038114401232534 -0.001040937293712483 0 -0.0028948745420432241 0.01788293630915707 0 0.020342672512877309 0.02491627604112644 0 0.020415517075116841 0.0076517724901667356 0 -0.0028948745420432241 0.01788293630915707 0 0.020342672512877309 0.02491627604112644 0 0.0050554059078342702 0.036817447586302399 0 0.020342672512877309 0.02491627604112644 0 0.020415517075116841 0.0076517724901667356 0 0.04034715667016759 0.018897687307637179 0 0.020342672512877309 0.02491627604112644 0 0.02507841675544124 0.048354097280414877 0 0.04034715667016759 0.018897687307637179 0 0.0079626054049135586 0.052863747179962457 0 0.02507841675544124 0.048354097280414877 0 0.010722424996073881 0.068121568230846891 0 -0.010574666535369299 0.049341431205670631 0 0.0079626054049135586 0.052863747179962457 0 0.0050554059078342702 0.036817447586302399 0 0.0079626054049135586 0.052863747179962457 0 0.0050554059078342702 0.036817447586302399 0 0.02507841675544124 0.048354097280414877 0 0.020342672512877309 0.02491627604112644 0 0.0050554059078342702 0.036817447586302399 0 0.02507841675544124 0.048354097280414877 0 0.02507841675544124 0.048354097280414877 0 0.050251726499931808 0.044842678424317363 0 0.039807943620716157 0.068946520475498749 0 0.050251726499931808 0.044842678424317363 0 0.039807943620716157 0.068946520475498749 0 0.02507841675544124 0.048354097280414877 0 0.050251726499931808 0.044842678424317363 0 0.04034715667016759 0.018897687307637179 0 0.050251726499931808 0.044842678424317363 0 0.060695509379147472 0.02073883637313596 0 0.066628286533047365 0.040173783681243101 0 0.050251726499931808 0.044842678424317363 0 0.060695509379147472 0.02073883637313596 0 0.050251726499931808 0.044842678424317363 0 0.066628286533047365 0.040173783681243101 0 0.063756980967503582 0.059761195325569103 0 0.050251726499931808 0.044842678424317363 0 0.063756980967503582 0.059761195325569103 0 0.039807943620716157 0.068946520475498749 0 0.020415517075116841 0.0076517724901667356 0 0.04034715667016759 0.018897687307637179 0 0.039787151186370009 -0.0039594854922263374 0 0.04034715667016759 0.018897687307637179 0 0.053306813386582982 0.0056008818424343951 0 0.039787151186370009 -0.0039594854922263374 0 0.050251726499931808 0.044842678424317363 0 0.04034715667016759 0.018897687307637179 0 0.060695509379147472 0.02073883637313596 0 0.04034715667016759 0.018897687307637179 0 0.060695509379147472 0.02073883637313596 0 0.053306813386582982 0.0056008818424343951 0 0.060695509379147472 0.02073883637313596 0 0.053306813386582982 0.0056008818424343951 0 0.065940651683257009 0.0024831850618150888 0 0.060695509379147472 0.02073883637313596 0 0.065940651683257009 0.0024831850618150888 0 0.07992851590561921 0.0082161523869754144 0 0.065940651683257009 0.0024831850618150888 0 0.07992851590561921 0.0082161523869754144 0 0.074177093133044117 -0.010507922444979889 0 0.07992851590561921 0.0082161523869754144 0 0.1009244284881298 0.0078078577834924806 0 0.09649789417263642 -0.0037639840011086311 0 0.07992851590561921 0.0082161523869754144 0 0.1009244284881298 0.0078078577834924806 0 0.09893654195113713 0.02570505514797651 0 0.07992851590561921 0.0082161523869754144 0 0.08516149451907469 0.032589503251719387 0 0.07992851590561921 0.0082161523869754144 0 0.08516149451907469 0.032589503251719387 0 0.09893654195113713 0.02570505514797651 0 0.060695509379147472 0.02073883637313596 0 0.07992851590561921 0.0082161523869754144 0 0.08516149451907469 0.032589503251719387 0 0.060695509379147472 0.02073883637313596 0 0.066628286533047365 0.040173783681243101 0 0.08516149451907469 0.032589503251719387 0 0.066628286533047365 0.040173783681243101 0 0.076734924211177571 0.049535316522237388 0 0.08516149451907469 0.032589503251719387 0 0.066628286533047365 0.040173783681243101 0 0.063756980967503582 0.059761195325569103 0 0.076734924211177571 0.049535316522237388 0 0.063756980967503582 0.059761195325569103 0 0.076734924211177571 0.049535316522237388 0 0.078896317813284711 0.063130005487330554 0 0.076734924211177571 0.049535316522237388 0 0.090394473132530156 0.056962854116463339 0 0.078896317813284711 0.063130005487330554 0 0.090394473132530156 0.056962854116463339 0 0.08516149451907469 0.032589503251719387 0 0.076734924211177571 0.049535316522237388 0 0.090394473132530156 0.056962854116463339 0 0.08516149451907469 0.032589503251719387 0 0.090394473132530156 0.056962854116463339 0 0.08516149451907469 0.032589503251719387 0 0.096764564946639139 0.043178279343160431 0 0.08516149451907469 0.032589503251719387 0 0.096764564946639139 0.043178279343160431 0 0.09893654195113713 0.02570505514797651 0 0.096764564946639139 0.043178279343160431 0 0.10666951487556919 0.040720151324231749 0 0.09893654195113713 0.02570505514797651 0 0.096764564946639139 0.043178279343160431 0 0.10666951487556919 0.040720151324231749 0 0.10388747543703999 0.053358399551525167 0 0.10666951487556919 0.040720151324231749 0 0.1142736493139349 0.03087626799389703 0 0.09893654195113713 0.02570505514797651 0 0.10388747543703999 0.053358399551525167 0 0.11892469151436 0.060175562481194378 0 0.096340815718618328 0.066677421107029802 0 0.090394473132530156 0.056962854116463339 0 0.10388747543703999 0.053358399551525167 0 0.096340815718618328 0.066677421107029802 0 0.090394473132530156 0.056962854116463339 0 0.096764564946639139 0.043178279343160431 0 0.10388747543703999 0.053358399551525167 0 0.10666951487556919 0.040720151324231749 0 0.10388747543703999 0.053358399551525167 0 0.1137328545953389 0.049471119462924477 0 0.1137328545953389 0.049471119462924477 0 0.11892469151436 0.060175562481194378 0 0.12367169586596689 0.04413069599522032 0 0.10388747543703999 0.053358399551525167 0 0.1137328545953389 0.049471119462924477 0 0.11892469151436 0.060175562481194378 0 0.10666951487556919 0.040720151324231749 0 0.12367169586596689 0.04413069599522032 0 0.1142736493139349 0.03087626799389703 0 0.12367169586596689 0.04413069599522032 0 0.1142736493139349 0.03087626799389703 0 0.13034027439662041 0.028127834929059549 0 0.10666951487556919 0.040720151324231749 0 0.1137328545953389 0.049471119462924477 0 0.12367169586596689 0.04413069599522032 0 0.1142736493139349 0.03087626799389703 0 0.111750219480381 0.015697602572997061 0 0.13034027439662041 0.028127834929059549 0 0.11917198148314 0.002581966002757949 0 0.13034027439662041 0.028127834929059549 0 0.111750219480381 0.015697602572997061 0 0.11917198148314 0.002581966002757949 0 0.13034027439662041 0.028127834929059549 0 0.11917198148314 0.002581966002757949 0 0.1309849453148588 0.01811654968683717 0 0.1228376310831711 -0.00076623140119310329 0 0.11917198148314 0.002581966002757949 0 0.1228376310831711 -0.00076623140119310329 0 0.11917198148314 0.002581966002757949 0 0.1133629416093747 0.002418872237081233 0 0.1105415625726717 -0.0014271332550589229 0 0.11917198148314 0.002581966002757949 0 0.1133629416093747 0.002418872237081233 0 0.11092652002007269 0.0067640166461111727 0 0.1133629416093747 0.002418872237081233 0 0.1078625722471533 0.0022823866337398822 0 0.1105415625726717 -0.0014271332550589229 0 0.1133629416093747 0.002418872237081233 0 0.11092652002007269 0.0067640166461111727 0 0.1078625722471533 0.0022823866337398822 0 0.111750219480381 0.015697602572997061 0 0.11917198148314 0.002581966002757949 0 0.11092652002007269 0.0067640166461111727 0 0.111750219480381 0.015697602572997061 0 0.11092652002007269 0.0067640166461111727 0 0.1009244284881298 0.0078078577834924806 0 0.1078625722471533 0.0022823866337398822 0 0.1009244284881298 0.0078078577834924806 0 0.1039166904039584 -0.0028966343462391718 0 0.11092652002007269 0.0067640166461111727 0 0.1078625722471533 0.0022823866337398822 0 0.1009244284881298 0.0078078577834924806 0 0.1009244284881298 0.0078078577834924806 0 0.1039166904039584 -0.0028966343462391718 0 0.09649789417263642 -0.0037639840011086311 0 0.111750219480381 0.015697602572997061 0 0.1009244284881298 0.0078078577834924806 0 0.09893654195113713 0.02570505514797651 0 0.1142736493139349 0.03087626799389703 0 0.111750219480381 0.015697602572997061 0 0.09893654195113713 0.02570505514797651 0 0.10086043035944101 0.1057095558459509 0 0.088353675930770217 0.1090445403681379 0 0.098136173783193614 0.12855261503670501 0 0.10086043035944101 0.1057095558459509 0 0.11707998843366239 0.12090166170324231 0 0.098136173783193614 0.12855261503670501 0 0.10086043035944101 0.1057095558459509 0 0.11707998843366239 0.12090166170324231 0 0.12018819637303869 0.10164151191590461 0 0.11707998843366239 0.12090166170324231 0 0.12018819637303869 0.10164151191590461 0 0.1368974078767736 0.107501873099266 0 0.10086043035944101 0.1057095558459509 0 0.12018819637303869 0.10164151191590461 0 0.11039993896964689 0.089589601033300492 0 0.12018819637303869 0.10164151191590461 0 0.1225478872688979 0.090713611373926736 0 0.11039993896964689 0.089589601033300492 0 0.1225478872688979 0.090713611373926736 0 0.1210037722340596 0.082520495593825793 0 0.11039993896964689 0.089589601033300492 0 0.1210037722340596 0.082520495593825793 0 0.11039993896964689 0.089589601033300492 0 0.1079674466630436 0.07575227550831827 0 0.1243405792371938 0.066503547411893488 0 0.1152310018430296 0.068591719667449438 0 0.13121537104960351 0.072689189806444385 0 0.1152310018430296 0.068591719667449438 0 0.1079674466630436 0.07575227550831827 0 0.13121537104960351 0.072689189806444385 0 0.11892469151436 0.060175562481194378 0 0.1152310018430296 0.068591719667449438 0 0.096340815718618328 0.066677421107029802 0 0.1210037722340596 0.082520495593825793 0 0.1079674466630436 0.07575227550831827 0 0.13121537104960351 0.072689189806444385 0 0.1079674466630436 0.07575227550831827 0 0.13121537104960351 0.072689189806444385 0 0.11892469151436 0.060175562481194378 0 0.1243405792371938 0.066503547411893488 0 0.1152310018430296 0.068591719667449438 0 0.090394473132530156 0.056962854116463339 0 0.096340815718618328 0.066677421107029802 0 0.095627451745985609 0.081336204981207194 0 0.11892469151436 0.060175562481194378 0 0.096340815718618328 0.066677421107029802 0 0.1152310018430296 0.068591719667449438 0 0.1079674466630436 0.07575227550831827 0 0.096340815718618328 0.066677421107029802 0 0.1079674466630436 0.07575227550831827 0 0.096340815718618328 0.066677421107029802 0 0.095627451745985609 0.081336204981207194 0 0.10086043035944101 0.1057095558459509 0 0.095627451745985609 0.081336204981207194 0 0.10086043035944101 0.1057095558459509 0 0.095627451745985609 0.081336204981207194 0 0.085469831166676849 0.087436677031336632 0 0.10086043035944101 0.1057095558459509 0 0.11039993896964689 0.089589601033300492 0 0.095627451745985609 0.081336204981207194 0 0.11039993896964689 0.089589601033300492 0 0.1079674466630436 0.07575227550831827 0 0.095627451745985609 0.081336204981207194 0 0.095627451745985609 0.081336204981207194 0 0.085469831166676849 0.087436677031336632 0 0.085588317529406169 0.073238424790440806 0 0.085469831166676849 0.087436677031336632 0 0.085588317529406169 0.073238424790440806 0 0.076873554133312927 0.079435143693455501 0 0.085469831166676849 0.087436677031336632 0 0.070098818600398835 0.095008337279511162 0 0.081838863589211913 0.097859807548057495 0 0.085588317529406169 0.073238424790440806 0 0.078896317813284711 0.063130005487330554 0 0.076873554133312927 0.079435143693455501 0 0.090394473132530156 0.056962854116463339 0 0.095627451745985609 0.081336204981207194 0 0.090394473132530156 0.056962854116463339 0 0.095627451745985609 0.081336204981207194 0 0.085588317529406169 0.073238424790440806 0 0.090394473132530156 0.056962854116463339 0 0.085588317529406169 0.073238424790440806 0 0.078896317813284711 0.063130005487330554 0 0.063756980967503582 0.059761195325569103 0 0.076873554133312927 0.079435143693455501 0 0.058428932400687923 0.080576723114904505 0 0.063756980967503582 0.059761195325569103 0 0.078896317813284711 0.063130005487330554 0 0.076873554133312927 0.079435143693455501 0 0.076873554133312927 0.079435143693455501 0 0.070098818600398835 0.095008337279511162 0 0.058428932400687923 0.080576723114904505 0 0.085469831166676849 0.087436677031336632 0 0.076873554133312927 0.079435143693455501 0 0.070098818600398835 0.095008337279511162 0 0.076873554133312927 0.079435143693455501 0 0.070098818600398835 0.095008337279511162 0 0.070098818600398835 0.095008337279511162 0 0.063324083067484813 0.1105815308655668 0 0.056772327777908818 0.093355456469435216 0 0.070098818600398835 0.095008337279511162 0 0.073686861685182473 0.1058294153104071 0 0.063324083067484813 0.1105815308655668 0 0.070098818600398835 0.095008337279511162 0 0.063324083067484813 0.1105815308655668 0 0.070098818600398835 0.095008337279511162 0 0.073686861685182473 0.1058294153104071 0 0.081838863589211913 0.097859807548057495 0 0.10086043035944101 0.1057095558459509 0 0.088353675930770217 0.1090445403681379 0 0.081838863589211913 0.097859807548057495 0 0.10086043035944101 0.1057095558459509 0 0.085469831166676849 0.087436677031336632 0 0.081838863589211913 0.097859807548057495 0 0.073686861685182473 0.1058294153104071 0 0.081838863589211913 0.097859807548057495 0 0.081058066011519173 0.11973636453468819 0 0.081838863589211913 0.097859807548057495 0 0.081058066011519173 0.11973636453468819 0 0.088353675930770217 0.1090445403681379 0 0.081838863589211913 0.097859807548057495 0 0.081058066011519173 0.11973636453468819 0 0.081058066011519173 0.11973636453468819 0 0.098136173783193614 0.12855261503670501 0 0.088353675930770217 0.1090445403681379 0 0.081058066011519173 0.11973636453468819 0 0.098136173783193614 0.12855261503670501 0 0.081058066011519173 0.11973636453468819 0 0.063324083067484813 0.1105815308655668 0 0.068402942841081005 0.12865021266463919 0 0.081058066011519173 0.11973636453468819 0 0.063324083067484813 0.1105815308655668 0 0.073686861685182473 0.1058294153104071 0 0.081058066011519173 0.11973636453468819 0 0.063324083067484813 0.1105815308655668 0 0.063324083067484813 0.1105815308655668 0 0.047212646671147621 0.11637508280246631 0 0.046344121904492837 0.10181594669612309 0 0.063324083067484813 0.1105815308655668 0 0.047212646671147621 0.11637508280246631 0 0.054704645729867107 0.1303951701743557 0 0.063324083067484813 0.1105815308655668 0 0.054704645729867107 0.1303951701743557 0 0.068402942841081005 0.12865021266463919 0 0.063324083067484813 0.1105815308655668 0 0.054704645729867107 0.1303951701743557 0 0.063324083067484813 0.1105815308655668 0 0.046344121904492837 0.10181594669612309 0 0.056772327777908818 0.093355456469435216 0 0.063324083067484813 0.1105815308655668 0 0.046344121904492837 0.10181594669612309 0 0.046344121904492837 0.10181594669612309 0 0.056772327777908818 0.093355456469435216 0 0.045320775007697253 0.087378911453508054 0 0.046344121904492837 0.10181594669612309 0 0.0293641607415005 0.093050362526680058 0 0.027539824430943272 0.097260859315675907 0 0.046344121904492837 0.10181594669612309 0 0.0293641607415005 0.093050362526680058 0 0.046344121904492837 0.10181594669612309 0 0.045320775007697253 0.087378911453508054 0 0.0293641607415005 0.093050362526680058 0 0.046344121904492837 0.10181594669612309 0 0.034802580128522533 0.108370238657299 0 0.027539824430943272 0.097260859315675907 0 0.047212646671147621 0.11637508280246631 0 0.046344121904492837 0.10181594669612309 0 0.034802580128522533 0.108370238657299 0 0.034802580128522533 0.108370238657299 0 0.02295827912300942 0.1143792008990337 0 0.036209801575650402 0.12755429465012871 0 0.047212646671147621 0.11637508280246631 0 0.054704645729867107 0.1303951701743557 0 0.036209801575650402 0.12755429465012871 0 0.047212646671147621 0.11637508280246631 0 0.034802580128522533 0.108370238657299 0 0.036209801575650402 0.12755429465012871 0 0.063756980967503582 0.059761195325569103 0 0.058428932400687923 0.080576723114904505 0 0.039807943620716157 0.068946520475498749 0 0.058428932400687923 0.080576723114904505 0 0.045320775007697253 0.087378911453508054 0 0.039807943620716157 0.068946520475498749 0 0.070098818600398835 0.095008337279511162 0 0.058428932400687923 0.080576723114904505 0 0.056772327777908818 0.093355456469435216 0 0.058428932400687923 0.080576723114904505 0 0.056772327777908818 0.093355456469435216 0 0.045320775007697253 0.087378911453508054 0 0.039807943620716157 0.068946520475498749 0 0.02523443473854358 0.074793540318702806 0 0.0293641607415005 0.093050362526680058 0 0.045320775007697253 0.087378911453508054 0 0.039807943620716157 0.068946520475498749 0 0.0293641607415005 0.093050362526680058 0 0.039807943620716157 0.068946520475498749 0 0.0293641607415005 0.093050362526680058 0 0.02507841675544124 0.048354097280414877 0 0.039807943620716157 0.068946520475498749 0 0.02523443473854358 0.074793540318702806 0 0.02523443473854358 0.074793540318702806 0 0.01233266555678463 0.084258174892090337 0 0.010722424996073881 0.068121568230846891 0 0.02507841675544124 0.048354097280414877 0 0.02523443473854358 0.074793540318702806 0 0.010722424996073881 0.068121568230846891 0 0.0293641607415005 0.093050362526680058 0 0.01233266555678463 0.084258174892090337 0 0.0293641607415005 0.093050362526680058 0 0.01233266555678463 0.084258174892090337 0 0.019584721545335231 0.095933386042030777 0 0.02523443473854358 0.074793540318702806 0 0.0293641607415005 0.093050362526680058 0 0.01233266555678463 0.084258174892090337 0 -0.0046988296279310846 0.075465987257500103 0 0.01233266555678463 0.084258174892090337 0 -0.0046988296279310846 0.075465987257500103 0 0.00056903788424511365 0.086682396089073327 0 0.01233266555678463 0.084258174892090337 0 0.01233266555678463 0.084258174892090337 0 0.019584721545335231 0.095933386042030777 0 0.0096773837387348072 0.094713106344260181 0 0.00056903788424511365 0.086682396089073327 0 0.0096773837387348072 0.094713106344260181 0 0.0017142141577850001 0.096485027642689541 0 0.00056903788424511365 0.086682396089073327 0 0.01233266555678463 0.084258174892090337 0 0.0096773837387348072 0.094713106344260181 0 -0.0046988296279310846 0.075465987257500103 0 0.0079626054049135586 0.052863747179962457 0 -0.0046988296279310846 0.075465987257500103 0 0.01233266555678463 0.084258174892090337 0 0.010722424996073881 0.068121568230846891 0 -0.0046988296279310846 0.075465987257500103 0 0.0079626054049135586 0.052863747179962457 0 0.010722424996073881 0.068121568230846891 0 0.02295827912300942 0.1143792008990337 0 0.016633607451047409 0.12879447845417449 0 0.036209801575650402 0.12755429465012871 0 0.02295827912300942 0.1143792008990337 0 0.02320798257890765 0.1047443639128517 0 0.017264926825327171 0.1093249123190818 0 0.02295827912300942 0.1143792008990337 0 0.017264926825327171 0.1093249123190818 0 0.01360187540002143 0.11722717171449371 0 0.02295827912300942 0.1143792008990337 0 0.01360187540002143 0.11722717171449371 0 0.016633607451047409 0.12879447845417449 0 0.034802580128522533 0.108370238657299 0 0.027539824430943272 0.097260859315675907 0 0.02320798257890765 0.1047443639128517 0 0.034802580128522533 0.108370238657299 0 0.02295827912300942 0.1143792008990337 0 0.02320798257890765 0.1047443639128517 0 0.0293641607415005 0.093050362526680058 0 0.027539824430943272 0.097260859315675907 0 0.019584721545335231 0.095933386042030777 0 0.027539824430943272 0.097260859315675907 0 0.019584721545335231 0.095933386042030777 0 0.02320798257890765 0.1047443639128517 0 0.0293641607415005 0.093050362526680058 0 0.027539824430943272 0.097260859315675907 0 0.019584721545335231 0.095933386042030777 0 0.02320798257890765 0.1047443639128517 0 0.01504081682007688 0.10253598369847031 0 0.02320798257890765 0.1047443639128517 0 0.017264926825327171 0.1093249123190818 0 0.01504081682007688 0.10253598369847031 0 0.0088228464681819972 0.10238366970120689 0 0.01151568020462046 0.1077378413705596 0 0.0058206420146291954 0.1114089238878985 0 0.017264926825327171 0.1093249123190818 0 0.01504081682007688 0.10253598369847031 0 0.01151568020462046 0.1077378413705596 0 0.01504081682007688 0.10253598369847031 0 0.0088228464681819972 0.10238366970120689 0 0.01151568020462046 0.1077378413705596 0 0.019584721545335231 0.095933386042030777 0 0.01504081682007688 0.10253598369847031 0 0.0096773837387348072 0.094713106344260181 0 0.01504081682007688 0.10253598369847031 0 0.0088228464681819972 0.10238366970120689 0 0.0096773837387348072 0.094713106344260181 0 0.0088228464681819972 0.10238366970120689 0 0.0096773837387348072 0.094713106344260181 0 0.0017142141577850001 0.096485027642689541 0 0.0088228464681819972 0.10238366970120689 0 0.0017142141577850001 0.096485027642689541 0 0.0058206420146291954 0.1114089238878985 0 0.0058206420146291954 0.1114089238878985 0 0.00039794405216867472 0.112072386291362 0 0.01360187540002143 0.11722717171449371 0 0.00039794405216867472 0.112072386291362 0 0.016633607451047409 0.12879447845417449 0 0.00039794405216867472 0.112072386291362 0 0.01360187540002143 0.11722717171449371 0 0.016633607451047409 0.12879447845417449 0 0.00039794405216867472 0.112072386291362 0 0.0010393500416724941 0.12595831854165979 0 0.016633607451047409 0.12879447845417449 0 0.01151568020462046 0.1077378413705596 0 0.0058206420146291954 0.1114089238878985 0 0.01360187540002143 0.11722717171449371 0 0.017264926825327171 0.1093249123190818 0 0.01151568020462046 0.1077378413705596 0 0.01360187540002143 0.11722717171449371 0 -0.0082797250895681185 0.13474448294352481 0 0.0010393500416724941 0.12595831854165979 0 0.01291562537333717 0.14373886088149129 0 0.0010393500416724941 0.12595831854165979 0 0.016633607451047409 0.12879447845417449 0 0.01291562537333717 0.14373886088149129 0 0.016633607451047409 0.12879447845417449 0 0.030096440749716711 0.14309687622970299 0 0.036209801575650402 0.12755429465012871 0 0.016633607451047409 0.12879447845417449 0 0.030096440749716711 0.14309687622970299 0 0.01291562537333717 0.14373886088149129 0 0.030096440749716711 0.14309687622970299 0 0.01291562537333717 0.14373886088149129 0 0.026789162612504271 0.15663130254031199 0 0.01291562537333717 0.14373886088149129 0 0.015650655317666261 0.15865613344587939 0 0.026789162612504271 0.15663130254031199 0 0.01291562537333717 0.14373886088149129 0 0.00151890392611572 0.15456094484017679 0 0.015650655317666261 0.15865613344587939 0 -0.0082797250895681185 0.13474448294352481 0 0.01291562537333717 0.14373886088149129 0 0.00151890392611572 0.15456094484017679 0 0.00151890392611572 0.15456094484017679 0 0.01131753294179963 0.17437740673682869 0 0.00151890392611572 0.15456094484017679 0 0.012386788017382491 0.1641388541230504 0 0.01131753294179963 0.17437740673682869 0 -0.0026654791677323511 0.16604552865166611 0 0.00151890392611572 0.15456094484017679 0 0.01131753294179963 0.17437740673682869 0 -0.0026654791677323511 0.16604552865166611 0 0.01131753294179963 0.17437740673682869 0 0.012386788017382491 0.1641388541230504 0 0.01131753294179963 0.17437740673682869 0 0.021060059883948341 0.16896093146931659 0 0.00151890392611572 0.15456094484017679 0 0.012386788017382491 0.1641388541230504 0 0.015650655317666261 0.15865613344587939 0 0.0072367552089822543 0.1840346549744645 0 0.003085550936940849 0.18695469644268639 0 0.007927604969267173 0.18944813828794729 0 0.0072367552089822543 0.1840346549744645 0 0.003085550936940849 0.18695469644268639 0 0.00053502205069707774 0.18188021690744111 0 -0.003081975793268537 0.18782002811878001 0 0.003085550936940849 0.18695469644268639 0 0.00053502205069707774 0.18188021690744111 0 0.0072367552089822543 0.1840346549744645 0 0.00053502205069707774 0.18188021690744111 0 0.0082701590199136289 0.17900500476799119 0 -0.0026654791677323511 0.16604552865166611 0 0.0024081860720475369 0.17557227428335351 0 0.01131753294179963 0.17437740673682869 0 0.0024081860720475369 0.17557227428335351 0 0.01131753294179963 0.17437740673682869 0 0.0082701590199136289 0.17900500476799119 0 0.00053502205069707774 0.18188021690744111 0 0.0024081860720475369 0.17557227428335351 0 0.0082701590199136289 0.17900500476799119 0 0.01131753294179963 0.17437740673682869 0 0.013543000689093809 0.1790660034635034 0 0.021389494149062459 0.18037885708243739 0 0.01131753294179963 0.17437740673682869 0 0.013543000689093809 0.1790660034635034 0 0.01131753294179963 0.17437740673682869 0 0.013543000689093809 0.1790660034635034 0 0.0082701590199136289 0.17900500476799119 0 0.013543000689093809 0.1790660034635034 0 0.0115175493401282 0.18523262863701309 0 0.016985704636488509 0.19275209946522329 0 0.0072367552089822543 0.1840346549744645 0 0.0082701590199136289 0.17900500476799119 0 0.0115175493401282 0.18523262863701309 0 0.013543000689093809 0.1790660034635034 0 0.0082701590199136289 0.17900500476799119 0 0.0115175493401282 0.18523262863701309 0 0.0072367552089822543 0.1840346549744645 0 0.0115175493401282 0.18523262863701309 0 0.007927604969267173 0.18944813828794729 0 0.021389494149062459 0.18037885708243739 0 0.039453436217199322 0.18340126598870379 0 0.013543000689093809 0.1790660034635034 0 0.021389494149062459 0.18037885708243739 0 0.02230428843080948 0.19662630733770359 0 0.013543000689093809 0.1790660034635034 0 0.021389494149062459 0.18037885708243739 0 0.01131753294179963 0.17437740673682869 0 0.021389494149062459 0.18037885708243739 0 0.01131753294179963 0.17437740673682869 0 0.021389494149062459 0.18037885708243739 0 0.021060059883948341 0.16896093146931659 0 0.021389494149062459 0.18037885708243739 0 0.021060059883948341 0.16896093146931659 0 0.034487576316221548 0.17006964541133651 0 0.021389494149062459 0.18037885708243739 0 0.036772518206031037 0.18954494233072339 0 0.012386788017382491 0.1641388541230504 0 0.015650655317666261 0.15865613344587939 0 0.021060059883948341 0.16896093146931659 0 0.015650655317666261 0.15865613344587939 0 0.021060059883948341 0.16896093146931659 0 0.026789162612504271 0.15663130254031199 0 0.021060059883948341 0.16896093146931659 0 0.026789162612504271 0.15663130254031199 0 0.034487576316221548 0.17006964541133651 0 0.026789162612504271 0.15663130254031199 0 0.034487576316221548 0.17006964541133651 0 0.046085208392249437 0.15020880948314461 0 0.034487576316221548 0.17006964541133651 0 0.049790080527993393 0.16878629006039211 0 0.046085208392249437 0.15020880948314461 0 0.021389494149062459 0.18037885708243739 0 0.039453436217199322 0.18340126598870379 0 0.036772518206031037 0.18954494233072339 0 0.021389494149062459 0.18037885708243739 0 0.034487576316221548 0.17006964541133651 0 0.039453436217199322 0.18340126598870379 0 0.034487576316221548 0.17006964541133651 0 0.039453436217199322 0.18340126598870379 0 0.049790080527993393 0.16878629006039211 0 0.039453436217199322 0.18340126598870379 0 0.057517378285335978 0.18642367489497111 0 0.049790080527993393 0.16878629006039211 0 0.057517378285335978 0.18642367489497111 0 0.06670876632053821 0.16536039993208129 0 0.039453436217199322 0.18340126598870379 0 0.057517378285335978 0.18642367489497111 0 0.039453436217199322 0.18340126598870379 0 0.057517378285335978 0.18642367489497111 0 0.046621016020550923 0.1898787739154234 0 0.057517378285335978 0.18642367489497111 0 0.049790080527993393 0.16878629006039211 0 0.06670876632053821 0.16536039993208129 0 0.056759789081437029 0.15816783404816359 0 0.049790080527993393 0.16878629006039211 0 0.06670876632053821 0.16536039993208129 0 0.056759789081437029 0.15816783404816359 0 0.049790080527993393 0.16878629006039211 0 0.046085208392249437 0.15020880948314461 0 0.056759789081437029 0.15816783404816359 0 0.046085208392249437 0.15020880948314461 0 0.06445510108496709 0.14831583671703669 0 0.054704645729867107 0.1303951701743557 0 0.046085208392249437 0.15020880948314461 0 0.06445510108496709 0.14831583671703669 0 0.054704645729867107 0.1303951701743557 0 0.046085208392249437 0.15020880948314461 0 0.054704645729867107 0.1303951701743557 0 0.036209801575650402 0.12755429465012871 0 0.046085208392249437 0.15020880948314461 0 0.030096440749716711 0.14309687622970299 0 0.036209801575650402 0.12755429465012871 0 0.046085208392249437 0.15020880948314461 0 0.030096440749716711 0.14309687622970299 0 0.026789162612504271 0.15663130254031199 0 0.046085208392249437 0.15020880948314461 0 0.02117589590128718 0.2395927914801684 0 0.012156823249103331 0.25259817100369902 0 0.030652172791378579 0.25229956247347313 0 0.02117589590128718 0.2395927914801684 0 0.034188277432347557 0.23988537883147459 0 0.030652172791378579 0.25229956247347313 0 0.02117589590128718 0.2395927914801684 0 0.030323397599499081 0.22959965211839081 0 0.034188277432347557 0.23988537883147459 0 -0.0082457657602449386 0.25246627485226031 0 -0.001965278602122185 0.24182690426762959 0 0.012156823249103331 0.25259817100369902 0 0.02117589590128718 0.2395927914801684 0 0.008579196815527634 0.23953031834541311 0 0.012156823249103331 0.25259817100369902 0 -0.001965278602122185 0.24182690426762959 0 0.008579196815527634 0.23953031834541311 0 0.012156823249103331 0.25259817100369902 0 -0.001965278602122185 0.24182690426762959 0 0.008579196815527634 0.23953031834541311 0 0.0010433620948100131 0.23240638127880581 0 0.02117589590128718 0.2395927914801684 0 0.008579196815527634 0.23953031834541311 0 0.01115565641706814 0.2303537873583584 0 0.008579196815527634 0.23953031834541311 0 0.01115565641706814 0.2303537873583584 0 0.0010433620948100131 0.23240638127880581 0 0.01115565641706814 0.2303537873583584 0 0.0010433620948100131 0.23240638127880581 0 0.0091084557899102862 0.2202403998025296 0 0.0010433620948100131 0.23240638127880581 0 0.0001093474821353509 0.22215689039817851 0 0.0091084557899102862 0.2202403998025296 0 0.01115565641706814 0.2303537873583584 0 0.0091084557899102862 0.2202403998025296 0 0.016496999093422449 0.223541986747673 0 0.0091084557899102862 0.2202403998025296 0 0.016496999093422449 0.223541986747673 0 0.01612020317490017 0.2152275371535412 0 0.016496999093422449 0.223541986747673 0 0.02147394042148347 0.23028557103733549 0 0.024626739663750161 0.22160263838659999 0 0.016496999093422449 0.223541986747673 0 0.024626739663750161 0.22160263838659999 0 0.01612020317490017 0.2152275371535412 0 0.01115565641706814 0.2303537873583584 0 0.016496999093422449 0.223541986747673 0 0.02147394042148347 0.23028557103733549 0 0.02117589590128718 0.2395927914801684 0 0.01115565641706814 0.2303537873583584 0 0.02147394042148347 0.23028557103733549 0 0.02147394042148347 0.23028557103733549 0 0.030323397599499081 0.22959965211839081 0 0.024626739663750161 0.22160263838659999 0 0.02117589590128718 0.2395927914801684 0 0.02147394042148347 0.23028557103733549 0 0.030323397599499081 0.22959965211839081 0 0.024626739663750161 0.22160263838659999 0 0.027508903383077599 0.21474836631904051 0 0.034268755792753257 0.2207932912834846 0 0.030323397599499081 0.22959965211839081 0 0.024626739663750161 0.22160263838659999 0 0.034268755792753257 0.2207932912834846 0 0.027508903383077599 0.21474836631904051 0 0.023943201944243639 0.1999111919537408 0 0.034268755792753257 0.2207932912834846 0 0.023943201944243639 0.1999111919537408 0 0.034268755792753257 0.2207932912834846 0 0.027508903383077599 0.21474836631904051 0 0.023922045305692211 0.20684028787671799 0 0.022699459496289199 0.2141990688659105 0 0.024626739663750161 0.22160263838659999 0 0.027508903383077599 0.21474836631904051 0 0.022699459496289199 0.2141990688659105 0 0.027508903383077599 0.21474836631904051 0 0.023922045305692211 0.20684028787671799 0 0.023943201944243639 0.1999111919537408 0 0.01896544066016782 0.20973745132843891 0 0.01612020317490017 0.2152275371535412 0 0.013247665380499421 0.20734461508933349 0 0.023922045305692211 0.20684028787671799 0 0.01896544066016782 0.20973745132843891 0 0.022699459496289199 0.2141990688659105 0 0.023922045305692211 0.20684028787671799 0 0.021734838082019509 0.20302577286306159 0 0.023943201944243639 0.1999111919537408 0 0.023922045305692211 0.20684028787671799 0 0.018650848458870179 0.20436341187488569 0 0.021734838082019509 0.20302577286306159 0 0.023922045305692211 0.20684028787671799 0 0.018650848458870179 0.20436341187488569 0 0.01896544066016782 0.20973745132843891 0 0.018650848458870179 0.20436341187488569 0 0.01896544066016782 0.20973745132843891 0 0.013247665380499421 0.20734461508933349 0 0.024626739663750161 0.22160263838659999 0 0.022699459496289199 0.2141990688659105 0 0.01612020317490017 0.2152275371535412 0 0.01896544066016782 0.20973745132843891 0 0.022699459496289199 0.2141990688659105 0 0.01612020317490017 0.2152275371535412 0 0.01612020317490017 0.2152275371535412 0 0.0085100262700745465 0.21094865931476009 0 0.013247665380499421 0.20734461508933349 0 0.0091084557899102862 0.2202403998025296 0 0.01612020317490017 0.2152275371535412 0 0.0085100262700745465 0.21094865931476009 0 0.0001093474821353509 0.22215689039817851 0 0.0091084557899102862 0.2202403998025296 0 0.00083142932333707279 0.21381627434491049 0 0.0091084557899102862 0.2202403998025296 0 0.0085100262700745465 0.21094865931476009 0 0.00083142932333707279 0.21381627434491049 0 0.0085100262700745465 0.21094865931476009 0 0.00083142932333707279 0.21381627434491049 0 0.0029581381265264858 0.20519393183106241 0 0.0085100262700745465 0.21094865931476009 0 0.0029581381265264858 0.20519393183106241 0 0.0087942658252738396 0.20386919766718339 0 0.0029581381265264858 0.20519393183106241 0 0.0087942658252738396 0.20386919766718339 0 0.0056326315351633537 0.2004899601979887 0 0.0085100262700745465 0.21094865931476009 0 0.0087942658252738396 0.20386919766718339 0 0.013247665380499421 0.20734461508933349 0 0.0087942658252738396 0.20386919766718339 0 0.013247665380499421 0.20734461508933349 0 0.013927284278231049 0.2027684573698135 0 0.018650848458870179 0.20436341187488569 0 0.013247665380499421 0.20734461508933349 0 0.013927284278231049 0.2027684573698135 0 0.013927284278231049 0.2027684573698135 0 0.010260103200158849 0.1991700010832006 0 0.016231602148303749 0.1987520895161983 0 0.010260103200158849 0.1991700010832006 0 0.01183675088797494 0.19419665586736051 0 0.016231602148303749 0.1987520895161983 0 0.010260103200158849 0.1991700010832006 0 0.0061740732670114221 0.19541611365695169 0 0.01183675088797494 0.19419665586736051 0 0.0087942658252738396 0.20386919766718339 0 0.010260103200158849 0.1991700010832006 0 0.0056326315351633537 0.2004899601979887 0 0.0087942658252738396 0.20386919766718339 0 0.013927284278231049 0.2027684573698135 0 0.010260103200158849 0.1991700010832006 0 0.010260103200158849 0.1991700010832006 0 0.0056326315351633537 0.2004899601979887 0 0.0061740732670114221 0.19541611365695169 0 -2.3422743153838069e-05 0.1988005567515452 0 0.0056326315351633537 0.2004899601979887 0 0.0061740732670114221 0.19541611365695169 0 -2.3422743153838069e-05 0.1988005567515452 0 0.0029581381265264858 0.20519393183106241 0 0.0056326315351633537 0.2004899601979887 0 -0.003081975793268537 0.18782002811878001 0 0.003085550936940849 0.18695469644268639 0 0.0015327128313205251 0.1915709431207247 0 -2.3422743153838069e-05 0.1988005567515452 0 0.0061740732670114221 0.19541611365695169 0 0.0015327128313205251 0.1915709431207247 0 0.0061740732670114221 0.19541611365695169 0 0.0015327128313205251 0.1915709431207247 0 0.007927604969267173 0.18944813828794729 0 0.003085550936940849 0.18695469644268639 0 0.0015327128313205251 0.1915709431207247 0 0.007927604969267173 0.18944813828794729 0 0.007927604969267173 0.18944813828794729 0 0.01183675088797494 0.19419665586736051 0 0.012456110925155389 0.1902446129755902 0 0.0115175493401282 0.18523262863701309 0 0.007927604969267173 0.18944813828794729 0 0.012456110925155389 0.1902446129755902 0 0.0061740732670114221 0.19541611365695169 0 0.007927604969267173 0.18944813828794729 0 0.01183675088797494 0.19419665586736051 0 0.01183675088797494 0.19419665586736051 0 0.012456110925155389 0.1902446129755902 0 0.016985704636488509 0.19275209946522329 0 0.01183675088797494 0.19419665586736051 0 0.016985704636488509 0.19275209946522329 0 0.016231602148303749 0.1987520895161983 0 0.0115175493401282 0.18523262863701309 0 0.012456110925155389 0.1902446129755902 0 0.016985704636488509 0.19275209946522329 0 0.021389494149062459 0.18037885708243739 0 0.02230428843080948 0.19662630733770359 0 0.036772518206031037 0.18954494233072339 0 0.013543000689093809 0.1790660034635034 0 0.02230428843080948 0.19662630733770359 0 0.013543000689093809 0.1790660034635034 0 0.016985704636488509 0.19275209946522329 0 0.02230428843080948 0.19662630733770359 0 0.016985704636488509 0.19275209946522329 0 0.019428477636303031 0.19812266709439569 0 0.016231602148303749 0.1987520895161983 0 0.019428477636303031 0.19812266709439569 0 0.016231602148303749 0.1987520895161983 0 0.020423256619271999 0.20098819974690199 0 0.018650848458870179 0.20436341187488569 0 0.016231602148303749 0.1987520895161983 0 0.020423256619271999 0.20098819974690199 0 0.018650848458870179 0.20436341187488569 0 0.013927284278231049 0.2027684573698135 0 0.016231602148303749 0.1987520895161983 0 0.019428477636303031 0.19812266709439569 0 0.020423256619271999 0.20098819974690199 0 0.023943201944243639 0.1999111919537408 0 0.018650848458870179 0.20436341187488569 0 0.020423256619271999 0.20098819974690199 0 0.021734838082019509 0.20302577286306159 0 0.020423256619271999 0.20098819974690199 0 0.021734838082019509 0.20302577286306159 0 0.023943201944243639 0.1999111919537408 0 0.016985704636488509 0.19275209946522329 0 0.02230428843080948 0.19662630733770359 0 0.023943201944243639 0.1999111919537408 0 0.016985704636488509 0.19275209946522329 0 0.019428477636303031 0.19812266709439569 0 0.023943201944243639 0.1999111919537408 0 0.02230428843080948 0.19662630733770359 0 0.023943201944243639 0.1999111919537408 0 0.02230428843080948 0.19662630733770359 0 0.023943201944243639 0.1999111919537408 0 0.035957366435008513 0.20647473970990701 0 0.02230428843080948 0.19662630733770359 0 0.050897121833006063 0.20159486356051531 0 0.035957366435008513 0.20647473970990701 0 0.02230428843080948 0.19662630733770359 0 0.036772518206031037 0.18954494233072339 0 0.050897121833006063 0.20159486356051531 0 0.02230428843080948 0.19662630733770359 0 0.050897121833006063 0.20159486356051531 0 0.036772518206031037 0.18954494233072339 0 0.050897121833006063 0.20159486356051531 0 0.052155542262999663 0.1987110275790093 0 0.036772518206031037 0.18954494233072339 0 0.052155542262999663 0.1987110275790093 0 0.036772518206031037 0.18954494233072339 0 0.046621016020550923 0.1898787739154234 0 0.052155542262999663 0.1987110275790093 0 0.039453436217199322 0.18340126598870379 0 0.036772518206031037 0.18954494233072339 0 0.046621016020550923 0.1898787739154234 0 0.057517378285335978 0.18642367489497111 0 0.046621016020550923 0.1898787739154234 0 0.052155542262999663 0.1987110275790093 0 0.057517378285335978 0.18642367489497111 0 0.052155542262999663 0.1987110275790093 0 0.057517378285335978 0.18642367489497111 0 0.057090951257530269 0.197109929087698 0 0.052155542262999663 0.1987110275790093 0 0.057517378285335978 0.18642367489497111 0 0.060667890749981898 0.1933513013873914 0 0.057090951257530269 0.197109929087698 0 0.060667890749981898 0.1933513013873914 0 0.057090951257530269 0.197109929087698 0 0.058031923789004708 0.2022125116707813 0 0.060667890749981898 0.1933513013873914 0 0.058031923789004708 0.2022125116707813 0 0.060667890749981898 0.1933513013873914 0 0.058031923789004708 0.2022125116707813 0 0.059673977213942478 0.20319094098477611 0 0.058031923789004708 0.2022125116707813 0 0.059673977213942478 0.20319094098477611 0 0.057090951257530269 0.197109929087698 0 0.058031923789004708 0.2022125116707813 0 0.052155542262999663 0.1987110275790093 0 0.058031923789004708 0.2022125116707813 0 0.052155542262999663 0.1987110275790093 0 0.058031923789004708 0.2022125116707813 0 0.050897121833006063 0.20159486356051531 0 0.052155542262999663 0.1987110275790093 0 0.058031923789004708 0.2022125116707813 0 0.050897121833006063 0.20159486356051531 0 0.050897121833006063 0.20159486356051531 0 0.052155542262999663 0.1987110275790093 0 0.050897121833006063 0.20159486356051531 0 0.042542699632676838 0.22074012119599501 0 0.053005439111290922 0.21910981667301421 0 0.058031923789004708 0.2022125116707813 0 0.050897121833006063 0.20159486356051531 0 0.053005439111290922 0.21910981667301421 0 0.058031923789004708 0.2022125116707813 0 0.053005439111290922 0.21910981667301421 0 0.058031923789004708 0.2022125116707813 0 0.061718375040706958 0.21244198365854619 0 0.053005439111290922 0.21910981667301421 0 0.058031923789004708 0.2022125116707813 0 0.059673977213942478 0.20319094098477611 0 0.061718375040706958 0.21244198365854619 0 0.061718375040706958 0.21244198365854619 0 0.053005439111290922 0.21910981667301421 0 0.062081063031912492 0.22413796841031719 0 0.050897121833006063 0.20159486356051531 0 0.042542699632676838 0.22074012119599501 0 0.023943201944243639 0.1999111919537408 0 0.035957366435008513 0.20647473970990701 0 0.034268755792753257 0.2207932912834846 0 0.050897121833006063 0.20159486356051531 0 0.038363073609551428 0.21412918370060571 0 0.042542699632676838 0.22074012119599501 0 0.050897121833006063 0.20159486356051531 0 0.035957366435008513 0.20647473970990701 0 0.038363073609551428 0.21412918370060571 0 0.038363073609551428 0.21412918370060571 0 0.034268755792753257 0.2207932912834846 0 0.042542699632676838 0.22074012119599501 0 0.035957366435008513 0.20647473970990701 0 0.038363073609551428 0.21412918370060571 0 0.034268755792753257 0.2207932912834846 0 0.042542699632676838 0.22074012119599501 0 0.034188277432347557 0.23988537883147459 0 0.042542699632676838 0.22074012119599501 0 0.04817080422001134 0.23536218897101929 0 0.044937254539659167 0.2379713478153713 0 0.030323397599499081 0.22959965211839081 0 0.042542699632676838 0.22074012119599501 0 0.034188277432347557 0.23988537883147459 0 0.042542699632676838 0.22074012119599501 0 0.044937254539659167 0.2379713478153713 0 0.034188277432347557 0.23988537883147459 0 0.030323397599499081 0.22959965211839081 0 0.034268755792753257 0.2207932912834846 0 0.042542699632676838 0.22074012119599501 0 0.053005439111290922 0.21910981667301421 0 0.04817080422001134 0.23536218897101929 0 0.053005439111290922 0.21910981667301421 0 0.062081063031912492 0.22413796841031719 0 0.04817080422001134 0.23536218897101929 0 0.062081063031912492 0.22413796841031719 0 0.04817080422001134 0.23536218897101929 0 0.059531729096570118 0.24099028160929839 0 0.042542699632676838 0.22074012119599501 0 0.053005439111290922 0.21910981667301421 0 0.04817080422001134 0.23536218897101929 0 0.062081063031912492 0.22413796841031719 0 0.04817080422001134 0.23536218897101929 0 0.04817080422001134 0.23536218897101929 0 0.052294646587479003 0.2493466198794505 0 0.04073495957405681 0.26035892983227987 0 0.04817080422001134 0.23536218897101929 0 0.059531729096570118 0.24099028160929839 0 0.052294646587479003 0.2493466198794505 0 0.059531729096570118 0.24099028160929839 0 0.067445722382230539 0.24771064348785149 0 0.06034442261467237 0.25120339486286308 0 0.059531729096570118 0.24099028160929839 0 0.052294646587479003 0.2493466198794505 0 0.06034442261467237 0.25120339486286308 0 0.04817080422001134 0.23536218897101929 0 0.04073495957405681 0.26035892983227987 0 0.04817080422001134 0.23536218897101929 0 0.044937254539659167 0.2379713478153713 0 0.04073495957405681 0.26035892983227987 0 0.04817080422001134 0.23536218897101929 0 0.044937254539659167 0.2379713478153713 0 0.044937254539659167 0.2379713478153713 0 0.034188277432347557 0.23988537883147459 0 0.030652172791378579 0.25229956247347313 0 0.085975255819246227 0.24304742420893821 0 0.091760355399887042 0.24149966876957779 0 0.085886262968569133 0.25948379364412733 0 0.091760355399887042 0.24149966876957779 0 0.10166443252893551 0.23659000017624271 0 0.085886262968569133 0.25948379364412733 0 0.085975255819246227 0.24304742420893821 0 0.091760355399887042 0.24149966876957779 0 0.090327239942362525 0.2312920649275291 0 0.085975255819246227 0.24304742420893821 0 0.075396639696560977 0.24390878816167419 0 0.077103558767455421 0.230534611802553 0 0.085975255819246227 0.24304742420893821 0 0.077103558767455421 0.230534611802553 0 0.090327239942362525 0.2312920649275291 0 0.085975255819246227 0.24304742420893821 0 0.075396639696560977 0.24390878816167419 0 0.080478695998155714 0.25165019938018113 0 0.075396639696560977 0.24390878816167419 0 0.074707437689247702 0.25389633834412328 0 0.080478695998155714 0.25165019938018113 0 0.075396639696560977 0.24390878816167419 0 0.067445722382230539 0.24771064348785149 0 0.068934414955804643 0.23628801399858909 0 0.075396639696560977 0.24390878816167419 0 0.067445722382230539 0.24771064348785149 0 0.074707437689247702 0.25389633834412328 0 0.059531729096570118 0.24099028160929839 0 0.067445722382230539 0.24771064348785149 0 0.068934414955804643 0.23628801399858909 0 0.075396639696560977 0.24390878816167419 0 0.068934414955804643 0.23628801399858909 0 0.077103558767455421 0.230534611802553 0 0.062081063031912492 0.22413796841031719 0 0.059531729096570118 0.24099028160929839 0 0.068934414955804643 0.23628801399858909 0 0.062081063031912492 0.22413796841031719 0 0.077103558767455421 0.230534611802553 0 0.077696208689423979 0.21392961690810641 0 0.077103558767455421 0.230534611802553 0 0.077696208689423979 0.21392961690810641 0 0.062081063031912492 0.22413796841031719 0 0.068934414955804643 0.23628801399858909 0 0.077103558767455421 0.230534611802553 0 0.077103558767455421 0.230534611802553 0 0.086723057100410644 0.21930832929599969 0 0.077696208689423979 0.21392961690810641 0 0.077103558767455421 0.230534611802553 0 0.090327239942362525 0.2312920649275291 0 0.086723057100410644 0.21930832929599969 0 0.090327239942362525 0.2312920649275291 0 0.086723057100410644 0.21930832929599969 0 0.099258091607832458 0.22228701345730209 0 0.08282365066700062 0.20740072564839451 0 0.1001331263781514 0.21054846617837791 0 0.08282365066700062 0.20740072564839451 0 0.0830920941513177 0.21288940176841251 0 0.1001331263781514 0.21054846617837791 0 0.086723057100410644 0.21930832929599969 0 0.0830920941513177 0.21288940176841251 0 0.1001331263781514 0.21054846617837791 0 0.08282365066700062 0.20740072564839451 0 0.077960793866212394 0.2065164116634538 0 0.08282365066700062 0.20740072564839451 0 0.07778409662064556 0.21146715366449201 0 0.077960793866212394 0.2065164116634538 0 0.08282365066700062 0.20740072564839451 0 0.0830920941513177 0.21288940176841251 0 0.07778409662064556 0.21146715366449201 0 0.08282365066700062 0.20740072564839451 0 0.07778409662064556 0.21146715366449201 0 0.086723057100410644 0.21930832929599969 0 0.077696208689423979 0.21392961690810641 0 0.086723057100410644 0.21930832929599969 0 0.0830920941513177 0.21288940176841251 0 0.077696208689423979 0.21392961690810641 0 0.0830920941513177 0.21288940176841251 0 0.07778409662064556 0.21146715366449201 0 0.077696208689423979 0.21392961690810641 0 0.059673977213942478 0.20319094098477611 0 0.077960793866212394 0.2065164116634538 0 0.062081063031912492 0.22413796841031719 0 0.077696208689423979 0.21392961690810641 0 0.075991321843812007 0.21291374784961289 0 0.059673977213942478 0.20319094098477611 0 0.075991321843812007 0.21291374784961289 0 0.059673977213942478 0.20319094098477611 0 0.061718375040706958 0.21244198365854619 0 0.075991321843812007 0.21291374784961289 0 0.059673977213942478 0.20319094098477611 0 0.075991321843812007 0.21291374784961289 0 0.077960793866212394 0.2065164116634538 0 0.07778409662064556 0.21146715366449201 0 0.077696208689423979 0.21392961690810641 0 0.075991321843812007 0.21291374784961289 0 0.07778409662064556 0.21146715366449201 0 0.077696208689423979 0.21392961690810641 0 0.07778409662064556 0.21146715366449201 0 0.075991321843812007 0.21291374784961289 0 0.077696208689423979 0.21392961690810641 0 0.075991321843812007 0.21291374784961289 0 0.062081063031912492 0.22413796841031719 0 0.075991321843812007 0.21291374784961289 0 0.061718375040706958 0.21244198365854619 0 0.062081063031912492 0.22413796841031719 0 0.075991321843812007 0.21291374784961289 0 0.07778409662064556 0.21146715366449201 0 0.075991321843812007 0.21291374784961289 0 0.077960793866212394 0.2065164116634538 0 0.07778409662064556 0.21146715366449201 0 0.077960793866212394 0.2065164116634538 0 0.060667890749981898 0.1933513013873914 0 0.069391780603767286 0.1985353247034998 0 0.078552310067739675 0.1899431815963343 0 0.059673977213942478 0.20319094098477611 0 0.077960793866212394 0.2065164116634538 0 0.069391780603767286 0.1985353247034998 0 0.057517378285335978 0.18642367489497111 0 0.060667890749981898 0.1933513013873914 0 0.078552310067739675 0.1899431815963343 0 0.077960793866212394 0.2065164116634538 0 0.069391780603767286 0.1985353247034998 0 0.078552310067739675 0.1899431815963343 0 0.057517378285335978 0.18642367489497111 0 0.078552310067739675 0.1899431815963343 0 0.060667890749981898 0.1933513013873914 0 0.059673977213942478 0.20319094098477611 0 0.069391780603767286 0.1985353247034998 0 0.077960793866212394 0.2065164116634538 0 0.078552310067739675 0.1899431815963343 0 0.08282365066700062 0.20740072564839451 0 0.078552310067739675 0.1899431815963343 0 0.1000095862482286 0.19353335379614581 0 0.08282365066700062 0.20740072564839451 0 0.077960793866212394 0.2065164116634538 0 0.078552310067739675 0.1899431815963343 0 0.08282365066700062 0.20740072564839451 0 0.1000095862482286 0.19353335379614581 0 0.078552310067739675 0.1899431815963343 0 0.1000095862482286 0.19353335379614581 0 0.1000095862482286 0.19353335379614581 0 0.1119621855324581 0.18388877331391679 0 0.1119621855324581 0.18388877331391679 0 0.12809949413598259 0.1982332796183166 0 0.12623709760602039 0.18867627876683751 0 0.1000095862482286 0.19353335379614581 0 0.12809949413598259 0.1982332796183166 0 0.1000095862482286 0.19353335379614581 0 0.1174426020893027 0.21369620670835879 0 0.12809949413598259 0.1982332796183166 0 0.1000095862482286 0.19353335379614581 0 0.1119621855324581 0.18388877331391679 0 0.12809949413598259 0.1982332796183166 0 0.1174426020893027 0.21369620670835879 0 0.12809949413598259 0.1982332796183166 0 0.1174426020893027 0.21369620670835879 0 0.13079881134157489 0.21612504290720769 0 0.1174426020893027 0.21369620670835879 0 0.1001331263781514 0.21054846617837791 0 0.1000095862482286 0.19353335379614581 0 0.1174426020893027 0.21369620670835879 0 0.1001331263781514 0.21054846617837791 0 0.08282365066700062 0.20740072564839451 0 0.1000095862482286 0.19353335379614581 0 0.1001331263781514 0.21054846617837791 0 0.1174426020893027 0.21369620670835879 0 0.1001331263781514 0.21054846617837791 0 0.099258091607832458 0.22228701345730209 0 0.086723057100410644 0.21930832929599969 0 0.1001331263781514 0.21054846617837791 0 0.099258091607832458 0.22228701345730209 0 0.1174426020893027 0.21369620670835879 0 0.099258091607832458 0.22228701345730209 0 0.10166443252893551 0.23659000017624271 0 0.090327239942362525 0.2312920649275291 0 0.099258091607832458 0.22228701345730209 0 0.10166443252893551 0.23659000017624271 0 0.11193009187841341 0.23778907333103991 0 0.1233060832280653 0.2372070654073864 0 0.13079881134157489 0.21612504290720769 0 0.1174426020893027 0.21369620670835879 0 0.11193009187841341 0.23778907333103991 0 0.10166443252893551 0.23659000017624271 0 0.1174426020893027 0.21369620670835879 0 0.11193009187841341 0.23778907333103991 0 0.13079881134157489 0.21612504290720769 0 0.11193009187841341 0.23778907333103991 0 0.13079881134157489 0.21612504290720769 0 0.1174426020893027 0.21369620670835879 0 0.10166443252893551 0.23659000017624271 0 0.11193009187841341 0.23778907333103991 0 0.1233060832280653 0.2372070654073864 0 0.1152979079485152 0.2467056018988516 0 0.1233060832280653 0.2372070654073864 0 0.1152979079485152 0.2467056018988516 0 0.1250676346401875 0.24796443701554319 0 0.11193009187841341 0.23778907333103991 0 0.1152979079485152 0.2467056018988516 0 0.10650461767427161 0.25132517155921902 0 0.11193009187841341 0.23778907333103991 0 0.10166443252893551 0.23659000017624271 0 0.093061372415253377 0.25945310375487363 0 0.10166443252893551 0.23659000017624271 0 0.085886262968569133 0.25948379364412733 0 0.11193009187841341 0.23778907333103991 0 0.093061372415253377 0.25945310375487363 0 0.11193009187841341 0.23778907333103991 0 0.093061372415253377 0.25945310375487363 0 0.10650461767427161 0.25132517155921902 0 0.091760355399887042 0.24149966876957779 0 0.090327239942362525 0.2312920649275291 0 0.10166443252893551 0.23659000017624271 0 0.08022281403025916 0.14313863688857029 0 0.093167312330706492 0.16073073013935579 0 0.097579150219516186 0.1459852772673329 0 0.08022281403025916 0.14313863688857029 0 0.079387562048995053 0.16654090924245221 0 0.08022281403025916 0.14313863688857029 0 0.097579150219516186 0.1459852772673329 0 0.098136173783193614 0.12855261503670501 0 0.081058066011519173 0.11973636453468819 0 0.08022281403025916 0.14313863688857029 0 0.081058066011519173 0.11973636453468819 0 0.08022281403025916 0.14313863688857029 0 0.098136173783193614 0.12855261503670501 0 0.054704645729867107 0.1303951701743557 0 0.068402942841081005 0.12865021266463919 0 0.06445510108496709 0.14831583671703669 0 0.081058066011519173 0.11973636453468819 0 0.08022281403025916 0.14313863688857029 0 0.068402942841081005 0.12865021266463919 0 0.08022281403025916 0.14313863688857029 0 0.068402942841081005 0.12865021266463919 0 0.06445510108496709 0.14831583671703669 0 0.08022281403025916 0.14313863688857029 0 0.06445510108496709 0.14831583671703669 0 0.079387562048995053 0.16654090924245221 0 0.06445510108496709 0.14831583671703669 0 0.06670876632053821 0.16536039993208129 0 0.079387562048995053 0.16654090924245221 0 0.056759789081437029 0.15816783404816359 0 0.06445510108496709 0.14831583671703669 0 0.06670876632053821 0.16536039993208129 0 0.06670876632053821 0.16536039993208129 0 0.071220178094475839 0.177519435916074 0 0.079387562048995053 0.16654090924245221 0 0.078552310067739675 0.1899431815963343 0 0.071220178094475839 0.177519435916074 0 0.079387562048995053 0.16654090924245221 0 0.057517378285335978 0.18642367489497111 0 0.078552310067739675 0.1899431815963343 0 0.071220178094475839 0.177519435916074 0 0.057517378285335978 0.18642367489497111 0 0.06670876632053821 0.16536039993208129 0 0.071220178094475839 0.177519435916074 0 0.078552310067739675 0.1899431815963343 0 0.079387562048995053 0.16654090924245221 0 0.078552310067739675 0.1899431815963343 0 0.079387562048995053 0.16654090924245221 0 0.094656188726405799 0.1772984468475671 0 0.078552310067739675 0.1899431815963343 0 0.1000095862482286 0.19353335379614581 0 0.094656188726405799 0.1772984468475671 0 0.079387562048995053 0.16654090924245221 0 0.093167312330706492 0.16073073013935579 0 0.094656188726405799 0.1772984468475671 0 0.08022281403025916 0.14313863688857029 0 0.079387562048995053 0.16654090924245221 0 0.093167312330706492 0.16073073013935579 0 0.093167312330706492 0.16073073013935579 0 0.1051682117550992 0.16863341283049499 0 0.094656188726405799 0.1772984468475671 0 0.093167312330706492 0.16073073013935579 0 0.1051682117550992 0.16863341283049499 0 0.10738037989590581 0.15691718048007991 0 0.1051682117550992 0.16863341283049499 0 0.094656188726405799 0.1772984468475671 0 0.1119621855324581 0.18388877331391679 0 0.1000095862482286 0.19353335379614581 0 0.094656188726405799 0.1772984468475671 0 0.1119621855324581 0.18388877331391679 0 0.1051682117550992 0.16863341283049499 0 0.1119621855324581 0.18388877331391679 0 0.1176573055604207 0.16965843036111 0 0.1119621855324581 0.18388877331391679 0 0.1176573055604207 0.16965843036111 0 0.12502668500631101 0.18003223183350331 0 0.1119621855324581 0.18388877331391679 0 0.12502668500631101 0.18003223183350331 0 0.12623709760602039 0.18867627876683751 0 0.10738037989590581 0.15691718048007991 0 0.1176573055604207 0.16965843036111 0 0.1263510041100718 0.15412713222648239 0 0.1051682117550992 0.16863341283049499 0 0.10738037989590581 0.15691718048007991 0 0.1176573055604207 0.16965843036111 0 0.10738037989590581 0.15691718048007991 0 0.1089890710575158 0.14058722379195329 0 0.1263510041100718 0.15412713222648239 0 0.1089890710575158 0.14058722379195329 0 0.1243116374868449 0.136850619307404 0 0.1263510041100718 0.15412713222648239 0 0.10738037989590581 0.15691718048007991 0 0.097579150219516186 0.1459852772673329 0 0.1089890710575158 0.14058722379195329 0 0.093167312330706492 0.16073073013935579 0 0.10738037989590581 0.15691718048007991 0 0.097579150219516186 0.1459852772673329 0 0.097579150219516186 0.1459852772673329 0 0.1089890710575158 0.14058722379195329 0 0.098136173783193614 0.12855261503670501 0 0.11707998843366239 0.12090166170324231 0 0.1089890710575158 0.14058722379195329 0 0.098136173783193614 0.12855261503670501 0 0.11707998843366239 0.12090166170324231 0 0.1089890710575158 0.14058722379195329 0 0.1243116374868449 0.136850619307404 0 0.11707998843366239 0.12090166170324231 0 0.1243116374868449 0.136850619307404 0 0.14061487869327599 0.12738787364596069 0 0.1243116374868449 0.136850619307404 0 0.14061487869327599 0.12738787364596069 0 0.1450893294801871 0.15084825440961219 0 0.14061487869327599 0.12738787364596069 0 0.1450893294801871 0.15084825440961219 0 0.16208469833826319 0.13464304631642149 0 0.1450893294801871 0.15084825440961219 0 0.16208469833826319 0.13464304631642149 0 0.1243116374868449 0.136850619307404 0 0.1450893294801871 0.15084825440961219 0 0.1263510041100718 0.15412713222648239 0 0.1450893294801871 0.15084825440961219 0 0.1263510041100718 0.15412713222648239 0 0.13434892063135129 0.1709012650253654 0 0.1176573055604207 0.16965843036111 0 0.1263510041100718 0.15412713222648239 0 0.13434892063135129 0.1709012650253654 0 0.1176573055604207 0.16965843036111 0 0.13434892063135129 0.1709012650253654 0 0.12502668500631101 0.18003223183350331 0 0.12502668500631101 0.18003223183350331 0 0.13317066441191511 0.18549658195139779 0 0.12623709760602039 0.18867627876683751 0 0.13434892063135129 0.1709012650253654 0 0.12502668500631101 0.18003223183350331 0 0.13317066441191511 0.18549658195139779 0 0.13434892063135129 0.1709012650253654 0 0.13317066441191511 0.18549658195139779 0 0.14289571148574401 0.18421669799074539 0 0.13434892063135129 0.1709012650253654 0 0.14289571148574401 0.18421669799074539 0 0.15014598838012391 0.16812378435884931 0 0.14289571148574401 0.18421669799074539 0 0.15014598838012391 0.16812378435884931 0 0.16340295837154781 0.17869074671240681 0 0.1450893294801871 0.15084825440961219 0 0.15014598838012391 0.16812378435884931 0 0.17025484901730581 0.156442106610301 0 0.1450893294801871 0.15084825440961219 0 0.13434892063135129 0.1709012650253654 0 0.15014598838012391 0.16812378435884931 0 0.15014598838012391 0.16812378435884931 0 0.17025484901730581 0.156442106610301 0 0.16340295837154781 0.17869074671240681 0 0.17025484901730581 0.156442106610301 0 0.16340295837154781 0.17869074671240681 0 0.18344157371591241 0.18406997535271 0 0.17025484901730581 0.156442106610301 0 0.18344157371591241 0.18406997535271 0 0.1981233639171355 0.16578679509823521 0 0.17025484901730581 0.156442106610301 0 0.1886017155567373 0.14211231666073301 0 0.1981233639171355 0.16578679509823521 0 0.17025484901730581 0.156442106610301 0 0.16208469833826319 0.13464304631642149 0 0.1886017155567373 0.14211231666073301 0 0.1886017155567373 0.14211231666073301 0 0.1790800671963392 0.1184378382232308 0 0.16208469833826319 0.13464304631642149 0 0.1886017155567373 0.14211231666073301 0 0.1790800671963392 0.1184378382232308 0 0.19325819231563421 0.12959887947710741 0 0.1886017155567373 0.14211231666073301 0 0.1790800671963392 0.1184378382232308 0 0.16208469833826319 0.13464304631642149 0 0.1790800671963392 0.1184378382232308 0 0.1450893294801871 0.15084825440961219 0 0.17025484901730581 0.156442106610301 0 0.16208469833826319 0.13464304631642149 0 0.1514273965657848 0.24085309905483679 0 0.13478444466321229 0.23767678351231611 0 0.14386495534927929 0.22895205141331151 0 0.1514273965657848 0.24085309905483679 0 0.13478444466321229 0.23767678351231611 0 0.1384713120865835 0.25773302092121009 0 0.1250676346401875 0.24796443701554319 0 0.13478444466321229 0.23767678351231611 0 0.1384713120865835 0.25773302092121009 0 0.1233060832280653 0.2372070654073864 0 0.1250676346401875 0.24796443701554319 0 0.13478444466321229 0.23767678351231611 0 0.1233060832280653 0.2372070654073864 0 0.13478444466321229 0.23767678351231611 0 0.13079881134157489 0.21612504290720769 0 0.13478444466321229 0.23767678351231611 0 0.14386495534927929 0.22895205141331151 0 0.13079881134157489 0.21612504290720769 0 0.14386495534927929 0.22895205141331151 0 0.13079881134157489 0.21612504290720769 0 0.15844916882654519 0.22115328017888419 0 0.1514273965657848 0.24085309905483679 0 0.14386495534927929 0.22895205141331151 0 0.15844916882654519 0.22115328017888419 0 0.13079881134157489 0.21612504290720769 0 0.15844916882654519 0.22115328017888419 0 0.13079881134157489 0.21612504290720769 0 0.14405659807402271 0.2009031781863346 0 0.15844916882654519 0.22115328017888419 0 0.13079881134157489 0.21612504290720769 0 0.12809949413598259 0.1982332796183166 0 0.14405659807402271 0.2009031781863346 0 0.1174426020893027 0.21369620670835879 0 0.13079881134157489 0.21612504290720769 0 0.12809949413598259 0.1982332796183166 0 0.13079881134157489 0.21612504290720769 0 0.14405659807402271 0.2009031781863346 0 0.12809949413598259 0.1982332796183166 0 0.14405659807402271 0.2009031781863346 0 0.12809949413598259 0.1982332796183166 0 0.1377541084679488 0.19338203871321119 0 0.14405659807402271 0.2009031781863346 0 0.12809949413598259 0.1982332796183166 0 0.13022991801334199 0.19514207920620891 0 0.1377541084679488 0.19338203871321119 0 0.12809949413598259 0.1982332796183166 0 0.13022991801334199 0.19514207920620891 0 0.12809949413598259 0.1982332796183166 0 0.12623709760602039 0.18867627876683751 0 0.13022991801334199 0.19514207920620891 0 0.13317066441191511 0.18549658195139779 0 0.12623709760602039 0.18867627876683751 0 0.13022991801334199 0.19514207920620891 0 0.13317066441191511 0.18549658195139779 0 0.14289571148574401 0.18421669799074539 0 0.1377541084679488 0.19338203871321119 0 0.13317066441191511 0.18549658195139779 0 0.13022991801334199 0.19514207920620891 0 0.1377541084679488 0.19338203871321119 0 0.14289571148574401 0.18421669799074539 0 0.1377541084679488 0.19338203871321119 0 0.14405659807402271 0.2009031781863346 0 0.14405659807402271 0.2009031781863346 0 0.1684266189286579 0.20498070278197239 0 0.14289571148574401 0.18421669799074539 0 0.16340295837154781 0.17869074671240681 0 0.14405659807402271 0.2009031781863346 0 0.16340295837154781 0.17869074671240681 0 0.14405659807402271 0.2009031781863346 0 0.16340295837154781 0.17869074671240681 0 0.18344157371591241 0.18406997535271 0 0.1684266189286579 0.20498070278197239 0 0.16340295837154781 0.17869074671240681 0 0.14405659807402271 0.2009031781863346 0 0.1684266189286579 0.20498070278197239 0 0.18344157371591241 0.18406997535271 0 0.1684266189286579 0.20498070278197239 0 0.19279663978329381 0.20905822737760699 0 0.1684266189286579 0.20498070278197239 0 0.19279663978329381 0.20905822737760699 0 0.17869659642439559 0.21414630976549021 0 0.1684266189286579 0.20498070278197239 0 0.19279663978329381 0.20905822737760699 0 0.17869659642439559 0.21414630976549021 0 0.18609952631151591 0.22618151745055959 0 0.19279663978329381 0.20905822737760699 0 0.14405659807402271 0.2009031781863346 0 0.1684266189286579 0.20498070278197239 0 0.15844916882654519 0.22115328017888419 0 0.17869659642439559 0.21414630976549021 0 0.1684266189286579 0.20498070278197239 0 0.15844916882654519 0.22115328017888419 0 0.1514273965657848 0.24085309905483679 0 0.15844916882654519 0.22115328017888419 0 0.1691493644934341 0.23606856512045299 0 0.15844916882654519 0.22115328017888419 0 0.18609952631151591 0.22618151745055959 0 0.1691493644934341 0.23606856512045299 0 0.17869659642439559 0.21414630976549021 0 0.15844916882654519 0.22115328017888419 0 0.18609952631151591 0.22618151745055959 0 0.15844916882654519 0.22115328017888419 0 0.18609952631151591 0.22618151745055959 0 0.18609952631151591 0.22618151745055959 0 0.1971008006350988 0.24422433182354611 0 0.17660728565697029 0.25284173787090108 0 0.18609952631151591 0.22618151745055959 0 0.1691493644934341 0.23606856512045299 0 0.17660728565697029 0.25284173787090108 0 0.1514273965657848 0.24085309905483679 0 0.17660728565697029 0.25284173787090108 0 0.1514273965657848 0.24085309905483679 0 0.1691493644934341 0.23606856512045299 0 0.17660728565697029 0.25284173787090108 0 0.1971008006350988 0.24422433182354611 0 0.21374988379648621 0.2312097547222359 0 0.2257125065402284 0.25431107802280528 0 0.18609952631151591 0.22618151745055959 0 0.19919001424274069 0.21902366269476331 0 0.2102140220753515 0.22438156273492879 0 0.18609952631151591 0.22618151745055959 0 0.1971008006350988 0.24422433182354611 0 0.21374988379648621 0.2312097547222359 0 0.18609952631151591 0.22618151745055959 0 0.21374988379648621 0.2312097547222359 0 0.18609952631151591 0.22618151745055959 0 0.2102140220753515 0.22438156273492879 0 0.21374988379648621 0.2312097547222359 0 0.19919001424274069 0.21902366269476331 0 0.2102140220753515 0.22438156273492879 0 0.22326984787173351 0.22831062181695069 0 0.19919001424274069 0.21902366269476331 0 0.21716666063792969 0.21313575197324039 0 0.22326984787173351 0.22831062181695069 0 0.19919001424274069 0.21902366269476331 0 0.22326984787173351 0.22831062181695069 0 0.2102140220753515 0.22438156273492879 0 0.21374988379648621 0.2312097547222359 0 0.2102140220753515 0.22438156273492879 0 0.21374988379648621 0.2312097547222359 0 0.22326984787173351 0.22831062181695069 0 0.21716666063792969 0.21313575197324039 0 0.19279663978329381 0.20905822737760699 0 0.20764501227753371 0.18946127353573741 0 0.21716666063792969 0.21313575197324039 0 0.19279663978329381 0.20905822737760699 0 0.19919001424274069 0.21902366269476331 0 0.21716666063792969 0.21313575197324039 0 0.19279663978329381 0.20905822737760699 0 0.18609952631151591 0.22618151745055959 0 0.19919001424274069 0.21902366269476331 0 0.19279663978329381 0.20905822737760699 0 0.18344157371591241 0.18406997535271 0 0.19279663978329381 0.20905822737760699 0 0.20764501227753371 0.18946127353573741 0 0.21716666063792969 0.21313575197324039 0 0.20764501227753371 0.18946127353573741 0 0.21716666063792969 0.21313575197324039 0 0.20764501227753371 0.18946127353573741 0 0.22349524510262589 0.1882929917077163 0 0.21716666063792969 0.21313575197324039 0 0.22349524510262589 0.1882929917077163 0 0.23482300448504159 0.1984970970255906 0 0.22349524510262589 0.1882929917077163 0 0.23482300448504159 0.1984970970255906 0 0.23800281531175979 0.18073324988006281 0 0.23482300448504159 0.1984970970255906 0 0.24828008483854189 0.20295934428596721 0 0.25113643024109478 0.19094495075723769 0 0.23482300448504159 0.1984970970255906 0 0.23800281531175979 0.18073324988006281 0 0.25113643024109478 0.19094495075723769 0 0.23482300448504159 0.1984970970255906 0 0.24828008483854189 0.20295934428596721 0 0.24332195560292991 0.2175119837032847 0 0.21716666063792969 0.21313575197324039 0 0.23482300448504159 0.1984970970255906 0 0.24332195560292991 0.2175119837032847 0 0.21716666063792969 0.21313575197324039 0 0.24332195560292991 0.2175119837032847 0 0.22527908084694109 0.23330634744632109 0 0.22326984787173351 0.22831062181695069 0 0.2459873280094696 0.23707215699401071 0 0.21716666063792969 0.21313575197324039 0 0.24332195560292991 0.2175119837032847 0 0.22326984787173351 0.22831062181695069 0 0.21716666063792969 0.21313575197324039 0 0.22326984787173351 0.22831062181695069 0 0.21374988379648621 0.2312097547222359 0 0.22527908084694109 0.23330634744632109 0 0.22326984787173351 0.22831062181695069 0 0.21374988379648621 0.2312097547222359 0 0.22527908084694109 0.23330634744632109 0 0.22527908084694109 0.23330634744632109 0 0.22326984787173351 0.22831062181695069 0 0.22326984787173351 0.22831062181695069 0 0.2459873280094696 0.23707215699401071 0 0.24332195560292991 0.2175119837032847 0 0.22326984787173351 0.22831062181695069 0 0.2459873280094696 0.23707215699401071 0 0.22527908084694109 0.23330634744632109 0 0.2459873280094696 0.23707215699401071 0 0.22527908084694109 0.23330634744632109 0 0.2459873280094696 0.23707215699401071 0 0.23435940432808119 0.2558835225658645 0 0.22527908084694109 0.23330634744632109 0 0.23435940432808119 0.2558835225658645 0 0.21374988379648621 0.2312097547222359 0 0.2257125065402284 0.25431107802280528 0 0.21374988379648621 0.2312097547222359 0 0.22527908084694109 0.23330634744632109 0 0.2257125065402284 0.25431107802280528 0 0.22527908084694109 0.23330634744632109 0 0.2257125065402284 0.25431107802280528 0 0.23435940432808119 0.2558835225658645 0 0.207677409848747 0.15265436726913009 0 0.20799191400454739 0.1375227668896451 0 0.22134903716669199 0.14708536363501609 0 0.20799191400454739 0.1375227668896451 0 0.22703691245497479 0.13189098412415109 0 0.21251029914637609 0.1192952894197942 0 0.20799191400454739 0.1375227668896451 0 0.19325819231563421 0.12959887947710741 0 0.21251029914637609 0.1192952894197942 0 0.20799191400454739 0.1375227668896451 0 0.19325819231563421 0.12959887947710741 0 0.1886017155567373 0.14211231666073301 0 0.1886017155567373 0.14211231666073301 0 0.1981233639171355 0.16578679509823521 0 0.207677409848747 0.15265436726913009 0 0.20799191400454739 0.1375227668896451 0 0.1886017155567373 0.14211231666073301 0 0.207677409848747 0.15265436726913009 0 0.1886017155567373 0.14211231666073301 0 0.1981233639171355 0.16578679509823521 0 0.20764501227753371 0.18946127353573741 0 0.1981233639171355 0.16578679509823521 0 0.18344157371591241 0.18406997535271 0 0.20764501227753371 0.18946127353573741 0 0.1981233639171355 0.16578679509823521 0 0.20764501227753371 0.18946127353573741 0 0.1981233639171355 0.16578679509823521 0 0.22193333897365611 0.16940236618161161 0 0.20764501227753371 0.18946127353573741 0 0.22349524510262589 0.1882929917077163 0 0.22193333897365611 0.16940236618161161 0 0.207677409848747 0.15265436726913009 0 0.1981233639171355 0.16578679509823521 0 0.22193333897365611 0.16940236618161161 0 0.207677409848747 0.15265436726913009 0 0.22193333897365611 0.16940236618161161 0 0.22134903716669199 0.14708536363501609 0 0.22349524510262589 0.1882929917077163 0 0.22193333897365611 0.16940236618161161 0 0.23800281531175979 0.18073324988006281 0 0.23800281531175979 0.18073324988006281 0 0.24342118736862761 0.16410875332904781 0 0.25421457754785548 0.17528354573505059 0 0.23800281531175979 0.18073324988006281 0 0.25421457754785548 0.17528354573505059 0 0.25113643024109478 0.19094495075723769 0 0.22193333897365611 0.16940236618161161 0 0.23800281531175979 0.18073324988006281 0 0.24342118736862761 0.16410875332904781 0 0.22193333897365611 0.16940236618161161 0 0.24342118736862761 0.16410875332904781 0 0.2381959797174126 0.14809141417820801 0 0.2381959797174126 0.14809141417820801 0 0.2471064899150823 0.133463067737116 0 0.25227113898158787 0.14916335431643429 0 0.24342118736862761 0.16410875332904781 0 0.2381959797174126 0.14809141417820801 0 0.25227113898158787 0.14916335431643429 0 0.2381959797174126 0.14809141417820801 0 0.22134903716669199 0.14708536363501609 0 0.22703691245497479 0.13189098412415109 0 0.22193333897365611 0.16940236618161161 0 0.2381959797174126 0.14809141417820801 0 0.22134903716669199 0.14708536363501609 0 0.20799191400454739 0.1375227668896451 0 0.22134903716669199 0.14708536363501609 0 0.22703691245497479 0.13189098412415109 0 0.22703691245497479 0.13189098412415109 0 0.2471064899150823 0.133463067737116 0 0.2348532799323845 0.1126728752525727 0 0.2381959797174126 0.14809141417820801 0 0.22703691245497479 0.13189098412415109 0 0.2471064899150823 0.133463067737116 0 0.2471064899150823 0.133463067737116 0 0.2496952397761337 0.1160329650041991 0 0.2348532799323845 0.1126728752525727 0 0.2348532799323845 0.1126728752525727 0 0.23238347446995899 0.09878858498409393 0 0.25089272908716931 0.092982859712809007 0 0.2496952397761337 0.1160329650041991 0 0.2348532799323845 0.1126728752525727 0 0.25089272908716931 0.092982859712809007 0 0.23238347446995899 0.09878858498409393 0 0.21965336389696419 0.1029970115124081 0 0.22413452496331809 0.086501593458585962 0 0.2348532799323845 0.1126728752525727 0 0.23238347446995899 0.09878858498409393 0 0.21965336389696419 0.1029970115124081 0 0.2348532799323845 0.1126728752525727 0 0.21965336389696419 0.1029970115124081 0 0.21251029914637609 0.1192952894197942 0 0.22703691245497479 0.13189098412415109 0 0.2348532799323845 0.1126728752525727 0 0.21251029914637609 0.1192952894197942 0 0.21965336389696419 0.1029970115124081 0 0.21251029914637609 0.1192952894197942 0 0.20714728240524249 0.10617251279081751 0 0.21251029914637609 0.1192952894197942 0 0.20714728240524249 0.10617251279081751 0 0.2007454095485067 0.1153730887768626 0 0.21965336389696419 0.1029970115124081 0 0.21155544327336909 0.093494818701204518 0 0.22413452496331809 0.086501593458585962 0 0.21965336389696419 0.1029970115124081 0 0.20714728240524249 0.10617251279081751 0 0.21155544327336909 0.093494818701204518 0 0.20029711589946361 0.098207227624031723 0 0.20055037116402991 0.091606906531847498 0 0.21155544327336909 0.093494818701204518 0 0.20714728240524249 0.10617251279081751 0 0.20029711589946361 0.098207227624031723 0 0.21155544327336909 0.093494818701204518 0 0.19812206266677551 0.107667640710604 0 0.20029711589946361 0.098207227624031723 0 0.1885688884481975 0.1093901779912298 0 0.20714728240524249 0.10617251279081751 0 0.19812206266677551 0.107667640710604 0 0.20029711589946361 0.098207227624031723 0 0.20029711589946361 0.098207227624031723 0 0.1929726046438287 0.094705252597794665 0 0.20055037116402991 0.091606906531847498 0 0.1929726046438287 0.094705252597794665 0 0.1885688884481975 0.1093901779912298 0 0.1832996600419958 0.1003897382564244 0 0.20029711589946361 0.098207227624031723 0 0.1929726046438287 0.094705252597794665 0 0.1885688884481975 0.1093901779912298 0 0.20029711589946361 0.098207227624031723 0 0.1885688884481975 0.1093901779912298 0 0.1929726046438287 0.094705252597794665 0 0.1885688884481975 0.1093901779912298 0 0.19812206266677551 0.107667640710604 0 0.19247123508700151 0.1156451737142033 0 0.1885688884481975 0.1093901779912298 0 0.19247123508700151 0.1156451737142033 0 0.1885688884481975 0.1093901779912298 0 0.1858372065203453 0.1184994265274882 0 0.19325819231563421 0.12959887947710741 0 0.21251029914637609 0.1192952894197942 0 0.2007454095485067 0.1153730887768626 0 0.19325819231563421 0.12959887947710741 0 0.19247123508700151 0.1156451737142033 0 0.1858372065203453 0.1184994265274882 0 0.19325819231563421 0.12959887947710741 0 0.19247123508700151 0.1156451737142033 0 0.2007454095485067 0.1153730887768626 0 0.20714728240524249 0.10617251279081751 0 0.19812206266677551 0.107667640710604 0 0.2007454095485067 0.1153730887768626 0 0.19812206266677551 0.107667640710604 0 0.19247123508700151 0.1156451737142033 0 0.2007454095485067 0.1153730887768626 0 0.20238686903042469 0.063311819413239129 0 0.1973763208394673 0.08002032720436178 0 0.18079222374313991 0.066157073385880324 0 0.20238686903042469 0.063311819413239129 0 0.18079222374313991 0.066157073385880324 0 0.1973763208394673 0.08002032720436178 0 0.17868141559437861 0.075492121278057239 0 0.20238686903042469 0.063311819413239129 0 0.1973763208394673 0.08002032720436178 0 0.1929726046438287 0.094705252597794665 0 0.1973763208394673 0.08002032720436178 0 0.1929726046438287 0.094705252597794665 0 0.1973763208394673 0.08002032720436178 0 0.18493574174144031 0.087819629641268118 0 0.1929726046438287 0.094705252597794665 0 0.20055037116402991 0.091606906531847498 0 0.1973763208394673 0.08002032720436178 0 0.1973763208394673 0.08002032720436178 0 0.22413452496331809 0.086501593458585962 0 0.1973763208394673 0.08002032720436178 0 0.21155544327336909 0.093494818701204518 0 0.22413452496331809 0.086501593458585962 0 0.1973763208394673 0.08002032720436178 0 0.21581045027983861 0.072515516379325212 0 0.22413452496331809 0.086501593458585962 0 0.20055037116402991 0.091606906531847498 0 0.1973763208394673 0.08002032720436178 0 0.21155544327336909 0.093494818701204518 0 0.20238686903042469 0.063311819413239129 0 0.21581045027983861 0.072515516379325212 0 0.22639199231908241 0.060148967164815811 0 0.20238686903042469 0.063311819413239129 0 0.1973763208394673 0.08002032720436178 0 0.21581045027983861 0.072515516379325212 0 0.21581045027983861 0.072515516379325212 0 0.22413452496331809 0.086501593458585962 0 0.23571274181676019 0.070187616308315881 0 0.21581045027983861 0.072515516379325212 0 0.23571274181676019 0.070187616308315881 0 0.22639199231908241 0.060148967164815811 0 0.23571274181676019 0.070187616308315881 0 0.23935269316475091 0.05797056278501677 0 0.22639199231908241 0.060148967164815811 0 0.22413452496331809 0.086501593458585962 0 0.25089272908716931 0.092982859712809007 0 0.22413452496331809 0.086501593458585962 0 0.23571274181676019 0.070187616308315881 0 0.25089272908716931 0.092982859712809007 0 0.23238347446995899 0.09878858498409393 0 0.22413452496331809 0.086501593458585962 0 0.25089272908716931 0.092982859712809007 0 0.23571274181676019 0.070187616308315881 0 0.25089272908716931 0.092982859712809007 0 0.23571274181676019 0.070187616308315881 0 0.25282536794073712 0.073272794188635415 0 0.25089272908716931 0.092982859712809007 0 0.23935269316475091 0.05797056278501677 0 0.25425538404847059 0.057624927133231481 0 0.25282536794073712 0.073272794188635415 0 0.23571274181676019 0.070187616308315881 0 0.23935269316475091 0.05797056278501677 0 0.25282536794073712 0.073272794188635415 0 0.2368345322212535 0.044434942105003657 0 0.25425538404847059 0.057624927133231481 0 0.23935269316475091 0.05797056278501677 0 0.2368345322212535 0.044434942105003657 0 0.25425538404847059 0.057624927133231481 0 0.23935269316475091 0.05797056278501677 0 0.2368345322212535 0.044434942105003657 0 0.23127016951469481 0.052559852354376588 0 0.2368345322212535 0.044434942105003657 0 0.25291178968964928 0.037547667281027097 0 0.25425538404847059 0.057624927133231481 0 0.2368345322212535 0.044434942105003657 0 0.24190969492169709 0.024768393557462999 0 0.25291178968964928 0.037547667281027097 0 0.2368345322212535 0.044434942105003657 0 0.21941368039403211 0.031244957076781411 0 0.2368345322212535 0.044434942105003657 0 0.22121604545690071 0.040326540279582428 0 0.22250146035369231 0.047684937362670127 0 0.2368345322212535 0.044434942105003657 0 0.22121604545690071 0.040326540279582428 0 0.21941368039403211 0.031244957076781411 0 0.2368345322212535 0.044434942105003657 0 0.24190969492169709 0.024768393557462999 0 0.21941368039403211 0.031244957076781411 0 0.22121604545690071 0.040326540279582428 0 0.22250146035369231 0.047684937362670127 0 0.2151241054634794 0.043140718643033253 0 0.22250146035369231 0.047684937362670127 0 0.22639199231908241 0.060148967164815811 0 0.21464985550632831 0.05254647609126252 0 0.23935269316475091 0.05797056278501677 0 0.22639199231908241 0.060148967164815811 0 0.23127016951469481 0.052559852354376588 0 0.2368345322212535 0.044434942105003657 0 0.22250146035369231 0.047684937362670127 0 0.23127016951469481 0.052559852354376588 0 0.22250146035369231 0.047684937362670127 0 0.22639199231908241 0.060148967164815811 0 0.23127016951469481 0.052559852354376588 0 0.23517440673197429 0.0051848507458196356 0 0.24190969492169709 0.024768393557462999 0 0.22860778246280219 0.01441509204728152 0 0.23517440673197429 0.0051848507458196356 0 0.2485551203034157 0.0102848256948572 0 0.24190969492169709 0.024768393557462999 0 0.23517440673197429 0.0051848507458196356 0 0.2429424487767215 0.0026164120279975069 0 0.24005113852307369 -0.0027355710512556022 0 0.23517440673197429 0.0051848507458196356 0 0.2429424487767215 0.0026164120279975069 0 0.2485551203034157 0.0102848256948572 0 0.2429424487767215 0.0026164120279975069 0 0.2485551203034157 0.0102848256948572 0 0.2479891295484222 -0.0022684572774312019 0 0.2237082671027216 0.020648212041472009 0 0.22100796739575951 0.001216664300799794 0 0.21337432104441539 0.026672329963493752 0 0.24190969492169709 0.024768393557462999 0 0.21941368039403211 0.031244957076781411 0 0.24190969492169709 0.024768393557462999 0 0.21941368039403211 0.031244957076781411 0 0.2237082671027216 0.020648212041472009 0 0.24190969492169709 0.024768393557462999 0 0.2237082671027216 0.020648212041472009 0 0.22860778246280219 0.01441509204728152 0 0.21941368039403211 0.031244957076781411 0 0.2237082671027216 0.020648212041472009 0 0.21337432104441539 0.026672329963493752 0 0.2237082671027216 0.020648212041472009 0 0.22860778246280219 0.01441509204728152 0 0.22100796739575951 0.001216664300799794 0 0.23517440673197429 0.0051848507458196356 0 0.22860778246280219 0.01441509204728152 0 0.22100796739575951 0.001216664300799794 0 0.22100796739575951 0.001216664300799794 0 0.21337432104441539 0.026672329963493752 0 0.22100796739575951 0.001216664300799794 0 0.21213365429295861 0.01041237886839381 0 0.21337432104441539 0.026672329963493752 0 0.20938161325362409 0.0025060029461209908 0 0.21213365429295861 0.01041237886839381 0 0.19981118715584381 0.0070254328827108366 0 0.20938161325362409 0.0025060029461209908 0 0.19981118715584381 0.0070254328827108366 0 0.20239897911060981 -0.0049616950454924097 0 0.22100796739575951 0.001216664300799794 0 0.21476518088515931 0.0026345493870347861 0 0.21213365429295861 0.01041237886839381 0 0.20938161325362409 0.0025060029461209908 0 0.21476518088515931 0.0026345493870347861 0 0.21653748859829491 -0.0035968485671754561 0 0.20938161325362409 0.0025060029461209908 0 0.21476518088515931 0.0026345493870347861 0 0.21213365429295861 0.01041237886839381 0 0.22100796739575951 0.001216664300799794 0 0.21476518088515931 0.0026345493870347861 0 0.21653748859829491 -0.0035968485671754561 0 0.21213365429295861 0.01041237886839381 0 0.20775643638324501 0.022418817258943329 0 0.19981118715584381 0.0070254328827108366 0 0.20775643638324501 0.022418817258943329 0 0.19981118715584381 0.0070254328827108366 0 0.21213365429295861 0.01041237886839381 0 0.20775643638324501 0.022418817258943329 0 0.21337432104441539 0.026672329963493752 0 0.20775643638324501 0.022418817258943329 0 0.21337432104441539 0.026672329963493752 0 0.21211661331991941 0.030866365927793071 0 0.21941368039403211 0.031244957076781411 0 0.21337432104441539 0.026672329963493752 0 0.21211661331991941 0.030866365927793071 0 0.21941368039403211 0.031244957076781411 0 0.21337432104441539 0.026672329963493752 0 0.21337432104441539 0.026672329963493752 0 0.21211661331991941 0.030866365927793071 0 0.20775643638324501 0.022418817258943329 0 0.21211661331991941 0.030866365927793071 0 0.2008624239423544 0.027751844864101351 0 0.21211661331991941 0.030866365927793071 0 0.2008624239423544 0.027751844864101351 0 0.21130283169949521 0.033580056331867662 0 0.20775643638324501 0.022418817258943329 0 0.21211661331991941 0.030866365927793071 0 0.20775643638324501 0.022418817258943329 0 0.21337432104441539 0.026672329963493752 0 0.2008624239423544 0.027751844864101351 0 0.1914807756371078 0.039286791852227318 0 0.1874867753674215 0.0231110496262097 0 0.2008624239423544 0.027751844864101351 0 0.19503111124693581 0.017247988187571551 0 0.1874867753674215 0.0231110496262097 0 0.19503111124693581 0.017247988187571551 0 0.18734518720319909 0.015281891910368059 0 0.1874867753674215 0.0231110496262097 0 0.20775643638324501 0.022418817258943329 0 0.2008624239423544 0.027751844864101351 0 0.19503111124693581 0.017247988187571551 0 0.20775643638324501 0.022418817258943329 0 0.19503111124693581 0.017247988187571551 0 0.18660242445042999 0.0064023156866817926 0 0.20775643638324501 0.022418817258943329 0 0.18660242445042999 0.0064023156866817926 0 0.20775643638324501 0.022418817258943329 0 0.1894192936343001 0.0060385698470956234 0 0.19981118715584381 0.0070254328827108366 0 0.20775643638324501 0.022418817258943329 0 0.1894192936343001 0.0060385698470956234 0 0.18660242445042999 0.0064023156866817926 0 0.19503111124693581 0.017247988187571551 0 0.18832376542685261 0.012450231659139751 0 0.18660242445042999 0.0064023156866817926 0 0.19503111124693581 0.017247988187571551 0 0.18832376542685261 0.012450231659139751 0 0.18734518720319909 0.015281891910368059 0 0.1894192936343001 0.0060385698470956234 0 0.19981118715584381 0.0070254328827108366 0 0.1918659379284415 -0.0083679514935210662 0 0.20238686903042469 0.063311819413239129 0 0.22639199231908241 0.060148967164815811 0 0.21464985550632831 0.05254647609126252 0 0.20238686903042469 0.063311819413239129 0 0.22639199231908241 0.060148967164815811 0 0.20238686903042469 0.063311819413239129 0 0.20684485036496281 0.04844593787255428 0 0.21464985550632831 0.05254647609126252 0 0.20238686903042469 0.063311819413239129 0 0.20684485036496281 0.04844593787255428 0 0.20684485036496281 0.04844593787255428 0 0.21464985550632831 0.05254647609126252 0 0.2151241054634794 0.043140718643033253 0 0.22250146035369231 0.047684937362670127 0 0.21464985550632831 0.05254647609126252 0 0.2151241054634794 0.043140718643033253 0 0.20684485036496281 0.04844593787255428 0 0.2151241054634794 0.043140718643033253 0 0.21130283169949521 0.033580056331867662 0 0.20684485036496281 0.04844593787255428 0 0.21130283169949521 0.033580056331867662 0 0.1914807756371078 0.039286791852227318 0 0.2151241054634794 0.043140718643033253 0 0.21130283169949521 0.033580056331867662 0 0.21323078658658201 0.03302500146766809 0 0.22121604545690071 0.040326540279582428 0 0.2151241054634794 0.043140718643033253 0 0.21323078658658201 0.03302500146766809 0 0.22121604545690071 0.040326540279582428 0 0.21941368039403211 0.031244957076781411 0 0.21323078658658201 0.03302500146766809 0 0.21941368039403211 0.031244957076781411 0 0.21211661331991941 0.030866365927793071 0 0.21323078658658201 0.03302500146766809 0 0.21941368039403211 0.031244957076781411 0 0.21323078658658201 0.03302500146766809 0 0.21130283169949521 0.033580056331867662 0 0.21323078658658201 0.03302500146766809 0 0.21211661331991941 0.030866365927793071 0 0.21130283169949521 0.033580056331867662 0 0.21323078658658201 0.03302500146766809 0 0.21211661331991941 0.030866365927793071 0 0.21130283169949521 0.033580056331867662 0 0.21211661331991941 0.030866365927793071 0 0.21323078658658201 0.03302500146766809 0 0.20684485036496281 0.04844593787255428 0 0.21130283169949521 0.033580056331867662 0 0.20684485036496281 0.04844593787255428 0 0.1914807756371078 0.039286791852227318 0 0.1906326876700713 0.052439029979298252 0 0.21130283169949521 0.033580056331867662 0 0.1914807756371078 0.039286791852227318 0 0.2008624239423544 0.027751844864101351 0 0.21130283169949521 0.033580056331867662 0 0.1914807756371078 0.039286791852227318 0 0.20238686903042469 0.063311819413239129 0 0.20684485036496281 0.04844593787255428 0 0.1906326876700713 0.052439029979298252 0 0.20238686903042469 0.063311819413239129 0 0.1906326876700713 0.052439029979298252 0 0.18079222374313991 0.066157073385880324 0 0.1906326876700713 0.052439029979298252 0 0.1716587195747214 0.044993527372590117 0 0.18079222374313991 0.066157073385880324 0 0.1914807756371078 0.039286791852227318 0 0.17895959729017549 0.03270519686463521 0 0.1874867753674215 0.0231110496262097 0 0.1914807756371078 0.039286791852227318 0 0.1906326876700713 0.052439029979298252 0 0.1716587195747214 0.044993527372590117 0 0.1914807756371078 0.039286791852227318 0 0.1716587195747214 0.044993527372590117 0 0.1914807756371078 0.039286791852227318 0 0.17895959729017549 0.03270519686463521 0 0.1716587195747214 0.044993527372590117 0 0.17895959729017549 0.03270519686463521 0 0.1716587195747214 0.044993527372590117 0 0.1692336025848987 0.033942773786365128 0 0.1716587195747214 0.044993527372590117 0 0.1692336025848987 0.033942773786365128 0 0.1566962317421734 0.039838803654011962 0 0.1716587195747214 0.044993527372590117 0 0.1566962317421734 0.039838803654011962 0 0.15183666351233449 0.050700262892952028 0 0.1692336025848987 0.033942773786365128 0 0.1566962317421734 0.039838803654011962 0 0.158601754226253 0.030081739901262169 0 0.1716587195747214 0.044993527372590117 0 0.15183666351233449 0.050700262892952028 0 0.15919757845585511 0.069002327358520896 0 0.1716587195747214 0.044993527372590117 0 0.18079222374313991 0.066157073385880324 0 0.15919757845585511 0.069002327358520896 0 0.1716587195747214 0.044993527372590117 0 0.15183666351233449 0.050700262892952028 0 0.17227434920368959 0.00081991249798677823 0 0.17658810010716819 0.0040568459827444014 0 0.17786282304025339 -0.001583287003114023 0 0.17227434920368959 0.00081991249798677823 0 0.17658810010716819 0.0040568459827444014 0 0.17233771352019589 0.0083561011481188656 0 0.17658810010716819 0.0040568459827444014 0 0.18177514670000741 0.0039010391453388991 0 0.17943453638861959 0.0091511058078182841 0 0.17658810010716819 0.0040568459827444014 0 0.17943453638861959 0.0091511058078182841 0 0.17233771352019589 0.0083561011481188656 0 0.17658810010716819 0.0040568459827444014 0 0.18177514670000741 0.0039010391453388991 0 0.17786282304025339 -0.001583287003114023 0 0.18177514670000741 0.0039010391453388991 0 0.18580903226614379 -0.0011502469314075439 0 0.17786282304025339 -0.001583287003114023 0 0.1894192936343001 0.0060385698470956234 0 0.18660242445042999 0.0064023156866817926 0 0.18580903226614379 -0.0011502469314075439 0 0.18177514670000741 0.0039010391453388991 0 0.18660242445042999 0.0064023156866817926 0 0.18580903226614379 -0.0011502469314075439 0 0.18177514670000741 0.0039010391453388991 0 0.18660242445042999 0.0064023156866817926 0 0.18303211158647559 0.0075807978729441382 0 0.18177514670000741 0.0039010391453388991 0 0.18303211158647559 0.0075807978729441382 0 0.17943453638861959 0.0091511058078182841 0 0.18303211158647559 0.0075807978729441382 0 0.18431633880684531 0.01086873085193758 0 0.17943453638861959 0.0091511058078182841 0 0.18660242445042999 0.0064023156866817926 0 0.18303211158647559 0.0075807978729441382 0 0.18431633880684531 0.01086873085193758 0 0.18832376542685261 0.012450231659139751 0 0.18660242445042999 0.0064023156866817926 0 0.18431633880684531 0.01086873085193758 0 0.18431633880684531 0.01086873085193758 0 0.18734518720319909 0.015281891910368059 0 0.18195036267736389 0.015275800378046231 0 0.18832376542685261 0.012450231659139751 0 0.18431633880684531 0.01086873085193758 0 0.18734518720319909 0.015281891910368059 0 0.18431633880684531 0.01086873085193758 0 0.18195036267736389 0.015275800378046231 0 0.17943453638861959 0.0091511058078182841 0 0.18195036267736389 0.015275800378046231 0 0.1761571917665653 0.013806221612761949 0 0.17943453638861959 0.0091511058078182841 0 0.1761571917665653 0.013806221612761949 0 0.17943453638861959 0.0091511058078182841 0 0.17233771352019589 0.0083561011481188656 0 0.1761571917665653 0.013806221612761949 0 0.17233771352019589 0.0083561011481188656 0 0.1709247624247007 0.01466984692398882 0 0.1761571917665653 0.013806221612761949 0 0.17493811328672779 0.022191841685783802 0 0.1709247624247007 0.01466984692398882 0 0.18195036267736389 0.015275800378046231 0 0.1761571917665653 0.013806221612761949 0 0.17493811328672779 0.022191841685783802 0 0.18734518720319909 0.015281891910368059 0 0.18195036267736389 0.015275800378046231 0 0.1874867753674215 0.0231110496262097 0 0.18195036267736389 0.015275800378046231 0 0.17493811328672779 0.022191841685783802 0 0.1874867753674215 0.0231110496262097 0 0.17895959729017549 0.03270519686463521 0 0.17493811328672779 0.022191841685783802 0 0.1874867753674215 0.0231110496262097 0 0.17895959729017549 0.03270519686463521 0 0.1692336025848987 0.033942773786365128 0 0.17493811328672779 0.022191841685783802 0 0.1692336025848987 0.033942773786365128 0 0.1660519956958274 0.025200646889517071 0 0.158601754226253 0.030081739901262169 0 0.1692336025848987 0.033942773786365128 0 0.17493811328672779 0.022191841685783802 0 0.1660519956958274 0.025200646889517071 0 0.1660519956958274 0.025200646889517071 0 0.158601754226253 0.030081739901262169 0 0.15656323758401319 0.020842958383828041 0 0.15656323758401319 0.020842958383828041 0 0.1655425680131333 0.017645951334422452 0 0.15799820797772829 0.01069464001977203 0 0.1660519956958274 0.025200646889517071 0 0.15656323758401319 0.020842958383828041 0 0.1655425680131333 0.017645951334422452 0 0.17493811328672779 0.022191841685783802 0 0.1660519956958274 0.025200646889517071 0 0.1655425680131333 0.017645951334422452 0 0.17493811328672779 0.022191841685783802 0 0.1655425680131333 0.017645951334422452 0 0.1709247624247007 0.01466984692398882 0 0.17233771352019589 0.0083561011481188656 0 0.1709247624247007 0.01466984692398882 0 0.16528784937855559 0.0099045707114697821 0 0.1655425680131333 0.017645951334422452 0 0.1709247624247007 0.01466984692398882 0 0.16528784937855559 0.0099045707114697821 0 0.1655425680131333 0.017645951334422452 0 0.16528784937855559 0.0099045707114697821 0 0.15799820797772829 0.01069464001977203 0 0.16528784937855559 0.0099045707114697821 0 0.15830422717032419 0.0026668804518291322 0 0.16550177429739321 0.001625335581948511 0 0.16528784937855559 0.0099045707114697821 0 0.15799820797772829 0.01069464001977203 0 0.15830422717032419 0.0026668804518291322 0 0.17233771352019589 0.0083561011481188656 0 0.16528784937855559 0.0099045707114697821 0 0.16550177429739321 0.001625335581948511 0 0.17227434920368959 0.00081991249798677823 0 0.17233771352019589 0.0083561011481188656 0 0.16550177429739321 0.001625335581948511 0 0.14127976741107601 0.00215554095495248 0 0.15230472087545879 0.0045339035350271751 0 0.14873370341600839 0.01190124285016711 0 0.15799820797772829 0.01069464001977203 0 0.15830422717032419 0.0026668804518291322 0 0.15230472087545879 0.0045339035350271751 0 0.14127976741107601 0.00215554095495248 0 0.15230472087545879 0.0045339035350271751 0 0.1552076984021574 -0.0047487866015848753 0 0.15830422717032419 0.0026668804518291322 0 0.15230472087545879 0.0045339035350271751 0 0.1552076984021574 -0.0047487866015848753 0 0.15656323758401319 0.020842958383828041 0 0.15799820797772829 0.01069464001977203 0 0.14873370341600839 0.01190124285016711 0 0.15799820797772829 0.01069464001977203 0 0.15230472087545879 0.0045339035350271751 0 0.14873370341600839 0.01190124285016711 0 0.14873370341600839 0.01190124285016711 0 0.1458857290053831 0.021389540043380069 0 0.13967636330765321 0.013174792475989121 0 0.14127976741107601 0.00215554095495248 0 0.14873370341600839 0.01190124285016711 0 0.13967636330765321 0.013174792475989121 0 0.1458857290053831 0.021389540043380069 0 0.13916191736165201 0.019633136795163032 0 0.13967636330765321 0.013174792475989121 0 0.1458857290053831 0.021389540043380069 0 0.14010063181871271 0.02585166497444577 0 0.13916191736165201 0.019633136795163032 0 0.15656323758401319 0.020842958383828041 0 0.1458857290053831 0.021389540043380069 0 0.15175299049851881 0.02729842449465077 0 0.15656323758401319 0.020842958383828041 0 0.14873370341600839 0.01190124285016711 0 0.1458857290053831 0.021389540043380069 0 0.158601754226253 0.030081739901262169 0 0.15656323758401319 0.020842958383828041 0 0.15175299049851881 0.02729842449465077 0 0.158601754226253 0.030081739901262169 0 0.15175299049851881 0.02729842449465077 0 0.15159127196488009 0.032471007951428398 0 0.15175299049851881 0.02729842449465077 0 0.14523576613563741 0.02976945682372012 0 0.15159127196488009 0.032471007951428398 0 0.1458857290053831 0.021389540043380069 0 0.14523576613563741 0.02976945682372012 0 0.14010063181871271 0.02585166497444577 0 0.14523576613563741 0.02976945682372012 0 0.14010063181871271 0.02585166497444577 0 0.1391322595465444 0.03699933077486834 0 0.1458857290053831 0.021389540043380069 0 0.15175299049851881 0.02729842449465077 0 0.14523576613563741 0.02976945682372012 0 0.1309849453148588 0.01811654968683717 0 0.1391322595465444 0.03699933077486834 0 0.14010063181871271 0.02585166497444577 0 0.1309849453148588 0.01811654968683717 0 0.1391322595465444 0.03699933077486834 0 0.11917198148314 0.002581966002757949 0 0.13034027439662041 0.028127834929059549 0 0.1309849453148588 0.01811654968683717 0 0.13034027439662041 0.028127834929059549 0 0.1309849453148588 0.01811654968683717 0 0.1391322595465444 0.03699933077486834 0 0.1309849453148588 0.01811654968683717 0 0.13916191736165201 0.019633136795163032 0 0.13967636330765321 0.013174792475989121 0 0.14010063181871271 0.02585166497444577 0 0.1309849453148588 0.01811654968683717 0 0.13916191736165201 0.019633136795163032 0 0.14127976741107601 0.00215554095495248 0 0.13362755423293271 0.0080562160832345926 0 0.1228376310831711 -0.00076623140119310329 0 0.1309849453148588 0.01811654968683717 0 0.13362755423293271 0.0080562160832345926 0 0.1228376310831711 -0.00076623140119310329 0 0.1309849453148588 0.01811654968683717 0 0.1228376310831711 -0.00076623140119310329 0 0.1309849453148588 0.01811654968683717 0 0.13362755423293271 0.0080562160832345926 0 0.13967636330765321 0.013174792475989121 0 0.14127976741107601 0.00215554095495248 0 0.13362755423293271 0.0080562160832345926 0 0.13967636330765321 0.013174792475989121 0 0.15183666351233449 0.050700262892952028 0 0.15919757845585511 0.069002327358520896 0 0.15048711395973299 0.060532750562707877 0 0.15183666351233449 0.050700262892952028 0 0.15919757845585511 0.069002327358520896 0 0.14215194880052681 0.055145346777992182 0 0.15048711395973299 0.060532750562707877 0 0.13253998066004699 0.064315925604492674 0 0.1415085673101022 0.053673703855360522 0 0.14215194880052681 0.055145346777992182 0 0.15183666351233449 0.050700262892952028 0 0.1415085673101022 0.053673703855360522 0 0.15183666351233449 0.050700262892952028 0 0.1415085673101022 0.053673703855360522 0 0.15183666351233449 0.050700262892952028 0 0.14453550543306221 0.044729731242042367 0 0.1415085673101022 0.053673703855360522 0 0.14215194880052681 0.055145346777992182 0 0.14215194880052681 0.055145346777992182 0 0.15048711395973299 0.060532750562707877 0 0.15183666351233449 0.050700262892952028 0 0.1415085673101022 0.053673703855360522 0 0.14453550543306221 0.044729731242042367 0 0.1391322595465444 0.03699933077486834 0 0.15183666351233449 0.050700262892952028 0 0.14566961722181801 0.035366614883496988 0 0.1566962317421734 0.039838803654011962 0 0.15183666351233449 0.050700262892952028 0 0.14566961722181801 0.035366614883496988 0 0.1566962317421734 0.039838803654011962 0 0.15159127196488009 0.032471007951428398 0 0.14566961722181801 0.035366614883496988 0 0.1566962317421734 0.039838803654011962 0 0.158601754226253 0.030081739901262169 0 0.15159127196488009 0.032471007951428398 0 0.14566961722181801 0.035366614883496988 0 0.14453550543306221 0.044729731242042367 0 0.1391322595465444 0.03699933077486834 0 0.14523576613563741 0.02976945682372012 0 0.15159127196488009 0.032471007951428398 0 0.14566961722181801 0.035366614883496988 0 0.14523576613563741 0.02976945682372012 0 0.14566961722181801 0.035366614883496988 0 0.1391322595465444 0.03699933077486834 0 0.15183666351233449 0.050700262892952028 0 0.14566961722181801 0.035366614883496988 0 0.14453550543306221 0.044729731242042367 0 0.13034027439662041 0.028127834929059549 0 0.1415085673101022 0.053673703855360522 0 0.13034027439662041 0.028127834929059549 0 0.1415085673101022 0.053673703855360522 0 0.1391322595465444 0.03699933077486834 0 0.12367169586596689 0.04413069599522032 0 0.13034027439662041 0.028127834929059549 0 0.1415085673101022 0.053673703855360522 0 0.11892469151436 0.060175562481194378 0 0.12367169586596689 0.04413069599522032 0 0.1415085673101022 0.053673703855360522 0 0.11892469151436 0.060175562481194378 0 0.1415085673101022 0.053673703855360522 0 0.11892469151436 0.060175562481194378 0 0.1415085673101022 0.053673703855360522 0 0.13253998066004699 0.064315925604492674 0 0.1415085673101022 0.053673703855360522 0 0.14215194880052681 0.055145346777992182 0 0.13253998066004699 0.064315925604492674 0 0.13253998066004699 0.064315925604492674 0 0.13121537104960351 0.072689189806444385 0 0.15446329543616341 0.069626104104570485 0 0.1243405792371938 0.066503547411893488 0 0.13253998066004699 0.064315925604492674 0 0.13121537104960351 0.072689189806444385 0 0.11892469151436 0.060175562481194378 0 0.1243405792371938 0.066503547411893488 0 0.13253998066004699 0.064315925604492674 0 0.13121537104960351 0.072689189806444385 0 0.14336397744542301 0.076431171561807093 0 0.13288821721910599 0.083857800247139097 0 0.15048711395973299 0.060532750562707877 0 0.13253998066004699 0.064315925604492674 0 0.15446329543616341 0.069626104104570485 0 0.13121537104960351 0.072689189806444385 0 0.15446329543616341 0.069626104104570485 0 0.13121537104960351 0.072689189806444385 0 0.14336397744542301 0.076431171561807093 0 0.15446329543616341 0.069626104104570485 0 0.13253998066004699 0.064315925604492674 0 0.15446329543616341 0.069626104104570485 0 0.14336397744542301 0.076431171561807093 0 0.15145508435945571 0.07730097997971673 0 0.15446329543616341 0.069626104104570485 0 0.15145508435945571 0.07730097997971673 0 0.15998651034928929 0.070963915351755544 0 0.15635019231632599 0.084708360937410687 0 0.15145508435945571 0.07730097997971673 0 0.15446329543616341 0.069626104104570485 0 0.15998651034928929 0.070963915351755544 0 0.15048711395973299 0.060532750562707877 0 0.15446329543616341 0.069626104104570485 0 0.15919757845585511 0.069002327358520896 0 0.1449478564828334 0.088262465871273704 0 0.15304430801011831 0.09759233646353245 0 0.15635019231632599 0.084708360937410687 0 0.15145508435945571 0.07730097997971673 0 0.1449478564828334 0.088262465871273704 0 0.15635019231632599 0.084708360937410687 0 0.14336397744542301 0.076431171561807093 0 0.15145508435945571 0.07730097997971673 0 0.1449478564828334 0.088262465871273704 0 0.1449478564828334 0.088262465871273704 0 0.13288821721910599 0.083857800247139097 0 0.1333435253298102 0.095432768439741328 0 0.14336397744542301 0.076431171561807093 0 0.1449478564828334 0.088262465871273704 0 0.13288821721910599 0.083857800247139097 0 0.1225478872688979 0.090713611373926736 0 0.1210037722340596 0.082520495593825793 0 0.13288821721910599 0.083857800247139097 0 0.1210037722340596 0.082520495593825793 0 0.13121537104960351 0.072689189806444385 0 0.13288821721910599 0.083857800247139097 0 0.1225478872688979 0.090713611373926736 0 0.13288821721910599 0.083857800247139097 0 0.1333435253298102 0.095432768439741328 0 0.1449478564828334 0.088262465871273704 0 0.1368974078767736 0.107501873099266 0 0.1333435253298102 0.095432768439741328 0 0.12018819637303869 0.10164151191590461 0 0.1368974078767736 0.107501873099266 0 0.1333435253298102 0.095432768439741328 0 0.12018819637303869 0.10164151191590461 0 0.1225478872688979 0.090713611373926736 0 0.1333435253298102 0.095432768439741328 0 0.11707998843366239 0.12090166170324231 0 0.14061487869327599 0.12738787364596069 0 0.1368974078767736 0.107501873099266 0 0.14061487869327599 0.12738787364596069 0 0.1368974078767736 0.107501873099266 0 0.1574927946018469 0.1127881056222175 0 0.14061487869327599 0.12738787364596069 0 0.16208469833826319 0.13464304631642149 0 0.1574927946018469 0.1127881056222175 0 0.1368974078767736 0.107501873099266 0 0.15304430801011831 0.09759233646353245 0 0.1574927946018469 0.1127881056222175 0 0.1449478564828334 0.088262465871273704 0 0.1368974078767736 0.107501873099266 0 0.15304430801011831 0.09759233646353245 0 0.15304430801011831 0.09759233646353245 0 0.1695332887728116 0.094700876787494351 0 0.1574927946018469 0.1127881056222175 0 0.1695332887728116 0.094700876787494351 0 0.1574927946018469 0.1127881056222175 0 0.1790800671963392 0.1184378382232308 0 0.16208469833826319 0.13464304631642149 0 0.1574927946018469 0.1127881056222175 0 0.1790800671963392 0.1184378382232308 0 0.1885688884481975 0.1093901779912298 0 0.1790800671963392 0.1184378382232308 0 0.1832996600419958 0.1003897382564244 0 0.1885688884481975 0.1093901779912298 0 0.1790800671963392 0.1184378382232308 0 0.1858372065203453 0.1184994265274882 0 0.1885688884481975 0.1093901779912298 0 0.1858372065203453 0.1184994265274882 0 0.1885688884481975 0.1093901779912298 0 0.1790800671963392 0.1184378382232308 0 0.19325819231563421 0.12959887947710741 0 0.1790800671963392 0.1184378382232308 0 0.1858372065203453 0.1184994265274882 0 0.1695332887728116 0.094700876787494351 0 0.1790800671963392 0.1184378382232308 0 0.1695332887728116 0.094700876787494351 0 0.1790800671963392 0.1184378382232308 0 0.1832996600419958 0.1003897382564244 0 0.1695332887728116 0.094700876787494351 0 0.1832996600419958 0.1003897382564244 0 0.18493574174144031 0.087819629641268118 0 0.1929726046438287 0.094705252597794665 0 0.1832996600419958 0.1003897382564244 0 0.18493574174144031 0.087819629641268118 0 0.1973763208394673 0.08002032720436178 0 0.18493574174144031 0.087819629641268118 0 0.17868141559437861 0.075492121278057239 0 0.1695332887728116 0.094700876787494351 0 0.18493574174144031 0.087819629641268118 0 0.17868141559437861 0.075492121278057239 0 0.1973763208394673 0.08002032720436178 0 0.17868141559437861 0.075492121278057239 0 0.18079222374313991 0.066157073385880324 0 0.17868141559437861 0.075492121278057239 0 0.18079222374313991 0.066157073385880324 0 0.15998651034928929 0.070963915351755544 0 0.18079222374313991 0.066157073385880324 0 0.15919757845585511 0.069002327358520896 0 0.18079222374313991 0.066157073385880324 0 0.15919757845585511 0.069002327358520896 0 0.15998651034928929 0.070963915351755544 0 0.17868141559437861 0.075492121278057239 0 0.15998651034928929 0.070963915351755544 0 0.15446329543616341 0.069626104104570485 0 0.15919757845585511 0.069002327358520896 0 0.15998651034928929 0.070963915351755544 0 0.15446329543616341 0.069626104104570485 0 0.15919757845585511 0.069002327358520896 0 0.15446329543616341 0.069626104104570485 0 0.15998651034928929 0.070963915351755544 0 0.15919757845585511 0.069002327358520896 0 0.15998651034928929 0.070963915351755544 0 0.1695332887728116 0.094700876787494351 0 0.17868141559437861 0.075492121278057239 0 0.15998651034928929 0.070963915351755544 0 0.15304430801011831 0.09759233646353245 0 0.1695332887728116 0.094700876787494351 0 0.15635019231632599 0.084708360937410687 0 0.1695332887728116 0.094700876787494351 0 0.15998651034928929 0.070963915351755544 0 0.1695332887728116 0.094700876787494351 0 0.15998651034928929 0.070963915351755544 0 0.15635019231632599 0.084708360937410687 0 0.097740131103692757 0.47211576306312553 0 0.10228396963995549 0.48764264937867408 0 0.092199203719590395 0.48872928857719472 0 0.097740131103692757 0.47211576306312553 0 0.1146358595090817 0.48605788153156299 0 0.097740131103692757 0.47211576306312553 0 0.10228396963995549 0.48764264937867408 0 0.1146358595090817 0.48605788153156299 0 0.1038255785689283 0.5 0 0.10228396963995549 0.48764264937867408 0 0.092199203719590395 0.48872928857719472 0 0.1038255785689283 0.5 0 0.10228396963995549 0.48764264937867408 0 0.1146358595090817 0.48605788153156299 0 0.1146358595090817 0.48605788153156299 0 0.13153158791447089 0.50000000000000033 0 0.1038255785689283 0.5 0 0.1146358595090817 0.48605788153156299 0 0.13153158791447089 0.50000000000000033 0 0.097740131103692757 0.47211576306312553 0 0.1146358595090817 0.48605788153156299 0 0.1160915578241386 0.4641835533930308 0 0.1146358595090817 0.48605788153156299 0 0.1160915578241386 0.4641835533930308 0 0.13792901651589951 0.46760966493884959 0 0.1160915578241386 0.4641835533930308 0 0.1237280261196836 0.44463014715047522 0 0.10202961426548091 0.45002724093957291 0 0.1237280261196836 0.44463014715047522 0 0.1057649319772677 0.43759517983083812 0 0.10202961426548091 0.45002724093957291 0 0.1057649319772677 0.43759517983083812 0 0.10202961426548091 0.45002724093957291 0 0.08764391112498858 0.43163178618934439 0 0.097740131103692757 0.47211576306312553 0 0.1160915578241386 0.4641835533930308 0 0.10202961426548091 0.45002724093957291 0 0.080844402698305312 0.45817364459468618 0 0.076730675362011974 0.47423156549521001 0 0.097740131103692757 0.47211576306312553 0 0.080844402698305312 0.45817364459468618 0 0.097740131103692757 0.47211576306312553 0 0.10202961426548091 0.45002724093957291 0 0.080844402698305312 0.45817364459468618 0 0.097740131103692757 0.47211576306312553 0 0.080844402698305312 0.45817364459468618 0 0.076730675362011974 0.47423156549521001 0 0.080844402698305312 0.45817364459468618 0 0.08764391112498858 0.43163178618934439 0 0.10202961426548091 0.45002724093957291 0 0.080844402698305312 0.45817364459468618 0 0.08764391112498858 0.43163178618934439 0 0.080844402698305312 0.45817364459468618 0 0.07540768018483697 0.44030754071393319 0 0.08764391112498858 0.43163178618934439 0 0.080844402698305312 0.45817364459468618 0 0.07540768018483697 0.44030754071393319 0 0.061556592319121653 0.44225761358074578 0 0.080844402698305312 0.45817364459468618 0 0.061556592319121653 0.44225761358074578 0 0.080844402698305312 0.45817364459468618 0 0.067859653170709522 0.45426422462270638 0 0.061556592319121653 0.44225761358074578 0 0.080844402698305312 0.45817364459468618 0 0.064346854003363874 0.46736183993319841 0 0.076730675362011974 0.47423156549521001 0 0.064346854003363874 0.46736183993319841 0 0.067859653170709522 0.45426422462270638 0 0.056076759981020123 0.44443419347066321 0 0.080844402698305312 0.45817364459468618 0 0.064346854003363874 0.46736183993319841 0 0.067859653170709522 0.45426422462270638 0 0.076730675362011974 0.47423156549521001 0 0.072616948025712127 0.490289486395732 0 0.064346854003363874 0.46736183993319841 0 0.072616948025712127 0.490289486395732 0 0.058055043786226751 0.49051055052906067 0 0.064346854003363874 0.46736183993319841 0 0.072616948025712127 0.490289486395732 0 0.064346854003363874 0.46736183993319841 0 0.076730675362011974 0.47423156549521001 0 0.072616948025712127 0.490289486395732 0 0.076730675362011974 0.47423156549521001 0 0.082075002421626492 0.48449271935339733 0 0.072616948025712127 0.490289486395732 0 0.097740131103692757 0.47211576306312553 0 0.076730675362011974 0.47423156549521001 0 0.082075002421626492 0.48449271935339733 0 0.097740131103692757 0.47211576306312553 0 0.092199203719590395 0.48872928857719472 0 0.082075002421626492 0.48449271935339733 0 0.1038255785689283 0.5 0 0.092199203719590395 0.48872928857719472 0 0.076119569223385697 0.50000000000000089 0 0.092199203719590395 0.48872928857719472 0 0.082075002421626492 0.48449271935339733 0 0.076119569223385697 0.50000000000000089 0 0.072616948025712127 0.490289486395732 0 0.07012930311136284 0.49999999999999661 0 0.076119569223385697 0.50000000000000089 0 0.072616948025712127 0.490289486395732 0 0.07012930311136284 0.49999999999999661 0 0.076119569223385697 0.50000000000000089 0 0.072616948025712127 0.490289486395732 0 0.082075002421626492 0.48449271935339733 0 0.076119569223385697 0.50000000000000089 0 0.072616948025712127 0.490289486395732 0 0.072616948025712127 0.490289486395732 0 0.07012930311136284 0.49999999999999661 0 0.058055043786226751 0.49051055052906067 0 0.058055043786226751 0.49051055052906067 0 0.046280597366186747 0.47957307303049429 0 0.044860440428939378 0.4999999999999995 0 0.07012930311136284 0.49999999999999661 0 0.058055043786226751 0.49051055052906067 0 0.044860440428939378 0.4999999999999995 0 0.064346854003363874 0.46736183993319841 0 0.058055043786226751 0.49051055052906067 0 0.046280597366186747 0.47957307303049429 0 0.046280597366186747 0.47957307303049429 0 0.047700754303434179 0.45914614606098908 0 0.046280597366186747 0.47957307303049429 0 0.029897162037545319 0.4839753813588808 0 0.03521852719449324 0.46736449501777538 0 0.044860440428939378 0.4999999999999995 0 0.01907995414838232 0.5 0 0.029897162037545319 0.4839753813588808 0 0.046280597366186747 0.47957307303049429 0 0.044860440428939378 0.4999999999999995 0 0.046280597366186747 0.47957307303049429 0 0.044860440428939378 0.4999999999999995 0 0.029897162037545319 0.4839753813588808 0 0.01907995414838232 0.5 0 0.029897162037545319 0.4839753813588808 0 0.01223017135109394 0.48399563131022733 0 0.029897162037545319 0.4839753813588808 0 0.02313076419329519 0.4718947066398041 0 0.01223017135109394 0.48399563131022733 0 0.029897162037545319 0.4839753813588808 0 0.02313076419329519 0.4718947066398041 0 0.03521852719449324 0.46736449501777538 0 0.02313076419329519 0.4718947066398041 0 0.01223017135109394 0.48399563131022733 0 0.01319884020628341 0.47022233111689332 0 -0.003880604538310756 0.48346324919380129 0 0.01223017135109394 0.48399563131022733 0 0.0050866533922729329 0.47701524235381432 0 0.01223017135109394 0.48399563131022733 0 0.01319884020628341 0.47022233111689332 0 0.0050866533922729329 0.47701524235381432 0 0.01319884020628341 0.47022233111689332 0 0.0053167838454733218 0.46943384557929257 0 0.0050866533922729329 0.47701524235381432 0 -0.001026908195020756 0.47486914558720472 0 0.0053167838454733218 0.46943384557929257 0 0.0050866533922729329 0.47701524235381432 0 -0.003880604538310756 0.48346324919380129 0 -0.001026908195020756 0.47486914558720472 0 0.0050866533922729329 0.47701524235381432 0 -0.0067005321321746969 0.5 0 0.01907995414838232 0.5 0 0.01223017135109394 0.48399563131022733 0 -0.0067005321321746969 0.5 0 -0.003880604538310756 0.48346324919380129 0 0.01223017135109394 0.48399563131022733 0 0.0094816941431487278 0.45086042579757712 0 0.01399183751309625 0.44462120914047132 0 0.0048617880261327502 0.44584476697033082 0 0.0094816941431487278 0.45086042579757712 0 0.01399183751309625 0.44462120914047132 0 0.016302396861864351 0.45114502888407948 0 0.01049598620797234 0.43767394788706171 0 0.01399183751309625 0.44462120914047132 0 0.0048617880261327502 0.44584476697033082 0 0.01049598620797234 0.43767394788706171 0 0.01399183751309625 0.44462120914047132 0 0.020379531913139331 0.43685778481219928 0 0.01049598620797234 0.43767394788706171 0 0.0048617880261327502 0.44584476697033082 0 0.01049598620797234 0.43767394788706171 0 0.0048617880261327502 0.44584476697033082 0 0.0065189226172944724 0.43188650626448272 0 0.0094816941431487278 0.45086042579757712 0 0.0048617880261327502 0.44584476697033082 0 0.0015605482097463411 0.45063228640423969 0 0.0048617880261327502 0.44584476697033082 0 0.0015605482097463411 0.45063228640423969 0 0.0094816941431487278 0.45086042579757712 0 0.0048617880261327502 0.44584476697033082 0 0.0015605482097463411 0.45063228640423969 0 0.0080738590363113663 0.46132998490476868 0 0.01222090350615627 0.45893997922115709 0 0.0015605482097463411 0.45063228640423969 0 0.01222090350615627 0.45893997922115709 0 -0.0094095992007081283 0.46654139838691122 0 0.0053167838454733218 0.46943384557929257 0 0.0080738590363113663 0.46132998490476868 0 0.0094816941431487278 0.45086042579757712 0 0.0015605482097463411 0.45063228640423969 0 0.01222090350615627 0.45893997922115709 0 -0.0094095992007081283 0.46654139838691122 0 0.0015605482097463411 0.45063228640423969 0 0.0080738590363113663 0.46132998490476868 0 0.0080738590363113663 0.46132998490476868 0 0.01222090350615627 0.45893997922115709 0 0.025557317273330941 0.45611857142262657 0 0.01319884020628341 0.47022233111689332 0 0.0080738590363113663 0.46132998490476868 0 0.025557317273330941 0.45611857142262657 0 0.01319884020628341 0.47022233111689332 0 0.0053167838454733218 0.46943384557929257 0 0.0080738590363113663 0.46132998490476868 0 0.0094816941431487278 0.45086042579757712 0 0.01222090350615627 0.45893997922115709 0 0.016302396861864351 0.45114502888407948 0 0.01222090350615627 0.45893997922115709 0 0.025557317273330941 0.45611857142262657 0 0.016302396861864351 0.45114502888407948 0 0.0080738590363113663 0.46132998490476868 0 0.025557317273330941 0.45611857142262657 0 0.02313076419329519 0.4718947066398041 0 0.01319884020628341 0.47022233111689332 0 0.025557317273330941 0.45611857142262657 0 0.02313076419329519 0.4718947066398041 0 0.025557317273330941 0.45611857142262657 0 0.03521852719449324 0.46736449501777538 0 0.025557317273330941 0.45611857142262657 0 0.029497972404799989 0.4465970104894148 0 0.021231693005787571 0.44530579808828252 0 0.025557317273330941 0.45611857142262657 0 0.016302396861864351 0.45114502888407948 0 0.021231693005787571 0.44530579808828252 0 0.01399183751309625 0.44462120914047132 0 0.016302396861864351 0.45114502888407948 0 0.021231693005787571 0.44530579808828252 0 0.01399183751309625 0.44462120914047132 0 0.021231693005787571 0.44530579808828252 0 0.020379531913139331 0.43685778481219928 0 0.029497972404799989 0.4465970104894148 0 0.021231693005787571 0.44530579808828252 0 0.030311313049230751 0.43763339856834432 0 0.021231693005787571 0.44530579808828252 0 0.030311313049230751 0.43763339856834432 0 0.020379531913139331 0.43685778481219928 0 0.038697605999956301 0.44825738244890739 0 0.047700754303434179 0.45914614606098908 0 0.049120911240681603 0.43871921909148398 0 0.029497972404799989 0.4465970104894148 0 0.038697605999956301 0.44825738244890739 0 0.040333793699140981 0.43958103258297831 0 0.029497972404799989 0.4465970104894148 0 0.030311313049230751 0.43763339856834432 0 0.040333793699140981 0.43958103258297831 0 0.025557317273330941 0.45611857142262657 0 0.029497972404799989 0.4465970104894148 0 0.038697605999956301 0.44825738244890739 0 0.038697605999956301 0.44825738244890739 0 0.040333793699140981 0.43958103258297831 0 0.049120911240681603 0.43871921909148398 0 0.046280597366186747 0.47957307303049429 0 0.03521852719449324 0.46736449501777538 0 0.047700754303434179 0.45914614606098908 0 0.025557317273330941 0.45611857142262657 0 0.038697605999956301 0.44825738244890739 0 0.03521852719449324 0.46736449501777538 0 0.038697605999956301 0.44825738244890739 0 0.03521852719449324 0.46736449501777538 0 0.047700754303434179 0.45914614606098908 0 0.064346854003363874 0.46736183993319841 0 0.056076759981020123 0.44443419347066321 0 0.064346854003363874 0.46736183993319841 0 0.046280597366186747 0.47957307303049429 0 0.047700754303434179 0.45914614606098908 0 0.064346854003363874 0.46736183993319841 0 0.047700754303434179 0.45914614606098908 0 0.056076759981020123 0.44443419347066321 0 0.047700754303434179 0.45914614606098908 0 0.049120911240681603 0.43871921909148398 0 0.056076759981020123 0.44443419347066321 0 0.047700754303434179 0.45914614606098908 0 0.049120911240681603 0.43871921909148398 0 0.067859653170709522 0.45426422462270638 0 0.056076759981020123 0.44443419347066321 0 0.061556592319121653 0.44225761358074578 0 0.056076759981020123 0.44443419347066321 0 0.061556592319121653 0.44225761358074578 0 0.059201111644200437 0.43099696977894508 0 0.056076759981020123 0.44443419347066321 0 0.047806665958676359 0.42150654700812801 0 0.049120911240681603 0.43871921909148398 0 0.056076759981020123 0.44443419347066321 0 0.047806665958676359 0.42150654700812801 0 0.056076759981020123 0.44443419347066321 0 0.059201111644200437 0.43099696977894508 0 0.047806665958676359 0.42150654700812801 0 0.059201111644200437 0.43099696977894508 0 0.058979725365252707 0.4176193763442323 0 0.047806665958676359 0.42150654700812801 0 0.058979725365252707 0.4176193763442323 0 0.039536571936328653 0.39857890054559408 0 0.063240005814886313 0.40658319209587829 0 0.058979725365252707 0.4176193763442323 0 0.047806665958676359 0.42150654700812801 0 0.039536571936328653 0.39857890054559408 0 0.035113551011259521 0.41687403621696922 0 0.02872917033170445 0.40503675834663061 0 0.039536571936328653 0.39857890054559408 0 0.047806665958676359 0.42150654700812801 0 0.039536571936328653 0.39857890054559408 0 0.047806665958676359 0.42150654700812801 0 0.035113551011259521 0.41687403621696922 0 0.039536571936328653 0.39857890054559408 0 0.049120911240681603 0.43871921909148398 0 0.047806665958676359 0.42150654700812801 0 0.039708047704291503 0.4306454839277386 0 0.040333793699140981 0.43958103258297831 0 0.049120911240681603 0.43871921909148398 0 0.039708047704291503 0.4306454839277386 0 0.047806665958676359 0.42150654700812801 0 0.035113551011259521 0.41687403621696922 0 0.039708047704291503 0.4306454839277386 0 0.035113551011259521 0.41687403621696922 0 0.039708047704291503 0.4306454839277386 0 0.028741688689164512 0.42811504149697438 0 0.030311313049230751 0.43763339856834432 0 0.039708047704291503 0.4306454839277386 0 0.028741688689164512 0.42811504149697438 0 0.030311313049230751 0.43763339856834432 0 0.040333793699140981 0.43958103258297831 0 0.039708047704291503 0.4306454839277386 0 0.030311313049230751 0.43763339856834432 0 0.020379531913139331 0.43685778481219928 0 0.028741688689164512 0.42811504149697438 0 0.01049598620797234 0.43767394788706171 0 0.020379531913139331 0.43685778481219928 0 0.01750467301358458 0.42779731369206181 0 0.020379531913139331 0.43685778481219928 0 0.01750467301358458 0.42779731369206181 0 0.028741688689164512 0.42811504149697438 0 0.01750467301358458 0.42779731369206181 0 0.028741688689164512 0.42811504149697438 0 0.02615916144738779 0.41736148597675132 0 0.035113551011259521 0.41687403621696922 0 0.028741688689164512 0.42811504149697438 0 0.02615916144738779 0.41736148597675132 0 0.02615916144738779 0.41736148597675132 0 0.010437450069317761 0.40463061763750507 0 0.02872917033170445 0.40503675834663061 0 0.02615916144738779 0.41736148597675132 0 0.01517065216307991 0.41806138940930709 0 0.010437450069317761 0.40463061763750507 0 0.035113551011259521 0.41687403621696922 0 0.02615916144738779 0.41736148597675132 0 0.02872917033170445 0.40503675834663061 0 0.01750467301358458 0.42779731369206181 0 0.02615916144738779 0.41736148597675132 0 0.01517065216307991 0.41806138940930709 0 -0.003174347114314008 0.41591217031924949 0 0.0065813241220295041 0.42245614033091039 0 0.010437450069317761 0.40463061763750507 0 -0.0064316016559190746 0.3999483233353413 0 -0.003174347114314008 0.41591217031924949 0 0.010437450069317761 0.40463061763750507 0 0.01517065216307991 0.41806138940930709 0 0.0065813241220295041 0.42245614033091039 0 0.010437450069317761 0.40463061763750507 0 -0.003174347114314008 0.41591217031924949 0 0.010437450069317761 0.40463061763750507 0 -0.003174347114314008 0.41591217031924949 0 0.0065813241220295041 0.42245614033091039 0 -0.0026301228576318379 0.42717885202372191 0 -0.003174347114314008 0.41591217031924949 0 0.0065813241220295041 0.42245614033091039 0 -0.0026301228576318379 0.42717885202372191 0 0.0065813241220295041 0.42245614033091039 0 0.0065189226172944724 0.43188650626448272 0 -0.0026301228576318379 0.42717885202372191 0 0.0048617880261327502 0.44584476697033082 0 0.0065189226172944724 0.43188650626448272 0 0.01049598620797234 0.43767394788706171 0 0.01750467301358458 0.42779731369206181 0 0.0065189226172944724 0.43188650626448272 0 0.01750467301358458 0.42779731369206181 0 0.0065813241220295041 0.42245614033091039 0 0.0065189226172944724 0.43188650626448272 0 0.01750467301358458 0.42779731369206181 0 0.01517065216307991 0.41806138940930709 0 0.0065813241220295041 0.42245614033091039 0 -0.0042030409966118051 0.38380869400061962 0 0.01009735409817194 0.38238429504652488 0 0.02404924725294803 0.393349064955759 0 -0.0042030409966118051 0.38380869400061962 0 0.02404924725294803 0.393349064955759 0 0.01009735409817194 0.38238429504652488 0 0.0197357255374827 0.37571737083264412 0 0.011110712074150059 0.37343232972227269 0 -0.001064505034491721 0.37161458349227261 0 0.01009735409817194 0.38238429504652488 0 0.011110712074150059 0.37343232972227269 0 -0.001064505034491721 0.37161458349227261 0 -0.0042030409966118051 0.38380869400061962 0 0.01009735409817194 0.38238429504652488 0 -0.0042030409966118051 0.38380869400061962 0 0.01009735409817194 0.38238429504652488 0 -0.0042030409966118051 0.38380869400061962 0 0.010437450069317761 0.40463061763750507 0 0.02404924725294803 0.393349064955759 0 0.010437450069317761 0.40463061763750507 0 0.02872917033170445 0.40503675834663061 0 0.02404924725294803 0.393349064955759 0 0.010437450069317761 0.40463061763750507 0 0.02404924725294803 0.393349064955759 0 0.02872917033170445 0.40503675834663061 0 0.02404924725294803 0.393349064955759 0 0.039536571936328653 0.39857890054559408 0 0.02404924725294803 0.393349064955759 0 0.034519904376963118 0.38467091111880503 0 0.02404924725294803 0.393349064955759 0 0.0197357255374827 0.37571737083264412 0 0.034519904376963118 0.38467091111880503 0 0.01009735409817194 0.38238429504652488 0 0.02404924725294803 0.393349064955759 0 0.0197357255374827 0.37571737083264412 0 0.034519904376963118 0.38467091111880503 0 0.050307067216076778 0.37158640017128619 0 0.034519904376963118 0.38467091111880503 0 0.039536571936328653 0.39857890054559408 0 0.056773536515482913 0.38908479613358171 0 0.02404924725294803 0.393349064955759 0 0.039536571936328653 0.39857890054559408 0 0.034519904376963118 0.38467091111880503 0 0.039536571936328653 0.39857890054559408 0 0.02404924725294803 0.393349064955759 0 0.034519904376963118 0.38467091111880503 0 0.039536571936328653 0.39857890054559408 0 0.039536571936328653 0.39857890054559408 0 0.063240005814886313 0.40658319209587829 0 0.039536571936328653 0.39857890054559408 0 0.056773536515482913 0.38908479613358171 0 0.063240005814886313 0.40658319209587829 0 0.056773536515482913 0.38908479613358171 0 0.063240005814886313 0.40658319209587829 0 0.056773536515482913 0.38908479613358171 0 0.059721524030669819 0.37431687333309788 0 0.050307067216076778 0.37158640017128619 0 0.056773536515482913 0.38908479613358171 0 0.050307067216076778 0.37158640017128619 0 0.034519904376963118 0.38467091111880503 0 0.056773536515482913 0.38908479613358171 0 0.050307067216076778 0.37158640017128619 0 0.056773536515482913 0.38908479613358171 0 0.069041936002645535 0.37820082441249081 0 0.059721524030669819 0.37431687333309788 0 0.056773536515482913 0.38908479613358171 0 0.069041936002645535 0.37820082441249081 0 0.068225210254675303 0.39186969982647402 0 0.069041936002645535 0.37820082441249081 0 0.078928226936330073 0.3918395352538776 0 0.068225210254675303 0.39186969982647402 0 0.069041936002645535 0.37820082441249081 0 0.087739402474845588 0.37833299208434412 0 0.078928226936330073 0.3918395352538776 0 0.087739402474845588 0.37833299208434412 0 0.078928226936330073 0.3918395352538776 0 0.094443419551670932 0.40508992778400232 0 0.078928226936330073 0.3918395352538776 0 0.080832552055978585 0.40498983155533402 0 0.094443419551670932 0.40508992778400232 0 0.080832552055978585 0.40498983155533402 0 0.073695702888484968 0.40005040040525608 0 0.075088081656536507 0.41058410832735293 0 0.078928226936330073 0.3918395352538776 0 0.080832552055978585 0.40498983155533402 0 0.073695702888484968 0.40005040040525608 0 0.056773536515482913 0.38908479613358171 0 0.068225210254675303 0.39186969982647402 0 0.063240005814886313 0.40658319209587829 0 0.073695702888484968 0.40005040040525608 0 0.063240005814886313 0.40658319209587829 0 0.075088081656536507 0.41058410832735293 0 0.078928226936330073 0.3918395352538776 0 0.073695702888484968 0.40005040040525608 0 0.068225210254675303 0.39186969982647402 0 0.073695702888484968 0.40005040040525608 0 0.068225210254675303 0.39186969982647402 0 0.063240005814886313 0.40658319209587829 0 0.058979725365252707 0.4176193763442323 0 0.063240005814886313 0.40658319209587829 0 0.071585814596931419 0.42916711849095618 0 0.063240005814886313 0.40658319209587829 0 0.075088081656536507 0.41058410832735293 0 0.071585814596931419 0.42916711849095618 0 0.063240005814886313 0.40658319209587829 0 0.071585814596931419 0.42916711849095618 0 0.063240005814886313 0.40658319209587829 0 0.075088081656536507 0.41058410832735293 0 0.075088081656536507 0.41058410832735293 0 0.071585814596931419 0.42916711849095618 0 0.082007329246870417 0.41738518600618091 0 0.061556592319121653 0.44225761358074578 0 0.059201111644200437 0.43099696977894508 0 0.071585814596931419 0.42916711849095618 0 0.07540768018483697 0.44030754071393319 0 0.061556592319121653 0.44225761358074578 0 0.071585814596931419 0.42916711849095618 0 0.059201111644200437 0.43099696977894508 0 0.058979725365252707 0.4176193763442323 0 0.071585814596931419 0.42916711849095618 0 0.07540768018483697 0.44030754071393319 0 0.071585814596931419 0.42916711849095618 0 0.08764391112498858 0.43163178618934439 0 0.071585814596931419 0.42916711849095618 0 0.08764391112498858 0.43163178618934439 0 0.082007329246870417 0.41738518600618091 0 0.08764391112498858 0.43163178618934439 0 0.082007329246870417 0.41738518600618091 0 0.094443419551670932 0.40508992778400232 0 0.08764391112498858 0.43163178618934439 0 0.094443419551670932 0.40508992778400232 0 0.080832552055978585 0.40498983155533402 0 0.075088081656536507 0.41058410832735293 0 0.082007329246870417 0.41738518600618091 0 0.080832552055978585 0.40498983155533402 0 0.082007329246870417 0.41738518600618091 0 0.094443419551670932 0.40508992778400232 0 0.08764391112498858 0.43163178618934439 0 0.1096581763989177 0.42409154504396013 0 0.094443419551670932 0.40508992778400232 0 0.1096581763989177 0.42409154504396013 0 0.11163148259572971 0.40863234267508453 0 0.094443419551670932 0.40508992778400232 0 0.1057649319772677 0.43759517983083812 0 0.08764391112498858 0.43163178618934439 0 0.1096581763989177 0.42409154504396013 0 0.1237280261196836 0.44463014715047522 0 0.1096581763989177 0.42409154504396013 0 0.13502200614688589 0.42010390008240672 0 0.1237280261196836 0.44463014715047522 0 0.1057649319772677 0.43759517983083812 0 0.1096581763989177 0.42409154504396013 0 0.11163148259572971 0.40863234267508453 0 0.1236499924648251 0.3984302041169589 0 0.13502200614688589 0.42010390008240672 0 0.1096581763989177 0.42409154504396013 0 0.11163148259572971 0.40863234267508453 0 0.13502200614688589 0.42010390008240672 0 0.11163148259572971 0.40863234267508453 0 0.1236499924648251 0.3984302041169589 0 0.10863659533572551 0.39290197353284961 0 0.10863659533572551 0.39290197353284961 0 0.114060711710889 0.37342974127053702 0 0.12550685613774351 0.37951055496914998 0 0.1236499924648251 0.3984302041169589 0 0.10863659533572551 0.39290197353284961 0 0.12550685613774351 0.37951055496914998 0 0.1012429279783533 0.37854806937866009 0 0.10863659533572551 0.39290197353284961 0 0.114060711710889 0.37342974127053702 0 0.087739402474845588 0.37833299208434412 0 0.1012429279783533 0.37854806937866009 0 0.094443419551670932 0.40508992778400232 0 0.11163148259572971 0.40863234267508453 0 0.10863659533572551 0.39290197353284961 0 0.094443419551670932 0.40508992778400232 0 0.1012429279783533 0.37854806937866009 0 0.094443419551670932 0.40508992778400232 0 0.1012429279783533 0.37854806937866009 0 0.10863659533572551 0.39290197353284961 0 0.094443419551670932 0.40508992778400232 0 0.10055213054656729 0.36013865237867942 0 0.1100489009895301 0.33374314175173209 0 0.10055213054656729 0.36013865237867942 0 0.1100489009895301 0.33374314175173209 0 0.08625589277749264 0.346999797836966 0 0.1069344999541316 0.36147573913557879 0 0.10055213054656729 0.36013865237867942 0 0.1165634558871128 0.3492406052842485 0 0.10055213054656729 0.36013865237867942 0 0.1165634558871128 0.3492406052842485 0 0.1100489009895301 0.33374314175173209 0 0.087739402474845588 0.37833299208434412 0 0.1012429279783533 0.37854806937866009 0 0.1069344999541316 0.36147573913557879 0 0.1012429279783533 0.37854806937866009 0 0.1069344999541316 0.36147573913557879 0 0.114060711710889 0.37342974127053702 0 0.1069344999541316 0.36147573913557879 0 0.10055213054656729 0.36013865237867942 0 0.081229983254247365 0.36650003300062722 0 0.1069344999541316 0.36147573913557879 0 0.081229983254247365 0.36650003300062722 0 0.114060711710889 0.37342974127053702 0 0.1326390166540157 0.35645144527053041 0 0.12550685613774351 0.37951055496914998 0 0.1069344999541316 0.36147573913557879 0 0.114060711710889 0.37342974127053702 0 0.1326390166540157 0.35645144527053041 0 0.1069344999541316 0.36147573913557879 0 0.1165634558871128 0.3492406052842485 0 0.1326390166540157 0.35645144527053041 0 0.1069344999541316 0.36147573913557879 0 0.1326390166540157 0.35645144527053041 0 0.1165634558871128 0.3492406052842485 0 0.1100489009895301 0.33374314175173209 0 0.13264273129131951 0.33439404788472138 0 0.1100489009895301 0.33374314175173209 0 0.099713977183769634 0.31807175575135088 0 0.11954567143249289 0.30734763112478491 0 0.1100489009895301 0.33374314175173209 0 0.11954567143249289 0.30734763112478491 0 0.13264273129131951 0.33439404788472138 0 0.1100489009895301 0.33374314175173209 0 0.11954567143249289 0.30734763112478491 0 0.1100489009895301 0.33374314175173209 0 0.099713977183769634 0.31807175575135088 0 0.083894735805945045 0.32735700357097808 0 0.1100489009895301 0.33374314175173209 0 0.083894735805945045 0.32735700357097808 0 0.08625589277749264 0.346999797836966 0 0.083894735805945045 0.32735700357097808 0 0.068148884279383815 0.34110740296781622 0 0.08625589277749264 0.346999797836966 0 0.099713977183769634 0.31807175575135088 0 0.083894735805945045 0.32735700357097808 0 0.079241751540062577 0.3091409184095229 0 0.083894735805945045 0.32735700357097808 0 0.067542665246266162 0.32227296773822012 0 0.079241751540062577 0.3091409184095229 0 0.067542665246266162 0.32227296773822012 0 0.068148884279383815 0.34110740296781622 0 0.052098030758102709 0.32848813316288678 0 0.083894735805945045 0.32735700357097808 0 0.067542665246266162 0.32227296773822012 0 0.068148884279383815 0.34110740296781622 0 0.068148884279383815 0.34110740296781622 0 0.072981575438615956 0.35429511825148829 0 0.08625589277749264 0.346999797836966 0 0.068148884279383815 0.34110740296781622 0 0.072981575438615956 0.35429511825148829 0 0.059971533893319953 0.35265308331869138 0 0.072981575438615956 0.35429511825148829 0 0.066555082361941326 0.36578627017444021 0 0.059971533893319953 0.35265308331869138 0 0.10055213054656729 0.36013865237867942 0 0.08625589277749264 0.346999797836966 0 0.081229983254247365 0.36650003300062722 0 0.072981575438615956 0.35429511825148829 0 0.08625589277749264 0.346999797836966 0 0.081229983254247365 0.36650003300062722 0 0.087739402474845588 0.37833299208434412 0 0.1069344999541316 0.36147573913557879 0 0.081229983254247365 0.36650003300062722 0 0.069041936002645535 0.37820082441249081 0 0.087739402474845588 0.37833299208434412 0 0.081229983254247365 0.36650003300062722 0 0.069041936002645535 0.37820082441249081 0 0.081229983254247365 0.36650003300062722 0 0.066555082361941326 0.36578627017444021 0 0.072981575438615956 0.35429511825148829 0 0.081229983254247365 0.36650003300062722 0 0.066555082361941326 0.36578627017444021 0 0.069041936002645535 0.37820082441249081 0 0.066555082361941326 0.36578627017444021 0 0.059721524030669819 0.37431687333309788 0 0.055929998057201551 0.36692607577369102 0 0.050307067216076778 0.37158640017128619 0 0.041108453413194898 0.34669476624024848 0 0.066555082361941326 0.36578627017444021 0 0.059721524030669819 0.37431687333309788 0 0.055929998057201551 0.36692607577369102 0 0.059721524030669819 0.37431687333309788 0 0.055929998057201551 0.36692607577369102 0 0.050307067216076778 0.37158640017128619 0 0.066555082361941326 0.36578627017444021 0 0.055929998057201551 0.36692607577369102 0 0.059971533893319953 0.35265308331869138 0 0.055929998057201551 0.36692607577369102 0 0.050307067216076778 0.37158640017128619 0 0.055929998057201551 0.36692607577369102 0 0.059971533893319953 0.35265308331869138 0 0.041108453413194898 0.34669476624024848 0 0.059971533893319953 0.35265308331869138 0 0.041108453413194898 0.34669476624024848 0 0.053731959496234848 0.34189436452501393 0 0.068148884279383815 0.34110740296781622 0 0.059971533893319953 0.35265308331869138 0 0.053731959496234848 0.34189436452501393 0 0.050307067216076778 0.37158640017128619 0 0.041108453413194898 0.34669476624024848 0 0.036325720293778493 0.35734230210966361 0 0.050307067216076778 0.37158640017128619 0 0.041108453413194898 0.34669476624024848 0 0.041108453413194898 0.34669476624024848 0 0.036325720293778493 0.35734230210966361 0 0.028822601092593811 0.34272768621728472 0 0.034519904376963118 0.38467091111880503 0 0.036565816098641138 0.36791040757449411 0 0.02482466364838485 0.35779225034500489 0 0.034519904376963118 0.38467091111880503 0 0.050307067216076778 0.37158640017128619 0 0.036565816098641138 0.36791040757449411 0 0.050307067216076778 0.37158640017128619 0 0.036325720293778493 0.35734230210966361 0 0.036565816098641138 0.36791040757449411 0 0.036325720293778493 0.35734230210966361 0 0.036565816098641138 0.36791040757449411 0 0.02482466364838485 0.35779225034500489 0 0.034519904376963118 0.38467091111880503 0 0.02482466364838485 0.35779225034500489 0 0.0197357255374827 0.37571737083264412 0 0.034519904376963118 0.38467091111880503 0 0.02482466364838485 0.35779225034500489 0 0.0197357255374827 0.37571737083264412 0 0.015674273695437339 0.36401306951764911 0 0.02482466364838485 0.35779225034500489 0 0.015674273695437339 0.36401306951764911 0 0.02482466364838485 0.35779225034500489 0 0.015768167676543349 0.35713923686247862 0 0.02482466364838485 0.35779225034500489 0 0.01512942291980679 0.33091358957120492 0 0.02482466364838485 0.35779225034500489 0 0.01512942291980679 0.33091358957120492 0 0.028822601092593811 0.34272768621728472 0 0.036325720293778493 0.35734230210966361 0 0.02482466364838485 0.35779225034500489 0 0.028822601092593811 0.34272768621728472 0 0.02482466364838485 0.35779225034500489 0 0.012196298529549159 0.34905700984651278 0 0.01512942291980679 0.33091358957120492 0 0.02482466364838485 0.35779225034500489 0 0.015768167676543349 0.35713923686247862 0 0.012196298529549159 0.34905700984651278 0 0.01037743483280206 0.35769461774074762 0 0.012196298529549159 0.34905700984651278 0 0.0032447233134405931 0.35422125060834359 0 0.015768167676543349 0.35713923686247862 0 0.01037743483280206 0.35769461774074762 0 0.012196298529549159 0.34905700984651278 0 -0.002583240235104544 0.34489224502179239 0 0.012196298529549159 0.34905700984651278 0 0.0065182143906638264 0.33911035096943482 0 -0.002583240235104544 0.34489224502179239 0 0.012196298529549159 0.34905700984651278 0 0.0032447233134405931 0.35422125060834359 0 0.01037743483280206 0.35769461774074762 0 0.0032447233134405931 0.35422125060834359 0 0.0039428335920915006 0.36531030276633031 0 -0.0064988099748367559 0.35299106404641623 0 0.0032447233134405931 0.35422125060834359 0 0.0039428335920915006 0.36531030276633031 0 -0.001064505034491721 0.37161458349227261 0 0.015674273695437339 0.36401306951764911 0 0.0039428335920915006 0.36531030276633031 0 -0.001064505034491721 0.37161458349227261 0 0.015674273695437339 0.36401306951764911 0 0.011110712074150059 0.37343232972227269 0 -0.001064505034491721 0.37161458349227261 0 0.015674273695437339 0.36401306951764911 0 0.0197357255374827 0.37571737083264412 0 0.015674273695437339 0.36401306951764911 0 0.011110712074150059 0.37343232972227269 0 0.015674273695437339 0.36401306951764911 0 0.01037743483280206 0.35769461774074762 0 0.0039428335920915006 0.36531030276633031 0 0.015674273695437339 0.36401306951764911 0 0.015768167676543349 0.35713923686247862 0 0.01037743483280206 0.35769461774074762 0 -0.00058836015198596755 0.32088344941533808 0 0.01512942291980679 0.33091358957120492 0 0.0054341821912287152 0.30403492879740468 0 0.01512942291980679 0.33091358957120492 0 0.0054341821912287152 0.30403492879740468 0 0.01512942291980679 0.33091358957120492 0 0.018796167632194181 0.3134157872639986 0 0.0054341821912287152 0.30403492879740468 0 0.012196298529549159 0.34905700984651278 0 0.01512942291980679 0.33091358957120492 0 0.0065182143906638264 0.33911035096943482 0 -0.0025616559074486049 0.3329031852911295 0 -0.00058836015198596755 0.32088344941533808 0 0.01512942291980679 0.33091358957120492 0 -0.0025616559074486049 0.3329031852911295 0 0.01512942291980679 0.33091358957120492 0 0.0065182143906638264 0.33911035096943482 0 -0.0025616559074486049 0.3329031852911295 0 -0.002583240235104544 0.34489224502179239 0 0.0065182143906638264 0.33911035096943482 0 0.01512942291980679 0.33091358957120492 0 0.028822601092593811 0.34272768621728472 0 0.031909839610312053 0.3218031323092112 0 0.01512942291980679 0.33091358957120492 0 0.018796167632194181 0.3134157872639986 0 0.031909839610312053 0.3218031323092112 0 0.031909839610312053 0.3218031323092112 0 0.052098030758102709 0.32848813316288678 0 0.054329923847836643 0.30527138057989611 0 0.041108453413194898 0.34669476624024848 0 0.031909839610312053 0.3218031323092112 0 0.041108453413194898 0.34669476624024848 0 0.028822601092593811 0.34272768621728472 0 0.031909839610312053 0.3218031323092112 0 0.041108453413194898 0.34669476624024848 0 0.031909839610312053 0.3218031323092112 0 0.052098030758102709 0.32848813316288678 0 0.041108453413194898 0.34669476624024848 0 0.052098030758102709 0.32848813316288678 0 0.053731959496234848 0.34189436452501393 0 0.068148884279383815 0.34110740296781622 0 0.052098030758102709 0.32848813316288678 0 0.053731959496234848 0.34189436452501393 0 0.067542665246266162 0.32227296773822012 0 0.052098030758102709 0.32848813316288678 0 0.054329923847836643 0.30527138057989611 0 0.054329923847836643 0.30527138057989611 0 0.058643640903709077 0.2841886380467647 0 0.070108093408202884 0.28237758711201172 0 0.054329923847836643 0.30527138057989611 0 0.058643640903709077 0.2841886380467647 0 0.046708945964444748 0.28470371633566799 0 0.054329923847836643 0.30527138057989611 0 0.070108093408202884 0.28237758711201172 0 0.033299114928103571 0.2853556706935409 0 0.038381760441483573 0.30030485014671859 0 0.022711225807429191 0.29691149837817382 0 0.054329923847836643 0.30527138057989611 0 0.046708945964444748 0.28470371633566799 0 0.038381760441483573 0.30030485014671859 0 0.046708945964444748 0.28470371633566799 0 0.033299114928103571 0.2853556706935409 0 0.038381760441483573 0.30030485014671859 0 0.031909839610312053 0.3218031323092112 0 0.054329923847836643 0.30527138057989611 0 0.038381760441483573 0.30030485014671859 0 0.031909839610312053 0.3218031323092112 0 0.022711225807429191 0.29691149837817382 0 0.018796167632194181 0.3134157872639986 0 0.031909839610312053 0.3218031323092112 0 0.022711225807429191 0.29691149837817382 0 0.018796167632194181 0.3134157872639986 0 0.022711225807429191 0.29691149837817382 0 0.0054341821912287152 0.30403492879740468 0 0.031909839610312053 0.3218031323092112 0 0.038381760441483573 0.30030485014671859 0 0.022711225807429191 0.29691149837817382 0 0.022711225807429191 0.29691149837817382 0 0.0097135815956244098 0.28932323485025419 0 0.01496997692118909 0.27919024420183391 0 0.033299114928103571 0.2853556706935409 0 0.022711225807429191 0.29691149837817382 0 0.01496997692118909 0.27919024420183391 0 -0.0042610585373493576 0.2771562680236046 0 0.0097135815956244098 0.28932323485025419 0 0.01496997692118909 0.27919024420183391 0 -0.0042610585373493576 0.2771562680236046 0 0.0097135815956244098 0.28932323485025419 0 0.0054341821912287152 0.30403492879740468 0 0.022711225807429191 0.29691149837817382 0 0.0097135815956244098 0.28932323485025419 0 0.0054341821912287152 0.30403492879740468 0 -0.0042610585373493576 0.2771562680236046 0 0.0054341821912287152 0.30403492879740468 0 0.012156823249103331 0.25259817100369902 0 0.0071094060709509964 0.26564087220093879 0 0.023079021189564172 0.26593697868694532 0 -0.0082457657602449386 0.25246627485226031 0 0.012156823249103331 0.25259817100369902 0 0.0071094060709509964 0.26564087220093879 0 0.0071094060709509964 0.26564087220093879 0 0.01496997692118909 0.27919024420183391 0 0.023079021189564172 0.26593697868694532 0 -0.0042610585373493576 0.2771562680236046 0 0.0071094060709509964 0.26564087220093879 0 0.01496997692118909 0.27919024420183391 0 0.033299114928103571 0.2853556706935409 0 0.01496997692118909 0.27919024420183391 0 0.023079021189564172 0.26593697868694532 0 0.012156823249103331 0.25259817100369902 0 0.023079021189564172 0.26593697868694532 0 0.030652172791378579 0.25229956247347313 0 0.023079021189564172 0.26593697868694532 0 0.030652172791378579 0.25229956247347313 0 0.04073495957405681 0.26035892983227987 0 0.044937254539659167 0.2379713478153713 0 0.030652172791378579 0.25229956247347313 0 0.04073495957405681 0.26035892983227987 0 0.033299114928103571 0.2853556706935409 0 0.023079021189564172 0.26593697868694532 0 0.04073495957405681 0.26035892983227987 0 0.033299114928103571 0.2853556706935409 0 0.04073495957405681 0.26035892983227987 0 0.046708945964444748 0.28470371633566799 0 0.033299114928103571 0.2853556706935409 0 0.04073495957405681 0.26035892983227987 0 0.046708945964444748 0.28470371633566799 0 0.04073495957405681 0.26035892983227987 0 0.054656664038459993 0.27221644551962948 0 0.058643640903709077 0.2841886380467647 0 0.046708945964444748 0.28470371633566799 0 0.054656664038459993 0.27221644551962948 0 0.054656664038459993 0.27221644551962948 0 0.05595459183600883 0.25980758553240452 0 0.063151913248908592 0.26702092668087168 0 0.054656664038459993 0.27221644551962948 0 0.063151913248908592 0.26702092668087168 0 0.062868354845155253 0.27542318723842002 0 0.058643640903709077 0.2841886380467647 0 0.054656664038459993 0.27221644551962948 0 0.062868354845155253 0.27542318723842002 0 0.058643640903709077 0.2841886380467647 0 0.062868354845155253 0.27542318723842002 0 0.06481936793225318 0.27971168374165578 0 0.052294646587479003 0.2493466198794505 0 0.04073495957405681 0.26035892983227987 0 0.05595459183600883 0.25980758553240452 0 0.04073495957405681 0.26035892983227987 0 0.054656664038459993 0.27221644551962948 0 0.05595459183600883 0.25980758553240452 0 0.05595459183600883 0.25980758553240452 0 0.066495423171073403 0.25816184380531082 0 0.063151913248908592 0.26702092668087168 0 0.052294646587479003 0.2493466198794505 0 0.05595459183600883 0.25980758553240452 0 0.06034442261467237 0.25120339486286308 0 0.05595459183600883 0.25980758553240452 0 0.06034442261467237 0.25120339486286308 0 0.066495423171073403 0.25816184380531082 0 0.067445722382230539 0.24771064348785149 0 0.066495423171073403 0.25816184380531082 0 0.074707437689247702 0.25389633834412328 0 0.067445722382230539 0.24771064348785149 0 0.06034442261467237 0.25120339486286308 0 0.066495423171073403 0.25816184380531082 0 0.066495423171073403 0.25816184380531082 0 0.070468357435777063 0.2657419037057816 0 0.063151913248908592 0.26702092668087168 0 0.066495423171073403 0.25816184380531082 0 0.074357597956477339 0.26064435546358339 0 0.070468357435777063 0.2657419037057816 0 0.074357597956477339 0.26064435546358339 0 0.075194191089397802 0.26640127341757941 0 0.070468357435777063 0.2657419037057816 0 0.074357597956477339 0.26064435546358339 0 0.080427883817154544 0.25791465254204288 0 0.078852294536213494 0.26175012096666261 0 0.074357597956477339 0.26064435546358339 0 0.078852294536213494 0.26175012096666261 0 0.075194191089397802 0.26640127341757941 0 0.066495423171073403 0.25816184380531082 0 0.074357597956477339 0.26064435546358339 0 0.074707437689247702 0.25389633834412328 0 0.074357597956477339 0.26064435546358339 0 0.074707437689247702 0.25389633834412328 0 0.080427883817154544 0.25791465254204288 0 0.085975255819246227 0.24304742420893821 0 0.080478695998155714 0.25165019938018113 0 0.085886262968569133 0.25948379364412733 0 0.080478695998155714 0.25165019938018113 0 0.080427883817154544 0.25791465254204288 0 0.085886262968569133 0.25948379364412733 0 0.10166443252893551 0.23659000017624271 0 0.085886262968569133 0.25948379364412733 0 0.093061372415253377 0.25945310375487363 0 0.074707437689247702 0.25389633834412328 0 0.080478695998155714 0.25165019938018113 0 0.080427883817154544 0.25791465254204288 0 0.078852294536213494 0.26175012096666261 0 0.085886262968569133 0.25948379364412733 0 0.075194191089397802 0.26640127341757941 0 0.080427883817154544 0.25791465254204288 0 0.078852294536213494 0.26175012096666261 0 0.085886262968569133 0.25948379364412733 0 0.093061372415253377 0.25945310375487363 0 0.088669334409182038 0.27365465257629329 0 0.074192652952093263 0.28111713417870732 0 0.093061372415253377 0.25945310375487363 0 0.074192652952093263 0.28111713417870732 0 0.085886262968569133 0.25948379364412733 0 0.093061372415253377 0.25945310375487363 0 0.074192652952093263 0.28111713417870732 0 0.088669334409182038 0.27365465257629329 0 0.090629520296699906 0.27989165378522829 0 0.096617072050330918 0.27420358010706619 0 0.088669334409182038 0.27365465257629329 0 0.090629520296699906 0.27989165378522829 0 0.083300485689734874 0.28178689503457671 0 0.093061372415253377 0.25945310375487363 0 0.088669334409182038 0.27365465257629329 0 0.097208854645582696 0.26674380090640232 0 0.088669334409182038 0.27365465257629329 0 0.074192652952093263 0.28111713417870732 0 0.083300485689734874 0.28178689503457671 0 0.085886262968569133 0.25948379364412733 0 0.072732619288592745 0.27411268144752271 0 0.070108093408202884 0.28237758711201172 0 0.085886262968569133 0.25948379364412733 0 0.074192652952093263 0.28111713417870732 0 0.070108093408202884 0.28237758711201172 0 0.085886262968569133 0.25948379364412733 0 0.070108093408202884 0.28237758711201172 0 0.085886262968569133 0.25948379364412733 0 0.072732619288592745 0.27411268144752271 0 0.075194191089397802 0.26640127341757941 0 0.072732619288592745 0.27411268144752271 0 0.075194191089397802 0.26640127341757941 0 0.068678803079962825 0.27092621584326698 0 0.075194191089397802 0.26640127341757941 0 0.070468357435777063 0.2657419037057816 0 0.068678803079962825 0.27092621584326698 0 0.068678803079962825 0.27092621584326698 0 0.063151913248908592 0.26702092668087168 0 0.062868354845155253 0.27542318723842002 0 0.070468357435777063 0.2657419037057816 0 0.068678803079962825 0.27092621584326698 0 0.063151913248908592 0.26702092668087168 0 0.072732619288592745 0.27411268144752271 0 0.067657382571945521 0.27685732256942691 0 0.070108093408202884 0.28237758711201172 0 0.067657382571945521 0.27685732256942691 0 0.06481936793225318 0.27971168374165578 0 0.070108093408202884 0.28237758711201172 0 0.072732619288592745 0.27411268144752271 0 0.068678803079962825 0.27092621584326698 0 0.067657382571945521 0.27685732256942691 0 0.067657382571945521 0.27685732256942691 0 0.062868354845155253 0.27542318723842002 0 0.06481936793225318 0.27971168374165578 0 0.068678803079962825 0.27092621584326698 0 0.067657382571945521 0.27685732256942691 0 0.062868354845155253 0.27542318723842002 0 0.058643640903709077 0.2841886380467647 0 0.06481936793225318 0.27971168374165578 0 0.070108093408202884 0.28237758711201172 0 0.054329923847836643 0.30527138057989611 0 0.070108093408202884 0.28237758711201172 0 0.07616196246918229 0.29401120062856562 0 0.070108093408202884 0.28237758711201172 0 0.07616196246918229 0.29401120062856562 0 0.077305327314718786 0.28670206069564769 0 0.074192652952093263 0.28111713417870732 0 0.070108093408202884 0.28237758711201172 0 0.077305327314718786 0.28670206069564769 0 0.054329923847836643 0.30527138057989611 0 0.07616196246918229 0.29401120062856562 0 0.079241751540062577 0.3091409184095229 0 0.067542665246266162 0.32227296773822012 0 0.054329923847836643 0.30527138057989611 0 0.079241751540062577 0.3091409184095229 0 0.07616196246918229 0.29401120062856562 0 0.079241751540062577 0.3091409184095229 0 0.093760017070794913 0.30048783451418309 0 0.099713977183769634 0.31807175575135088 0 0.079241751540062577 0.3091409184095229 0 0.093760017070794913 0.30048783451418309 0 0.07616196246918229 0.29401120062856562 0 0.086675975183887061 0.28808357667035972 0 0.093760017070794913 0.30048783451418309 0 0.074192652952093263 0.28111713417870732 0 0.077305327314718786 0.28670206069564769 0 0.083300485689734874 0.28178689503457671 0 0.077305327314718786 0.28670206069564769 0 0.083300485689734874 0.28178689503457671 0 0.086675975183887061 0.28808357667035972 0 0.07616196246918229 0.29401120062856562 0 0.077305327314718786 0.28670206069564769 0 0.086675975183887061 0.28808357667035972 0 0.090629520296699906 0.27989165378522829 0 0.083300485689734874 0.28178689503457671 0 0.086675975183887061 0.28808357667035972 0 0.090629520296699906 0.27989165378522829 0 0.086675975183887061 0.28808357667035972 0 0.1012207646153751 0.28627192450051492 0 0.086675975183887061 0.28808357667035972 0 0.1012207646153751 0.28627192450051492 0 0.093760017070794913 0.30048783451418309 0 0.099713977183769634 0.31807175575135088 0 0.093760017070794913 0.30048783451418309 0 0.11954567143249289 0.30734763112478491 0 0.1012207646153751 0.28627192450051492 0 0.093760017070794913 0.30048783451418309 0 0.11954567143249289 0.30734763112478491 0 0.11954567143249289 0.30734763112478491 0 0.1141818460752707 0.27714397317686529 0 0.12904244187545569 0.2809521204978378 0 0.1012207646153751 0.28627192450051492 0 0.11954567143249289 0.30734763112478491 0 0.1141818460752707 0.27714397317686529 0 0.11954567143249289 0.30734763112478491 0 0.12904244187545569 0.2809521204978378 0 0.1141818460752707 0.27714397317686529 0 0.11615378911320511 0.26032519799560372 0 0.1048644735931679 0.26655228778042589 0 0.1141818460752707 0.27714397317686529 0 0.11615378911320511 0.26032519799560372 0 0.12904244187545569 0.2809521204978378 0 0.1152979079485152 0.2467056018988516 0 0.1250676346401875 0.24796443701554319 0 0.11615378911320511 0.26032519799560372 0 0.1152979079485152 0.2467056018988516 0 0.11615378911320511 0.26032519799560372 0 0.10650461767427161 0.25132517155921902 0 0.11615378911320511 0.26032519799560372 0 0.1028320207599793 0.25985538031335248 0 0.1048644735931679 0.26655228778042589 0 0.1028320207599793 0.25985538031335248 0 0.097208854645582696 0.26674380090640232 0 0.1048644735931679 0.26655228778042589 0 0.11615378911320511 0.26032519799560372 0 0.1028320207599793 0.25985538031335248 0 0.10650461767427161 0.25132517155921902 0 0.093061372415253377 0.25945310375487363 0 0.1028320207599793 0.25985538031335248 0 0.10650461767427161 0.25132517155921902 0 0.093061372415253377 0.25945310375487363 0 0.1028320207599793 0.25985538031335248 0 0.097208854645582696 0.26674380090640232 0 0.088669334409182038 0.27365465257629329 0 0.097208854645582696 0.26674380090640232 0 0.096617072050330918 0.27420358010706619 0 0.097208854645582696 0.26674380090640232 0 0.096617072050330918 0.27420358010706619 0 0.1048644735931679 0.26655228778042589 0 0.1141818460752707 0.27714397317686529 0 0.096617072050330918 0.27420358010706619 0 0.1048644735931679 0.26655228778042589 0 0.1012207646153751 0.28627192450051492 0 0.1141818460752707 0.27714397317686529 0 0.096617072050330918 0.27420358010706619 0 0.090629520296699906 0.27989165378522829 0 0.1012207646153751 0.28627192450051492 0 0.096617072050330918 0.27420358010706619 0 0.1384713120865835 0.25773302092121009 0 0.12904244187545569 0.2809521204978378 0 0.15915390062653459 0.27760612704708998 0 0.1514273965657848 0.24085309905483679 0 0.1384713120865835 0.25773302092121009 0 0.156278998070083 0.25778272565978 0 0.1384713120865835 0.25773302092121009 0 0.15915390062653459 0.27760612704708998 0 0.156278998070083 0.25778272565978 0 0.1250676346401875 0.24796443701554319 0 0.11615378911320511 0.26032519799560372 0 0.1384713120865835 0.25773302092121009 0 0.11615378911320511 0.26032519799560372 0 0.1384713120865835 0.25773302092121009 0 0.12904244187545569 0.2809521204978378 0 0.11954567143249289 0.30734763112478491 0 0.12904244187545569 0.2809521204978378 0 0.14488164426314301 0.29594920495010729 0 0.11954567143249289 0.30734763112478491 0 0.14488164426314301 0.29594920495010729 0 0.15139514334923471 0.31791608062108467 0 0.14488164426314301 0.29594920495010729 0 0.16637322996135739 0.30016678813796199 0 0.15139514334923471 0.31791608062108467 0 0.12904244187545569 0.2809521204978378 0 0.14488164426314301 0.29594920495010729 0 0.15915390062653459 0.27760612704708998 0 0.14488164426314301 0.29594920495010729 0 0.16637322996135739 0.30016678813796199 0 0.15915390062653459 0.27760612704708998 0 0.16637322996135739 0.30016678813796199 0 0.18265278236186541 0.28020603593405619 0 0.15915390062653459 0.27760612704708998 0 0.16637322996135739 0.30016678813796199 0 0.18588027836364171 0.30417070427619303 0 0.17427563080372541 0.32515257599924119 0 0.16637322996135739 0.30016678813796199 0 0.18588027836364171 0.30417070427619303 0 0.18265278236186541 0.28020603593405619 0 0.18265278236186541 0.28020603593405619 0 0.15915390062653459 0.27760612704708998 0 0.17660728565697029 0.25284173787090108 0 0.18265278236186541 0.28020603593405619 0 0.17660728565697029 0.25284173787090108 0 0.20178717474815569 0.26483037668696541 0 0.1514273965657848 0.24085309905483679 0 0.156278998070083 0.25778272565978 0 0.17660728565697029 0.25284173787090108 0 0.15915390062653459 0.27760612704708998 0 0.156278998070083 0.25778272565978 0 0.17660728565697029 0.25284173787090108 0 0.1971008006350988 0.24422433182354611 0 0.17660728565697029 0.25284173787090108 0 0.20178717474815569 0.26483037668696541 0 0.17660728565697029 0.25284173787090108 0 0.20178717474815569 0.26483037668696541 0 0.18265278236186541 0.28020603593405619 0 0.20178717474815569 0.26483037668696541 0 0.20721699074389299 0.28586320426344869 0 0.20178717474815569 0.26483037668696541 0 0.22696706383934109 0.27681901550302962 0 0.20721699074389299 0.28586320426344869 0 0.20178717474815569 0.26483037668696541 0 0.22696706383934109 0.27681901550302962 0 0.1971008006350988 0.24422433182354611 0 0.20178717474815569 0.26483037668696541 0 0.2257125065402284 0.25431107802280528 0 0.20178717474815569 0.26483037668696541 0 0.2257125065402284 0.25431107802280528 0 0.22696706383934109 0.27681901550302962 0 0.2257125065402284 0.25431107802280528 0 0.23435940432808119 0.2558835225658645 0 0.2376751292839718 0.27741240132337408 0 0.2257125065402284 0.25431107802280528 0 0.22696706383934109 0.27681901550302962 0 0.2376751292839718 0.27741240132337408 0 0.2257125065402284 0.25431107802280528 0 0.2376751292839718 0.27741240132337408 0 0.22696706383934109 0.27681901550302962 0 0.2376751292839718 0.27741240132337408 0 0.2318681827461313 0.28775992326468519 0 0.23435940432808119 0.2558835225658645 0 0.2434397278092077 0.27846069768541332 0 0.2376751292839718 0.27741240132337408 0 0.23435940432808119 0.2558835225658645 0 0.2434397278092077 0.27846069768541332 0 0.23435940432808119 0.2558835225658645 0 0.2434397278092077 0.27846069768541332 0 0.24763005152173001 0.25910176257370959 0 0.2459873280094696 0.23707215699401071 0 0.23435940432808119 0.2558835225658645 0 0.24763005152173001 0.25910176257370959 0 0.24963775202771521 0.30051372462394288 0 0.22557231514573739 0.29747977878921561 0 0.2305146992996441 0.31691702429977642 0 0.2376751292839718 0.27741240132337408 0 0.24963775202771521 0.30051372462394288 0 0.2318681827461313 0.28775992326468519 0 0.2434397278092077 0.27846069768541332 0 0.25252005129033422 0.30103787280496203 0 0.2434397278092077 0.27846069768541332 0 0.2376751292839718 0.27741240132337408 0 0.24963775202771521 0.30051372462394288 0 0.2434397278092077 0.27846069768541332 0 0.24963775202771521 0.30051372462394288 0 0.25252005129033422 0.30103787280496203 0 0.24963775202771521 0.30051372462394288 0 0.2318681827461313 0.28775992326468519 0 0.22557231514573739 0.29747977878921561 0 0.2376751292839718 0.27741240132337408 0 0.24963775202771521 0.30051372462394288 0 0.22696706383934109 0.27681901550302962 0 0.2318681827461313 0.28775992326468519 0 0.22192971392309441 0.28686454206331458 0 0.2318681827461313 0.28775992326468519 0 0.22192971392309441 0.28686454206331458 0 0.22557231514573739 0.29747977878921561 0 0.22557231514573739 0.29747977878921561 0 0.21067009246602381 0.31050760251916348 0 0.2305146992996441 0.31691702429977642 0 0.22557231514573739 0.29747977878921561 0 0.2305146992996441 0.31691702429977642 0 0.22557231514573739 0.29747977878921561 0 0.21067009246602381 0.31050760251916348 0 0.20721699074389299 0.28586320426344869 0 0.22192971392309441 0.28686454206331458 0 0.22557231514573739 0.29747977878921561 0 0.20721699074389299 0.28586320426344869 0 0.22696706383934109 0.27681901550302962 0 0.22192971392309441 0.28686454206331458 0 0.20721699074389299 0.28586320426344869 0 0.18588027836364171 0.30417070427619303 0 0.18265278236186541 0.28020603593405619 0 0.20721699074389299 0.28586320426344869 0 0.18588027836364171 0.30417070427619303 0 0.21067009246602381 0.31050760251916348 0 0.20721699074389299 0.28586320426344869 0 0.18588027836364171 0.30417070427619303 0 0.21067009246602381 0.31050760251916348 0 0.1975742485098208 0.32622361772240582 0 0.1975742485098208 0.32622361772240582 0 0.2097525667536678 0.34137856367538538 0 0.18404805005378369 0.34640285754043382 0 0.1975742485098208 0.32622361772240582 0 0.2097525667536678 0.34137856367538538 0 0.2167937380965417 0.3262762156054137 0 0.21067009246602381 0.31050760251916348 0 0.1975742485098208 0.32622361772240582 0 0.2167937380965417 0.3262762156054137 0 0.21067009246602381 0.31050760251916348 0 0.2167937380965417 0.3262762156054137 0 0.2305146992996441 0.31691702429977642 0 0.2305146992996441 0.31691702429977642 0 0.2354570834535519 0.33635426981033711 0 0.2167937380965417 0.3262762156054137 0 0.2305146992996441 0.31691702429977642 0 0.2354570834535519 0.33635426981033711 0 0.2097525667536678 0.34137856367538538 0 0.2167937380965417 0.3262762156054137 0 0.2354570834535519 0.33635426981033711 0 0.2097525667536678 0.34137856367538538 0 0.2354570834535519 0.33635426981033711 0 0.2097525667536678 0.34137856367538538 0 0.2354570834535519 0.33635426981033711 0 0.22572342153310379 0.35183723080414581 0 0.2354570834535519 0.33635426981033711 0 0.24833100513142109 0.32161764704062729 0 0.26518788721623437 0.33054298393043219 0 0.24963775202771521 0.30051372462394288 0 0.2305146992996441 0.31691702429977642 0 0.24833100513142109 0.32161764704062729 0 0.2305146992996441 0.31691702429977642 0 0.2354570834535519 0.33635426981033711 0 0.24833100513142109 0.32161764704062729 0 0.2354570834535519 0.33635426981033711 0 0.24217950803475169 0.36279199964721098 0 0.25397109136889212 0.34953950795812871 0 0.2354570834535519 0.33635426981033711 0 0.24217950803475169 0.36279199964721098 0 0.22572342153310379 0.35183723080414581 0 0.2354570834535519 0.33635426981033711 0 0.24217950803475169 0.36279199964721098 0 0.24217950803475169 0.36279199964721098 0 0.22572342153310379 0.35183723080414581 0 0.21637712922286109 0.36651385017664678 0 0.24217950803475169 0.36279199964721098 0 0.21637712922286109 0.36651385017664678 0 0.22693728272114971 0.38251641872149622 0 0.2097525667536678 0.34137856367538538 0 0.22572342153310379 0.35183723080414581 0 0.21637712922286109 0.36651385017664678 0 0.2097525667536678 0.34137856367538538 0 0.21637712922286109 0.36651385017664678 0 0.19198276408895759 0.36846918068195189 0 0.2097525667536678 0.34137856367538538 0 0.19198276408895759 0.36846918068195189 0 0.18404805005378369 0.34640285754043382 0 0.2097525667536678 0.34137856367538538 0 0.18404805005378369 0.34640285754043382 0 0.21637712922286109 0.36651385017664678 0 0.19198276408895759 0.36846918068195189 0 0.2008438189570996 0.38963870543367402 0 0.1583435333538997 0.35142715140548209 0 0.18404805005378369 0.34640285754043382 0 0.17157629822801171 0.38002160271682978 0 0.19198276408895759 0.36846918068195189 0 0.18404805005378369 0.34640285754043382 0 0.17157629822801171 0.38002160271682978 0 0.1583435333538997 0.35142715140548209 0 0.14756927440754089 0.37573381366887992 0 0.17157629822801171 0.38002160271682978 0 0.1583435333538997 0.35142715140548209 0 0.18404805005378369 0.34640285754043382 0 0.1583435333538997 0.35142715140548209 0 0.17427563080372541 0.32515257599924119 0 0.15139514334923471 0.31791608062108467 0 0.1975742485098208 0.32622361772240582 0 0.18404805005378369 0.34640285754043382 0 0.17427563080372541 0.32515257599924119 0 0.1583435333538997 0.35142715140548209 0 0.18404805005378369 0.34640285754043382 0 0.17427563080372541 0.32515257599924119 0 0.18588027836364171 0.30417070427619303 0 0.1975742485098208 0.32622361772240582 0 0.17427563080372541 0.32515257599924119 0 0.16637322996135739 0.30016678813796199 0 0.17427563080372541 0.32515257599924119 0 0.15139514334923471 0.31791608062108467 0 0.1583435333538997 0.35142715140548209 0 0.15139514334923471 0.31791608062108467 0 0.13264273129131951 0.33439404788472138 0 0.11954567143249289 0.30734763112478491 0 0.15139514334923471 0.31791608062108467 0 0.13264273129131951 0.33439404788472138 0 0.1165634558871128 0.3492406052842485 0 0.13264273129131951 0.33439404788472138 0 0.1326390166540157 0.35645144527053041 0 0.1326390166540157 0.35645144527053041 0 0.14756927440754089 0.37573381366887992 0 0.12550685613774351 0.37951055496914998 0 0.1583435333538997 0.35142715140548209 0 0.1326390166540157 0.35645144527053041 0 0.14756927440754089 0.37573381366887992 0 0.1583435333538997 0.35142715140548209 0 0.1326390166540157 0.35645144527053041 0 0.1583435333538997 0.35142715140548209 0 0.13264273129131951 0.33439404788472138 0 0.1326390166540157 0.35645144527053041 0 0.1528019220027558 0.40532518960412911 0 0.14756927440754089 0.37573381366887992 0 0.13567422075440499 0.38715007620423969 0 0.14756927440754089 0.37573381366887992 0 0.12550685613774351 0.37951055496914998 0 0.13567422075440499 0.38715007620423969 0 0.1236499924648251 0.3984302041169589 0 0.12550685613774351 0.37951055496914998 0 0.13567422075440499 0.38715007620423969 0 0.1236499924648251 0.3984302041169589 0 0.1528019220027558 0.40532518960412911 0 0.13567422075440499 0.38715007620423969 0 0.1528019220027558 0.40532518960412911 0 0.13502200614688589 0.42010390008240672 0 0.17098438647877001 0.42850314348833868 0 0.13502200614688589 0.42010390008240672 0 0.17098438647877001 0.42850314348833868 0 0.1532788809183856 0.44756588495706878 0 0.1236499924648251 0.3984302041169589 0 0.1528019220027558 0.40532518960412911 0 0.13502200614688589 0.42010390008240672 0 0.1237280261196836 0.44463014715047522 0 0.13502200614688589 0.42010390008240672 0 0.1532788809183856 0.44756588495706878 0 0.1528019220027558 0.40532518960412911 0 0.17098438647877001 0.42850314348833868 0 0.1528019220027558 0.40532518960412911 0 0.17098438647877001 0.42850314348833868 0 0.17902253221663289 0.40492788695933207 0 0.17098438647877001 0.42850314348833868 0 0.19890623541652749 0.42115079355368912 0 0.18916685095478419 0.4516810973725483 0 0.17098438647877001 0.42850314348833868 0 0.17902253221663289 0.40492788695933207 0 0.19890623541652749 0.42115079355368912 0 0.17902253221663289 0.40492788695933207 0 0.17157629822801171 0.38002160271682978 0 0.2008438189570996 0.38963870543367402 0 0.1528019220027558 0.40532518960412911 0 0.17902253221663289 0.40492788695933207 0 0.17157629822801171 0.38002160271682978 0 0.1528019220027558 0.40532518960412911 0 0.14756927440754089 0.37573381366887992 0 0.17157629822801171 0.38002160271682978 0 0.17902253221663289 0.40492788695933207 0 0.2008438189570996 0.38963870543367402 0 0.19890623541652749 0.42115079355368912 0 0.19198276408895759 0.36846918068195189 0 0.17157629822801171 0.38002160271682978 0 0.2008438189570996 0.38963870543367402 0 0.2008438189570996 0.38963870543367402 0 0.22638402477508329 0.40440780886586492 0 0.19890623541652749 0.42115079355368912 0 0.2008438189570996 0.38963870543367402 0 0.22693728272114971 0.38251641872149622 0 0.22638402477508329 0.40440780886586492 0 0.21637712922286109 0.36651385017664678 0 0.2008438189570996 0.38963870543367402 0 0.22693728272114971 0.38251641872149622 0 0.22693728272114971 0.38251641872149622 0 0.22638402477508329 0.40440780886586492 0 0.24890193261595259 0.38922972948408457 0 0.22638402477508329 0.40440780886586492 0 0.24890193261595259 0.38922972948408457 0 0.25562435719715348 0.41566745932095828 0 0.24217950803475169 0.36279199964721098 0 0.24890193261595259 0.38922972948408457 0 0.24217950803475169 0.36279199964721098 0 0.22693728272114971 0.38251641872149622 0 0.24890193261595259 0.38922972948408457 0 0.22638402477508329 0.40440780886586492 0 0.23929670148200641 0.42651558303428039 0 0.25562435719715348 0.41566745932095828 0 0.22638402477508329 0.40440780886586492 0 0.23929670148200641 0.42651558303428039 0 0.21947817947708001 0.42577831055793047 0 0.23929670148200641 0.42651558303428039 0 0.21947817947708001 0.42577831055793047 0 0.23265016418236131 0.44461914726881641 0 0.21947817947708001 0.42577831055793047 0 0.19890623541652749 0.42115079355368912 0 0.21144352365240529 0.44700262568134053 0 0.22638402477508329 0.40440780886586492 0 0.21947817947708001 0.42577831055793047 0 0.19890623541652749 0.42115079355368912 0 0.19890623541652749 0.42115079355368912 0 0.18916685095478419 0.4516810973725483 0 0.21144352365240529 0.44700262568134053 0 0.18916685095478419 0.4516810973725483 0 0.20734931543079829 0.47485905125675792 0 0.18916685095478419 0.4516810973725483 0 0.21144352365240529 0.44700262568134053 0 0.20734931543079829 0.47485905125675792 0 0.21144352365240529 0.44700262568134053 0 0.22111039645288069 0.46392735407830132 0 0.20734931543079829 0.47485905125675792 0 0.21144352365240529 0.44700262568134053 0 0.23265016418236131 0.44461914726881641 0 0.22111039645288069 0.46392735407830132 0 0.21947817947708001 0.42577831055793047 0 0.21144352365240529 0.44700262568134053 0 0.23265016418236131 0.44461914726881641 0 0.23265016418236131 0.44461914726881641 0 0.22111039645288069 0.46392735407830132 0 0.24508980140621781 0.46623513653650361 0 0.22111039645288069 0.46392735407830132 0 0.24508980140621781 0.46623513653650361 0 0.23265016418236131 0.44461914726881641 0 0.24508980140621781 0.46623513653650361 0 0.26234678177835441 0.44210518915783192 0 0.23929670148200641 0.42651558303428039 0 0.23265016418236131 0.44461914726881641 0 0.26234678177835441 0.44210518915783192 0 0.2479606543192433 0.5 0 0.23772208332050199 0.48786840683281429 0 0.2255317799068125 0.49803700514096738 0 0.2479606543192433 0.5 0 0.23772208332050199 0.48786840683281429 0 0.25513941322049821 0.48355515434954122 0 0.24508980140621781 0.46623513653650361 0 0.23688712964706901 0.4763018139788181 0 0.25513941322049821 0.48355515434954122 0 0.23772208332050199 0.48786840683281429 0 0.23688712964706901 0.4763018139788181 0 0.25513941322049821 0.48355515434954122 0 0.22111039645288069 0.46392735407830132 0 0.23688712964706901 0.4763018139788181 0 0.22537395383524639 0.47992301809693011 0 0.22537395383524639 0.47992301809693011 0 0.2255317799068125 0.49803700514096738 0 0.20734931543079829 0.47485905125675792 0 0.23772208332050199 0.48786840683281429 0 0.23688712964706901 0.4763018139788181 0 0.22537395383524639 0.47992301809693011 0 0.22111039645288069 0.46392735407830132 0 0.24508980140621781 0.46623513653650361 0 0.23688712964706901 0.4763018139788181 0 0.23772208332050199 0.48786840683281429 0 0.22537395383524639 0.47992301809693011 0 0.2255317799068125 0.49803700514096738 0 0.2479606543192433 0.5 0 0.21885338771805021 0.5 0 0.2255317799068125 0.49803700514096738 0 0.21885338771805021 0.5 0 0.2255317799068125 0.49803700514096738 0 0.20734931543079829 0.47485905125675792 0 0.21885338771805021 0.5 0 0.20734931543079829 0.47485905125675792 0 0.1897461211168571 0.5 0 0.2255317799068125 0.49803700514096738 0 0.20734931543079829 0.47485905125675792 0 0.22111039645288069 0.46392735407830132 0 0.22537395383524639 0.47992301809693011 0 0.20734931543079829 0.47485905125675792 0 0.18916685095478419 0.4516810973725483 0 0.20734931543079829 0.47485905125675792 0 0.18375498264642379 0.4799820804674747 0 0.20734931543079829 0.47485905125675792 0 0.1897461211168571 0.5 0 0.18375498264642379 0.4799820804674747 0 0.1897461211168571 0.5 0 0.1606388545156639 0.5 0 0.18375498264642379 0.4799820804674747 0 0.1606388545156639 0.5 0 0.16284299929429041 0.47286735670979418 0 0.18375498264642379 0.4799820804674747 0 0.17098438647877001 0.42850314348833868 0 0.18916685095478419 0.4516810973725483 0 0.1532788809183856 0.44756588495706878 0 0.18916685095478419 0.4516810973725483 0 0.16284299929429041 0.47286735670979418 0 0.18375498264642379 0.4799820804674747 0 0.18916685095478419 0.4516810973725483 0 0.16284299929429041 0.47286735670979418 0 0.1532788809183856 0.44756588495706878 0 0.17098438647877001 0.42850314348833868 0 0.18916685095478419 0.4516810973725483 0 0.16284299929429041 0.47286735670979418 0 0.1532788809183856 0.44756588495706878 0 0.13792901651589951 0.46760966493884959 0 0.1160915578241386 0.4641835533930308 0 0.1237280261196836 0.44463014715047522 0 0.13792901651589951 0.46760966493884959 0 0.1237280261196836 0.44463014715047522 0 0.1532788809183856 0.44756588495706878 0 0.13792901651589951 0.46760966493884959 0 0.1146358595090817 0.48605788153156299 0 0.13792901651589951 0.46760966493884959 0 0.14375381424303349 0.48699105670781317 0 0.1146358595090817 0.48605788153156299 0 0.13153158791447089 0.50000000000000033 0 0.14375381424303349 0.48699105670781317 0 0.1606388545156639 0.5 0 0.13153158791447089 0.50000000000000033 0 0.14375381424303349 0.48699105670781317 0 0.1606388545156639 0.5 0 0.16284299929429041 0.47286735670979418 0 0.14375381424303349 0.48699105670781317 0 0.16284299929429041 0.47286735670979418 0 0.13792901651589951 0.46760966493884959 0 0.14375381424303349 0.48699105670781317 0 0.35818797179075601 0.47458138126870081 0 0.34642182508771258 0.48585203466637861 0 0.33573625410597768 0.47071191077640329 0 0.35818797179075601 0.47458138126870081 0 0.34642182508771258 0.48585203466637861 0 0.35839011049240282 0.5 0 0.34642182508771258 0.48585203466637861 0 0.35839011049240282 0.5 0 0.33128271396841408 0.5 0 0.35818797179075601 0.47458138126870081 0 0.35839011049240282 0.5 0 0.37951078222479251 0.47868038482078018 0 0.35839011049240282 0.5 0 0.37951078222479251 0.47868038482078018 0 0.38549750701639152 0.5 0 0.35818797179075601 0.47458138126870081 0 0.37565915938479377 0.45849116020829678 0 0.37951078222479251 0.47868038482078018 0 0.35818797179075601 0.47458138126870081 0 0.35384759317055892 0.4558722467826386 0 0.37565915938479377 0.45849116020829678 0 0.3672128213662551 0.44140310366938379 0 0.35384759317055892 0.4558722467826386 0 0.37565915938479377 0.45849116020829678 0 0.35041805056504127 0.44039830756831011 0 0.35384759317055892 0.4558722467826386 0 0.33587130181052999 0.44964761720473639 0 0.3672128213662551 0.44140310366938379 0 0.35041805056504127 0.44039830756831011 0 0.35384759317055892 0.4558722467826386 0 0.35818797179075601 0.47458138126870081 0 0.35384759317055892 0.4558722467826386 0 0.33573625410597768 0.47071191077640329 0 0.33587130181052999 0.44964761720473639 0 0.32245641590876828 0.45710047073305682 0 0.33573625410597768 0.47071191077640329 0 0.35384759317055892 0.4558722467826386 0 0.33587130181052999 0.44964761720473639 0 0.33573625410597768 0.47071191077640329 0 0.35041805056504127 0.44039830756831011 0 0.33587130181052999 0.44964761720473639 0 0.34011375395909899 0.42827966665244982 0 0.33587130181052999 0.44964761720473639 0 0.32313042491148092 0.43915640659962429 0 0.34011375395909899 0.42827966665244982 0 0.33587130181052999 0.44964761720473639 0 0.32313042491148092 0.43915640659962429 0 0.32245641590876828 0.45710047073305682 0 0.32313042491148092 0.43915640659962429 0 0.32245641590876828 0.45710047073305682 0 0.3069723578181176 0.44921026163567479 0 0.32313042491148092 0.43915640659962429 0 0.3069723578181176 0.44921026163567479 0 0.30967478190587899 0.43248339293908478 0 0.32245641590876828 0.45710047073305682 0 0.31479002533830769 0.47294309924184441 0 0.33573625410597768 0.47071191077640329 0 0.32245641590876828 0.45710047073305682 0 0.31479002533830769 0.47294309924184441 0 0.3069723578181176 0.44921026163567479 0 0.31479002533830769 0.47294309924184441 0 0.33573625410597768 0.47071191077640329 0 0.33128271396841408 0.5 0 0.34642182508771258 0.48585203466637861 0 0.33573625410597768 0.47071191077640329 0 0.33128271396841408 0.5 0 0.31479002533830769 0.47294309924184441 0 0.33128271396841408 0.5 0 0.30417531744442527 0.5 0 0.31479002533830769 0.47294309924184441 0 0.30417531744442527 0.5 0 0.29074220063683293 0.48758109823480927 0 0.31479002533830769 0.47294309924184441 0 0.29192961584893129 0.47074300911827521 0 0.29074220063683293 0.48758109823480927 0 0.31479002533830769 0.47294309924184441 0 0.29192961584893129 0.47074300911827521 0 0.29192961584893129 0.47074300911827521 0 0.29074220063683293 0.48758109823480927 0 0.27306856363999571 0.4842714594973539 0 0.30417531744442527 0.5 0 0.29074220063683293 0.48758109823480927 0 0.27706792092043642 0.500000000000002 0 0.27706792092043642 0.500000000000002 0 0.27306856363999571 0.4842714594973539 0 0.25513941322049821 0.48355515434954122 0 0.29074220063683293 0.48758109823480927 0 0.27706792092043642 0.500000000000002 0 0.27306856363999571 0.4842714594973539 0 0.27706792092043642 0.500000000000002 0 0.27306856363999571 0.4842714594973539 0 0.29192961584893129 0.47074300911827521 0 0.26906920635955489 0.46854291899470579 0 0.27306856363999571 0.4842714594973539 0 0.25513941322049821 0.48355515434954122 0 0.26906920635955489 0.46854291899470579 0 0.29192961584893129 0.47074300911827521 0 0.27306856363999571 0.4842714594973539 0 0.26906920635955489 0.46854291899470579 0 0.27306856363999571 0.4842714594973539 0 0.26906920635955489 0.46854291899470579 0 0.24508980140621781 0.46623513653650361 0 0.25513941322049821 0.48355515434954122 0 0.26906920635955489 0.46854291899470579 0 0.2479606543192433 0.5 0 0.27706792092043642 0.500000000000002 0 0.25513941322049821 0.48355515434954122 0 0.24508980140621781 0.46623513653650361 0 0.26906920635955489 0.46854291899470579 0 0.24508980140621781 0.46623513653650361 0 0.26234678177835441 0.44210518915783192 0 0.26906920635955489 0.46854291899470579 0 0.29192961584893129 0.47074300911827521 0 0.26906920635955489 0.46854291899470579 0 0.2825318911539082 0.44937975844880462 0 0.26234678177835441 0.44210518915783192 0 0.26906920635955489 0.46854291899470579 0 0.26234678177835441 0.44210518915783192 0 0.26906920635955489 0.46854291899470579 0 0.2825318911539082 0.44937975844880462 0 0.26234678177835441 0.44210518915783192 0 0.2825318911539082 0.44937975844880462 0 0.2735489225425754 0.42398780939214897 0 0.2825318911539082 0.44937975844880462 0 0.3069723578181176 0.44921026163567479 0 0.29424437368670248 0.43173942196487358 0 0.29192961584893129 0.47074300911827521 0 0.2825318911539082 0.44937975844880462 0 0.3069723578181176 0.44921026163567479 0 0.31479002533830769 0.47294309924184441 0 0.29192961584893129 0.47074300911827521 0 0.3069723578181176 0.44921026163567479 0 0.3069723578181176 0.44921026163567479 0 0.30967478190587899 0.43248339293908478 0 0.29424437368670248 0.43173942196487358 0 0.30967478190587899 0.43248339293908478 0 0.3045281829251868 0.41996349248923659 0 0.31949857018790712 0.42234738200601463 0 0.30967478190587899 0.43248339293908478 0 0.3045281829251868 0.41996349248923659 0 0.29424437368670248 0.43173942196487358 0 0.31221380766262308 0.41141105291454111 0 0.3045281829251868 0.41996349248923659 0 0.30175255758949709 0.40539483602959481 0 0.31221380766262308 0.41141105291454111 0 0.3045281829251868 0.41996349248923659 0 0.31949857018790712 0.42234738200601463 0 0.3045281829251868 0.41996349248923659 0 0.29116822628179151 0.41527777958226658 0 0.30175255758949709 0.40539483602959481 0 0.29116822628179151 0.41527777958226658 0 0.2735489225425754 0.42398780939214897 0 0.28009549588900451 0.40671294327225221 0 0.29116822628179151 0.41527777958226658 0 0.29046685710439091 0.40365495696152731 0 0.30175255758949709 0.40539483602959481 0 0.29116822628179151 0.41527777958226658 0 0.28009549588900451 0.40671294327225221 0 0.29046685710439091 0.40365495696152731 0 0.29116822628179151 0.41527777958226658 0 0.29424437368670248 0.43173942196487358 0 0.2735489225425754 0.42398780939214897 0 0.3045281829251868 0.41996349248923659 0 0.29116822628179151 0.41527777958226658 0 0.29424437368670248 0.43173942196487358 0 0.2825318911539082 0.44937975844880462 0 0.29424437368670248 0.43173942196487358 0 0.2735489225425754 0.42398780939214897 0 0.2735489225425754 0.42398780939214897 0 0.28009549588900451 0.40671294327225221 0 0.26594594197715632 0.40587542564026857 0 0.2735489225425754 0.42398780939214897 0 0.25562435719715348 0.41566745932095828 0 0.26594594197715632 0.40587542564026857 0 0.26234678177835441 0.44210518915783192 0 0.25562435719715348 0.41566745932095828 0 0.23929670148200641 0.42651558303428039 0 0.26234678177835441 0.44210518915783192 0 0.25562435719715348 0.41566745932095828 0 0.26234678177835441 0.44210518915783192 0 0.2735489225425754 0.42398780939214897 0 0.25562435719715348 0.41566745932095828 0 0.24890193261595259 0.38922972948408457 0 0.27155900164109531 0.39377918673189899 0 0.26817635423288699 0.37969346344739391 0 0.24890193261595259 0.38922972948408457 0 0.26817635423288699 0.37969346344739391 0 0.26082178769032438 0.36496323128775521 0 0.24890193261595259 0.38922972948408457 0 0.25562435719715348 0.41566745932095828 0 0.24890193261595259 0.38922972948408457 0 0.27155900164109531 0.39377918673189899 0 0.26594594197715632 0.40587542564026857 0 0.24890193261595259 0.38922972948408457 0 0.25562435719715348 0.41566745932095828 0 0.26594594197715632 0.40587542564026857 0 0.28009549588900451 0.40671294327225221 0 0.27155900164109531 0.39377918673189899 0 0.26594594197715632 0.40587542564026857 0 0.28009549588900451 0.40671294327225221 0 0.27155900164109531 0.39377918673189899 0 0.2841626669368148 0.39603484022980262 0 0.27155900164109531 0.39377918673189899 0 0.27917556467927279 0.38707504911542251 0 0.2841626669368148 0.39603484022980262 0 0.27917556467927279 0.38707504911542251 0 0.27737653217987568 0.3763299637903077 0 0.28641533258273322 0.38531457319514678 0 0.27155900164109531 0.39377918673189899 0 0.27917556467927279 0.38707504911542251 0 0.26817635423288699 0.37969346344739391 0 0.26817635423288699 0.37969346344739391 0 0.27737653217987568 0.3763299637903077 0 0.26995518240551242 0.36922466410125959 0 0.27917556467927279 0.38707504911542251 0 0.26817635423288699 0.37969346344739391 0 0.27737653217987568 0.3763299637903077 0 0.27917556467927279 0.38707504911542251 0 0.28749669470930389 0.39059918652862902 0 0.28641533258273322 0.38531457319514678 0 0.28749669470930389 0.39059918652862902 0 0.28641533258273322 0.38531457319514678 0 0.29321390271680048 0.38636149671614523 0 0.28641533258273322 0.38531457319514678 0 0.29321390271680048 0.38636149671614523 0 0.29155132770994241 0.38145409056705559 0 0.28749669470930389 0.39059918652862902 0 0.29321390271680048 0.38636149671614523 0 0.2951553388248469 0.39485438569372039 0 0.29321390271680048 0.38636149671614523 0 0.2951553388248469 0.39485438569372039 0 0.30172663999730548 0.38411556817588999 0 0.2951337916801352 0.37545299726164849 0 0.29155132770994241 0.38145409056705559 0 0.29028041611347422 0.37131190521640561 0 0.29650911823343812 0.38027524721939082 0 0.2951337916801352 0.37545299726164849 0 0.29155132770994241 0.38145409056705559 0 0.29321390271680048 0.38636149671614523 0 0.29650911823343812 0.38027524721939082 0 0.29155132770994241 0.38145409056705559 0 0.28009549588900451 0.40671294327225221 0 0.2841626669368148 0.39603484022980262 0 0.29046685710439091 0.40365495696152731 0 0.27917556467927279 0.38707504911542251 0 0.28749669470930389 0.39059918652862902 0 0.2841626669368148 0.39603484022980262 0 0.28749669470930389 0.39059918652862902 0 0.2841626669368148 0.39603484022980262 0 0.2951553388248469 0.39485438569372039 0 0.2841626669368148 0.39603484022980262 0 0.2951553388248469 0.39485438569372039 0 0.29046685710439091 0.40365495696152731 0 0.2951553388248469 0.39485438569372039 0 0.29046685710439091 0.40365495696152731 0 0.30175255758949709 0.40539483602959481 0 0.2951553388248469 0.39485438569372039 0 0.30416997859767031 0.39496190780794832 0 0.30172663999730548 0.38411556817588999 0 0.2951553388248469 0.39485438569372039 0 0.30175255758949709 0.40539483602959481 0 0.30416997859767031 0.39496190780794832 0 0.30416997859767031 0.39496190780794832 0 0.31194754139156228 0.39992908639018659 0 0.31058504665001713 0.38993607806902841 0 0.31221380766262308 0.41141105291454111 0 0.30175255758949709 0.40539483602959481 0 0.31194754139156228 0.39992908639018659 0 0.30175255758949709 0.40539483602959481 0 0.30416997859767031 0.39496190780794832 0 0.31194754139156228 0.39992908639018659 0 0.29650911823343812 0.38027524721939082 0 0.30172663999730548 0.38411556817588999 0 0.30091992906300691 0.3739920833762147 0 0.30172663999730548 0.38411556817588999 0 0.31077839752677883 0.37658419253607489 0 0.30091992906300691 0.3739920833762147 0 0.29650911823343812 0.38027524721939082 0 0.2951337916801352 0.37545299726164849 0 0.30091992906300691 0.3739920833762147 0 0.29321390271680048 0.38636149671614523 0 0.29650911823343812 0.38027524721939082 0 0.30172663999730548 0.38411556817588999 0 0.30416997859767031 0.39496190780794832 0 0.30172663999730548 0.38411556817588999 0 0.31058504665001713 0.38993607806902841 0 0.30172663999730548 0.38411556817588999 0 0.31058504665001713 0.38993607806902841 0 0.31077839752677883 0.37658419253607489 0 0.31077839752677883 0.37658419253607489 0 0.31867525833463911 0.38494833593070971 0 0.32306703930603953 0.37623237809600169 0 0.31058504665001713 0.38993607806902841 0 0.31867525833463911 0.38494833593070971 0 0.31878199461777879 0.39362573130725731 0 0.31058504665001713 0.38993607806902841 0 0.31077839752677883 0.37658419253607489 0 0.31867525833463911 0.38494833593070971 0 0.31867525833463911 0.38494833593070971 0 0.32306703930603953 0.37623237809600169 0 0.32934203852673438 0.38871677178939867 0 0.31867525833463911 0.38494833593070971 0 0.32934203852673438 0.38871677178939867 0 0.31878199461777879 0.39362573130725731 0 0.32306703930603953 0.37623237809600169 0 0.33555471090824662 0.37714848622012531 0 0.32934203852673438 0.38871677178939867 0 0.33555471090824662 0.37714848622012531 0 0.32934203852673438 0.38871677178939867 0 0.34865402358820241 0.38746960960344728 0 0.32934203852673438 0.38871677178939867 0 0.33838050486014071 0.40132571833470809 0 0.34865402358820241 0.38746960960344728 0 0.32934203852673438 0.38871677178939867 0 0.33838050486014071 0.40132571833470809 0 0.32336008818594092 0.40459838435696299 0 0.32934203852673438 0.38871677178939867 0 0.32336008818594092 0.40459838435696299 0 0.31878199461777879 0.39362573130725731 0 0.31194754139156228 0.39992908639018659 0 0.31058504665001713 0.38993607806902841 0 0.31878199461777879 0.39362573130725731 0 0.31221380766262308 0.41141105291454111 0 0.31194754139156228 0.39992908639018659 0 0.32336008818594092 0.40459838435696299 0 0.31194754139156228 0.39992908639018659 0 0.32336008818594092 0.40459838435696299 0 0.31878199461777879 0.39362573130725731 0 0.31221380766262308 0.41141105291454111 0 0.32336008818594092 0.40459838435696299 0 0.31949857018790712 0.42234738200601463 0 0.32336008818594092 0.40459838435696299 0 0.31949857018790712 0.42234738200601463 0 0.33335541567677851 0.41413927737501682 0 0.32313042491148092 0.43915640659962429 0 0.31949857018790712 0.42234738200601463 0 0.34011375395909899 0.42827966665244982 0 0.32313042491148092 0.43915640659962429 0 0.30967478190587899 0.43248339293908478 0 0.31949857018790712 0.42234738200601463 0 0.31949857018790712 0.42234738200601463 0 0.34011375395909899 0.42827966665244982 0 0.33335541567677851 0.41413927737501682 0 0.34011375395909899 0.42827966665244982 0 0.33335541567677851 0.41413927737501682 0 0.35251535500997389 0.4097633894025835 0 0.33838050486014071 0.40132571833470809 0 0.33335541567677851 0.41413927737501682 0 0.35251535500997389 0.4097633894025835 0 0.33838050486014071 0.40132571833470809 0 0.32336008818594092 0.40459838435696299 0 0.33335541567677851 0.41413927737501682 0 0.34011375395909899 0.42827966665244982 0 0.35251535500997389 0.4097633894025835 0 0.3591301267131588 0.42602683944016839 0 0.3672128213662551 0.44140310366938379 0 0.35041805056504127 0.44039830756831011 0 0.3591301267131588 0.42602683944016839 0 0.35041805056504127 0.44039830756831011 0 0.34011375395909899 0.42827966665244982 0 0.3591301267131588 0.42602683944016839 0 0.3672128213662551 0.44140310366938379 0 0.3591301267131588 0.42602683944016839 0 0.37786999239799629 0.42201923841731348 0 0.3591301267131588 0.42602683944016839 0 0.36674031876838431 0.41287021939491358 0 0.37786999239799629 0.42201923841731348 0 0.35251535500997389 0.4097633894025835 0 0.36674031876838431 0.41287021939491358 0 0.36672310374365391 0.3972274770167053 0 0.36674031876838431 0.41287021939491358 0 0.37714557779446961 0.40580011292323048 0 0.37786999239799629 0.42201923841731348 0 0.35251535500997389 0.4097633894025835 0 0.3591301267131588 0.42602683944016839 0 0.36674031876838431 0.41287021939491358 0 0.36674031876838431 0.41287021939491358 0 0.36672310374365391 0.3972274770167053 0 0.37714557779446961 0.40580011292323048 0 0.36672310374365391 0.3972274770167053 0 0.34865402358820241 0.38746960960344728 0 0.36927583114563117 0.37168826674887129 0 0.36672310374365391 0.3972274770167053 0 0.36927583114563117 0.37168826674887129 0 0.38594138320053972 0.39504117240748449 0 0.34865402358820241 0.38746960960344728 0 0.34769055634412588 0.36745966958429022 0 0.36927583114563117 0.37168826674887129 0 0.33555471090824662 0.37714848622012531 0 0.34865402358820241 0.38746960960344728 0 0.34769055634412588 0.36745966958429022 0 0.35251535500997389 0.4097633894025835 0 0.36672310374365391 0.3972274770167053 0 0.34865402358820241 0.38746960960344728 0 0.33838050486014071 0.40132571833470809 0 0.35251535500997389 0.4097633894025835 0 0.34865402358820241 0.38746960960344728 0 0.35261027909072251 0.34833536109025781 0 0.34769055634412588 0.36745966958429022 0 0.33944519881702218 0.35670643516570921 0 0.35261027909072251 0.34833536109025781 0 0.34769055634412588 0.36745966958429022 0 0.36927583114563117 0.37168826674887129 0 0.35261027909072251 0.34833536109025781 0 0.36927583114563117 0.37168826674887129 0 0.35261027909072251 0.34833536109025781 0 0.36927583114563117 0.37168826674887129 0 0.38014707859742553 0.358601566133181 0 0.35261027909072251 0.34833536109025781 0 0.37418757138316661 0.34003979241565702 0 0.38014707859742553 0.358601566133181 0 0.37418757138316661 0.34003979241565702 0 0.36114413796306788 0.32433110896381118 0 0.38634354889032002 0.32367976249598251 0 0.35261027909072251 0.34833536109025781 0 0.37418757138316661 0.34003979241565702 0 0.36114413796306788 0.32433110896381118 0 0.36114413796306788 0.32433110896381118 0 0.38634354889032002 0.32367976249598251 0 0.36114413796306788 0.32433110896381118 0 0.36246687595182442 0.30494518477727961 0 0.38634354889032002 0.32367976249598251 0 0.36114413796306788 0.32433110896381118 0 0.33594472703581602 0.32498245543164278 0 0.36114413796306788 0.32433110896381118 0 0.33594472703581602 0.32498245543164278 0 0.34448717235649018 0.30756264321984922 0 0.35261027909072251 0.34833536109025781 0 0.36114413796306788 0.32433110896381118 0 0.33594472703581602 0.32498245543164278 0 0.35261027909072251 0.34833536109025781 0 0.33594472703581602 0.32498245543164278 0 0.35261027909072251 0.34833536109025781 0 0.33361265820108371 0.33601463685995558 0 0.33594472703581602 0.32498245543164278 0 0.35261027909072251 0.34833536109025781 0 0.33361265820108371 0.33601463685995558 0 0.33117650937159632 0.34590223044488833 0 0.33361265820108371 0.33601463685995558 0 0.33594472703581602 0.32498245543164278 0 0.32592845192929348 0.32524135296818618 0 0.33361265820108371 0.33601463685995558 0 0.32240332357799001 0.33561178436480271 0 0.33117650937159632 0.34590223044488833 0 0.33594472703581602 0.32498245543164278 0 0.32420479997372442 0.30853167071016102 0 0.33594472703581602 0.32498245543164278 0 0.32592845192929348 0.32524135296818618 0 0.32420479997372442 0.30853167071016102 0 0.33594472703581602 0.32498245543164278 0 0.32420479997372442 0.30853167071016102 0 0.34448717235649018 0.30756264321984922 0 0.33594472703581602 0.32498245543164278 0 0.32592845192929348 0.32524135296818618 0 0.32592845192929348 0.32524135296818618 0 0.31778971146991503 0.31788997842391498 0 0.32420479997372442 0.30853167071016102 0 0.32592845192929348 0.32524135296818618 0 0.31591730865868939 0.32743152395768732 0 0.31778971146991503 0.31788997842391498 0 0.31591730865868939 0.32743152395768732 0 0.31778971146991503 0.31788997842391498 0 0.30920411140212778 0.3196886032463338 0 0.32240332357799001 0.33561178436480271 0 0.31863003654071292 0.34601962911411782 0 0.33117650937159632 0.34590223044488833 0 0.33361265820108371 0.33601463685995558 0 0.32592845192929348 0.32524135296818618 0 0.32240332357799001 0.33561178436480271 0 0.32592845192929348 0.32524135296818618 0 0.31591730865868939 0.32743152395768732 0 0.32240332357799001 0.33561178436480271 0 0.31591730865868939 0.32743152395768732 0 0.32240332357799001 0.33561178436480271 0 0.31164832743931292 0.33689503642828789 0 0.32240332357799001 0.33561178436480271 0 0.31863003654071292 0.34601962911411782 0 0.31164832743931292 0.33689503642828789 0 0.31863003654071292 0.34601962911411782 0 0.30992842843050988 0.3457112388019602 0 0.31164832743931292 0.33689503642828789 0 0.31863003654071292 0.34601962911411782 0 0.30992842843050988 0.3457112388019602 0 0.31160887743439081 0.35478490180041172 0 0.32445766980723489 0.35579424438156659 0 0.31686549990355672 0.36548826773678422 0 0.31160887743439081 0.35478490180041172 0 0.31863003654071292 0.34601962911411782 0 0.32445766980723489 0.35579424438156659 0 0.31160887743439081 0.35478490180041172 0 0.31863003654071292 0.34601962911411782 0 0.32445766980723489 0.35579424438156659 0 0.33117650937159632 0.34590223044488833 0 0.35261027909072251 0.34833536109025781 0 0.33117650937159632 0.34590223044488833 0 0.33944519881702218 0.35670643516570921 0 0.32445766980723489 0.35579424438156659 0 0.33117650937159632 0.34590223044488833 0 0.33944519881702218 0.35670643516570921 0 0.33555471090824662 0.37714848622012531 0 0.34769055634412588 0.36745966958429022 0 0.3290198967761308 0.36586400202748842 0 0.34769055634412588 0.36745966958429022 0 0.33944519881702218 0.35670643516570921 0 0.3290198967761308 0.36586400202748842 0 0.32445766980723489 0.35579424438156659 0 0.33944519881702218 0.35670643516570921 0 0.3290198967761308 0.36586400202748842 0 0.32306703930603953 0.37623237809600169 0 0.33555471090824662 0.37714848622012531 0 0.3290198967761308 0.36586400202748842 0 0.32306703930603953 0.37623237809600169 0 0.3290198967761308 0.36586400202748842 0 0.31686549990355672 0.36548826773678422 0 0.32445766980723489 0.35579424438156659 0 0.3290198967761308 0.36586400202748842 0 0.31686549990355672 0.36548826773678422 0 0.31077839752677883 0.37658419253607489 0 0.32306703930603953 0.37623237809600169 0 0.31686549990355672 0.36548826773678422 0 0.31077839752677883 0.37658419253607489 0 0.30653952356419251 0.36486132392814918 0 0.30091992906300691 0.3739920833762147 0 0.31077839752677883 0.37658419253607489 0 0.31686549990355672 0.36548826773678422 0 0.30653952356419251 0.36486132392814918 0 0.31686549990355672 0.36548826773678422 0 0.30653952356419251 0.36486132392814918 0 0.31160887743439081 0.35478490180041172 0 0.30653952356419251 0.36486132392814918 0 0.29956039950038399 0.36055845947794762 0 0.29968882481084308 0.36620473963642819 0 0.30653952356419251 0.36486132392814918 0 0.29956039950038399 0.36055845947794762 0 0.30450437459886343 0.35739179545954242 0 0.29956039950038399 0.36055845947794762 0 0.29968882481084308 0.36620473963642819 0 0.2946843591870788 0.36349444767638139 0 0.29968882481084308 0.36620473963642819 0 0.30091992906300691 0.3739920833762147 0 0.29515321138997108 0.36891281366618561 0 0.30653952356419251 0.36486132392814918 0 0.29968882481084308 0.36620473963642819 0 0.30091992906300691 0.3739920833762147 0 0.2951337916801352 0.37545299726164849 0 0.30091992906300691 0.3739920833762147 0 0.29515321138997108 0.36891281366618561 0 0.30992842843050988 0.3457112388019602 0 0.31160887743439081 0.35478490180041172 0 0.30300584901730271 0.34938636887413438 0 0.30992842843050988 0.3457112388019602 0 0.30300584901730271 0.34938636887413438 0 0.30284961949963451 0.34180688944884569 0 0.31160887743439081 0.35478490180041172 0 0.30450437459886343 0.35739179545954242 0 0.30300584901730271 0.34938636887413438 0 0.30653952356419251 0.36486132392814918 0 0.31160887743439081 0.35478490180041172 0 0.30450437459886343 0.35739179545954242 0 0.30450437459886343 0.35739179545954242 0 0.29772286606791931 0.35422336501427332 0 0.30300584901730271 0.34938636887413438 0 0.29956039950038399 0.36055845947794762 0 0.30450437459886343 0.35739179545954242 0 0.29772286606791931 0.35422336501427332 0 0.29772286606791931 0.35422336501427332 0 0.30300584901730271 0.34938636887413438 0 0.29508057650716829 0.34607515835053693 0 0.30300584901730271 0.34938636887413438 0 0.29508057650716829 0.34607515835053693 0 0.30284961949963451 0.34180688944884569 0 0.29508057650716829 0.34607515835053693 0 0.29128433478161492 0.3514692197730912 0 0.28696318970460172 0.34507386829548542 0 0.29772286606791931 0.35422336501427332 0 0.29508057650716829 0.34607515835053693 0 0.29128433478161492 0.3514692197730912 0 0.29128433478161492 0.3514692197730912 0 0.29260686737414288 0.35803349489433017 0 0.28831593146678952 0.35482697607295582 0 0.29772286606791931 0.35422336501427332 0 0.29128433478161492 0.3514692197730912 0 0.29260686737414288 0.35803349489433017 0 0.29956039950038399 0.36055845947794762 0 0.29772286606791931 0.35422336501427332 0 0.29260686737414288 0.35803349489433017 0 0.29260686737414288 0.35803349489433017 0 0.28714468874269172 0.35854684035017659 0 0.29097547274489571 0.36086700820637557 0 0.29260686737414288 0.35803349489433017 0 0.28714468874269172 0.35854684035017659 0 0.28831593146678952 0.35482697607295582 0 0.28714468874269172 0.35854684035017659 0 0.28946597567566928 0.3633932499046143 0 0.27836960746308909 0.35599853724874359 0 0.28714468874269172 0.35854684035017659 0 0.28392422607346179 0.35383006020545288 0 0.27836960746308909 0.35599853724874359 0 0.28714468874269172 0.35854684035017659 0 0.28392422607346179 0.35383006020545288 0 0.28831593146678952 0.35482697607295582 0 0.28392422607346179 0.35383006020545288 0 0.28273558166129192 0.34922596943765521 0 0.28101653893848899 0.35208327708388421 0 0.28392422607346179 0.35383006020545288 0 0.28831593146678952 0.35482697607295582 0 0.2863539578433606 0.35136140079780598 0 0.29128433478161492 0.3514692197730912 0 0.28831593146678952 0.35482697607295582 0 0.2863539578433606 0.35136140079780598 0 0.29128433478161492 0.3514692197730912 0 0.2863539578433606 0.35136140079780598 0 0.28696318970460172 0.34507386829548542 0 0.2863539578433606 0.35136140079780598 0 0.28273558166129192 0.34922596943765521 0 0.28696318970460172 0.34507386829548542 0 0.28392422607346179 0.35383006020545288 0 0.2863539578433606 0.35136140079780598 0 0.28273558166129192 0.34922596943765521 0 0.28696318970460172 0.34507386829548542 0 0.28013569367420871 0.34584772387197749 0 0.28119375649751349 0.3415044430455576 0 0.28273558166129192 0.34922596943765521 0 0.28696318970460172 0.34507386829548542 0 0.28013569367420871 0.34584772387197749 0 0.29155132770994241 0.38145409056705559 0 0.29028041611347422 0.37131190521640561 0 0.27836960746308909 0.35599853724874359 0 0.28641533258273322 0.38531457319514678 0 0.29155132770994241 0.38145409056705559 0 0.2754302243437341 0.35800137086985789 0 0.29155132770994241 0.38145409056705559 0 0.2754302243437341 0.35800137086985789 0 0.27836960746308909 0.35599853724874359 0 0.29155132770994241 0.38145409056705559 0 0.27836960746308909 0.35599853724874359 0 0.29028041611347422 0.37131190521640561 0 0.29515321138997108 0.36891281366618561 0 0.28946597567566928 0.3633932499046143 0 0.2951337916801352 0.37545299726164849 0 0.29028041611347422 0.37131190521640561 0 0.29515321138997108 0.36891281366618561 0 0.29968882481084308 0.36620473963642819 0 0.29515321138997108 0.36891281366618561 0 0.2946843591870788 0.36349444767638139 0 0.29515321138997108 0.36891281366618561 0 0.2946843591870788 0.36349444767638139 0 0.28946597567566928 0.3633932499046143 0 0.29956039950038399 0.36055845947794762 0 0.29260686737414288 0.35803349489433017 0 0.2946843591870788 0.36349444767638139 0 0.28714468874269172 0.35854684035017659 0 0.29097547274489571 0.36086700820637557 0 0.28946597567566928 0.3633932499046143 0 0.2946843591870788 0.36349444767638139 0 0.29097547274489571 0.36086700820637557 0 0.28946597567566928 0.3633932499046143 0 0.29260686737414288 0.35803349489433017 0 0.2946843591870788 0.36349444767638139 0 0.29097547274489571 0.36086700820637557 0 0.29028041611347422 0.37131190521640561 0 0.28946597567566928 0.3633932499046143 0 0.27836960746308909 0.35599853724874359 0 0.28641533258273322 0.38531457319514678 0 0.2754302243437341 0.35800137086985789 0 0.27737653217987568 0.3763299637903077 0 0.28641533258273322 0.38531457319514678 0 0.2754302243437341 0.35800137086985789 0 0.27737653217987568 0.3763299637903077 0 0.27292546410526491 0.36629585246079138 0 0.2754302243437341 0.35800137086985789 0 0.27737653217987568 0.3763299637903077 0 0.26995518240551242 0.36922466410125959 0 0.27292546410526491 0.36629585246079138 0 0.26817635423288699 0.37969346344739391 0 0.26995518240551242 0.36922466410125959 0 0.26082178769032438 0.36496323128775521 0 0.26995518240551242 0.36922466410125959 0 0.26893991749193752 0.36162741108174062 0 0.26082178769032438 0.36496323128775521 0 0.26893991749193752 0.36162741108174062 0 0.27292546410526491 0.36629585246079138 0 0.2754302243437341 0.35800137086985789 0 0.26995518240551242 0.36922466410125959 0 0.26893991749193752 0.36162741108174062 0 0.27292546410526491 0.36629585246079138 0 0.2754302243437341 0.35800137086985789 0 0.26518788721623437 0.33054298393043219 0 0.2754302243437341 0.35800137086985789 0 0.27836960746308909 0.35599853724874359 0 0.26518788721623437 0.33054298393043219 0 0.2754302243437341 0.35800137086985789 0 0.26469999689944002 0.35285812485780471 0 0.26518788721623437 0.33054298393043219 0 0.27836960746308909 0.35599853724874359 0 0.28101653893848899 0.35208327708388421 0 0.2797945401242129 0.34946851842389731 0 0.28392422607346179 0.35383006020545288 0 0.27836960746308909 0.35599853724874359 0 0.28101653893848899 0.35208327708388421 0 0.27836960746308909 0.35599853724874359 0 0.2797945401242129 0.34946851842389731 0 0.27671527888398562 0.3441870844772259 0 0.28013569367420871 0.34584772387197749 0 0.2797945401242129 0.34946851842389731 0 0.27671527888398562 0.3441870844772259 0 0.28013569367420871 0.34584772387197749 0 0.27671527888398562 0.3441870844772259 0 0.28119375649751349 0.3415044430455576 0 0.28273558166129192 0.34922596943765521 0 0.28013569367420871 0.34584772387197749 0 0.2797945401242129 0.34946851842389731 0 0.28273558166129192 0.34922596943765521 0 0.28101653893848899 0.35208327708388421 0 0.2797945401242129 0.34946851842389731 0 0.26893991749193752 0.36162741108174062 0 0.2754302243437341 0.35800137086985789 0 0.26469999689944002 0.35285812485780471 0 0.26469999689944002 0.35285812485780471 0 0.25397109136889212 0.34953950795812871 0 0.26518788721623437 0.33054298393043219 0 0.26469999689944002 0.35285812485780471 0 0.25397109136889212 0.34953950795812871 0 0.26082178769032438 0.36496323128775521 0 0.24217950803475169 0.36279199964721098 0 0.25397109136889212 0.34953950795812871 0 0.26082178769032438 0.36496323128775521 0 0.24217950803475169 0.36279199964721098 0 0.24890193261595259 0.38922972948408457 0 0.26082178769032438 0.36496323128775521 0 0.26893991749193752 0.36162741108174062 0 0.26469999689944002 0.35285812485780471 0 0.26082178769032438 0.36496323128775521 0 0.26160037477145948 0.32361504792451118 0 0.26961523156275707 0.31863310602586059 0 0.25252005129033422 0.30103787280496203 0 0.24833100513142109 0.32161764704062729 0 0.26160037477145948 0.32361504792451118 0 0.26518788721623437 0.33054298393043219 0 0.24963775202771521 0.30051372462394288 0 0.24833100513142109 0.32161764704062729 0 0.26160037477145948 0.32361504792451118 0 0.26160037477145948 0.32361504792451118 0 0.26518788721623437 0.33054298393043219 0 0.26731122343739822 0.32545953491366858 0 0.26160037477145948 0.32361504792451118 0 0.26518788721623437 0.33054298393043219 0 0.2354570834535519 0.33635426981033711 0 0.26518788721623437 0.33054298393043219 0 0.2354570834535519 0.33635426981033711 0 0.25397109136889212 0.34953950795812871 0 0.26518788721623437 0.33054298393043219 0 0.27836960746308909 0.35599853724874359 0 0.27671527888398562 0.3441870844772259 0 0.26518788721623437 0.33054298393043219 0 0.26518788721623437 0.33054298393043219 0 0.2728414001991406 0.32904700177387047 0 0.26518788721623437 0.33054298393043219 0 0.2728414001991406 0.32904700177387047 0 0.26731122343739822 0.32545953491366858 0 0.27836960746308909 0.35599853724874359 0 0.26518788721623437 0.33054298393043219 0 0.26518788721623437 0.33054298393043219 0 0.2728414001991406 0.32904700177387047 0 0.27786043041236869 0.33471626715991409 0 0.27671527888398562 0.3441870844772259 0 0.26518788721623437 0.33054298393043219 0 0.27786043041236869 0.33471626715991409 0 0.27671527888398562 0.3441870844772259 0 0.28119375649751349 0.3415044430455576 0 0.27786043041236869 0.33471626715991409 0 0.2728414001991406 0.32904700177387047 0 0.27786043041236869 0.33471626715991409 0 0.27936204924768121 0.32498307102898349 0 0.27786043041236869 0.33471626715991409 0 0.27936204924768121 0.32498307102898349 0 0.28525590824973168 0.33019860290154568 0 0.2728414001991406 0.32904700177387047 0 0.27936204924768121 0.32498307102898349 0 0.26961523156275707 0.31863310602586059 0 0.2728414001991406 0.32904700177387047 0 0.26731122343739822 0.32545953491366858 0 0.26961523156275707 0.31863310602586059 0 0.26160037477145948 0.32361504792451118 0 0.26731122343739822 0.32545953491366858 0 0.26961523156275707 0.31863310602586059 0 0.27936204924768121 0.32498307102898349 0 0.26961523156275707 0.31863310602586059 0 0.28133089707177739 0.31565660162935461 0 0.26961523156275707 0.31863310602586059 0 0.28133089707177739 0.31565660162935461 0 0.27162220014601168 0.30819847959926649 0 0.28133089707177739 0.31565660162935461 0 0.28926842799031183 0.32164684668335553 0 0.29289622389348391 0.31173450207074938 0 0.27936204924768121 0.32498307102898349 0 0.28926842799031183 0.32164684668335553 0 0.28525590824973168 0.33019860290154568 0 0.27936204924768121 0.32498307102898349 0 0.28133089707177739 0.31565660162935461 0 0.28926842799031183 0.32164684668335553 0 0.28926842799031183 0.32164684668335553 0 0.29270679870612148 0.33133919612790758 0 0.29864702146159328 0.32643954785611667 0 0.28926842799031183 0.32164684668335553 0 0.28525590824973168 0.33019860290154568 0 0.29270679870612148 0.33133919612790758 0 0.28926842799031183 0.32164684668335553 0 0.30057412006284873 0.3182848580649148 0 0.29864702146159328 0.32643954785611667 0 0.28926842799031183 0.32164684668335553 0 0.30057412006284873 0.3182848580649148 0 0.29289622389348391 0.31173450207074938 0 0.28696318970460172 0.34507386829548542 0 0.28119375649751349 0.3415044430455576 0 0.28563489893157912 0.33697664508827291 0 0.28696318970460172 0.34507386829548542 0 0.28563489893157912 0.33697664508827291 0 0.29440715639490739 0.33866623850310912 0 0.28119375649751349 0.3415044430455576 0 0.27786043041236869 0.33471626715991409 0 0.28563489893157912 0.33697664508827291 0 0.28563489893157912 0.33697664508827291 0 0.28525590824973168 0.33019860290154568 0 0.29270679870612148 0.33133919612790758 0 0.27786043041236869 0.33471626715991409 0 0.28563489893157912 0.33697664508827291 0 0.28525590824973168 0.33019860290154568 0 0.29270679870612148 0.33133919612790758 0 0.29440715639490739 0.33866623850310912 0 0.30302737920860612 0.33410729573504611 0 0.28563489893157912 0.33697664508827291 0 0.29270679870612148 0.33133919612790758 0 0.29440715639490739 0.33866623850310912 0 0.29508057650716829 0.34607515835053693 0 0.28696318970460172 0.34507386829548542 0 0.29440715639490739 0.33866623850310912 0 0.29508057650716829 0.34607515835053693 0 0.29440715639490739 0.33866623850310912 0 0.30284961949963451 0.34180688944884569 0 0.29440715639490739 0.33866623850310912 0 0.30284961949963451 0.34180688944884569 0 0.30302737920860612 0.33410729573504611 0 0.29270679870612148 0.33133919612790758 0 0.30302737920860612 0.33410729573504611 0 0.29864702146159328 0.32643954785611667 0 0.30302737920860612 0.33410729573504611 0 0.29864702146159328 0.32643954785611667 0 0.30648676239126638 0.32698903389663531 0 0.30302737920860612 0.33410729573504611 0 0.31164832743931292 0.33689503642828789 0 0.30648676239126638 0.32698903389663531 0 0.31591730865868939 0.32743152395768732 0 0.31164832743931292 0.33689503642828789 0 0.30648676239126638 0.32698903389663531 0 0.30284961949963451 0.34180688944884569 0 0.30302737920860612 0.33410729573504611 0 0.31164832743931292 0.33689503642828789 0 0.30992842843050988 0.3457112388019602 0 0.30284961949963451 0.34180688944884569 0 0.31164832743931292 0.33689503642828789 0 0.30057412006284873 0.3182848580649148 0 0.3075048900192453 0.30846754722968978 0 0.29289622389348391 0.31173450207074938 0 0.30057412006284873 0.3182848580649148 0 0.29864702146159328 0.32643954785611667 0 0.30648676239126638 0.32698903389663531 0 0.30057412006284873 0.3182848580649148 0 0.30648676239126638 0.32698903389663531 0 0.30920411140212778 0.3196886032463338 0 0.31591730865868939 0.32743152395768732 0 0.30648676239126638 0.32698903389663531 0 0.30920411140212778 0.3196886032463338 0 0.30057412006284873 0.3182848580649148 0 0.30920411140212778 0.3196886032463338 0 0.3075048900192453 0.30846754722968978 0 0.31778971146991503 0.31788997842391498 0 0.30920411140212778 0.3196886032463338 0 0.3075048900192453 0.30846754722968978 0 0.3075048900192453 0.30846754722968978 0 0.29694347339530303 0.29848366127231912 0 0.31246487291163488 0.29208088598867771 0 0.3075048900192453 0.30846754722968978 0 0.29694347339530303 0.29848366127231912 0 0.29289622389348391 0.31173450207074938 0 0.31246487291163488 0.29208088598867771 0 0.29888580149873889 0.28140566667868477 0 0.31966717048778492 0.28020807462702291 0 0.29694347339530303 0.29848366127231912 0 0.31246487291163488 0.29208088598867771 0 0.29888580149873889 0.28140566667868477 0 0.29694347339530303 0.29848366127231912 0 0.29888580149873889 0.28140566667868477 0 0.28532215262680061 0.29218967158653381 0 0.29888580149873889 0.28140566667868477 0 0.28532215262680061 0.29218967158653381 0 0.27597263544757811 0.27926985653850322 0 0.29694347339530303 0.29848366127231912 0 0.29289622389348391 0.31173450207074938 0 0.28421062956037713 0.3046253325656294 0 0.29694347339530303 0.29848366127231912 0 0.28532215262680061 0.29218967158653381 0 0.28421062956037713 0.3046253325656294 0 0.28133089707177739 0.31565660162935461 0 0.29289622389348391 0.31173450207074938 0 0.28421062956037713 0.3046253325656294 0 0.28133089707177739 0.31565660162935461 0 0.28421062956037713 0.3046253325656294 0 0.27162220014601168 0.30819847959926649 0 0.28421062956037713 0.3046253325656294 0 0.27162220014601168 0.30819847959926649 0 0.27073357959762612 0.29469717476731772 0 0.28532215262680061 0.29218967158653381 0 0.28421062956037713 0.3046253325656294 0 0.27073357959762612 0.29469717476731772 0 0.27073357959762612 0.29469717476731772 0 0.25964825064670849 0.2811944406245902 0 0.27597263544757811 0.27926985653850322 0 0.28532215262680061 0.29218967158653381 0 0.27073357959762612 0.29469717476731772 0 0.27597263544757811 0.27926985653850322 0 0.2434397278092077 0.27846069768541332 0 0.25252005129033422 0.30103787280496203 0 0.25964825064670849 0.2811944406245902 0 0.27073357959762612 0.29469717476731772 0 0.25252005129033422 0.30103787280496203 0 0.25964825064670849 0.2811944406245902 0 0.24963775202771521 0.30051372462394288 0 0.26160037477145948 0.32361504792451118 0 0.26160037477145948 0.32361504792451118 0 0.25252005129033422 0.30103787280496203 0 0.24963775202771521 0.30051372462394288 0 0.26160037477145948 0.32361504792451118 0 0.25252005129033422 0.30103787280496203 0 0.27162220014601168 0.30819847959926649 0 0.27073357959762612 0.29469717476731772 0 0.25252005129033422 0.30103787280496203 0 0.26961523156275707 0.31863310602586059 0 0.27162220014601168 0.30819847959926649 0 0.25252005129033422 0.30103787280496203 0 0.26005695654466249 0.26476207857526007 0 0.25877170878786238 0.25302463852503437 0 0.26784118605052742 0.25766384122118591 0 0.26005695654466249 0.26476207857526007 0 0.26877199542094288 0.271185286046489 0 0.26784118605052742 0.25766384122118591 0 0.24763005152173001 0.25910176257370959 0 0.26005695654466249 0.26476207857526007 0 0.25877170878786238 0.25302463852503437 0 0.26005695654466249 0.26476207857526007 0 0.25964825064670849 0.2811944406245902 0 0.26877199542094288 0.271185286046489 0 0.2434397278092077 0.27846069768541332 0 0.26005695654466249 0.26476207857526007 0 0.25964825064670849 0.2811944406245902 0 0.2434397278092077 0.27846069768541332 0 0.24763005152173001 0.25910176257370959 0 0.26005695654466249 0.26476207857526007 0 0.25964825064670849 0.2811944406245902 0 0.26877199542094288 0.271185286046489 0 0.27597263544757811 0.27926985653850322 0 0.26877199542094288 0.271185286046489 0 0.27597263544757811 0.27926985653850322 0 0.27647749418933931 0.26389562134405542 0 0.27597263544757811 0.27926985653850322 0 0.27647749418933931 0.26389562134405542 0 0.28921799240021828 0.26815650339571012 0 0.27647749418933931 0.26389562134405542 0 0.27542464597538868 0.25681776053554017 0 0.28272693040926428 0.25881526167589219 0 0.27647749418933931 0.26389562134405542 0 0.26784118605052742 0.25766384122118591 0 0.27542464597538868 0.25681776053554017 0 0.26877199542094288 0.271185286046489 0 0.27647749418933931 0.26389562134405542 0 0.26784118605052742 0.25766384122118591 0 0.26784118605052742 0.25766384122118591 0 0.27542464597538868 0.25681776053554017 0 0.27283394916361492 0.24742619336605559 0 0.25877170878786238 0.25302463852503437 0 0.26784118605052742 0.25766384122118591 0 0.27283394916361492 0.24742619336605559 0 0.27542464597538868 0.25681776053554017 0 0.28272693040926428 0.25881526167589219 0 0.27283394916361492 0.24742619336605559 0 0.28272693040926428 0.25881526167589219 0 0.29968057031776052 0.25778022973809978 0 0.27283394916361492 0.24742619336605559 0 0.28272693040926428 0.25881526167589219 0 0.28921799240021828 0.26815650339571012 0 0.29968057031776052 0.25778022973809978 0 0.29968057031776052 0.25778022973809978 0 0.27283394916361492 0.24742619336605559 0 0.29968057031776052 0.25778022973809978 0 0.27283394916361492 0.24742619336605559 0 0.3016365876598241 0.24719201463661561 0 0.27647749418933931 0.26389562134405542 0 0.28272693040926428 0.25881526167589219 0 0.28921799240021828 0.26815650339571012 0 0.28921799240021828 0.26815650339571012 0 0.29917140266547992 0.2696271248040239 0 0.29968057031776052 0.25778022973809978 0 0.29888580149873889 0.28140566667868477 0 0.27597263544757811 0.27926985653850322 0 0.28921799240021828 0.26815650339571012 0 0.29888580149873889 0.28140566667868477 0 0.28921799240021828 0.26815650339571012 0 0.29917140266547992 0.2696271248040239 0 0.30890124644520212 0.27116609940360098 0 0.29968057031776052 0.25778022973809978 0 0.32652719147190618 0.26813426611014402 0 0.29888580149873889 0.28140566667868477 0 0.30890124644520212 0.27116609940360098 0 0.31966717048778492 0.28020807462702291 0 0.29888580149873889 0.28140566667868477 0 0.29917140266547992 0.2696271248040239 0 0.30890124644520212 0.27116609940360098 0 0.29917140266547992 0.2696271248040239 0 0.30890124644520212 0.27116609940360098 0 0.29968057031776052 0.25778022973809978 0 0.29968057031776052 0.25778022973809978 0 0.31432639173362298 0.2563396134856944 0 0.3016365876598241 0.24719201463661561 0 0.29968057031776052 0.25778022973809978 0 0.32652719147190618 0.26813426611014402 0 0.29968057031776052 0.25778022973809978 0 0.31432639173362298 0.2563396134856944 0 0.32652719147190618 0.26813426611014402 0 0.31432639173362298 0.2563396134856944 0 0.32946121748500129 0.25225194345791829 0 0.3016365876598241 0.24719201463661561 0 0.31432639173362298 0.2563396134856944 0 0.32946121748500129 0.25225194345791829 0 0.32652719147190618 0.26813426611014402 0 0.32946121748500129 0.25225194345791829 0 0.35728584731017871 0.25731187227922109 0 0.32946121748500129 0.25225194345791829 0 0.33854302537622011 0.27351786473126699 0 0.35728584731017871 0.25731187227922109 0 0.32946121748500129 0.25225194345791829 0 0.33854302537622011 0.27351786473126699 0 0.32652719147190618 0.26813426611014402 0 0.33854302537622011 0.27351786473126699 0 0.32652719147190618 0.26813426611014402 0 0.31966717048778492 0.28020807462702291 0 0.30890124644520212 0.27116609940360098 0 0.32652719147190618 0.26813426611014402 0 0.31966717048778492 0.28020807462702291 0 0.31246487291163488 0.29208088598867771 0 0.31966717048778492 0.28020807462702291 0 0.33172871425663403 0.29269405324557379 0 0.31778971146991503 0.31788997842391498 0 0.3075048900192453 0.30846754722968978 0 0.32420479997372442 0.30853167071016102 0 0.31246487291163488 0.29208088598867771 0 0.32420479997372442 0.30853167071016102 0 0.31246487291163488 0.29208088598867771 0 0.32420479997372442 0.30853167071016102 0 0.33172871425663403 0.29269405324557379 0 0.3075048900192453 0.30846754722968978 0 0.31246487291163488 0.29208088598867771 0 0.32420479997372442 0.30853167071016102 0 0.32420479997372442 0.30853167071016102 0 0.33172871425663403 0.29269405324557379 0 0.34448717235649018 0.30756264321984922 0 0.33854302537622011 0.27351786473126699 0 0.31966717048778492 0.28020807462702291 0 0.33172871425663403 0.29269405324557379 0 0.33172871425663403 0.29269405324557379 0 0.3503635169770366 0.28966006865463678 0 0.34448717235649018 0.30756264321984922 0 0.33854302537622011 0.27351786473126699 0 0.33172871425663403 0.29269405324557379 0 0.3503635169770366 0.28966006865463678 0 0.3503635169770366 0.28966006865463678 0 0.34448717235649018 0.30756264321984922 0 0.36246687595182442 0.30494518477727961 0 0.36114413796306788 0.32433110896381118 0 0.34448717235649018 0.30756264321984922 0 0.36246687595182442 0.30494518477727961 0 0.36246687595182442 0.30494518477727961 0 0.37008896088821891 0.27907488192658342 0 0.38127772340545701 0.29855436992749679 0 0.3503635169770366 0.28966006865463678 0 0.36246687595182442 0.30494518477727961 0 0.37008896088821891 0.27907488192658342 0 0.37008896088821891 0.27907488192658342 0 0.35728584731017871 0.25731187227922109 0 0.35441181453934328 0.27463334472066592 0 0.37008896088821891 0.27907488192658342 0 0.35728584731017871 0.25731187227922109 0 0.38511047713535562 0.2623718011005241 0 0.35728584731017871 0.25731187227922109 0 0.38511047713535562 0.2623718011005241 0 0.37293454716760283 0.2396311516560117 0 0.35728584731017871 0.25731187227922109 0 0.38511047713535562 0.2623718011005241 0 0.33854302537622011 0.27351786473126699 0 0.3503635169770366 0.28966006865463678 0 0.35441181453934328 0.27463334472066592 0 0.33854302537622011 0.27351786473126699 0 0.35728584731017871 0.25731187227922109 0 0.35441181453934328 0.27463334472066592 0 0.3503635169770366 0.28966006865463678 0 0.37008896088821891 0.27907488192658342 0 0.35441181453934328 0.27463334472066592 0 0.4059739891301799 0.26616584566893298 0 0.38511047713535562 0.2623718011005241 0 0.39575362435311728 0.2822497143692822 0 0.4059739891301799 0.26616584566893298 0 0.39575362435311728 0.2822497143692822 0 0.41466985898722469 0.28617745239982811 0 0.4059739891301799 0.26616584566893298 0 0.38511047713535562 0.2623718011005241 0 0.39933451681408499 0.24222051247515669 0 0.4059739891301799 0.26616584566893298 0 0.38511047713535562 0.2623718011005241 0 0.38511047713535562 0.2623718011005241 0 0.37293454716760283 0.2396311516560117 0 0.37008896088821891 0.27907488192658342 0 0.38511047713535562 0.2623718011005241 0 0.39575362435311728 0.2822497143692822 0 0.38511047713535562 0.2623718011005241 0 0.39575362435311728 0.2822497143692822 0 0.37008896088821891 0.27907488192658342 0 0.38127772340545701 0.29855436992749679 0 0.39575362435311728 0.2822497143692822 0 0.38127772340545701 0.29855436992749679 0 0.39341545683502421 0.31015448597301559 0 0.38634354889032002 0.32367976249598251 0 0.38127772340545701 0.29855436992749679 0 0.38634354889032002 0.32367976249598251 0 0.36246687595182442 0.30494518477727961 0 0.38127772340545701 0.29855436992749679 0 0.38634354889032002 0.32367976249598251 0 0.38127772340545701 0.29855436992749679 0 0.39341545683502421 0.31015448597301559 0 0.40639677157087911 0.30212762763804019 0 0.39341545683502421 0.31015448597301559 0 0.40639677157087911 0.30212762763804019 0 0.4081981699382346 0.3139513768470385 0 0.39575362435311728 0.2822497143692822 0 0.40639677157087911 0.30212762763804019 0 0.38127772340545701 0.29855436992749679 0 0.39575362435311728 0.2822497143692822 0 0.40639677157087911 0.30212762763804019 0 0.39575362435311728 0.2822497143692822 0 0.41466985898722469 0.28617745239982811 0 0.40639677157087911 0.30212762763804019 0 0.41466985898722469 0.28617745239982811 0 0.40639677157087911 0.30212762763804019 0 0.42063747895650733 0.30228076741981708 0 0.40639677157087911 0.30212762763804019 0 0.417039918788641 0.32200554090679828 0 0.40639677157087911 0.30212762763804019 0 0.42063747895650733 0.30228076741981708 0 0.41590325438833858 0.31571238371771643 0 0.42063747895650733 0.30228076741981708 0 0.43554340190627211 0.31006971119553528 0 0.43241978878766019 0.29428086906555412 0 0.42063747895650733 0.30228076741981708 0 0.43554340190627211 0.31006971119553528 0 0.41590325438833858 0.31571238371771643 0 0.43241978878766019 0.29428086906555412 0 0.42683750112500368 0.26995989023734401 0 0.43795337608323548 0.28151673092589807 0 0.41466985898722469 0.28617745239982811 0 0.43241978878766019 0.29428086906555412 0 0.42683750112500368 0.26995989023734401 0 0.43241978878766019 0.29428086906555412 0 0.42683750112500368 0.26995989023734401 0 0.41466985898722469 0.28617745239982811 0 0.42063747895650733 0.30228076741981708 0 0.43241978878766019 0.29428086906555412 0 0.4059739891301799 0.26616584566893298 0 0.42683750112500368 0.26995989023734401 0 0.4059739891301799 0.26616584566893298 0 0.41466985898722469 0.28617745239982811 0 0.42683750112500368 0.26995989023734401 0 0.4059739891301799 0.26616584566893298 0 0.42683750112500368 0.26995989023734401 0 0.42092918023873821 0.24421844589255121 0 0.4059739891301799 0.26616584566893298 0 0.39933451681408499 0.24222051247515669 0 0.42092918023873821 0.24421844589255121 0 0.42683750112500368 0.26995989023734401 0 0.44089414042045799 0.25771217685885472 0 0.42092918023873821 0.24421844589255121 0 0.42683750112500368 0.26995989023734401 0 0.42092918023873821 0.24421844589255121 0 0.44089414042045799 0.25771217685885472 0 0.45301423403414209 0.26007999789895508 0 0.4569230610569987 0.24819013429900669 0 0.44089414042045799 0.25771217685885472 0 0.45301423403414209 0.26007999789895508 0 0.44973892600361531 0.27412453072026172 0 0.42683750112500368 0.26995989023734401 0 0.44089414042045799 0.25771217685885472 0 0.44973892600361531 0.27412453072026172 0 0.42683750112500368 0.26995989023734401 0 0.44973892600361531 0.27412453072026172 0 0.43795337608323548 0.28151673092589807 0 0.42683750112500368 0.26995989023734401 0 0.44973892600361531 0.27412453072026172 0 0.44973892600361531 0.27412453072026172 0 0.46478170596961249 0.26323965275109401 0 0.47264035088222628 0.27828917120318131 0 0.44973892600361531 0.27412453072026172 0 0.47264035088222628 0.27828917120318131 0 0.44973892600361531 0.27412453072026172 0 0.47264035088222628 0.27828917120318131 0 0.46226850420995219 0.28814127863090738 0 0.45301423403414209 0.26007999789895508 0 0.44973892600361531 0.27412453072026172 0 0.46478170596961249 0.26323965275109401 0 0.46478170596961249 0.26323965275109401 0 0.47264035088222628 0.27828917120318131 0 0.46478170596961249 0.26323965275109401 0 0.4569230610569987 0.24819013429900669 0 0.45301423403414209 0.26007999789895508 0 0.46478170596961249 0.26323965275109401 0 0.4569230610569987 0.24819013429900669 0 0.46478170596961249 0.26323965275109401 0 0.46750550623703407 0.25349570762290419 0 0.47341939214644252 0.26170481890296848 0 0.46478170596961249 0.26323965275109401 0 0.46750550623703407 0.25349570762290419 0 0.4569230610569987 0.24819013429900669 0 0.47341939214644252 0.26170481890296848 0 0.48489893488970792 0.25686202981026901 0 0.47278153852907701 0.24486280325581439 0 0.46750550623703407 0.25349570762290419 0 0.47341939214644252 0.26170481890296848 0 0.47278153852907701 0.24486280325581439 0 0.47341939214644252 0.26170481890296848 0 0.47278153852907701 0.24486280325581439 0 0.47341939214644252 0.26170481890296848 0 0.48000757765913032 0.26759533659828072 0 0.48489893488970792 0.25686202981026901 0 0.47341939214644252 0.26170481890296848 0 0.47405724576380859 0.27854683455012252 0 0.48000757765913032 0.26759533659828072 0 0.47341939214644252 0.26170481890296848 0 0.47264035088222628 0.27828917120318131 0 0.47405724576380859 0.27854683455012252 0 0.46478170596961249 0.26323965275109401 0 0.47341939214644252 0.26170481890296848 0 0.47264035088222628 0.27828917120318131 0 0.47405724576380859 0.27854683455012252 0 0.47415752390174082 0.28119459874267072 0 0.50000000000001354 0.28326454295050368 0 0.47341939214644252 0.26170481890296848 0 0.47405724576380859 0.27854683455012252 0 0.47264035088222628 0.27828917120318131 0 0.47405724576380859 0.27854683455012252 0 0.47405724576380859 0.27854683455012252 0 0.47415752390174082 0.28119459874267072 0 0.47264035088222628 0.27828917120318131 0 0.47405724576380859 0.27854683455012252 0 0.47415752390174082 0.28119459874267072 0 0.47264035088222628 0.27828917120318131 0 0.47415752390174082 0.28119459874267072 0 0.47405724576380859 0.27854683455012252 0 0.48000757765913032 0.26759533659828072 0 0.48909471086131839 0.26954423778064313 0 0.47405724576380859 0.27854683455012252 0 0.50000000000001354 0.28326454295050368 0 0.47405724576380859 0.27854683455012252 0 0.48909471086131839 0.26954423778064313 0 0.50000000000001354 0.28326454295050368 0 0.48909471086131839 0.26954423778064313 0 0.5 0.25553121794514477 0 0.50000000000001354 0.28326454295050368 0 0.5 0.25553121794514477 0 0.48489893488970792 0.25686202981026901 0 0.48903365503734891 0.24299047468837701 0 0.48909471086131839 0.26954423778064313 0 0.5 0.25553121794514477 0 0.48489893488970792 0.25686202981026901 0 0.48000757765913032 0.26759533659828072 0 0.48909471086131839 0.26954423778064313 0 0.48489893488970792 0.25686202981026901 0 0.48223131843763373 0.29665613456690521 0 0.49274985611107969 0.31679941989990179 0 0.48223131843763373 0.29665613456690521 0 0.49274985611107969 0.31679941989990179 0 0.48532411314893581 0.31403081790115361 0 0.49298554246438231 0.30475618362627349 0 0.48223131843763373 0.29665613456690521 0 0.49274985611107969 0.31679941989990179 0 0.49298554246438231 0.30475618362627349 0 0.4969609953088156 0.2924242547978898 0 0.5 0.31314492524039728 0 0.49298554246438231 0.30475618362627349 0 0.4969609953088156 0.2924242547978898 0 0.48223131843763373 0.29665613456690521 0 0.49298554246438231 0.30475618362627349 0 0.49274985611107969 0.31679941989990179 0 0.5 0.31314492524039728 0 0.4969609953088156 0.2924242547978898 0 0.50000000000001354 0.28326454295050368 0 0.5 0.31314492524039728 0 0.47415752390174082 0.28119459874267072 0 0.4969609953088156 0.2924242547978898 0 0.50000000000001354 0.28326454295050368 0 0.47415752390174082 0.28119459874267072 0 0.4969609953088156 0.2924242547978898 0 0.48223131843763373 0.29665613456690521 0 0.4969609953088156 0.2924242547978898 0 0.48223131843763373 0.29665613456690521 0 0.47415752390174082 0.28119459874267072 0 0.47482369694213911 0.29878436615117387 0 0.47415752390174082 0.28119459874267072 0 0.47482369694213911 0.29878436615117387 0 0.46226850420995219 0.28814127863090738 0 0.47415752390174082 0.28119459874267072 0 0.48223131843763373 0.29665613456690521 0 0.47482369694213911 0.29878436615117387 0 0.47415752390174082 0.28119459874267072 0 0.48223131843763373 0.29665613456690521 0 0.47264035088222628 0.27828917120318131 0 0.47415752390174082 0.28119459874267072 0 0.46226850420995219 0.28814127863090738 0 0.48223131843763373 0.29665613456690521 0 0.48022688714188239 0.30485617861310249 0 0.48532411314893581 0.31403081790115361 0 0.47482369694213911 0.29878436615117387 0 0.4785284200388214 0.30995339583317788 0 0.47567910166728178 0.32137064515506791 0 0.47482369694213911 0.29878436615117387 0 0.46683928615616721 0.31034493157342358 0 0.47567910166728178 0.32137064515506791 0 0.47482369694213911 0.29878436615117387 0 0.47567910166728178 0.32137064515506791 0 0.47482369694213911 0.29878436615117387 0 0.48022688714188239 0.30485617861310249 0 0.4785284200388214 0.30995339583317788 0 0.48223131843763373 0.29665613456690521 0 0.47482369694213911 0.29878436615117387 0 0.48022688714188239 0.30485617861310249 0 0.48223131843763373 0.29665613456690521 0 0.47482369694213911 0.29878436615117387 0 0.48022688714188239 0.30485617861310249 0 0.4785284200388214 0.30995339583317788 0 0.48532411314893581 0.31403081790115361 0 0.47482369694213911 0.29878436615117387 0 0.46683928615616721 0.31034493157342358 0 0.45518354942420552 0.3044270386733543 0 0.47482369694213911 0.29878436615117387 0 0.45518354942420552 0.3044270386733543 0 0.46683928615616721 0.31034493157342358 0 0.45518354942420552 0.3044270386733543 0 0.46090063033065398 0.31457074158430443 0 0.47482369694213911 0.29878436615117387 0 0.45518354942420552 0.3044270386733543 0 0.46226850420995219 0.28814127863090738 0 0.45518354942420552 0.3044270386733543 0 0.46226850420995219 0.28814127863090738 0 0.44650245416143669 0.29205179777212908 0 0.44973892600361531 0.27412453072026172 0 0.46226850420995219 0.28814127863090738 0 0.44650245416143669 0.29205179777212908 0 0.44973892600361531 0.27412453072026172 0 0.44650245416143669 0.29205179777212908 0 0.43795337608323548 0.28151673092589807 0 0.43241978878766019 0.29428086906555412 0 0.44650245416143669 0.29205179777212908 0 0.43795337608323548 0.28151673092589807 0 0.43554340190627211 0.31006971119553528 0 0.45518354942420552 0.3044270386733543 0 0.44650245416143669 0.29205179777212908 0 0.43554340190627211 0.31006971119553528 0 0.43241978878766019 0.29428086906555412 0 0.44650245416143669 0.29205179777212908 0 0.43554340190627211 0.31006971119553528 0 0.45518354942420552 0.3044270386733543 0 0.44590058407496119 0.32214035093537202 0 0.43554340190627211 0.31006971119553528 0 0.45518354942420552 0.3044270386733543 0 0.44438162939182968 0.33527616080122319 0 0.43941431748234389 0.34697694962204328 0 0.43138153093963261 0.33684778794266318 0 0.44438162939182968 0.33527616080122319 0 0.43138153093963261 0.33684778794266318 0 0.43736796180383269 0.33070162376080392 0 0.44590058407496119 0.32214035093537202 0 0.44438162939182968 0.33527616080122319 0 0.43736796180383269 0.33070162376080392 0 0.44590058407496119 0.32214035093537202 0 0.44438162939182968 0.33527616080122319 0 0.45938090137280319 0.33331169935871768 0 0.44438162939182968 0.33527616080122319 0 0.45466128638888681 0.34537342559846479 0 0.43941431748234389 0.34697694962204328 0 0.44438162939182968 0.33527616080122319 0 0.45938090137280319 0.33331169935871768 0 0.45466128638888681 0.34537342559846479 0 0.45938090137280319 0.33331169935871768 0 0.47648750655815691 0.34271593104932652 0 0.45466128638888681 0.34537342559846479 0 0.45518354942420552 0.3044270386733543 0 0.44590058407496119 0.32214035093537202 0 0.46090063033065398 0.31457074158430443 0 0.44590058407496119 0.32214035093537202 0 0.47567910166728178 0.32137064515506791 0 0.44590058407496119 0.32214035093537202 0 0.45938090137280319 0.33331169935871768 0 0.47567910166728178 0.32137064515506791 0 0.44590058407496119 0.32214035093537202 0 0.46090063033065398 0.31457074158430443 0 0.47567910166728178 0.32137064515506791 0 0.46683928615616721 0.31034493157342358 0 0.46090063033065398 0.31457074158430443 0 0.47567910166728178 0.32137064515506791 0 0.4785284200388214 0.30995339583317788 0 0.48037384835626529 0.31664076505113292 0 0.47567910166728178 0.32137064515506791 0 0.48037384835626529 0.31664076505113292 0 0.48196375857002199 0.32120820131513239 0 0.47567910166728178 0.32137064515506791 0 0.48037384835626529 0.31664076505113292 0 0.48196375857002199 0.32120820131513239 0 0.48532411314893581 0.31403081790115361 0 0.4785284200388214 0.30995339583317788 0 0.48037384835626529 0.31664076505113292 0 0.48532411314893581 0.31403081790115361 0 0.48196375857002199 0.32120820131513239 0 0.48271443300740718 0.32966898805558448 0 0.48700966075600671 0.32276244140519528 0 0.48196375857002199 0.32120820131513239 0 0.47567910166728178 0.32137064515506791 0 0.48271443300740718 0.32966898805558448 0 0.48196375857002199 0.32120820131513239 0 0.47567910166728178 0.32137064515506791 0 0.47567910166728178 0.32137064515506791 0 0.47648750655815691 0.34271593104932652 0 0.47567910166728178 0.32137064515506791 0 0.47648750655815691 0.34271593104932652 0 0.48271443300740718 0.32966898805558448 0 0.45938090137280319 0.33331169935871768 0 0.47567910166728178 0.32137064515506791 0 0.47648750655815691 0.34271593104932652 0 0.47648750655815691 0.34271593104932652 0 0.48271443300740718 0.32966898805558448 0 0.49227852706914571 0.3310448133387906 0 0.47648750655815691 0.34271593104932652 0 0.5 0.34302530753029081 0 0.49227852706914571 0.3310448133387906 0 0.5 0.34302530753029081 0 0.49227852706914571 0.3310448133387906 0 0.5 0.31314492524039728 0 0.49227852706914571 0.3310448133387906 0 0.49274985611107969 0.31679941989990179 0 0.5 0.31314492524039728 0 0.48196375857002199 0.32120820131513239 0 0.48532411314893581 0.31403081790115361 0 0.48700966075600671 0.32276244140519528 0 0.49274985611107969 0.31679941989990179 0 0.48532411314893581 0.31403081790115361 0 0.48700966075600671 0.32276244140519528 0 0.48271443300740718 0.32966898805558448 0 0.49227852706914571 0.3310448133387906 0 0.48700966075600671 0.32276244140519528 0 0.49227852706914571 0.3310448133387906 0 0.49274985611107969 0.31679941989990179 0 0.48700966075600671 0.32276244140519528 0 0.5 0.37290568982018429 0 0.48906820236105919 0.3579654986752378 0 0.48477613844387402 0.38021688004838439 0 0.47648750655815691 0.34271593104932652 0 0.5 0.34302530753029081 0 0.48906820236105919 0.3579654986752378 0 0.5 0.34302530753029081 0 0.5 0.37290568982018429 0 0.48906820236105919 0.3579654986752378 0 0.47648750655815691 0.34271593104932652 0 0.4736556537454587 0.3678330253399309 0 0.4628011452372443 0.35721885356897543 0 0.47648750655815691 0.34271593104932652 0 0.48906820236105919 0.3579654986752378 0 0.4736556537454587 0.3678330253399309 0 0.48906820236105919 0.3579654986752378 0 0.4736556537454587 0.3678330253399309 0 0.48477613844387402 0.38021688004838439 0 0.4736556537454587 0.3678330253399309 0 0.45151374504626951 0.36758660991241321 0 0.46980882541715813 0.38208294099771128 0 0.4736556537454587 0.3678330253399309 0 0.4628011452372443 0.35721885356897543 0 0.45151374504626951 0.36758660991241321 0 0.47648750655815691 0.34271593104932652 0 0.4628011452372443 0.35721885356897543 0 0.45466128638888681 0.34537342559846479 0 0.4628011452372443 0.35721885356897543 0 0.45466128638888681 0.34537342559846479 0 0.45151374504626951 0.36758660991241321 0 0.43941431748234389 0.34697694962204328 0 0.45151374504626951 0.36758660991241321 0 0.43248649325656402 0.35912170041613489 0 0.45466128638888681 0.34537342559846479 0 0.43941431748234389 0.34697694962204328 0 0.45151374504626951 0.36758660991241321 0 0.45151374504626951 0.36758660991241321 0 0.4343808670510142 0.37207818795490849 0 0.43248649325656402 0.35912170041613489 0 0.4343808670510142 0.37207818795490849 0 0.41565945607251759 0.36236511110304392 0 0.42235721568131929 0.38220686924127689 0 0.4343808670510142 0.37207818795490849 0 0.41565945607251759 0.36236511110304392 0 0.43248649325656402 0.35912170041613489 0 0.41565945607251759 0.36236511110304392 0 0.40683499004542412 0.37566900985645529 0 0.42235721568131929 0.38220686924127689 0 0.41565945607251759 0.36236511110304392 0 0.42423344021441339 0.3469403641650044 0 0.40881868850316022 0.34319093436892228 0 0.41565945607251759 0.36236511110304392 0 0.40881868850316022 0.34319093436892228 0 0.40255325820206211 0.35440744329028528 0 0.41565945607251759 0.36236511110304392 0 0.42423344021441339 0.3469403641650044 0 0.43248649325656402 0.35912170041613489 0 0.43941431748234389 0.34697694962204328 0 0.42423344021441339 0.3469403641650044 0 0.43248649325656402 0.35912170041613489 0 0.43941431748234389 0.34697694962204328 0 0.42423344021441339 0.3469403641650044 0 0.43138153093963261 0.33684778794266318 0 0.43138153093963261 0.33684778794266318 0 0.43736796180383269 0.33070162376080392 0 0.42780810280890752 0.32854219536395729 0 0.43138153093963261 0.33684778794266318 0 0.42780810280890752 0.32854219536395729 0 0.41974391964010321 0.33544292333485398 0 0.42780810280890752 0.32854219536395729 0 0.41816216709540432 0.32913892271221878 0 0.41974391964010321 0.33544292333485398 0 0.42423344021441339 0.3469403641650044 0 0.43138153093963261 0.33684778794266318 0 0.41974391964010321 0.33544292333485398 0 0.44590058407496119 0.32214035093537202 0 0.417039918788641 0.32200554090679828 0 0.43554340190627211 0.31006971119553528 0 0.42610184512817068 0.31856760869421968 0 0.41590325438833858 0.31571238371771643 0 0.44590058407496119 0.32214035093537202 0 0.42610184512817068 0.31856760869421968 0 0.417039918788641 0.32200554090679828 0 0.44590058407496119 0.32214035093537202 0 0.42780810280890752 0.32854219536395729 0 0.417039918788641 0.32200554090679828 0 0.44590058407496119 0.32214035093537202 0 0.43736796180383269 0.33070162376080392 0 0.42780810280890752 0.32854219536395729 0 0.43554340190627211 0.31006971119553528 0 0.41590325438833858 0.31571238371771643 0 0.43554340190627211 0.31006971119553528 0 0.44590058407496119 0.32214035093537202 0 0.42610184512817068 0.31856760869421968 0 0.40639677157087911 0.30212762763804019 0 0.417039918788641 0.32200554090679828 0 0.4081981699382346 0.3139513768470385 0 0.40639677157087911 0.30212762763804019 0 0.41590325438833858 0.31571238371771643 0 0.417039918788641 0.32200554090679828 0 0.42610184512817068 0.31856760869421968 0 0.41590325438833858 0.31571238371771643 0 0.417039918788641 0.32200554090679828 0 0.417039918788641 0.32200554090679828 0 0.41816216709540432 0.32913892271221878 0 0.41176425843116088 0.33156610519561941 0 0.42780810280890752 0.32854219536395729 0 0.417039918788641 0.32200554090679828 0 0.41816216709540432 0.32913892271221878 0 0.42423344021441339 0.3469403641650044 0 0.41974391964010321 0.33544292333485398 0 0.40881868850316022 0.34319093436892228 0 0.41816216709540432 0.32913892271221878 0 0.41974391964010321 0.33544292333485398 0 0.41176425843116088 0.33156610519561941 0 0.417039918788641 0.32200554090679828 0 0.41176425843116088 0.33156610519561941 0 0.40171431040203109 0.33103781916521291 0 0.41176425843116088 0.33156610519561941 0 0.40881868850316022 0.34319093436892228 0 0.40171431040203109 0.33103781916521291 0 0.41974391964010321 0.33544292333485398 0 0.41176425843116088 0.33156610519561941 0 0.40881868850316022 0.34319093436892228 0 0.40171431040203109 0.33103781916521291 0 0.38634354889032002 0.32367976249598251 0 0.39069281237429682 0.34525116339505252 0 0.40881868850316022 0.34319093436892228 0 0.40171431040203109 0.33103781916521291 0 0.39069281237429682 0.34525116339505252 0 0.417039918788641 0.32200554090679828 0 0.40171431040203109 0.33103781916521291 0 0.38634354889032002 0.32367976249598251 0 0.417039918788641 0.32200554090679828 0 0.4081981699382346 0.3139513768470385 0 0.38634354889032002 0.32367976249598251 0 0.39341545683502421 0.31015448597301559 0 0.4081981699382346 0.3139513768470385 0 0.38634354889032002 0.32367976249598251 0 0.417039918788641 0.32200554090679828 0 0.38634354889032002 0.32367976249598251 0 0.38634354889032002 0.32367976249598251 0 0.39069281237429682 0.34525116339505252 0 0.37418757138316661 0.34003979241565702 0 0.38634354889032002 0.32367976249598251 0 0.39069281237429682 0.34525116339505252 0 0.37418757138316661 0.34003979241565702 0 0.38014707859742553 0.358601566133181 0 0.39069281237429682 0.34525116339505252 0 0.38014707859742553 0.358601566133181 0 0.39504207585827378 0.36682256429412252 0 0.39069281237429682 0.34525116339505252 0 0.36927583114563117 0.37168826674887129 0 0.38014707859742553 0.358601566133181 0 0.3861818138235471 0.37714139125663793 0 0.38014707859742553 0.358601566133181 0 0.39504207585827378 0.36682256429412252 0 0.3861818138235471 0.37714139125663793 0 0.41565945607251759 0.36236511110304392 0 0.39504207585827378 0.36682256429412252 0 0.40683499004542412 0.37566900985645529 0 0.41565945607251759 0.36236511110304392 0 0.39504207585827378 0.36682256429412252 0 0.40255325820206211 0.35440744329028528 0 0.39504207585827378 0.36682256429412252 0 0.40255325820206211 0.35440744329028528 0 0.39069281237429682 0.34525116339505252 0 0.40881868850316022 0.34319093436892228 0 0.40255325820206211 0.35440744329028528 0 0.39069281237429682 0.34525116339505252 0 0.39504207585827378 0.36682256429412252 0 0.39069281237429682 0.34525116339505252 0 0.3993913393422508 0.38839396519319253 0 0.39020643165102042 0.40750290438779102 0 0.40342788129008578 0.41136751416027151 0 0.3993913393422508 0.38839396519319253 0 0.40342788129008578 0.41136751416027151 0 0.41247484703898341 0.39668929567888889 0 0.3993913393422508 0.38839396519319253 0 0.38594138320053972 0.39504117240748449 0 0.39020643165102042 0.40750290438779102 0 0.39504207585827378 0.36682256429412252 0 0.3993913393422508 0.38839396519319253 0 0.40683499004542412 0.37566900985645529 0 0.39504207585827378 0.36682256429412252 0 0.3993913393422508 0.38839396519319253 0 0.39504207585827378 0.36682256429412252 0 0.3993913393422508 0.38839396519319253 0 0.3861818138235471 0.37714139125663793 0 0.3993913393422508 0.38839396519319253 0 0.41247484703898341 0.39668929567888889 0 0.40683499004542412 0.37566900985645529 0 0.36927583114563117 0.37168826674887129 0 0.38594138320053972 0.39504117240748449 0 0.3993913393422508 0.38839396519319253 0 0.3861818138235471 0.37714139125663793 0 0.38594138320053972 0.39504117240748449 0 0.36927583114563117 0.37168826674887129 0 0.3861818138235471 0.37714139125663793 0 0.38594138320053972 0.39504117240748449 0 0.36672310374365391 0.3972274770167053 0 0.38594138320053972 0.39504117240748449 0 0.37714557779446961 0.40580011292323048 0 0.38594138320053972 0.39504117240748449 0 0.37714557779446961 0.40580011292323048 0 0.39020643165102042 0.40750290438779102 0 0.37714557779446961 0.40580011292323048 0 0.39020643165102042 0.40750290438779102 0 0.37786999239799629 0.42201923841731348 0 0.39020643165102042 0.40750290438779102 0 0.37786999239799629 0.42201923841731348 0 0.39620875860206523 0.42610388639599522 0 0.3672128213662551 0.44140310366938379 0 0.37786999239799629 0.42201923841731348 0 0.38861509636247821 0.44175005125570632 0 0.37786999239799629 0.42201923841731348 0 0.39620875860206523 0.42610388639599522 0 0.38861509636247821 0.44175005125570632 0 0.39620875860206523 0.42610388639599522 0 0.40342788129008578 0.41136751416027151 0 0.4165515890159211 0.43106581875832262 0 0.39020643165102042 0.40750290438779102 0 0.39620875860206523 0.42610388639599522 0 0.40342788129008578 0.41136751416027151 0 0.40342788129008578 0.41136751416027151 0 0.4194649070479346 0.41075775866906961 0 0.4165515890159211 0.43106581875832262 0 0.40342788129008578 0.41136751416027151 0 0.4194649070479346 0.41075775866906961 0 0.41247484703898341 0.39668929567888889 0 0.39620875860206523 0.42610388639599522 0 0.4165515890159211 0.43106581875832262 0 0.40679533173472487 0.44514780784289609 0 0.4165515890159211 0.43106581875832262 0 0.44107028692003247 0.43153611533185032 0 0.4165515890159211 0.43106581875832262 0 0.43527838440837918 0.41507327228856877 0 0.44107028692003247 0.43153611533185032 0 0.4194649070479346 0.41075775866906961 0 0.4165515890159211 0.43106581875832262 0 0.43527838440837918 0.41507327228856877 0 0.4194649070479346 0.41075775866906961 0 0.43527838440837918 0.41507327228856877 0 0.42844040697821201 0.39890611008127758 0 0.43527838440837918 0.41507327228856877 0 0.42844040697821201 0.39890611008127758 0 0.44356544647064411 0.40084295107477419 0 0.42844040697821201 0.39890611008127758 0 0.43978627658039499 0.38550810048347522 0 0.44356544647064411 0.40084295107477419 0 0.4194649070479346 0.41075775866906961 0 0.42844040697821201 0.39890611008127758 0 0.41247484703898341 0.39668929567888889 0 0.42844040697821201 0.39890611008127758 0 0.41247484703898341 0.39668929567888889 0 0.42235721568131929 0.38220686924127689 0 0.41247484703898341 0.39668929567888889 0 0.40683499004542412 0.37566900985645529 0 0.42235721568131929 0.38220686924127689 0 0.4343808670510142 0.37207818795490849 0 0.42235721568131929 0.38220686924127689 0 0.43978627658039499 0.38550810048347522 0 0.42844040697821201 0.39890611008127758 0 0.42235721568131929 0.38220686924127689 0 0.43978627658039499 0.38550810048347522 0 0.45151374504626951 0.36758660991241321 0 0.4343808670510142 0.37207818795490849 0 0.43978627658039499 0.38550810048347522 0 0.45151374504626951 0.36758660991241321 0 0.43978627658039499 0.38550810048347522 0 0.45722528454721961 0.3906654768237981 0 0.43978627658039499 0.38550810048347522 0 0.44356544647064411 0.40084295107477419 0 0.45722528454721961 0.3906654768237981 0 0.44356544647064411 0.40084295107477419 0 0.45722528454721961 0.3906654768237981 0 0.45594545333092312 0.41337501331873322 0 0.45722528454721961 0.3906654768237981 0 0.47568108772685191 0.39367102650606373 0 0.46881626912638691 0.40427363304328218 0 0.45722528454721961 0.3906654768237981 0 0.46881626912638691 0.40427363304328218 0 0.45594545333092312 0.41337501331873322 0 0.45151374504626951 0.36758660991241321 0 0.45722528454721961 0.3906654768237981 0 0.46980882541715813 0.38208294099771128 0 0.45722528454721961 0.3906654768237981 0 0.46980882541715813 0.38208294099771128 0 0.47568108772685191 0.39367102650606373 0 0.4736556537454587 0.3678330253399309 0 0.46980882541715813 0.38208294099771128 0 0.48477613844387402 0.38021688004838439 0 0.47568108772685191 0.39367102650606373 0 0.48702766555901961 0.39491075051184021 0 0.48477613844387402 0.38021688004838439 0 0.46980882541715813 0.38208294099771128 0 0.47568108772685191 0.39367102650606373 0 0.48477613844387402 0.38021688004838439 0 0.47568108772685191 0.39367102650606373 0 0.46881626912638691 0.40427363304328218 0 0.48151606592710777 0.40452093291302588 0 0.47568108772685191 0.39367102650606373 0 0.48151606592710777 0.40452093291302588 0 0.48702766555901961 0.39491075051184021 0 0.48702766555901961 0.39491075051184021 0 0.49874079622209128 0.38660437256818281 0 0.49442423947517328 0.40954054052354433 0 0.5 0.40278607211007789 0 0.49874079622209128 0.38660437256818281 0 0.49442423947517328 0.40954054052354433 0 0.49874079622209128 0.38660437256818281 0 0.49442423947517328 0.40954054052354433 0 0.48151606592710777 0.40452093291302588 0 0.48702766555901961 0.39491075051184021 0 0.49442423947517328 0.40954054052354433 0 0.5 0.37290568982018429 0 0.5 0.40278607211007789 0 0.49874079622209128 0.38660437256818281 0 0.5 0.37290568982018429 0 0.49874079622209128 0.38660437256818281 0 0.48477613844387402 0.38021688004838439 0 0.48702766555901961 0.39491075051184021 0 0.49874079622209128 0.38660437256818281 0 0.48477613844387402 0.38021688004838439 0 0.49010768272825528 0.43247670847890568 0 0.49999999999999839 0.43266645439997159 0 0.49442423947517328 0.40954054052354433 0 0.49010768272825528 0.43247670847890568 0 0.49999999999999839 0.43266645439997159 0 0.5 0.40278607211007789 0 0.49999999999999839 0.43266645439997159 0 0.49442423947517328 0.40954054052354433 0 0.49010768272825528 0.43247670847890568 0 0.49442423947517328 0.40954054052354433 0 0.47768739680387268 0.41777805257305989 0 0.48151606592710777 0.40452093291302588 0 0.49442423947517328 0.40954054052354433 0 0.47768739680387268 0.41777805257305989 0 0.49010768272825528 0.43247670847890568 0 0.49442423947517328 0.40954054052354433 0 0.46881626912638691 0.40427363304328218 0 0.48151606592710777 0.40452093291302588 0 0.47768739680387268 0.41777805257305989 0 0.49010768272825528 0.43247670847890568 0 0.47768739680387268 0.41777805257305989 0 0.4655889848241439 0.43200641190537797 0 0.49010768272825528 0.43247670847890568 0 0.4655889848241439 0.43200641190537797 0 0.47536631759922843 0.44556886167195853 0 0.49010768272825528 0.43247670847890568 0 0.4655889848241439 0.43200641190537797 0 0.4655889848241439 0.43200641190537797 0 0.44107028692003247 0.43153611533185032 0 0.4655889848241439 0.43200641190537797 0 0.45594545333092312 0.41337501331873322 0 0.44107028692003247 0.43153611533185032 0 0.4655889848241439 0.43200641190537797 0 0.44107028692003247 0.43153611533185032 0 0.4606865760628292 0.44801704672434101 0 0.47768739680387268 0.41777805257305989 0 0.4655889848241439 0.43200641190537797 0 0.45594545333092312 0.41337501331873322 0 0.46881626912638691 0.40427363304328218 0 0.47768739680387268 0.41777805257305989 0 0.45594545333092312 0.41337501331873322 0 0.43527838440837918 0.41507327228856877 0 0.45594545333092312 0.41337501331873322 0 0.44107028692003247 0.43153611533185032 0 0.43527838440837918 0.41507327228856877 0 0.44356544647064411 0.40084295107477419 0 0.45594545333092312 0.41337501331873322 0 0.49999999999999839 0.43266645439997159 0 0.48505572566105232 0.45932045051458531 0 0.5 0.5 0 0.44107028692003247 0.43153611533185032 0 0.44376664188615123 0.45979150936037488 0 0.4606865760628292 0.44801704672434101 0 0.44376664188615123 0.45979150936037488 0 0.46112241578244989 0.46478661640483648 0 0.45121200239437631 0.4807671998253365 0 0.44376664188615123 0.45979150936037488 0 0.46112241578244989 0.46478661640483648 0 0.4606865760628292 0.44801704672434101 0 0.46112241578244989 0.46478661640483648 0 0.4606865760628292 0.44801704672434101 0 0.47539261871986088 0.45602369073658289 0 0.4655889848241439 0.43200641190537797 0 0.4606865760628292 0.44801704672434101 0 0.47536631759922843 0.44556886167195853 0 0.49010768272825528 0.43247670847890568 0 0.47536631759922843 0.44556886167195853 0 0.48505572566105232 0.45932045051458531 0 0.4606865760628292 0.44801704672434101 0 0.47536631759922843 0.44556886167195853 0 0.47539261871986088 0.45602369073658289 0 0.47539261871986088 0.45602369073658289 0 0.47110615765410929 0.47801184536829172 0 0.47539261871986088 0.45602369073658289 0 0.48505572566105232 0.45932045051458531 0 0.47110615765410929 0.47801184536829172 0 0.46112241578244989 0.46478661640483648 0 0.47539261871986088 0.45602369073658289 0 0.47110615765410929 0.47801184536829172 0 0.47536631759922843 0.44556886167195853 0 0.47539261871986088 0.45602369073658289 0 0.48505572566105232 0.45932045051458531 0 0.49010768272825528 0.43247670847890568 0 0.48505572566105232 0.45932045051458531 0 0.49010768272825528 0.43247670847890568 0 0.49999999999999839 0.43266645439997159 0 0.48505572566105232 0.45932045051458531 0 0.48505572566105232 0.45932045051458531 0 0.5 0.5 0 0.48000376859384941 0.48616419255026477 0 0.5 0.5 0 0.48000376859384941 0.48616419255026477 0 0.46681969658835759 0.50000000000000044 0 0.48505572566105232 0.45932045051458531 0 0.47110615765410929 0.47801184536829172 0 0.48000376859384941 0.48616419255026477 0 0.48505572566105232 0.45932045051458531 0 0.48000376859384941 0.48616419255026477 0 0.47110615765410929 0.47801184536829172 0 0.46681969658835759 0.50000000000000044 0 0.47110615765410929 0.47801184536829172 0 0.48000376859384941 0.48616419255026477 0 0.46681969658835759 0.50000000000000044 0 0.47110615765410929 0.47801184536829172 0 0.46681969658835759 0.50000000000000044 0 0.45121200239437631 0.4807671998253365 0 0.46112241578244989 0.46478661640483648 0 0.47110615765410929 0.47801184536829172 0 0.45121200239437631 0.4807671998253365 0 0.44376664188615123 0.45979150936037488 0 0.45121200239437631 0.4807671998253365 0 0.42408561830569141 0.47732830779616442 0 0.46681969658835759 0.50000000000000044 0 0.45121200239437631 0.4807671998253365 0 0.43971230006436901 0.5 0 0.45121200239437631 0.4807671998253365 0 0.43971230006436901 0.5 0 0.42408561830569141 0.47732830779616442 0 0.43971230006436901 0.5 0 0.41260490354038032 0.5 0 0.42408561830569141 0.47732830779616442 0 0.41260490354038032 0.5 0 0.42408561830569141 0.47732830779616442 0 0.40044085355502113 0.48368683573266119 0 0.42408561830569141 0.47732830779616442 0 0.40050545668784993 0.46242548604636152 0 0.40044085355502113 0.48368683573266119 0 0.44376664188615123 0.45979150936037488 0 0.42408561830569141 0.47732830779616442 0 0.42267709028742451 0.45339185591380432 0 0.44107028692003247 0.43153611533185032 0 0.44376664188615123 0.45979150936037488 0 0.42267709028742451 0.45339185591380432 0 0.4165515890159211 0.43106581875832262 0 0.44107028692003247 0.43153611533185032 0 0.42267709028742451 0.45339185591380432 0 0.4165515890159211 0.43106581875832262 0 0.42267709028742451 0.45339185591380432 0 0.40679533173472487 0.44514780784289609 0 0.42408561830569141 0.47732830779616442 0 0.42267709028742451 0.45339185591380432 0 0.40050545668784993 0.46242548604636152 0 0.42267709028742451 0.45339185591380432 0 0.40679533173472487 0.44514780784289609 0 0.40050545668784993 0.46242548604636152 0 0.40679533173472487 0.44514780784289609 0 0.40050545668784993 0.46242548604636152 0 0.38861509636247821 0.44175005125570632 0 0.39620875860206523 0.42610388639599522 0 0.40679533173472487 0.44514780784289609 0 0.38861509636247821 0.44175005125570632 0 0.3672128213662551 0.44140310366938379 0 0.38861509636247821 0.44175005125570632 0 0.37565915938479377 0.45849116020829678 0 0.40050545668784993 0.46242548604636152 0 0.37565915938479377 0.45849116020829678 0 0.37951078222479251 0.47868038482078018 0 0.40050545668784993 0.46242548604636152 0 0.38861509636247821 0.44175005125570632 0 0.37565915938479377 0.45849116020829678 0 0.37951078222479251 0.47868038482078018 0 0.38549750701639152 0.5 0 0.40044085355502113 0.48368683573266119 0 0.41260490354038032 0.5 0 0.38549750701639152 0.5 0 0.40044085355502113 0.48368683573266119 0 0.40050545668784993 0.46242548604636152 0 0.37951078222479251 0.47868038482078018 0 0.40044085355502113 0.48368683573266119 0 0.3285700774521132 0.069227507684709172 0 0.34376262838779448 0.090160381808613591 0 0.3285700774521132 0.069227507684709172 0 0.34376262838779448 0.090160381808613591 0 0.3570119940846016 0.07655140493877155 0 0.3285700774521132 0.069227507684709172 0 0.31851483003181857 0.089032350953859848 0 0.34376262838779448 0.090160381808613591 0 0.3285700774521132 0.069227507684709172 0 0.31851483003181857 0.089032350953859848 0 0.30262144479489489 0.063472250579192202 0 0.31851483003181857 0.089032350953859848 0 0.32257158209111758 0.11034462767622299 0 0.33741607394213652 0.1036774965936159 0 0.31851483003181857 0.089032350953859848 0 0.32257158209111758 0.11034462767622299 0 0.29867863108980142 0.1045573716884185 0 0.32257158209111758 0.11034462767622299 0 0.32933038512457441 0.1245201253257071 0 0.3207185438207466 0.1263919595033525 0 0.32257158209111758 0.11034462767622299 0 0.31156748461804079 0.12537242366950921 0 0.3207185438207466 0.1263919595033525 0 0.32933038512457441 0.1245201253257071 0 0.34646453309243358 0.11613188366402739 0 0.34441400131097022 0.1288917011053414 0 0.32257158209111758 0.11034462767622299 0 0.33741607394213652 0.1036774965936159 0 0.34646453309243358 0.11613188366402739 0 0.32257158209111758 0.11034462767622299 0 0.34646453309243358 0.11613188366402739 0 0.32257158209111758 0.11034462767622299 0 0.32933038512457441 0.1245201253257071 0 0.34646453309243358 0.11613188366402739 0 0.31851483003181857 0.089032350953859848 0 0.33741607394213652 0.1036774965936159 0 0.34376262838779448 0.090160381808613591 0 0.35895517932347593 0.111093255932518 0 0.36286728541875429 0.096218484345557367 0 0.34376262838779448 0.090160381808613591 0 0.33741607394213652 0.1036774965936159 0 0.35895517932347593 0.111093255932518 0 0.34376262838779448 0.090160381808613591 0 0.35895517932347593 0.111093255932518 0 0.34376262838779448 0.090160381808613591 0 0.34646453309243358 0.11613188366402739 0 0.35895517932347593 0.111093255932518 0 0.37035748409374952 0.12191913965183331 0 0.34646453309243358 0.11613188366402739 0 0.37035748409374952 0.12191913965183331 0 0.33741607394213652 0.1036774965936159 0 0.34646453309243358 0.11613188366402739 0 0.35895517932347593 0.111093255932518 0 0.34646453309243358 0.11613188366402739 0 0.37035748409374952 0.12191913965183331 0 0.34441400131097022 0.1288917011053414 0 0.35895517932347593 0.111093255932518 0 0.36901916600157941 0.1100142775002767 0 0.37035748409374952 0.12191913965183331 0 0.36901916600157941 0.1100142775002767 0 0.37035748409374952 0.12191913965183331 0 0.37815432920295677 0.1109533992790251 0 0.37035748409374952 0.12191913965183331 0 0.37511757494472903 0.123072110010257 0 0.37035748409374952 0.12191913965183331 0 0.37169283910029199 0.12815165521797289 0 0.37511757494472903 0.123072110010257 0 0.36286728541875429 0.096218484345557367 0 0.37455144446510141 0.10193275935197101 0 0.37400882161871279 0.083619613235024759 0 0.35895517932347593 0.111093255932518 0 0.36901916600157941 0.1100142775002767 0 0.36286728541875429 0.096218484345557367 0 0.36901916600157941 0.1100142775002767 0 0.36286728541875429 0.096218484345557367 0 0.37455144446510141 0.10193275935197101 0 0.36901916600157941 0.1100142775002767 0 0.37455144446510141 0.10193275935197101 0 0.37815432920295677 0.1109533992790251 0 0.36286728541875429 0.096218484345557367 0 0.37400882161871279 0.083619613235024759 0 0.3570119940846016 0.07655140493877155 0 0.36286728541875429 0.096218484345557367 0 0.34376262838779448 0.090160381808613591 0 0.3570119940846016 0.07655140493877155 0 0.3285700774521132 0.069227507684709172 0 0.3570119940846016 0.07655140493877155 0 0.3540274811898364 0.057481719132925622 0 0.37400882161871279 0.083619613235024759 0 0.3570119940846016 0.07655140493877155 0 0.37883567044039879 0.062600723425798879 0 0.3570119940846016 0.07655140493877155 0 0.3540274811898364 0.057481719132925622 0 0.37883567044039879 0.062600723425798879 0 0.36884998715724038 0.048654936693666287 0 0.3540274811898364 0.057481719132925622 0 0.37883567044039879 0.062600723425798879 0 0.36884998715724038 0.048654936693666287 0 0.36096242836060388 0.032492650360987897 0 0.3540274811898364 0.057481719132925622 0 0.36884998715724038 0.048654936693666287 0 0.36096242836060388 0.032492650360987897 0 0.38366251926208489 0.041581833616573027 0 0.36096242836060388 0.032492650360987897 0 0.3540274811898364 0.057481719132925622 0 0.33343548863743699 0.044422356914628619 0 0.36096242836060388 0.032492650360987897 0 0.34150772405548108 0.025325389551572871 0 0.33343548863743699 0.044422356914628619 0 0.36096242836060388 0.032492650360987897 0 0.33343548863743699 0.044422356914628619 0 0.36934971840039982 0.01412264887454192 0 0.38120377069012762 0.010554394007073271 0 0.36845156083710567 -0.0060515153414843056 0 0.36934971840039982 0.01412264887454192 0 0.35188933009005469 0.012921367503740049 0 0.36845156083710567 -0.0060515153414843056 0 0.36096242836060388 0.032492650360987897 0 0.38848936808377088 0.020562943807347231 0 0.36096242836060388 0.032492650360987897 0 0.36934971840039982 0.01412264887454192 0 0.35188933009005469 0.012921367503740049 0 0.36096242836060388 0.032492650360987897 0 0.36934971840039982 0.01412264887454192 0 0.38848936808377088 0.020562943807347231 0 0.36096242836060388 0.032492650360987897 0 0.35188933009005469 0.012921367503740049 0 0.34150772405548108 0.025325389551572871 0 0.35188933009005469 0.012921367503740049 0 0.36845156083710567 -0.0060515153414843056 0 0.34114057903213352 -0.00099436838624600288 0 0.32992396985460443 0.01263339996306794 0 0.31382959722716158 0.0040627785689932028 0 0.34114057903213352 -0.00099436838624600288 0 0.35188933009005469 0.012921367503740049 0 0.32992396985460443 0.01263339996306794 0 0.34114057903213352 -0.00099436838624600288 0 0.32992396985460443 0.01263339996306794 0 0.34150772405548108 0.025325389551572871 0 0.32077834005703848 0.02927741351548363 0 0.35188933009005469 0.012921367503740049 0 0.32992396985460443 0.01263339996306794 0 0.34150772405548108 0.025325389551572871 0 0.32992396985460443 0.01263339996306794 0 0.32077834005703848 0.02927741351548363 0 0.31391214704691389 0.015516024244919061 0 0.32992396985460443 0.01263339996306794 0 0.31391214704691389 0.015516024244919061 0 0.31382959722716158 0.0040627785689932028 0 0.31382959722716158 0.0040627785689932028 0 0.34183048761771712 -0.0039986291523161147 0 0.31382959722716158 0.0040627785689932028 0 0.34114057903213352 -0.00099436838624600288 0 0.31382959722716158 0.0040627785689932028 0 0.30752965714041391 0.0058765203804442539 0 0.32194573769061952 -0.0077676308935595512 0 0.3285700774521132 0.069227507684709172 0 0.3540274811898364 0.057481719132925622 0 0.33343548863743699 0.044422356914628619 0 0.34150772405548108 0.025325389551572871 0 0.32077834005703848 0.02927741351548363 0 0.33343548863743699 0.044422356914628619 0 0.32077834005703848 0.02927741351548363 0 0.33343548863743699 0.044422356914628619 0 0.31337752651643169 0.04829463356080467 0 0.3285700774521132 0.069227507684709172 0 0.31337752651643169 0.04829463356080467 0 0.3285700774521132 0.069227507684709172 0 0.33343548863743699 0.044422356914628619 0 0.31337752651643169 0.04829463356080467 0 0.3285700774521132 0.069227507684709172 0 0.31337752651643169 0.04829463356080467 0 0.30262144479489489 0.063472250579192202 0 0.31337752651643169 0.04829463356080467 0 0.29190445549758398 0.041801895735158197 0 0.30262144479489489 0.063472250579192202 0 0.31337752651643169 0.04829463356080467 0 0.29818497558074802 0.027361759436901809 0 0.31337752651643169 0.04829463356080467 0 0.29190445549758398 0.041801895735158197 0 0.29818497558074802 0.027361759436901809 0 0.32077834005703848 0.02927741351548363 0 0.31337752651643169 0.04829463356080467 0 0.29818497558074802 0.027361759436901809 0 0.29190445549758398 0.041801895735158197 0 0.29818497558074802 0.027361759436901809 0 0.28149235485467722 0.028426230672526639 0 0.29190445549758398 0.041801895735158197 0 0.28562393541442521 0.056242032033416753 0 0.26921605588191849 0.040519794607793452 0 0.29190445549758398 0.041801895735158197 0 0.29818497558074802 0.027361759436901809 0 0.29190445549758398 0.041801895735158197 0 0.28562393541442521 0.056242032033416753 0 0.29190445549758398 0.041801895735158197 0 0.28562393541442521 0.056242032033416753 0 0.30262144479489489 0.063472250579192202 0 0.2978295874258669 0.0070254842464454832 0 0.30752965714041391 0.0058765203804442539 0 0.2978295874258669 0.0070254842464454832 0 0.30752965714041391 0.0058765203804442539 0 0.29396858594285019 -0.001032612778502764 0 0.31382959722716158 0.0040627785689932028 0 0.30752965714041391 0.0058765203804442539 0 0.31391214704691389 0.015516024244919061 0 0.30752965714041391 0.0058765203804442539 0 0.30398999522707459 0.014014891057021139 0 0.30752965714041391 0.0058765203804442539 0 0.30398999522707459 0.014014891057021139 0 0.31391214704691389 0.015516024244919061 0 0.31382959722716158 0.0040627785689932028 0 0.30752965714041391 0.0058765203804442539 0 0.2978295874258669 0.0070254842464454832 0 0.30752965714041391 0.0058765203804442539 0 0.30398999522707459 0.014014891057021139 0 0.2978295874258669 0.0070254842464454832 0 0.30398999522707459 0.014014891057021139 0 0.31391214704691389 0.015516024244919061 0 0.30398999522707459 0.014014891057021139 0 0.29818497558074802 0.027361759436901809 0 0.32077834005703848 0.02927741351548363 0 0.31391214704691389 0.015516024244919061 0 0.29818497558074802 0.027361759436901809 0 0.30398999522707459 0.014014891057021139 0 0.29818497558074802 0.027361759436901809 0 0.30398999522707459 0.014014891057021139 0 0.29818497558074802 0.027361759436901809 0 0.28690172397702512 0.011815266518820099 0 0.29818497558074802 0.027361759436901809 0 0.28149235485467722 0.028426230672526639 0 0.28690172397702512 0.011815266518820099 0 0.29818497558074802 0.027361759436901809 0 0.28690172397702512 0.011815266518820099 0 0.28690172397702512 0.011815266518820099 0 0.28687677889875068 0.001725005618485562 0 0.27267603034966698 -0.0077854348569651906 0 0.2978295874258669 0.0070254842464454832 0 0.30398999522707459 0.014014891057021139 0 0.28690172397702512 0.011815266518820099 0 0.2978295874258669 0.0070254842464454832 0 0.28690172397702512 0.011815266518820099 0 0.29376575238797509 0.0077779804816672602 0 0.2978295874258669 0.0070254842464454832 0 0.28690172397702512 0.011815266518820099 0 0.2978295874258669 0.0070254842464454832 0 0.28687677889875068 0.001725005618485562 0 0.29376575238797509 0.0077779804816672602 0 0.28690172397702512 0.011815266518820099 0 0.28687677889875068 0.001725005618485562 0 0.29376575238797509 0.0077779804816672602 0 0.2978295874258669 0.0070254842464454832 0 0.29376575238797509 0.0077779804816672602 0 0.28690172397702512 0.011815266518820099 0 0.26939274767164711 0.0040745279013861191 0 0.27267603034966698 -0.0077854348569651906 0 0.28690172397702512 0.011815266518820099 0 0.26440570944936082 0.018291830038140541 0 0.28690172397702512 0.011815266518820099 0 0.26939274767164711 0.0040745279013861191 0 0.26440570944936082 0.018291830038140541 0 0.28690172397702512 0.011815266518820099 0 0.27267603034966698 -0.0077854348569651906 0 0.28149235485467722 0.028426230672526639 0 0.26440570944936082 0.018291830038140541 0 0.26921605588191849 0.040519794607793452 0 0.28149235485467722 0.028426230672526639 0 0.28690172397702512 0.011815266518820099 0 0.26440570944936082 0.018291830038140541 0 0.24190969492169709 0.024768393557462999 0 0.26440570944936082 0.018291830038140541 0 0.2485551203034157 0.0102848256948572 0 0.24190969492169709 0.024768393557462999 0 0.26440570944936082 0.018291830038140541 0 0.24190969492169709 0.024768393557462999 0 0.26440570944936082 0.018291830038140541 0 0.25291178968964928 0.037547667281027097 0 0.2485551203034157 0.0102848256948572 0 0.26440570944936082 0.018291830038140541 0 0.25894279220913391 0.003459445712386486 0 0.26939274767164711 0.0040745279013861191 0 0.26440570944936082 0.018291830038140541 0 0.25894279220913391 0.003459445712386486 0 0.2485551203034157 0.0102848256948572 0 0.25894279220913391 0.003459445712386486 0 0.2479891295484222 -0.0022684572774312019 0 0.26939274767164711 0.0040745279013861191 0 0.25894279220913391 0.003459445712386486 0 0.26317147738524183 -0.0038637327990410169 0 0.28562393541442521 0.056242032033416753 0 0.27026274557325353 0.056119745337220257 0 0.26921605588191849 0.040519794607793452 0 0.28562393541442521 0.056242032033416753 0 0.27026274557325353 0.056119745337220257 0 0.27167623587568768 0.070814912161459326 0 0.29190445549758398 0.041801895735158197 0 0.28149235485467722 0.028426230672526639 0 0.26921605588191849 0.040519794607793452 0 0.26921605588191849 0.040519794607793452 0 0.25291178968964928 0.037547667281027097 0 0.25425538404847059 0.057624927133231481 0 0.26440570944936082 0.018291830038140541 0 0.26921605588191849 0.040519794607793452 0 0.25291178968964928 0.037547667281027097 0 0.27026274557325353 0.056119745337220257 0 0.26921605588191849 0.040519794607793452 0 0.25425538404847059 0.057624927133231481 0 0.27026274557325353 0.056119745337220257 0 0.25425538404847059 0.057624927133231481 0 0.27167623587568768 0.070814912161459326 0 0.25425538404847059 0.057624927133231481 0 0.27167623587568768 0.070814912161459326 0 0.25282536794073712 0.073272794188635415 0 0.26618138576237349 0.084067315497028519 0 0.27167623587568768 0.070814912161459326 0 0.25425538404847059 0.057624927133231481 0 0.25282536794073712 0.073272794188635415 0 0.27167623587568768 0.070814912161459326 0 0.25089272908716931 0.092982859712809007 0 0.26618138576237349 0.084067315497028519 0 0.27478568008848531 0.098770115700614086 0 0.25282536794073712 0.073272794188635415 0 0.25089272908716931 0.092982859712809007 0 0.26618138576237349 0.084067315497028519 0 0.26618138576237349 0.084067315497028519 0 0.28181267844286689 0.084890460016538952 0 0.27478568008848531 0.098770115700614086 0 0.26618138576237349 0.084067315497028519 0 0.27167623587568768 0.070814912161459326 0 0.28181267844286689 0.084890460016538952 0 0.27167623587568768 0.070814912161459326 0 0.2870451550563029 0.071072764848292863 0 0.28181267844286689 0.084890460016538952 0 0.2870451550563029 0.071072764848292863 0 0.29673814540623761 0.08207029957157172 0 0.30262144479489489 0.063472250579192202 0 0.28562393541442521 0.056242032033416753 0 0.2870451550563029 0.071072764848292863 0 0.30262144479489489 0.063472250579192202 0 0.28562393541442521 0.056242032033416753 0 0.27167623587568768 0.070814912161459326 0 0.2870451550563029 0.071072764848292863 0 0.2870451550563029 0.071072764848292863 0 0.28181267844286689 0.084890460016538952 0 0.29673814540623761 0.08207029957157172 0 0.28181267844286689 0.084890460016538952 0 0.29673814540623761 0.08207029957157172 0 0.29867863108980142 0.1045573716884185 0 0.31851483003181857 0.089032350953859848 0 0.29673814540623761 0.08207029957157172 0 0.30262144479489489 0.063472250579192202 0 0.31851483003181857 0.089032350953859848 0 0.29673814540623761 0.08207029957157172 0 0.29867863108980142 0.1045573716884185 0 0.2991284260398443 0.1226428311133997 0 0.29867863108980142 0.1045573716884185 0 0.31156748461804079 0.12537242366950921 0 0.32257158209111758 0.11034462767622299 0 0.29867863108980142 0.1045573716884185 0 0.31156748461804079 0.12537242366950921 0 0.32257158209111758 0.11034462767622299 0 0.29867863108980142 0.1045573716884185 0 0.29867863108980142 0.1045573716884185 0 0.27478568008848531 0.098770115700614086 0 0.29867863108980142 0.1045573716884185 0 0.27783009132198788 0.1122622341296569 0 0.27478568008848531 0.098770115700614086 0 0.28181267844286689 0.084890460016538952 0 0.29867863108980142 0.1045573716884185 0 0.27478568008848531 0.098770115700614086 0 0.2991284260398443 0.1226428311133997 0 0.29867863108980142 0.1045573716884185 0 0.28707615928971691 0.1208096883177448 0 0.29867863108980142 0.1045573716884185 0 0.28707615928971691 0.1208096883177448 0 0.27783009132198788 0.1122622341296569 0 0.2991284260398443 0.1226428311133997 0 0.28707615928971691 0.1208096883177448 0 0.29671346303214241 0.12961196471325551 0 0.26302281242735981 0.111198171579071 0 0.27515289576754948 0.1294134834453334 0 0.28707615928971691 0.1208096883177448 0 0.27783009132198788 0.1122622341296569 0 0.27515289576754948 0.1294134834453334 0 0.27783009132198788 0.1122622341296569 0 0.26302281242735981 0.111198171579071 0 0.27515289576754948 0.1294134834453334 0 0.26302281242735981 0.111198171579071 0 0.26007351669183237 0.1253037732749688 0 0.27515289576754948 0.1294134834453334 0 0.27783009132198788 0.1122622341296569 0 0.27478568008848531 0.098770115700614086 0 0.26302281242735981 0.111198171579071 0 0.25089272908716931 0.092982859712809007 0 0.26302281242735981 0.111198171579071 0 0.2496952397761337 0.1160329650041991 0 0.25089272908716931 0.092982859712809007 0 0.26302281242735981 0.111198171579071 0 0.25089272908716931 0.092982859712809007 0 0.27478568008848531 0.098770115700614086 0 0.26302281242735981 0.111198171579071 0 0.25089272908716931 0.092982859712809007 0 0.27478568008848531 0.098770115700614086 0 0.2471064899150823 0.133463067737116 0 0.2496952397761337 0.1160329650041991 0 0.26007351669183237 0.1253037732749688 0 0.2496952397761337 0.1160329650041991 0 0.26302281242735981 0.111198171579071 0 0.26007351669183237 0.1253037732749688 0 0.2471064899150823 0.133463067737116 0 0.26212056590251792 0.13860634342131159 0 0.25227113898158787 0.14916335431643429 0 0.2471064899150823 0.133463067737116 0 0.26212056590251792 0.13860634342131159 0 0.26007351669183237 0.1253037732749688 0 0.27515289576754948 0.1294134834453334 0 0.28728297910773942 0.14762879531159581 0 0.27515289576754948 0.1294134834453334 0 0.27408945104382287 0.14431330872834849 0 0.28728297910773942 0.14762879531159581 0 0.26212056590251792 0.13860634342131159 0 0.26007351669183237 0.1253037732749688 0 0.27515289576754948 0.1294134834453334 0 0.26212056590251792 0.13860634342131159 0 0.27515289576754948 0.1294134834453334 0 0.27408945104382287 0.14431330872834849 0 0.27408945104382287 0.14431330872834849 0 0.27716137478162928 0.15889869399298601 0 0.28728297910773942 0.14762879531159581 0 0.26212056590251792 0.13860634342131159 0 0.27408945104382287 0.14431330872834849 0 0.26493391480523859 0.14953421755469451 0 0.27408945104382287 0.14431330872834849 0 0.26493391480523859 0.14953421755469451 0 0.27716137478162928 0.15889869399298601 0 0.26493391480523859 0.14953421755469451 0 0.25227113898158787 0.14916335431643429 0 0.25784869618064837 0.16117632967822779 0 0.26212056590251792 0.13860634342131159 0 0.26493391480523859 0.14953421755469451 0 0.25227113898158787 0.14916335431643429 0 0.24342118736862761 0.16410875332904781 0 0.25227113898158787 0.14916335431643429 0 0.25784869618064837 0.16117632967822779 0 0.24342118736862761 0.16410875332904781 0 0.25784869618064837 0.16117632967822779 0 0.25421457754785548 0.17528354573505059 0 0.25784869618064837 0.16117632967822779 0 0.25421457754785548 0.17528354573505059 0 0.26798999978846311 0.16999528723303189 0 0.25421457754785548 0.17528354573505059 0 0.26688833639653942 0.18474270353269559 0 0.25113643024109478 0.19094495075723769 0 0.25421457754785548 0.17528354573505059 0 0.26688833639653942 0.18474270353269559 0 0.26798999978846311 0.16999528723303189 0 0.26688833639653942 0.18474270353269559 0 0.27899922157627788 0.1740987885831469 0 0.26798999978846311 0.16999528723303189 0 0.26688833639653942 0.18474270353269559 0 0.27899922157627788 0.1740987885831469 0 0.28165513110548479 0.1855437801635878 0 0.25784869618064837 0.16117632967822779 0 0.26798999978846311 0.16999528723303189 0 0.27716137478162928 0.15889869399298601 0 0.26493391480523859 0.14953421755469451 0 0.25784869618064837 0.16117632967822779 0 0.27716137478162928 0.15889869399298601 0 0.27899922157627788 0.1740987885831469 0 0.26798999978846311 0.16999528723303189 0 0.27716137478162928 0.15889869399298601 0 0.27716137478162928 0.15889869399298601 0 0.28838527260411961 0.16768800255462621 0 0.29642958482603432 0.1586868689393966 0 0.27899922157627788 0.1740987885831469 0 0.27716137478162928 0.15889869399298601 0 0.28838527260411961 0.16768800255462621 0 0.28838527260411961 0.16768800255462621 0 0.29642958482603432 0.1586868689393966 0 0.2990812202460017 0.16972771789266669 0 0.28165513110548479 0.1855437801635878 0 0.29057456817046978 0.17841330338653549 0 0.29442149412013968 0.19018242885082931 0 0.27899922157627788 0.1740987885831469 0 0.28165513110548479 0.1855437801635878 0 0.29057456817046978 0.17841330338653549 0 0.27899922157627788 0.1740987885831469 0 0.28838527260411961 0.16768800255462621 0 0.29057456817046978 0.17841330338653549 0 0.28838527260411961 0.16768800255462621 0 0.29057456817046978 0.17841330338653549 0 0.2990812202460017 0.16972771789266669 0 0.29057456817046978 0.17841330338653549 0 0.30085032626191438 0.18018504882584371 0 0.2990812202460017 0.16972771789266669 0 0.29057456817046978 0.17841330338653549 0 0.30085032626191438 0.18018504882584371 0 0.29442149412013968 0.19018242885082931 0 0.30085032626191438 0.18018504882584371 0 0.29442149412013968 0.19018242885082931 0 0.3080553032197017 0.1887293017033026 0 0.30085032626191438 0.18018504882584371 0 0.31056514142368619 0.1744383831500049 0 0.2990812202460017 0.16972771789266669 0 0.30085032626191438 0.18018504882584371 0 0.31056514142368619 0.1744383831500049 0 0.3080553032197017 0.1887293017033026 0 0.29642958482603432 0.1586868689393966 0 0.30747502192119819 0.16230778928688711 0 0.30151933753066762 0.14970454816787401 0 0.29642958482603432 0.1586868689393966 0 0.2990812202460017 0.16972771789266669 0 0.30747502192119819 0.16230778928688711 0 0.31056514142368619 0.1744383831500049 0 0.2990812202460017 0.16972771789266669 0 0.30747502192119819 0.16230778928688711 0 0.30747502192119819 0.16230778928688711 0 0.30151933753066762 0.14970454816787401 0 0.3129765302581462 0.1494710021231663 0 0.30151933753066762 0.14970454816787401 0 0.29882590938581222 0.14264553562683399 0 0.30718649112507979 0.14443915855455869 0 0.30151933753066762 0.14970454816787401 0 0.30718649112507979 0.14443915855455869 0 0.3129765302581462 0.1494710021231663 0 0.29882590938581222 0.14264553562683399 0 0.30718649112507979 0.14443915855455869 0 0.31229822968882548 0.13781435906697939 0 0.30718649112507979 0.14443915855455869 0 0.31229822968882548 0.13781435906697939 0 0.3129765302581462 0.1494710021231663 0 0.31229822968882548 0.13781435906697939 0 0.28502845800881449 0.13413009067030229 0 0.31229822968882548 0.13781435906697939 0 0.29671346303214241 0.12961196471325551 0 0.28502845800881449 0.13413009067030229 0 0.29882590938581222 0.14264553562683399 0 0.31229822968882548 0.13781435906697939 0 0.28502845800881449 0.13413009067030229 0 0.2991284260398443 0.1226428311133997 0 0.31156748461804079 0.12537242366950921 0 0.30438347209902411 0.12928289016934871 0 0.31229822968882548 0.13781435906697939 0 0.31156748461804079 0.12537242366950921 0 0.30438347209902411 0.12928289016934871 0 0.31229822968882548 0.13781435906697939 0 0.30438347209902411 0.12928289016934871 0 0.29671346303214241 0.12961196471325551 0 0.2991284260398443 0.1226428311133997 0 0.30438347209902411 0.12928289016934871 0 0.29671346303214241 0.12961196471325551 0 0.27515289576754948 0.1294134834453334 0 0.28502845800881449 0.13413009067030229 0 0.28728297910773942 0.14762879531159581 0 0.28707615928971691 0.1208096883177448 0 0.29671346303214241 0.12961196471325551 0 0.28502845800881449 0.13413009067030229 0 0.28707615928971691 0.1208096883177448 0 0.27515289576754948 0.1294134834453334 0 0.28502845800881449 0.13413009067030229 0 0.27716137478162928 0.15889869399298601 0 0.29642958482603432 0.1586868689393966 0 0.28728297910773942 0.14762879531159581 0 0.29642958482603432 0.1586868689393966 0 0.30151933753066762 0.14970454816787401 0 0.28728297910773942 0.14762879531159581 0 0.30151933753066762 0.14970454816787401 0 0.29882590938581222 0.14264553562683399 0 0.28728297910773942 0.14762879531159581 0 0.29882590938581222 0.14264553562683399 0 0.28502845800881449 0.13413009067030229 0 0.28728297910773942 0.14762879531159581 0 0.2459873280094696 0.23707215699401071 0 0.27381195783464701 0.24213208581531279 0 0.2459873280094696 0.23707215699401071 0 0.27381195783464701 0.24213208581531279 0 0.27283394916361492 0.24742619336605559 0 0.2459873280094696 0.23707215699401071 0 0.27283394916361492 0.24742619336605559 0 0.2459873280094696 0.23707215699401071 0 0.25877170878786238 0.25302463852503437 0 0.27283394916361492 0.24742619336605559 0 0.2459873280094696 0.23707215699401071 0 0.24763005152173001 0.25910176257370959 0 0.25877170878786238 0.25302463852503437 0 0.24332195560292991 0.2175119837032847 0 0.2459873280094696 0.23707215699401071 0 0.26947725056793032 0.22188821543332771 0 0.2459873280094696 0.23707215699401071 0 0.27381195783464701 0.24213208581531279 0 0.26947725056793032 0.22188821543332771 0 0.24332195560292991 0.2175119837032847 0 0.26947725056793032 0.22188821543332771 0 0.27381195783464701 0.24213208581531279 0 0.26947725056793032 0.22188821543332771 0 0.29563254553293061 0.22626444716337071 0 0.26947725056793032 0.22188821543332771 0 0.26383894902510108 0.20488334565775601 0 0.28252807440433819 0.20448568929014271 0 0.24828008483854189 0.20295934428596721 0 0.24332195560292991 0.2175119837032847 0 0.26383894902510108 0.20488334565775601 0 0.24332195560292991 0.2175119837032847 0 0.26947725056793032 0.22188821543332771 0 0.26383894902510108 0.20488334565775601 0 0.26688833639653942 0.18474270353269559 0 0.26383894902510108 0.20488334565775601 0 0.25113643024109478 0.19094495075723769 0 0.24828008483854189 0.20295934428596721 0 0.26383894902510108 0.20488334565775601 0 0.25113643024109478 0.19094495075723769 0 0.26688833639653942 0.18474270353269559 0 0.26383894902510108 0.20488334565775601 0 0.27369942293731819 0.19569303942008121 0 0.26383894902510108 0.20488334565775601 0 0.27369942293731819 0.19569303942008121 0 0.28252807440433819 0.20448568929014271 0 0.28165513110548479 0.1855437801635878 0 0.27369942293731819 0.19569303942008121 0 0.28252807440433819 0.20448568929014271 0 0.26688833639653942 0.18474270353269559 0 0.28165513110548479 0.1855437801635878 0 0.27369942293731819 0.19569303942008121 0 0.28165513110548479 0.1855437801635878 0 0.29442149412013968 0.19018242885082931 0 0.28252807440433819 0.20448568929014271 0 0.29442149412013968 0.19018242885082931 0 0.30168066081365352 0.2029210297493958 0 0.28252807440433819 0.20448568929014271 0 0.29442149412013968 0.19018242885082931 0 0.3080553032197017 0.1887293017033026 0 0.30168066081365352 0.2029210297493958 0 0.3080553032197017 0.1887293017033026 0 0.30168066081365352 0.2029210297493958 0 0.31674655555173881 0.19902842766084339 0 0.30168066081365352 0.2029210297493958 0 0.29563254553293061 0.22626444716337071 0 0.31377845179643721 0.21458276756770189 0 0.30168066081365352 0.2029210297493958 0 0.31377845179643721 0.21458276756770189 0 0.31674655555173881 0.19902842766084339 0 0.30168066081365352 0.2029210297493958 0 0.28252807440433819 0.20448568929014271 0 0.29563254553293061 0.22626444716337071 0 0.26947725056793032 0.22188821543332771 0 0.28252807440433819 0.20448568929014271 0 0.29563254553293061 0.22626444716337071 0 0.26947725056793032 0.22188821543332771 0 0.29563254553293061 0.22626444716337071 0 0.29563254553293061 0.22626444716337071 0 0.3217878404979308 0.23064067889341369 0 0.31377845179643721 0.21458276756770189 0 0.29563254553293061 0.22626444716337071 0 0.3217878404979308 0.23064067889341369 0 0.29563254553293061 0.22626444716337071 0 0.3016365876598241 0.24719201463661561 0 0.3217878404979308 0.23064067889341369 0 0.27381195783464701 0.24213208581531279 0 0.29563254553293061 0.22626444716337071 0 0.3016365876598241 0.24719201463661561 0 0.27381195783464701 0.24213208581531279 0 0.3016365876598241 0.24719201463661561 0 0.27381195783464701 0.24213208581531279 0 0.27283394916361492 0.24742619336605559 0 0.3016365876598241 0.24719201463661561 0 0.32946121748500129 0.25225194345791829 0 0.3217878404979308 0.23064067889341369 0 0.34556910970536658 0.23921390462248199 0 0.32946121748500129 0.25225194345791829 0 0.3016365876598241 0.24719201463661561 0 0.3217878404979308 0.23064067889341369 0 0.32946121748500129 0.25225194345791829 0 0.3016365876598241 0.24719201463661561 0 0.3217878404979308 0.23064067889341369 0 0.33460182177363001 0.21999966289075409 0 0.31377845179643721 0.21458276756770189 0 0.3217878404979308 0.23064067889341369 0 0.33460182177363001 0.21999966289075409 0 0.34556910970536658 0.23921390462248199 0 0.33460182177363001 0.21999966289075409 0 0.3278776259658665 0.2076214509036243 0 0.34419695055865512 0.20542025302645439 0 0.33460182177363001 0.21999966289075409 0 0.31377845179643721 0.21458276756770189 0 0.3278776259658665 0.2076214509036243 0 0.31377845179643721 0.21458276756770189 0 0.3278776259658665 0.2076214509036243 0 0.31674655555173881 0.19902842766084339 0 0.3278776259658665 0.2076214509036243 0 0.31674655555173881 0.19902842766084339 0 0.32893527636844411 0.194937601908272 0 0.3080553032197017 0.1887293017033026 0 0.31674655555173881 0.19902842766084339 0 0.32122387935841612 0.1836610840160959 0 0.31674655555173881 0.19902842766084339 0 0.32893527636844411 0.194937601908272 0 0.32122387935841612 0.1836610840160959 0 0.32893527636844411 0.194937601908272 0 0.34419695055865512 0.20542025302645439 0 0.33967484433078321 0.18584068278097349 0 0.32893527636844411 0.194937601908272 0 0.32122387935841612 0.1836610840160959 0 0.33967484433078321 0.18584068278097349 0 0.3278776259658665 0.2076214509036243 0 0.32893527636844411 0.194937601908272 0 0.34419695055865512 0.20542025302645439 0 0.35368837148756882 0.19334260062126429 0 0.34419695055865512 0.20542025302645439 0 0.33967484433078321 0.18584068278097349 0 0.35368837148756882 0.19334260062126429 0 0.36735815001373812 0.20351917688449569 0 0.34419695055865512 0.20542025302645439 0 0.36735815001373812 0.20351917688449569 0 0.36699199379966768 0.18628457072029089 0 0.38367398474104891 0.18179268717308689 0 0.35368837148756882 0.19334260062126429 0 0.36735815001373812 0.20351917688449569 0 0.36699199379966768 0.18628457072029089 0 0.36735815001373812 0.20351917688449569 0 0.35440095211752448 0.2225189223308488 0 0.37280151553833601 0.22024831863616021 0 0.36735815001373812 0.20351917688449569 0 0.37280151553833601 0.22024831863616021 0 0.38406378734192298 0.20777210545990279 0 0.36735815001373812 0.20351917688449569 0 0.34419695055865512 0.20542025302645439 0 0.35440095211752448 0.2225189223308488 0 0.33460182177363001 0.21999966289075409 0 0.34419695055865512 0.20542025302645439 0 0.35440095211752448 0.2225189223308488 0 0.35440095211752448 0.2225189223308488 0 0.37293454716760283 0.2396311516560117 0 0.34556910970536658 0.23921390462248199 0 0.33460182177363001 0.21999966289075409 0 0.35440095211752448 0.2225189223308488 0 0.34556910970536658 0.23921390462248199 0 0.35440095211752448 0.2225189223308488 0 0.37280151553833601 0.22024831863616021 0 0.37293454716760283 0.2396311516560117 0 0.32946121748500129 0.25225194345791829 0 0.35728584731017871 0.25731187227922109 0 0.34556910970536658 0.23921390462248199 0 0.35728584731017871 0.25731187227922109 0 0.37293454716760283 0.2396311516560117 0 0.34556910970536658 0.23921390462248199 0 0.33789665254535572 0.15537308983460499 0 0.33956800136883641 0.14149862746365649 0 0.32484504322689201 0.150618498474763 0 0.33789665254535572 0.15537308983460499 0 0.32484504322689201 0.150618498474763 0 0.32925575641373173 0.1625602653078303 0 0.33789665254535572 0.15537308983460499 0 0.33956800136883641 0.14149862746365649 0 0.35085012880757988 0.15547460686614431 0 0.31847051852819058 0.13586426255884801 0 0.34441400131097022 0.1288917011053414 0 0.32933038512457441 0.1245201253257071 0 0.31847051852819058 0.13586426255884801 0 0.34441400131097022 0.1288917011053414 0 0.33956800136883641 0.14149862746365649 0 0.31847051852819058 0.13586426255884801 0 0.34441400131097022 0.1288917011053414 0 0.31229822968882548 0.13781435906697939 0 0.33956800136883641 0.14149862746365649 0 0.31229822968882548 0.13781435906697939 0 0.33956800136883641 0.14149862746365649 0 0.31847051852819058 0.13586426255884801 0 0.32933038512457441 0.1245201253257071 0 0.3207185438207466 0.1263919595033525 0 0.31847051852819058 0.13586426255884801 0 0.31156748461804079 0.12537242366950921 0 0.3207185438207466 0.1263919595033525 0 0.31847051852819058 0.13586426255884801 0 0.31229822968882548 0.13781435906697939 0 0.31156748461804079 0.12537242366950921 0 0.31847051852819058 0.13586426255884801 0 0.31229822968882548 0.13781435906697939 0 0.33956800136883641 0.14149862746365649 0 0.32484504322689201 0.150618498474763 0 0.31229822968882548 0.13781435906697939 0 0.32484504322689201 0.150618498474763 0 0.3129765302581462 0.1494710021231663 0 0.32484504322689201 0.150618498474763 0 0.3129765302581462 0.1494710021231663 0 0.31772009751989111 0.15842714336302041 0 0.30747502192119819 0.16230778928688711 0 0.3129765302581462 0.1494710021231663 0 0.31772009751989111 0.15842714336302041 0 0.30747502192119819 0.16230778928688711 0 0.31772009751989111 0.15842714336302041 0 0.32080742045079952 0.16866520015094741 0 0.31056514142368619 0.1744383831500049 0 0.30747502192119819 0.16230778928688711 0 0.32080742045079952 0.16866520015094741 0 0.32080742045079952 0.16866520015094741 0 0.33131907253280629 0.1738795647946571 0 0.32925575641373173 0.1625602653078303 0 0.32484504322689201 0.150618498474763 0 0.31772009751989111 0.15842714336302041 0 0.32925575641373173 0.1625602653078303 0 0.31772009751989111 0.15842714336302041 0 0.32080742045079952 0.16866520015094741 0 0.32925575641373173 0.1625602653078303 0 0.31056514142368619 0.1744383831500049 0 0.3080553032197017 0.1887293017033026 0 0.32122387935841612 0.1836610840160959 0 0.31056514142368619 0.1744383831500049 0 0.32080742045079952 0.16866520015094741 0 0.32122387935841612 0.1836610840160959 0 0.32080742045079952 0.16866520015094741 0 0.32122387935841612 0.1836610840160959 0 0.33131907253280629 0.1738795647946571 0 0.33131907253280629 0.1738795647946571 0 0.33967484433078321 0.18584068278097349 0 0.34294625220664587 0.1683980952289891 0 0.32122387935841612 0.1836610840160959 0 0.33131907253280629 0.1738795647946571 0 0.33967484433078321 0.18584068278097349 0 0.33131907253280629 0.1738795647946571 0 0.32925575641373173 0.1625602653078303 0 0.34294625220664587 0.1683980952289891 0 0.33789665254535572 0.15537308983460499 0 0.32925575641373173 0.1625602653078303 0 0.34294625220664587 0.1683980952289891 0 0.34294625220664587 0.1683980952289891 0 0.35531914635495271 0.16562513299740311 0 0.35085012880757988 0.15547460686614431 0 0.33789665254535572 0.15537308983460499 0 0.34294625220664587 0.1683980952289891 0 0.35085012880757988 0.15547460686614431 0 0.34294625220664587 0.1683980952289891 0 0.35531914635495271 0.16562513299740311 0 0.35387202203434698 0.17803066266241011 0 0.35531914635495271 0.16562513299740311 0 0.35387202203434698 0.17803066266241011 0 0.36550295271590683 0.1690726970215666 0 0.35531914635495271 0.16562513299740311 0 0.36342437601028388 0.15714960320790561 0 0.35085012880757988 0.15547460686614431 0 0.33967484433078321 0.18584068278097349 0 0.34294625220664587 0.1683980952289891 0 0.35387202203434698 0.17803066266241011 0 0.35368837148756882 0.19334260062126429 0 0.33967484433078321 0.18584068278097349 0 0.35387202203434698 0.17803066266241011 0 0.35368837148756882 0.19334260062126429 0 0.35387202203434698 0.17803066266241011 0 0.36699199379966768 0.18628457072029089 0 0.37486327834919952 0.17324080595030389 0 0.36699199379966768 0.18628457072029089 0 0.36550295271590683 0.1690726970215666 0 0.35387202203434698 0.17803066266241011 0 0.36699199379966768 0.18628457072029089 0 0.36550295271590683 0.1690726970215666 0 0.36342437601028388 0.15714960320790561 0 0.36550295271590683 0.1690726970215666 0 0.38328418214017468 0.15581326888627101 0 0.37486327834919952 0.17324080595030389 0 0.36550295271590683 0.1690726970215666 0 0.38328418214017468 0.15581326888627101 0 0.35531914635495271 0.16562513299740311 0 0.36342437601028388 0.15714960320790561 0 0.36550295271590683 0.1690726970215666 0 0.36342437601028388 0.15714960320790561 0 0.36683777304884752 0.14518289586033359 0 0.38328418214017468 0.15581326888627101 0 0.36342437601028388 0.15714960320790561 0 0.36683777304884752 0.14518289586033359 0 0.35085012880757988 0.15547460686614431 0 0.33956800136883641 0.14149862746365649 0 0.36683777304884752 0.14518289586033359 0 0.33956800136883641 0.14149862746365649 0 0.36683777304884752 0.14518289586033359 0 0.35085012880757988 0.15547460686614431 0 0.37035748409374952 0.12191913965183331 0 0.34441400131097022 0.1288917011053414 0 0.33956800136883641 0.14149862746365649 0 0.34441400131097022 0.1288917011053414 0 0.35985245571789548 0.13256521397634091 0 0.37035748409374952 0.12191913965183331 0 0.34441400131097022 0.1288917011053414 0 0.35985245571789548 0.13256521397634091 0 0.33956800136883641 0.14149862746365649 0 0.36683777304884752 0.14518289586033359 0 0.35985245571789548 0.13256521397634091 0 0.36683777304884752 0.14518289586033359 0 0.37024230120578611 0.13336796185197819 0 0.3828943795393005 0.1298338505994551 0 0.36683777304884752 0.14518289586033359 0 0.35985245571789548 0.13256521397634091 0 0.37024230120578611 0.13336796185197819 0 0.35985245571789548 0.13256521397634091 0 0.37024230120578611 0.13336796185197819 0 0.37169283910029199 0.12815165521797289 0 0.37024230120578611 0.13336796185197819 0 0.37169283910029199 0.12815165521797289 0 0.3828943795393005 0.1298338505994551 0 0.37035748409374952 0.12191913965183331 0 0.35985245571789548 0.13256521397634091 0 0.37169283910029199 0.12815165521797289 0 0.37169283910029199 0.12815165521797289 0 0.3828943795393005 0.1298338505994551 0 0.37511757494472903 0.123072110010257 0 0.3828943795393005 0.1298338505994551 0 0.39816792615439378 0.12760480203569169 0 0.39443703245191569 0.14316330482662179 0 0.39816792615439378 0.12760480203569169 0 0.39443703245191569 0.14316330482662179 0 0.40813897635800228 0.13879757292358971 0 0.40355831469332321 0.14905262061052801 0 0.39443703245191569 0.14316330482662179 0 0.39831584160420508 0.1589856433255693 0 0.39443703245191569 0.14316330482662179 0 0.38328418214017468 0.15581326888627101 0 0.39831584160420508 0.1589856433255693 0 0.40355831469332321 0.14905262061052801 0 0.39831584160420508 0.1589856433255693 0 0.41313230378900101 0.1549252007201132 0 0.40355831469332321 0.14905262061052801 0 0.39443703245191569 0.14316330482662179 0 0.40813897635800228 0.13879757292358971 0 0.3828943795393005 0.1298338505994551 0 0.39443703245191569 0.14316330482662179 0 0.38328418214017468 0.15581326888627101 0 0.36683777304884752 0.14518289586033359 0 0.3828943795393005 0.1298338505994551 0 0.38328418214017468 0.15581326888627101 0 0.3828943795393005 0.1298338505994551 0 0.38328418214017468 0.15581326888627101 0 0.38328418214017468 0.15581326888627101 0 0.38367398474104891 0.18179268717308689 0 0.37486327834919952 0.17324080595030389 0 0.38328418214017468 0.15581326888627101 0 0.38367398474104891 0.18179268717308689 0 0.38328418214017468 0.15581326888627101 0 0.38367398474104891 0.18179268717308689 0 0.39626047774709761 0.17356948839180519 0 0.37486327834919952 0.17324080595030389 0 0.36699199379966768 0.18628457072029089 0 0.38367398474104891 0.18179268717308689 0 0.38367398474104891 0.18179268717308689 0 0.39626047774709761 0.17356948839180519 0 0.39402839101454218 0.18926537882500041 0 0.41201559310989622 0.1717711692121752 0 0.39402839101454218 0.18926537882500041 0 0.40911253846621609 0.1927355572029634 0 0.41201559310989622 0.1717711692121752 0 0.39402839101454218 0.18926537882500041 0 0.39626047774709761 0.17356948839180519 0 0.41201559310989622 0.1717711692121752 0 0.39402839101454218 0.18926537882500041 0 0.38328418214017468 0.15581326888627101 0 0.39626047774709761 0.17356948839180519 0 0.39831584160420508 0.1589856433255693 0 0.39626047774709761 0.17356948839180519 0 0.39831584160420508 0.1589856433255693 0 0.41201559310989622 0.1717711692121752 0 0.39831584160420508 0.1589856433255693 0 0.41201559310989622 0.1717711692121752 0 0.41313230378900101 0.1549252007201132 0 0.41201559310989622 0.1717711692121752 0 0.43000279520525009 0.1542769595993502 0 0.41201559310989622 0.1717711692121752 0 0.43000279520525009 0.1542769595993502 0 0.41313230378900101 0.1549252007201132 0 0.41201559310989622 0.1717711692121752 0 0.42496471626184562 0.18478050847474101 0 0.40911253846621609 0.1927355572029634 0 0.42496471626184562 0.18478050847474101 0 0.42886790669691233 0.1683305758749721 0 0.44390934378202151 0.1869955505783234 0 0.41201559310989622 0.1717711692121752 0 0.42496471626184562 0.18478050847474101 0 0.42886790669691233 0.1683305758749721 0 0.42886790669691233 0.1683305758749721 0 0.44390934378202151 0.1869955505783234 0 0.41201559310989622 0.1717711692121752 0 0.42886790669691233 0.1683305758749721 0 0.43000279520525009 0.1542769595993502 0 0.42886790669691233 0.1683305758749721 0 0.43000279520525009 0.1542769595993502 0 0.44221599041969212 0.16183818438693329 0 0.43000279520525009 0.1542769595993502 0 0.42332430940078591 0.1392784445062823 0 0.4479899973006039 0.1367827499865252 0 0.43000279520525009 0.1542769595993502 0 0.42332430940078591 0.1392784445062823 0 0.41313230378900101 0.1549252007201132 0 0.429848517254516 0.1255917524949702 0 0.42332430940078591 0.1392784445062823 0 0.41384889774502859 0.12525543762671809 0 0.429848517254516 0.1255917524949702 0 0.42332430940078591 0.1392784445062823 0 0.4479899973006039 0.1367827499865252 0 0.39816792615439378 0.12760480203569169 0 0.41384889774502859 0.12525543762671809 0 0.40813897635800228 0.13879757292358971 0 0.42332430940078591 0.1392784445062823 0 0.41384889774502859 0.12525543762671809 0 0.40813897635800228 0.13879757292358971 0 0.40355831469332321 0.14905262061052801 0 0.40813897635800228 0.13879757292358971 0 0.41313230378900101 0.1549252007201132 0 0.42332430940078591 0.1392784445062823 0 0.40813897635800228 0.13879757292358971 0 0.41313230378900101 0.1549252007201132 0 0.38511047713535562 0.2623718011005241 0 0.37293454716760283 0.2396311516560117 0 0.39933451681408499 0.24222051247515669 0 0.37293454716760283 0.2396311516560117 0 0.39933451681408499 0.24222051247515669 0 0.39045396999845727 0.2225958518425987 0 0.37280151553833601 0.22024831863616021 0 0.37293454716760283 0.2396311516560117 0 0.39045396999845727 0.2225958518425987 0 0.39933451681408499 0.24222051247515669 0 0.39045396999845727 0.2225958518425987 0 0.41502085935247712 0.2184770015477572 0 0.39045396999845727 0.2225958518425987 0 0.39965272480706299 0.2061417744041574 0 0.38406378734192298 0.20777210545990279 0 0.39045396999845727 0.2225958518425987 0 0.39965272480706299 0.2061417744041574 0 0.41502085935247712 0.2184770015477572 0 0.37280151553833601 0.22024831863616021 0 0.39045396999845727 0.2225958518425987 0 0.38406378734192298 0.20777210545990279 0 0.36735815001373812 0.20351917688449569 0 0.38367398474104891 0.18179268717308689 0 0.38406378734192298 0.20777210545990279 0 0.38367398474104891 0.18179268717308689 0 0.38406378734192298 0.20777210545990279 0 0.38367398474104891 0.18179268717308689 0 0.38406378734192298 0.20777210545990279 0 0.39402839101454218 0.18926537882500041 0 0.39965272480706299 0.2061417744041574 0 0.38406378734192298 0.20777210545990279 0 0.39402839101454218 0.18926537882500041 0 0.39965272480706299 0.2061417744041574 0 0.39402839101454218 0.18926537882500041 0 0.40911253846621609 0.1927355572029634 0 0.42496471626184562 0.18478050847474101 0 0.40911253846621609 0.1927355572029634 0 0.43133039545531981 0.20312972213906441 0 0.42496471626184562 0.18478050847474101 0 0.43133039545531981 0.20312972213906441 0 0.44390934378202151 0.1869955505783234 0 0.43133039545531981 0.20312972213906441 0 0.41502085935247712 0.2184770015477572 0 0.43839838412078092 0.2247149777195776 0 0.40911253846621609 0.1927355572029634 0 0.41502085935247712 0.2184770015477572 0 0.40911253846621609 0.1927355572029634 0 0.43133039545531981 0.20312972213906441 0 0.41502085935247712 0.2184770015477572 0 0.39965272480706299 0.2061417744041574 0 0.40911253846621609 0.1927355572029634 0 0.41502085935247712 0.2184770015477572 0 0.41502085935247712 0.2184770015477572 0 0.42092918023873821 0.24421844589255121 0 0.41502085935247712 0.2184770015477572 0 0.42092918023873821 0.24421844589255121 0 0.43839838412078092 0.2247149777195776 0 0.42092918023873821 0.24421844589255121 0 0.44272868649399699 0.2414724783298311 0 0.43839838412078092 0.2247149777195776 0 0.44089414042045799 0.25771217685885472 0 0.42092918023873821 0.24421844589255121 0 0.44272868649399699 0.2414724783298311 0 0.39933451681408499 0.24222051247515669 0 0.41502085935247712 0.2184770015477572 0 0.42092918023873821 0.24421844589255121 0 0.46750550623703407 0.25349570762290419 0 0.4569230610569987 0.24819013429900669 0 0.47278153852907701 0.24486280325581439 0 0.4569230610569987 0.24819013429900669 0 0.45723446189795819 0.23161380727854039 0 0.47278153852907701 0.24486280325581439 0 0.4569230610569987 0.24819013429900669 0 0.44272868649399699 0.2414724783298311 0 0.45723446189795819 0.23161380727854039 0 0.44089414042045799 0.25771217685885472 0 0.4569230610569987 0.24819013429900669 0 0.44272868649399699 0.2414724783298311 0 0.43839838412078092 0.2247149777195776 0 0.45723446189795819 0.23161380727854039 0 0.45895078086713059 0.20566052528167461 0 0.44272868649399699 0.2414724783298311 0 0.43839838412078092 0.2247149777195776 0 0.45723446189795819 0.23161380727854039 0 0.45723446189795819 0.23161380727854039 0 0.47399221795223978 0.22432549998502579 0 0.47278153852907701 0.24486280325581439 0 0.45723446189795819 0.23161380727854039 0 0.45895078086713059 0.20566052528167461 0 0.47399221795223978 0.22432549998502579 0 0.45895078086713059 0.20566052528167461 0 0.47399221795223978 0.22432549998502579 0 0.43133039545531981 0.20312972213906441 0 0.43839838412078092 0.2247149777195776 0 0.45895078086713059 0.20566052528167461 0 0.43133039545531981 0.20312972213906441 0 0.45895078086713059 0.20566052528167461 0 0.44390934378202151 0.1869955505783234 0 0.45895078086713059 0.20566052528167461 0 0.44390934378202151 0.1869955505783234 0 0.45895078086713059 0.20566052528167461 0 0.44390934378202151 0.1869955505783234 0 0.47471792995388828 0.18435875067661631 0 0.45895078086713059 0.20566052528167461 0 0.47967819324703809 0.2043502093285503 0 0.47471792995388828 0.18435875067661631 0 0.5 0.20006456793442701 0 0.47967819324703809 0.2043502093285503 0 0.47471792995388828 0.18435875067661631 0 0.5 0.20006456793442701 0 0.48813206750880261 0.21755351138133391 0 0.47967819324703809 0.2043502093285503 0 0.5 0.20006456793442701 0 0.48813206750880261 0.21755351138133391 0 0.5 0.22779789293978581 0 0.45895078086713059 0.20566052528167461 0 0.47967819324703809 0.2043502093285503 0 0.47399221795223978 0.22432549998502579 0 0.48813206750880261 0.21755351138133391 0 0.47967819324703809 0.2043502093285503 0 0.47399221795223978 0.22432549998502579 0 0.48813206750880261 0.21755351138133391 0 0.47399221795223978 0.22432549998502579 0 0.48903365503734891 0.24299047468837701 0 0.47399221795223978 0.22432549998502579 0 0.48903365503734891 0.24299047468837701 0 0.48813206750880261 0.21755351138133391 0 0.5 0.22779789293978581 0 0.48903365503734891 0.24299047468837701 0 0.5 0.25553121794514477 0 0.5 0.22779789293978581 0 0.48903365503734891 0.24299047468837701 0 0.48489893488970792 0.25686202981026901 0 0.48903365503734891 0.24299047468837701 0 0.47278153852907701 0.24486280325581439 0 0.47399221795223978 0.22432549998502579 0 0.48903365503734891 0.24299047468837701 0 0.47278153852907701 0.24486280325581439 0 0.4479899973006039 0.1367827499865252 0 0.46030990911367259 0.16280508589549539 0 0.47332178232586258 0.14483424446409521 0 0.4479899973006039 0.1367827499865252 0 0.47332178232586258 0.14483424446409521 0 0.46597719939595772 0.11928854037370019 0 0.4479899973006039 0.1367827499865252 0 0.46597719939595772 0.11928854037370019 0 0.429848517254516 0.1255917524949702 0 0.4479899973006039 0.1367827499865252 0 0.44441253831551758 0.1138689947079024 0 0.43000279520525009 0.1542769595993502 0 0.4479899973006039 0.1367827499865252 0 0.44221599041969212 0.16183818438693329 0 0.43000279520525009 0.1542769595993502 0 0.4479899973006039 0.1367827499865252 0 0.4479899973006039 0.1367827499865252 0 0.44221599041969212 0.16183818438693329 0 0.46030990911367259 0.16280508589549539 0 0.44221599041969212 0.16183818438693329 0 0.44390934378202151 0.1869955505783234 0 0.46030990911367259 0.16280508589549539 0 0.42886790669691233 0.1683305758749721 0 0.44221599041969212 0.16183818438693329 0 0.44390934378202151 0.1869955505783234 0 0.44390934378202151 0.1869955505783234 0 0.46030990911367259 0.16280508589549539 0 0.47471792995388828 0.18435875067661631 0 0.46030990911367259 0.16280508589549539 0 0.48162298028441808 0.16304382698580119 0 0.47332178232586258 0.14483424446409521 0 0.46030990911367259 0.16280508589549539 0 0.48162298028441808 0.16304382698580119 0 0.47471792995388828 0.18435875067661631 0 0.5 0.20006456793442701 0 0.47471792995388828 0.18435875067661631 0 0.5 0.17233124292906801 0 0.48162298028441808 0.16304382698580119 0 0.47471792995388828 0.18435875067661631 0 0.5 0.17233124292906801 0 0.48162298028441808 0.16304382698580119 0 0.5 0.17233124292906801 0 0.5 0.14459791792370899 0 0.48162298028441808 0.16304382698580119 0 0.5 0.14459791792370899 0 0.47332178232586258 0.14483424446409521 0 0.47332178232586258 0.14483424446409521 0 0.48369720064842647 0.1280225697211729 0 0.46597719939595772 0.11928854037370019 0 0.5 0.14459791792370899 0 0.48369720064842647 0.1280225697211729 0 0.5 0.1168645929183502 0 0.5 0.14459791792370899 0 0.47332178232586258 0.14483424446409521 0 0.48369720064842647 0.1280225697211729 0 0.48369720064842647 0.1280225697211729 0 0.5 0.1168645929183502 0 0.47911227232856668 0.09907818001940101 0 0.5 0.1168645929183502 0 0.47911227232856668 0.09907818001940101 0 0.5 0.089131267912991197 0 0.48369720064842647 0.1280225697211729 0 0.47911227232856668 0.09907818001940101 0 0.46597719939595772 0.11928854037370019 0 0.48592231416185638 0.0752646054103117 0 0.5 0.089131267912991197 0 0.5 0.06139794290763223 0 0.47911227232856668 0.09907818001940101 0 0.48592231416185638 0.0752646054103117 0 0.5 0.089131267912991197 0 0.47911227232856668 0.09907818001940101 0 0.48592231416185638 0.0752646054103117 0 0.46599422920766509 0.071585542922595516 0 0.48592231416185638 0.0752646054103117 0 0.46599422920766509 0.071585542922595516 0 0.47969083044660421 0.050503904472553283 0 0.47911227232856668 0.09907818001940101 0 0.46599422920766509 0.071585542922595516 0 0.45660210543223351 0.096238293732025512 0 0.46599422920766509 0.071585542922595516 0 0.44319262383460789 0.070531660330671375 0 0.45660210543223351 0.096238293732025512 0 0.44319262383460789 0.070531660330671375 0 0.45660210543223351 0.096238293732025512 0 0.43559540491542181 0.095634413362833848 0 0.46597719939595772 0.11928854037370019 0 0.45660210543223351 0.096238293732025512 0 0.44441253831551758 0.1138689947079024 0 0.47911227232856668 0.09907818001940101 0 0.46597719939595772 0.11928854037370019 0 0.45660210543223351 0.096238293732025512 0 0.45660210543223351 0.096238293732025512 0 0.44441253831551758 0.1138689947079024 0 0.43559540491542181 0.095634413362833848 0 0.4479899973006039 0.1367827499865252 0 0.46597719939595772 0.11928854037370019 0 0.44441253831551758 0.1138689947079024 0 0.429848517254516 0.1255917524949702 0 0.44441253831551758 0.1138689947079024 0 0.42416274095453271 0.1101558860989641 0 0.429848517254516 0.1255917524949702 0 0.41384889774502859 0.12525543762671809 0 0.42416274095453271 0.1101558860989641 0 0.41384889774502859 0.12525543762671809 0 0.42416274095453271 0.1101558860989641 0 0.40716605829359193 0.1120264799895512 0 0.39816792615439378 0.12760480203569169 0 0.41384889774502859 0.12525543762671809 0 0.40716605829359193 0.1120264799895512 0 0.40716605829359193 0.1120264799895512 0 0.41525133388600899 0.093407911538609431 0 0.39656535672550852 0.092974877928873267 0 0.42416274095453271 0.1101558860989641 0 0.40716605829359193 0.1120264799895512 0 0.41525133388600899 0.093407911538609431 0 0.42416274095453271 0.1101558860989641 0 0.43559540491542181 0.095634413362833848 0 0.41525133388600899 0.093407911538609431 0 0.44441253831551758 0.1138689947079024 0 0.42416274095453271 0.1101558860989641 0 0.43559540491542181 0.095634413362833848 0 0.43559540491542181 0.095634413362833848 0 0.4195547633014628 0.073570994746074828 0 0.41525133388600899 0.093407911538609431 0 0.43559540491542181 0.095634413362833848 0 0.4195547633014628 0.073570994746074828 0 0.44319262383460789 0.070531660330671375 0 0.43559540491542181 0.095634413362833848 0 0.4195547633014628 0.073570994746074828 0 0.44319262383460789 0.070531660330671375 0 0.4195547633014628 0.073570994746074828 0 0.42728191937221521 0.050914286525162993 0 0.4195547633014628 0.073570994746074828 0 0.39780951386322527 0.071813900777571313 0 0.40351412168750378 0.051507576129315842 0 0.4195547633014628 0.073570994746074828 0 0.40351412168750378 0.051507576129315842 0 0.4195547633014628 0.073570994746074828 0 0.41525133388600899 0.093407911538609431 0 0.39780951386322527 0.071813900777571313 0 0.41525133388600899 0.093407911538609431 0 0.39656535672550852 0.092974877928873267 0 0.39780951386322527 0.071813900777571313 0 0.37400882161871279 0.083619613235024759 0 0.37883567044039879 0.062600723425798879 0 0.39780951386322527 0.071813900777571313 0 0.37883567044039879 0.062600723425798879 0 0.3909554563133032 0.056876008487314757 0 0.37400882161871279 0.083619613235024759 0 0.39780951386322527 0.071813900777571313 0 0.37883567044039879 0.062600723425798879 0 0.37400882161871279 0.083619613235024759 0 0.39656535672550852 0.092974877928873267 0 0.38808178026068268 0.10392801007035141 0 0.37400882161871279 0.083619613235024759 0 0.39656535672550852 0.092974877928873267 0 0.39780951386322527 0.071813900777571313 0 0.37455144446510141 0.10193275935197101 0 0.37400882161871279 0.083619613235024759 0 0.38808178026068268 0.10392801007035141 0 0.37455144446510141 0.10193275935197101 0 0.38808178026068268 0.10392801007035141 0 0.37815432920295677 0.1109533992790251 0 0.37035748409374952 0.12191913965183331 0 0.38876177119367089 0.116972809820693 0 0.37035748409374952 0.12191913965183331 0 0.37511757494472903 0.123072110010257 0 0.38876177119367089 0.116972809820693 0 0.37035748409374952 0.12191913965183331 0 0.37815432920295677 0.1109533992790251 0 0.38876177119367089 0.116972809820693 0 0.3828943795393005 0.1298338505994551 0 0.37511757494472903 0.123072110010257 0 0.38876177119367089 0.116972809820693 0 0.3828943795393005 0.1298338505994551 0 0.39816792615439378 0.12760480203569169 0 0.38876177119367089 0.116972809820693 0 0.38808178026068268 0.10392801007035141 0 0.37815432920295677 0.1109533992790251 0 0.38876177119367089 0.116972809820693 0 0.40716605829359193 0.1120264799895512 0 0.38876177119367089 0.116972809820693 0 0.39816792615439378 0.12760480203569169 0 0.40716605829359193 0.1120264799895512 0 0.38876177119367089 0.116972809820693 0 0.40716605829359193 0.1120264799895512 0 0.38808178026068268 0.10392801007035141 0 0.38876177119367089 0.116972809820693 0 0.40716605829359193 0.1120264799895512 0 0.39656535672550852 0.092974877928873267 0 0.38808178026068268 0.10392801007035141 0 0.39895333728429933 0.027539300906755181 0 0.38848936808377088 0.020562943807347231 0 0.4122691541308795 0.010257189796790951 0 0.39895333728429933 0.027539300906755181 0 0.38848936808377088 0.020562943807347231 0 0.38747348007354487 0.029444157512556919 0 0.39212595536292472 0.0047271407553128551 0 0.4122691541308795 0.010257189796790951 0 0.40542454288086849 -0.004070234290400764 0 0.38848936808377088 0.020562943807347231 0 0.4122691541308795 0.010257189796790951 0 0.39212595536292472 0.0047271407553128551 0 0.38848936808377088 0.020562943807347231 0 0.4122691541308795 0.010257189796790951 0 0.39212595536292472 0.0047271407553128551 0 0.38120377069012762 0.010554394007073271 0 0.36845156083710567 -0.0060515153414843056 0 0.36934971840039982 0.01412264887454192 0 0.38120377069012762 0.010554394007073271 0 0.38848936808377088 0.020562943807347231 0 0.39212595536292472 0.0047271407553128551 0 0.38120377069012762 0.010554394007073271 0 0.38848936808377088 0.020562943807347231 0 0.39212595536292472 0.0047271407553128551 0 0.38848936808377088 0.020562943807347231 0 0.38848936808377088 0.020562943807347231 0 0.38747348007354487 0.029444157512556919 0 0.38366251926208489 0.041581833616573027 0 0.38848936808377088 0.020562943807347231 0 0.38366251926208489 0.041581833616573027 0 0.36096242836060388 0.032492650360987897 0 0.38848936808377088 0.020562943807347231 0 0.38366251926208489 0.041581833616573027 0 0.37883567044039879 0.062600723425798879 0 0.38366251926208489 0.041581833616573027 0 0.3909554563133032 0.056876008487314757 0 0.37883567044039879 0.062600723425798879 0 0.38366251926208489 0.041581833616573027 0 0.36884998715724038 0.048654936693666287 0 0.37883567044039879 0.062600723425798879 0 0.38366251926208489 0.041581833616573027 0 0.38366251926208489 0.041581833616573027 0 0.40351412168750378 0.051507576129315842 0 0.3909554563133032 0.056876008487314757 0 0.39780951386322527 0.071813900777571313 0 0.40351412168750378 0.051507576129315842 0 0.3909554563133032 0.056876008487314757 0 0.38747348007354487 0.029444157512556919 0 0.40351412168750378 0.051507576129315842 0 0.39895333728429933 0.027539300906755181 0 0.40351412168750378 0.051507576129315842 0 0.40867742594100492 0.02913313449165824 0 0.39895333728429933 0.027539300906755181 0 0.38747348007354487 0.029444157512556919 0 0.40351412168750378 0.051507576129315842 0 0.38747348007354487 0.029444157512556919 0 0.38366251926208489 0.041581833616573027 0 0.40351412168750378 0.051507576129315842 0 0.40351412168750378 0.051507576129315842 0 0.41712069737947322 0.039684074088297272 0 0.40867742594100492 0.02913313449165824 0 0.41712069737947322 0.039684074088297272 0 0.42900932251716922 0.027181299207052031 0 0.40867742594100492 0.02913313449165824 0 0.40351412168750378 0.051507576129315842 0 0.41712069737947322 0.039684074088297272 0 0.42728191937221521 0.050914286525162993 0 0.4195547633014628 0.073570994746074828 0 0.40351412168750378 0.051507576129315842 0 0.42728191937221521 0.050914286525162993 0 0.41712069737947322 0.039684074088297272 0 0.42728191937221521 0.050914286525162993 0 0.42900932251716922 0.027181299207052031 0 0.42728191937221521 0.050914286525162993 0 0.42900932251716922 0.027181299207052031 0 0.45357816737839107 0.043281393992262968 0 0.42900932251716922 0.027181299207052031 0 0.40867742594100492 0.02913313449165824 0 0.4122691541308795 0.010257189796790951 0 0.39895333728429933 0.027539300906755181 0 0.40867742594100492 0.02913313449165824 0 0.4122691541308795 0.010257189796790951 0 0.4122691541308795 0.010257189796790951 0 0.42733427856619571 -0.0085863840744332814 0 0.43604894017798812 -4.8564213765240817e-05 0 0.42900932251716922 0.027181299207052031 0 0.4122691541308795 0.010257189796790951 0 0.43604894017798812 -4.8564213765240817e-05 0 0.4122691541308795 0.010257189796790951 0 0.43604894017798812 -4.8564213765240817e-05 0 0.45021491583924189 0.016350560368503721 0 0.45982872622509668 -0.01035431822432146 0 0.43604894017798812 -4.8564213765240817e-05 0 0.42900932251716922 0.027181299207052031 0 0.45021491583924189 0.016350560368503721 0 0.43604894017798812 -4.8564213765240817e-05 0 0.42900932251716922 0.027181299207052031 0 0.45021491583924189 0.016350560368503721 0 0.45357816737839107 0.043281393992262968 0 0.45021491583924189 0.016350560368503721 0 0.45357816737839107 0.043281393992262968 0 0.47265027193171238 0.017829323700243871 0 0.45021491583924189 0.016350560368503721 0 0.47265027193171238 0.017829323700243871 0 0.45982872622509668 -0.01035431822432146 0 0.45357816737839107 0.043281393992262968 0 0.47969083044660421 0.050503904472553283 0 0.47265027193171238 0.017829323700243871 0 0.44319262383460789 0.070531660330671375 0 0.42728191937221521 0.050914286525162993 0 0.45357816737839107 0.043281393992262968 0 0.46599422920766509 0.071585542922595516 0 0.44319262383460789 0.070531660330671375 0 0.45357816737839107 0.043281393992262968 0 0.46599422920766509 0.071585542922595516 0 0.45357816737839107 0.043281393992262968 0 0.47969083044660421 0.050503904472553283 0 0.47969083044660421 0.050503904472553283 0 0.5 0.033664617902273368 0 0.47265027193171238 0.017829323700243871 0 0.48592231416185638 0.0752646054103117 0 0.47969083044660421 0.050503904472553283 0 0.5 0.06139794290763223 0 0.47969083044660421 0.050503904472553283 0 0.5 0.033664617902273368 0 0.5 0.06139794290763223 0 0.5 0.033664617902273368 0 0.47265027193171238 0.017829323700243871 0 0.5 0.0059312928969145204 0 0.47265027193171238 0.017829323700243871 0 0.5 0.0059312928969145204 0 0.48261795830076532 -0.0084137270416950408 0 0.5 0.0059312928969145204 0 0.48261795830076532 -0.0084137270416950408 0 0.5 -0.021802032108444391 0 0.47265027193171238 0.017829323700243871 0 0.48261795830076532 -0.0084137270416950408 0 0.45982872622509668 -0.01035431822432146 0 0.48261795830076532 -0.0084137270416950408 0 0.48385521188952352 -0.03103713942335571 0 0.45982872622509668 -0.01035431822432146 0 0.48385521188952352 -0.03103713942335571 0 0.46768790053651399 -0.040232759786602873 0 0.45982872622509668 -0.01035431822432146 0 0.48261795830076532 -0.0084137270416950408 0 0.48385521188952352 -0.03103713942335571 0 0.5 -0.021802032108444391 0 0.48385521188952352 -0.03103713942335571 0 0.49518245524492172 -0.045789595090724652 0 0.49482530481253351 -0.04804557135493729 0 0.5 -0.021802032108444391 0 0.49518245524492172 -0.045789595090724652 0 0.49999999999998263 -0.049535357113803247 0 0.48385521188952352 -0.03103713942335571 0 0.5 -0.021802032108444391 0 0.49518245524492172 -0.045789595090724652 0 0.49482530481253351 -0.04804557135493729 0 0.47636674367150789 -0.060588545727567042 0 0.49016972248203172 -0.07745302065780417 0 0.49999999999998263 -0.049535357113803247 0 0.49482530481253351 -0.04804557135493729 0 0.49016972248203172 -0.07745302065780417 0 0.49999999999998263 -0.049535357113803247 0 0.49482530481253351 -0.04804557135493729 0 0.49518245524492172 -0.045789595090724652 0 0.49999999999998263 -0.049535357113803247 0 0.49482530481253351 -0.04804557135493729 0 0.49518245524492172 -0.045789595090724652 0 0.49482530481253351 -0.04804557135493729 0 0.49482530481253351 -0.04804557135493729 0 0.47636674367150789 -0.060588545727567042 0 0.46768790053651399 -0.040232759786602873 0 0.49482530481253351 -0.04804557135493729 0 0.46768790053651399 -0.040232759786602873 0 0.48385521188952352 -0.03103713942335571 0 0.49482530481253351 -0.04804557135493729 0 0.46768790053651399 -0.040232759786602873 0 0.46768790053651399 -0.040232759786602873 0 0.44055049626049481 -0.03241994821826754 0 0.47636674367150789 -0.060588545727567042 0 0.46768790053651399 -0.040232759786602873 0 0.44971823816913109 -0.058611894661768998 0 0.46768790053651399 -0.040232759786602873 0 0.44971823816913109 -0.058611894661768998 0 0.44055049626049481 -0.03241994821826754 0 0.44971823816913109 -0.058611894661768998 0 0.44055049626049481 -0.03241994821826754 0 0.42776585910878662 -0.047462582859365887 0 0.44055049626049481 -0.03241994821826754 0 0.43862233638968018 -0.01433991032473066 0 0.45982872622509668 -0.01035431822432146 0 0.45982872622509668 -0.01035431822432146 0 0.43604894017798812 -4.8564213765240817e-05 0 0.43862233638968018 -0.01433991032473066 0 0.45982872622509668 -0.01035431822432146 0 0.43604894017798812 -4.8564213765240817e-05 0 0.46768790053651399 -0.040232759786602873 0 0.44055049626049481 -0.03241994821826754 0 0.45982872622509668 -0.01035431822432146 0 0.47499259514944292 -0.1202547269832886 0 0.48551414015152222 -0.10686046996066979 0 0.48085855782101261 -0.13626791926353529 0 0.47418157221881441 -0.11112465676427991 0 0.47528951870947961 -0.09927779745641295 0 0.46093003486481321 -0.11810563265674839 0 0.48551414015152222 -0.10686046996066979 0 0.48085855782101261 -0.13626791926353529 0 0.47499259514944292 -0.1202547269832886 0 0.46093003486481321 -0.11810563265674839 0 0.47239045088042492 -0.13005034139104371 0 0.47499259514944292 -0.1202547269832886 0 0.47418157221881441 -0.11112465676427991 0 0.46093003486481321 -0.11810563265674839 0 0.47499259514944292 -0.1202547269832886 0 0.47418157221881441 -0.11112465676427991 0 0.48551414015152222 -0.10686046996066979 0 0.48986304781109291 -0.1242692167884092 0 0.49384429699065369 -0.1173080088948287 0 0.48551414015152222 -0.10686046996066979 0 0.48986304781109291 -0.1242692167884092 0 0.48551414015152222 -0.10686046996066979 0 0.48085855782101261 -0.13626791926353529 0 0.49384429699065369 -0.1173080088948287 0 0.5 -0.1051480109548549 0 0.5 -0.13295433787538069 0 0.48986304781109291 -0.1242692167884092 0 0.49384429699065369 -0.1173080088948287 0 0.5 -0.13295433787538069 0 0.49384429699065369 -0.1173080088948287 0 0.48551414015152222 -0.10686046996066979 0 0.5 -0.1051480109548549 0 0.48551414015152222 -0.10686046996066979 0 0.5 -0.1051480109548549 0 0.49016972248203172 -0.07745302065780417 0 0.48551414015152222 -0.10686046996066979 0 0.47528951870947961 -0.09927779745641295 0 0.4786949329242487 -0.090297096352784045 0 0.47418157221881441 -0.11112465676427991 0 0.48551414015152222 -0.10686046996066979 0 0.47528951870947961 -0.09927779745641295 0 0.47494193394216588 -0.078729965701305249 0 0.4786949329242487 -0.090297096352784045 0 0.46755934933604398 -0.089164227987728051 0 0.47528951870947961 -0.09927779745641295 0 0.4786949329242487 -0.090297096352784045 0 0.46755934933604398 -0.089164227987728051 0 0.47494193394216588 -0.078729965701305249 0 0.4786949329242487 -0.090297096352784045 0 0.49016972248203172 -0.07745302065780417 0 0.48551414015152222 -0.10686046996066979 0 0.49016972248203172 -0.07745302065780417 0 0.5 -0.1051480109548549 0 0.49016972248203172 -0.07745302065780417 0 0.5 -0.077341684034329061 0 0.48551414015152222 -0.10686046996066979 0 0.4786949329242487 -0.090297096352784045 0 0.49016972248203172 -0.07745302065780417 0 0.49999999999998263 -0.049535357113803247 0 0.49016972248203172 -0.07745302065780417 0 0.5 -0.077341684034329061 0 0.49482530481253351 -0.04804557135493729 0 0.49016972248203172 -0.07745302065780417 0 0.47636674367150789 -0.060588545727567042 0 0.47494193394216588 -0.078729965701305249 0 0.49016972248203172 -0.07745302065780417 0 0.47636674367150789 -0.060588545727567042 0 0.47494193394216588 -0.078729965701305249 0 0.4592808493329405 -0.078369632624057675 0 0.47636674367150789 -0.060588545727567042 0 0.44971823816913109 -0.058611894661768998 0 0.4592808493329405 -0.078369632624057675 0 0.47636674367150789 -0.060588545727567042 0 0.4592808493329405 -0.078369632624057675 0 0.44971823816913109 -0.058611894661768998 0 0.44126951216661869 -0.079236189142810429 0 0.42731029070553322 -0.068277018127587574 0 0.44971823816913109 -0.058611894661768998 0 0.44126951216661869 -0.079236189142810429 0 0.4592808493329405 -0.078369632624057675 0 0.4592808493329405 -0.078369632624057675 0 0.44219495499437311 -0.096150719520548239 0 0.44126951216661869 -0.079236189142810429 0 0.4592808493329405 -0.078369632624057675 0 0.44219495499437311 -0.096150719520548239 0 0.47494193394216588 -0.078729965701305249 0 0.4592808493329405 -0.078369632624057675 0 0.46755934933604398 -0.089164227987728051 0 0.4592808493329405 -0.078369632624057675 0 0.46755934933604398 -0.089164227987728051 0 0.44219495499437311 -0.096150719520548239 0 0.46755934933604398 -0.089164227987728051 0 0.46093003486481321 -0.11810563265674839 0 0.46755934933604398 -0.089164227987728051 0 0.44219495499437311 -0.096150719520548239 0 0.46093003486481321 -0.11810563265674839 0 0.47528951870947961 -0.09927779745641295 0 0.46755934933604398 -0.089164227987728051 0 0.46093003486481321 -0.11810563265674839 0 0.441730170532879 -0.1159420230490274 0 0.46093003486481321 -0.11810563265674839 0 0.44582693855797939 -0.1311402400572215 0 0.44219495499437311 -0.096150719520548239 0 0.441730170532879 -0.1159420230490274 0 0.46093003486481321 -0.11810563265674839 0 0.42510906065580589 -0.11393180641703871 0 0.40802316631723889 -0.13171289331352951 0 0.40725115801851319 -0.1169919833964142 0 0.42510906065580589 -0.11393180641703871 0 0.40802316631723889 -0.13171289331352951 0 0.40725115801851319 -0.1169919833964142 0 0.42510906065580589 -0.11393180641703871 0 0.4147200547274239 -0.1079547067436207 0 0.40725115801851319 -0.1169919833964142 0 0.4147200547274239 -0.1079547067436207 0 0.40692444267373179 -0.1088204768843429 0 0.441730170532879 -0.1159420230490274 0 0.42510906065580589 -0.11393180641703871 0 0.43087782981676859 -0.131879285754128 0 0.44219495499437311 -0.096150719520548239 0 0.42510906065580589 -0.11393180641703871 0 0.44219495499437311 -0.096150719520548239 0 0.441730170532879 -0.1159420230490274 0 0.42510906065580589 -0.11393180641703871 0 0.44219495499437311 -0.096150719520548239 0 0.42510906065580589 -0.11393180641703871 0 0.4234909377050316 -0.092737982748798881 0 0.42510906065580589 -0.11393180641703871 0 0.4147200547274239 -0.1079547067436207 0 0.4234909377050316 -0.092737982748798881 0 0.4147200547274239 -0.1079547067436207 0 0.40904120664506322 -0.09935874077938342 0 0.4234909377050316 -0.092737982748798881 0 0.4147200547274239 -0.1079547067436207 0 0.40692444267373179 -0.1088204768843429 0 0.40904120664506322 -0.09935874077938342 0 0.40904120664506322 -0.09935874077938342 0 0.4234909377050316 -0.092737982748798881 0 0.40226126486411301 -0.082186696628613137 0 0.4234909377050316 -0.092737982748798881 0 0.42731029070553322 -0.068277018127587574 0 0.40226126486411301 -0.082186696628613137 0 0.44126951216661869 -0.079236189142810429 0 0.4234909377050316 -0.092737982748798881 0 0.42731029070553322 -0.068277018127587574 0 0.44126951216661869 -0.079236189142810429 0 0.44219495499437311 -0.096150719520548239 0 0.4234909377050316 -0.092737982748798881 0 0.42731029070553322 -0.068277018127587574 0 0.40226126486411301 -0.082186696628613137 0 0.40783717842429862 -0.053396916639273179 0 0.40226126486411301 -0.082186696628613137 0 0.40783717842429862 -0.053396916639273179 0 0.38429333219820472 -0.067131704106828338 0 0.40226126486411301 -0.082186696628613137 0 0.40783717842429862 -0.053396916639273179 0 0.38429333219820472 -0.067131704106828338 0 0.38199460798391838 -0.085246791459625215 0 0.40226126486411301 -0.082186696628613137 0 0.38199460798391838 -0.085246791459625215 0 0.40226126486411301 -0.082186696628613137 0 0.39106825526090561 -0.1007030293946076 0 0.40226126486411301 -0.082186696628613137 0 0.39106825526090561 -0.1007030293946076 0 0.39668535130392929 -0.1109764766179535 0 0.40904120664506322 -0.09935874077938342 0 0.40226126486411301 -0.082186696628613137 0 0.39668535130392929 -0.1109764766179535 0 0.40226126486411301 -0.082186696628613137 0 0.39668535130392929 -0.1109764766179535 0 0.40692444267373179 -0.1088204768843429 0 0.40904120664506322 -0.09935874077938342 0 0.39668535130392929 -0.1109764766179535 0 0.39106825526090561 -0.1007030293946076 0 0.39668535130392929 -0.1109764766179535 0 0.39106825526090561 -0.1007030293946076 0 0.3799934613124491 -0.1141351934829782 0 0.39668535130392929 -0.1109764766179535 0 0.38199460798391838 -0.085246791459625215 0 0.39106825526090561 -0.1007030293946076 0 0.37706007999693841 -0.1011775095245466 0 0.39106825526090561 -0.1007030293946076 0 0.37706007999693841 -0.1011775095245466 0 0.3799934613124491 -0.1141351934829782 0 0.3799934613124491 -0.1141351934829782 0 0.39668535130392929 -0.1109764766179535 0 0.3932705088567644 -0.1286081277708763 0 0.3799934613124491 -0.1141351934829782 0 0.37104303648388809 -0.1272612894930944 0 0.3932705088567644 -0.1286081277708763 0 0.40224748518751269 -0.1211494002184121 0 0.3932705088567644 -0.1286081277708763 0 0.39668535130392929 -0.1109764766179535 0 0.3932705088567644 -0.1286081277708763 0 0.39668535130392929 -0.1109764766179535 0 0.40224748518751269 -0.1211494002184121 0 0.3932705088567644 -0.1286081277708763 0 0.40725115801851319 -0.1169919833964142 0 0.39668535130392929 -0.1109764766179535 0 0.40224748518751269 -0.1211494002184121 0 0.39668535130392929 -0.1109764766179535 0 0.40224748518751269 -0.1211494002184121 0 0.40725115801851319 -0.1169919833964142 0 0.40692444267373179 -0.1088204768843429 0 0.39668535130392929 -0.1109764766179535 0 0.40725115801851319 -0.1169919833964142 0 0.40224748518751269 -0.1211494002184121 0 0.40725115801851319 -0.1169919833964142 0 0.40224748518751269 -0.1211494002184121 0 0.40802316631723889 -0.13171289331352951 0 0.42156842614681772 -0.015954947998216139 0 0.41341309198447568 -0.024607136649931451 0 0.42934924071862562 -0.02029033689286578 0 0.41341309198447568 -0.024607136649931451 0 0.41617709331797431 -0.010335934375633319 0 0.42156842614681772 -0.015954947998216139 0 0.41341309198447568 -0.024607136649931451 0 0.41617709331797431 -0.010335934375633319 0 0.41341309198447568 -0.024607136649931451 0 0.40231254689356027 -0.037392070823486202 0 0.40309603266908228 -0.02802239201193971 0 0.41341309198447568 -0.024607136649931451 0 0.41078796895048542 -0.01389090533175278 0 0.39783226839882679 -0.020121444594939791 0 0.41341309198447568 -0.024607136649931451 0 0.41078796895048542 -0.01389090533175278 0 0.41617709331797431 -0.010335934375633319 0 0.41078796895048542 -0.01389090533175278 0 0.41617709331797431 -0.010335934375633319 0 0.40542454288086849 -0.004070234290400764 0 0.4122691541308795 0.010257189796790951 0 0.41617709331797431 -0.010335934375633319 0 0.40542454288086849 -0.004070234290400764 0 0.4122691541308795 0.010257189796790951 0 0.41617709331797431 -0.010335934375633319 0 0.42733427856619571 -0.0085863840744332814 0 0.42156842614681772 -0.015954947998216139 0 0.41617709331797431 -0.010335934375633319 0 0.42733427856619571 -0.0085863840744332814 0 0.42156842614681772 -0.015954947998216139 0 0.42733427856619571 -0.0085863840744332814 0 0.42934924071862562 -0.02029033689286578 0 0.43862233638968018 -0.01433991032473066 0 0.42733427856619571 -0.0085863840744332814 0 0.43604894017798812 -4.8564213765240817e-05 0 0.43862233638968018 -0.01433991032473066 0 0.42733427856619571 -0.0085863840744332814 0 0.42934924071862562 -0.02029033689286578 0 0.44055049626049481 -0.03241994821826754 0 0.43862233638968018 -0.01433991032473066 0 0.42934924071862562 -0.02029033689286578 0 0.44055049626049481 -0.03241994821826754 0 0.41341309198447568 -0.024607136649931451 0 0.42934924071862562 -0.02029033689286578 0 0.44055049626049481 -0.03241994821826754 0 0.41341309198447568 -0.024607136649931451 0 0.44055049626049481 -0.03241994821826754 0 0.41341309198447568 -0.024607136649931451 0 0.42776585910878662 -0.047462582859365887 0 0.44971823816913109 -0.058611894661768998 0 0.42731029070553322 -0.068277018127587574 0 0.42776585910878662 -0.047462582859365887 0 0.42731029070553322 -0.068277018127587574 0 0.42776585910878662 -0.047462582859365887 0 0.40783717842429862 -0.053396916639273179 0 0.41341309198447568 -0.024607136649931451 0 0.42776585910878662 -0.047462582859365887 0 0.40783717842429862 -0.053396916639273179 0 0.41341309198447568 -0.024607136649931451 0 0.40783717842429862 -0.053396916639273179 0 0.40231254689356027 -0.037392070823486202 0 0.41341309198447568 -0.024607136649931451 0 0.40783717842429862 -0.053396916639273179 0 0.40231254689356027 -0.037392070823486202 0 0.3981973431289102 -0.028872790202489229 0 0.40309603266908228 -0.02802239201193971 0 0.40231254689356027 -0.037392070823486202 0 0.38732801778773829 -0.04651698367670077 0 0.38934459454031273 -0.029067224222560958 0 0.40783717842429862 -0.053396916639273179 0 0.40231254689356027 -0.037392070823486202 0 0.38732801778773829 -0.04651698367670077 0 0.40231254689356027 -0.037392070823486202 0 0.38934459454031273 -0.029067224222560958 0 0.3981973431289102 -0.028872790202489229 0 0.38429333219820472 -0.067131704106828338 0 0.40783717842429862 -0.053396916639273179 0 0.38732801778773829 -0.04651698367670077 0 0.38429333219820472 -0.067131704106828338 0 0.38732801778773829 -0.04651698367670077 0 0.37042415964797237 -0.053058901563766692 0 0.38732801778773829 -0.04651698367670077 0 0.37068698927403948 -0.035605583580554698 0 0.37042415964797237 -0.053058901563766692 0 0.38732801778773829 -0.04651698367670077 0 0.38934459454031273 -0.029067224222560958 0 0.37068698927403948 -0.035605583580554698 0 0.38934459454031273 -0.029067224222560958 0 0.36983137800827248 -0.01206003687362641 0 0.37068698927403948 -0.035605583580554698 0 0.38934459454031273 -0.029067224222560958 0 0.39783226839882679 -0.020121444594939791 0 0.36983137800827248 -0.01206003687362641 0 0.39783226839882679 -0.020121444594939791 0 0.36983137800827248 -0.01206003687362641 0 0.38934459454031273 -0.029067224222560958 0 0.3981973431289102 -0.028872790202489229 0 0.39783226839882679 -0.020121444594939791 0 0.41341309198447568 -0.024607136649931451 0 0.39783226839882679 -0.020121444594939791 0 0.41341309198447568 -0.024607136649931451 0 0.39783226839882679 -0.020121444594939791 0 0.40309603266908228 -0.02802239201193971 0 0.3981973431289102 -0.028872790202489229 0 0.39783226839882679 -0.020121444594939791 0 0.40309603266908228 -0.02802239201193971 0 0.39212595536292472 0.0047271407553128551 0 0.39576254264207811 -0.011108662296721609 0 0.39212595536292472 0.0047271407553128551 0 0.40542454288086849 -0.004070234290400764 0 0.39576254264207811 -0.011108662296721609 0 0.41078796895048542 -0.01389090533175278 0 0.39783226839882679 -0.020121444594939791 0 0.39576254264207811 -0.011108662296721609 0 0.41078796895048542 -0.01389090533175278 0 0.39576254264207811 -0.011108662296721609 0 0.41078796895048542 -0.01389090533175278 0 0.40542454288086849 -0.004070234290400764 0 0.39576254264207811 -0.011108662296721609 0 0.39783226839882679 -0.020121444594939791 0 0.39576254264207811 -0.011108662296721609 0 0.39576254264207811 -0.011108662296721609 0 0.36983137800827248 -0.01206003687362641 0 0.36845156083710567 -0.0060515153414843056 0 0.39576254264207811 -0.011108662296721609 0 0.36845156083710567 -0.0060515153414843056 0 0.39212595536292472 0.0047271407553128551 0 0.39576254264207811 -0.011108662296721609 0 0.36845156083710567 -0.0060515153414843056 0 0.39783226839882679 -0.020121444594939791 0 0.39576254264207811 -0.011108662296721609 0 0.36983137800827248 -0.01206003687362641 0 0.36983137800827248 -0.01206003687362641 0 0.36845156083710567 -0.0060515153414843056 0 0.34183048761771712 -0.0039986291523161147 0 0.36983137800827248 -0.01206003687362641 0 0.35223914962217417 -0.02278106829858554 0 0.37068698927403948 -0.035605583580554698 0 0.36983137800827248 -0.01206003687362641 0 0.35223914962217417 -0.02278106829858554 0 0.34183048761771712 -0.0039986291523161147 0 0.36983137800827248 -0.01206003687362641 0 0.34183048761771712 -0.0039986291523161147 0 0.36845156083710567 -0.0060515153414843056 0 0.34114057903213352 -0.00099436838624600288 0 0.36845156083710567 -0.0060515153414843056 0 0.34183048761771712 -0.0039986291523161147 0 0.34114057903213352 -0.00099436838624600288 0 0.35223914962217417 -0.02278106829858554 0 0.34183048761771712 -0.0039986291523161147 0 0.33977780877024261 -0.017668132193127541 0 0.31382959722716158 0.0040627785689932028 0 0.34183048761771712 -0.0039986291523161147 0 0.34114057903213352 -0.00099436838624600288 0 0.34183048761771712 -0.0039986291523161147 0 0.33574973546384762 -0.01167659105592548 0 0.32194573769061952 -0.0077676308935595512 0 0.34183048761771712 -0.0039986291523161147 0 0.33574973546384762 -0.01167659105592548 0 0.33977780877024261 -0.017668132193127541 0 0.35223914962217417 -0.02278106829858554 0 0.33977780877024261 -0.017668132193127541 0 0.33879793226643329 -0.029417681387060649 0 0.33574973546384762 -0.01167659105592548 0 0.3302717388810405 -0.020466691071749941 0 0.3196214637881436 -0.021924893160697439 0 0.33977780877024261 -0.017668132193127541 0 0.33879793226643329 -0.029417681387060649 0 0.3302717388810405 -0.020466691071749941 0 0.33879793226643329 -0.029417681387060649 0 0.32862271298124018 -0.028919582591936679 0 0.3302717388810405 -0.020466691071749941 0 0.33574973546384762 -0.01167659105592548 0 0.33977780877024261 -0.017668132193127541 0 0.3302717388810405 -0.020466691071749941 0 0.3302717388810405 -0.020466691071749941 0 0.32526768976560849 -0.02407540610795475 0 0.3196214637881436 -0.021924893160697439 0 0.33574973546384762 -0.01167659105592548 0 0.3196214637881436 -0.021924893160697439 0 0.32862271298124018 -0.028919582591936679 0 0.3302717388810405 -0.020466691071749941 0 0.32526768976560849 -0.02407540610795475 0 0.32862271298124018 -0.028919582591936679 0 0.32095671603858011 -0.024994897592425049 0 0.3231679364015333 -0.033306441836977792 0 0.32862271298124018 -0.028919582591936679 0 0.32526768976560849 -0.02407540610795475 0 0.32095671603858011 -0.024994897592425049 0 0.32526768976560849 -0.02407540610795475 0 0.32095671603858011 -0.024994897592425049 0 0.3196214637881436 -0.021924893160697439 0 0.32095671603858011 -0.024994897592425049 0 0.3196214637881436 -0.021924893160697439 0 0.31660160940309118 -0.035871797032442469 0 0.32095671603858011 -0.024994897592425049 0 0.3196214637881436 -0.021924893160697439 0 0.33574973546384762 -0.01167659105592548 0 0.3196214637881436 -0.021924893160697439 0 0.32194573769061952 -0.0077676308935595512 0 0.30752965714041391 0.0058765203804442539 0 0.3196214637881436 -0.021924893160697439 0 0.32194573769061952 -0.0077676308935595512 0 0.31382959722716158 0.0040627785689932028 0 0.34183048761771712 -0.0039986291523161147 0 0.32194573769061952 -0.0077676308935595512 0 0.30752965714041391 0.0058765203804442539 0 0.3196214637881436 -0.021924893160697439 0 0.31292981148517318 -0.054457989835630861 0 0.33951515654934239 -0.057829064589421393 0 0.331762206516936 -0.074199649102278678 0 0.31292981148517318 -0.054457989835630861 0 0.32943454752299528 -0.042779626289088678 0 0.31292981148517318 -0.054457989835630861 0 0.32943454752299528 -0.042779626289088678 0 0.33951515654934239 -0.057829064589421393 0 0.31292981148517318 -0.054457989835630861 0 0.31660160940309118 -0.035871797032442469 0 0.32943454752299528 -0.042779626289088678 0 0.32095671603858011 -0.024994897592425049 0 0.31660160940309118 -0.035871797032442469 0 0.3231679364015333 -0.033306441836977792 0 0.32862271298124018 -0.028919582591936679 0 0.3231679364015333 -0.033306441836977792 0 0.32943454752299528 -0.042779626289088678 0 0.31660160940309118 -0.035871797032442469 0 0.3231679364015333 -0.033306441836977792 0 0.32943454752299528 -0.042779626289088678 0 0.33879793226643329 -0.029417681387060649 0 0.32943454752299528 -0.042779626289088678 0 0.35178468962230941 -0.045374559850196158 0 0.33879793226643329 -0.029417681387060649 0 0.32862271298124018 -0.028919582591936679 0 0.32943454752299528 -0.042779626289088678 0 0.32943454752299528 -0.042779626289088678 0 0.33951515654934239 -0.057829064589421393 0 0.35178468962230941 -0.045374559850196158 0 0.33951515654934239 -0.057829064589421393 0 0.35178468962230941 -0.045374559850196158 0 0.35802776935757019 -0.070665676604553529 0 0.35223914962217417 -0.02278106829858554 0 0.35178468962230941 -0.045374559850196158 0 0.37068698927403948 -0.035605583580554698 0 0.35223914962217417 -0.02278106829858554 0 0.33879793226643329 -0.029417681387060649 0 0.35178468962230941 -0.045374559850196158 0 0.35178468962230941 -0.045374559850196158 0 0.37068698927403948 -0.035605583580554698 0 0.37042415964797237 -0.053058901563766692 0 0.35178468962230941 -0.045374559850196158 0 0.37042415964797237 -0.053058901563766692 0 0.35802776935757019 -0.070665676604553529 0 0.38429333219820472 -0.067131704106828338 0 0.38199460798391838 -0.085246791459625215 0 0.35802776935757019 -0.070665676604553529 0 0.38429333219820472 -0.067131704106828338 0 0.37042415964797237 -0.053058901563766692 0 0.35802776935757019 -0.070665676604553529 0 0.38429333219820472 -0.067131704106828338 0 0.35802776935757019 -0.070665676604553529 0 0.38199460798391838 -0.085246791459625215 0 0.36577500316168848 -0.093055365242956031 0 0.35802776935757019 -0.070665676604553529 0 0.38199460798391838 -0.085246791459625215 0 0.37706007999693841 -0.1011775095245466 0 0.36577500316168848 -0.093055365242956031 0 0.35802776935757019 -0.070665676604553529 0 0.34487393367809682 -0.095216741312257352 0 0.331762206516936 -0.074199649102278678 0 0.36577500316168848 -0.093055365242956031 0 0.35802776935757019 -0.070665676604553529 0 0.34487393367809682 -0.095216741312257352 0 0.35802776935757019 -0.070665676604553529 0 0.331762206516936 -0.074199649102278678 0 0.3799934613124491 -0.1141351934829782 0 0.36192545204167298 -0.11208328153174781 0 0.37104303648388809 -0.1272612894930944 0 0.36192545204167298 -0.11208328153174781 0 0.35551888896884759 -0.1297027680154724 0 0.37104303648388809 -0.1272612894930944 0 0.37706007999693841 -0.1011775095245466 0 0.3799934613124491 -0.1141351934829782 0 0.36192545204167298 -0.11208328153174781 0 0.37706007999693841 -0.1011775095245466 0 0.36577500316168848 -0.093055365242956031 0 0.36192545204167298 -0.11208328153174781 0 0.36192545204167298 -0.11208328153174781 0 0.34487393367809682 -0.095216741312257352 0 0.34014121552940491 -0.1203166258242544 0 0.36577500316168848 -0.093055365242956031 0 0.36192545204167298 -0.11208328153174781 0 0.34487393367809682 -0.095216741312257352 0 0.36192545204167298 -0.11208328153174781 0 0.34014121552940491 -0.1203166258242544 0 0.35551888896884759 -0.1297027680154724 0 0.34014121552940491 -0.1203166258242544 0 0.32517348349888747 -0.118580130041643 0 0.32373683991627678 -0.1342707635111336 0 0.34014121552940491 -0.1203166258242544 0 0.32895182275083351 -0.1060869523066566 0 0.32517348349888747 -0.118580130041643 0 0.34487393367809682 -0.095216741312257352 0 0.34014121552940491 -0.1203166258242544 0 0.32895182275083351 -0.1060869523066566 0 0.34487393367809682 -0.095216741312257352 0 0.32895182275083351 -0.1060869523066566 0 0.32681031061177879 -0.089772122834636051 0 0.32895182275083351 -0.1060869523066566 0 0.31743464692623941 -0.099981704590172707 0 0.32681031061177879 -0.089772122834636051 0 0.31743464692623941 -0.099981704590172707 0 0.31638799147784608 -0.1118713826410174 0 0.30885616350321549 -0.1072846913931271 0 0.32895182275083351 -0.1060869523066566 0 0.31743464692623941 -0.099981704590172707 0 0.31638799147784608 -0.1118713826410174 0 0.32895182275083351 -0.1060869523066566 0 0.31638799147784608 -0.1118713826410174 0 0.32517348349888747 -0.118580130041643 0 0.31638799147784608 -0.1118713826410174 0 0.31399575267335023 -0.12250180558336519 0 0.30853123694459123 -0.1170064061326217 0 0.31638799147784608 -0.1118713826410174 0 0.31399575267335023 -0.12250180558336519 0 0.32517348349888747 -0.118580130041643 0 0.33951515654934239 -0.057829064589421393 0 0.35802776935757019 -0.070665676604553529 0 0.331762206516936 -0.074199649102278678 0 0.34487393367809682 -0.095216741312257352 0 0.331762206516936 -0.074199649102278678 0 0.32681031061177879 -0.089772122834636051 0 0.32681031061177879 -0.089772122834636051 0 0.30549664367630158 -0.077733621600003855 0 0.31220284993755582 -0.090742102146006851 0 0.331762206516936 -0.074199649102278678 0 0.32681031061177879 -0.089772122834636051 0 0.30549664367630158 -0.077733621600003855 0 0.31743464692623941 -0.099981704590172707 0 0.32681031061177879 -0.089772122834636051 0 0.31220284993755582 -0.090742102146006851 0 0.31292981148517318 -0.054457989835630861 0 0.331762206516936 -0.074199649102278678 0 0.30549664367630158 -0.077733621600003855 0 0.331762206516936 -0.074199649102278678 0 0.30549664367630158 -0.077733621600003855 0 0.31292981148517318 -0.054457989835630861 0 0.30549664367630158 -0.077733621600003855 0 0.29642507544735103 -0.06613635338217283 0 0.30549664367630158 -0.077733621600003855 0 0.29743178973804058 -0.092817056036521225 0 0.29642507544735103 -0.06613635338217283 0 0.29743178973804058 -0.092817056036521225 0 0.29642507544735103 -0.06613635338217283 0 0.31220284993755582 -0.090742102146006851 0 0.30524841693787119 -0.089877123387424693 0 0.30586238439958702 -0.098215713767166868 0 0.30549664367630158 -0.077733621600003855 0 0.31220284993755582 -0.090742102146006851 0 0.30524841693787119 -0.089877123387424693 0 0.30524841693787119 -0.089877123387424693 0 0.29743178973804058 -0.092817056036521225 0 0.30586238439958702 -0.098215713767166868 0 0.30549664367630158 -0.077733621600003855 0 0.30524841693787119 -0.089877123387424693 0 0.29743178973804058 -0.092817056036521225 0 0.29430385704143641 -0.093334685648855456 0 0.28333646668855839 -0.1038254721913715 0 0.27844545300264117 -0.078858311907156253 0 0.29743178973804058 -0.092817056036521225 0 0.29430385704143641 -0.093334685648855456 0 0.29347904805936648 -0.068220893163732282 0 0.29430385704143641 -0.093334685648855456 0 0.29347904805936648 -0.068220893163732282 0 0.27844545300264117 -0.078858311907156253 0 0.29430385704143641 -0.093334685648855456 0 0.29347904805936648 -0.068220893163732282 0 0.29743178973804058 -0.092817056036521225 0 0.29642507544735103 -0.06613635338217283 0 0.29347904805936648 -0.068220893163732282 0 0.28521560802072671 -0.062721316040594208 0 0.29347904805936648 -0.068220893163732282 0 0.27844545300264117 -0.078858311907156253 0 0.29347904805936648 -0.068220893163732282 0 0.27844545300264117 -0.078858311907156253 0 0.29642507544735103 -0.06613635338217283 0 0.29347904805936648 -0.068220893163732282 0 0.29301224914481439 -0.054007794946804598 0 0.29642507544735103 -0.06613635338217283 0 0.29347904805936648 -0.068220893163732282 0 0.29743178973804058 -0.092817056036521225 0 0.29843850402873079 -0.11949775869086959 0 0.29512866602350563 -0.1184484781339787 0 0.29843850402873079 -0.11949775869086959 0 0.29512866602350563 -0.1184484781339787 0 0.30010147488007238 -0.1276093355582181 0 0.29843850402873079 -0.11949775869086959 0 0.30554459793957989 -0.1238630007756472 0 0.30853123694459123 -0.1170064061326217 0 0.29843850402873079 -0.11949775869086959 0 0.30554459793957989 -0.1238630007756472 0 0.30010147488007238 -0.1276093355582181 0 0.31399575267335023 -0.12250180558336519 0 0.30554459793957989 -0.1238630007756472 0 0.30853123694459123 -0.1170064061326217 0 0.29843850402873079 -0.11949775869086959 0 0.30853123694459123 -0.1170064061326217 0 0.30885616350321549 -0.1072846913931271 0 0.31638799147784608 -0.1118713826410174 0 0.30853123694459123 -0.1170064061326217 0 0.30885616350321549 -0.1072846913931271 0 0.29843850402873079 -0.11949775869086959 0 0.30885616350321549 -0.1072846913931271 0 0.30586238439958702 -0.098215713767166868 0 0.29743178973804058 -0.092817056036521225 0 0.29843850402873079 -0.11949775869086959 0 0.30586238439958702 -0.098215713767166868 0 0.29743178973804058 -0.092817056036521225 0 0.29843850402873079 -0.11949775869086959 0 0.31743464692623941 -0.099981704590172707 0 0.30885616350321549 -0.1072846913931271 0 0.30586238439958702 -0.098215713767166868 0 0.31743464692623941 -0.099981704590172707 0 0.31220284993755582 -0.090742102146006851 0 0.30586238439958702 -0.098215713767166868 0 0.29430385704143641 -0.093334685648855456 0 0.29512866602350563 -0.1184484781339787 0 0.29430385704143641 -0.093334685648855456 0 0.28333646668855839 -0.1038254721913715 0 0.29512866602350563 -0.1184484781339787 0 0.29743178973804058 -0.092817056036521225 0 0.29430385704143641 -0.093334685648855456 0 0.29512866602350563 -0.1184484781339787 0 0.28333646668855839 -0.1038254721913715 0 0.29512866602350563 -0.1184484781339787 0 0.28822748037447399 -0.12879263247558709 0 0.28333646668855839 -0.1038254721913715 0 0.28822748037447399 -0.12879263247558709 0 0.26621118532108262 -0.1119181791838486 0 0.25741251913389712 -0.1305951081492244 0 0.28822748037447399 -0.12879263247558709 0 0.28333646668855839 -0.1038254721913715 0 0.26621118532108262 -0.1119181791838486 0 0.28822748037447399 -0.12879263247558709 0 0.28333646668855839 -0.1038254721913715 0 0.26621118532108262 -0.1119181791838486 0 0.26565518081306061 -0.08790840808238623 0 0.26621118532108262 -0.1119181791838486 0 0.25154255280112903 -0.1006059983499779 0 0.24954668948061209 -0.11284283178631641 0 0.26621118532108262 -0.1119181791838486 0 0.25154255280112903 -0.1006059983499779 0 0.26565518081306061 -0.08790840808238623 0 0.26621118532108262 -0.1119181791838486 0 0.25741251913389712 -0.1305951081492244 0 0.24954668948061209 -0.11284283178631641 0 0.27844545300264117 -0.078858311907156253 0 0.2741393958395883 -0.056877179510702792 0 0.28007443442101287 -0.061799103716356343 0 0.27844545300264117 -0.078858311907156253 0 0.2741393958395883 -0.056877179510702792 0 0.26628957168076178 -0.070692469674316694 0 0.27844545300264117 -0.078858311907156253 0 0.2741393958395883 -0.056877179510702792 0 0.28521560802072671 -0.062721316040594208 0 0.27844545300264117 -0.078858311907156253 0 0.28007443442101287 -0.061799103716356343 0 0.26628957168076178 -0.070692469674316694 0 0.27844545300264117 -0.078858311907156253 0 0.26565518081306061 -0.08790840808238623 0 0.28333646668855839 -0.1038254721913715 0 0.27844545300264117 -0.078858311907156253 0 0.26565518081306061 -0.08790840808238623 0 0.28333646668855839 -0.1038254721913715 0 0.27844545300264117 -0.078858311907156253 0 0.27844545300264117 -0.078858311907156253 0 0.26565518081306061 -0.08790840808238623 0 0.25154255280112903 -0.1006059983499779 0 0.25664035233608162 -0.078361863555500011 0 0.24390890644978661 -0.075150332687283522 0 0.25154255280112903 -0.1006059983499779 0 0.26565518081306061 -0.08790840808238623 0 0.25664035233608162 -0.078361863555500011 0 0.26628957168076178 -0.070692469674316694 0 0.26565518081306061 -0.08790840808238623 0 0.25664035233608162 -0.078361863555500011 0 0.25664035233608162 -0.078361863555500011 0 0.25256726729664603 -0.064532785491330763 0 0.24390890644978661 -0.075150332687283522 0 0.26628957168076178 -0.070692469674316694 0 0.25256726729664603 -0.064532785491330763 0 0.2741393958395883 -0.056877179510702792 0 0.26628957168076178 -0.070692469674316694 0 0.25664035233608162 -0.078361863555500011 0 0.25256726729664603 -0.064532785491330763 0 0.25256726729664603 -0.064532785491330763 0 0.25164978009717781 -0.053061021673298493 0 0.24617004458672351 -0.058202332164817121 0 0.25256726729664603 -0.064532785491330763 0 0.26131371929964131 -0.050907379716302707 0 0.27395317434556299 -0.0509436520349522 0 0.25256726729664603 -0.064532785491330763 0 0.25164978009717781 -0.053061021673298493 0 0.26131371929964131 -0.050907379716302707 0 0.25256726729664603 -0.064532785491330763 0 0.27395317434556299 -0.0509436520349522 0 0.25164978009717781 -0.053061021673298493 0 0.26131371929964131 -0.050907379716302707 0 0.2539732262079259 -0.044675773385505282 0 0.26131371929964131 -0.050907379716302707 0 0.26227784506780882 -0.045421506107560787 0 0.2539732262079259 -0.044675773385505282 0 0.26131371929964131 -0.050907379716302707 0 0.26742863268251632 -0.045985676557136583 0 0.26227784506780882 -0.045421506107560787 0 0.25256726729664603 -0.064532785491330763 0 0.27395317434556299 -0.0509436520349522 0 0.2741393958395883 -0.056877179510702792 0 0.26131371929964131 -0.050907379716302707 0 0.27395317434556299 -0.0509436520349522 0 0.26742863268251632 -0.045985676557136583 0 0.27395317434556299 -0.0509436520349522 0 0.2741393958395883 -0.056877179510702792 0 0.28351618772518777 -0.053458991616202503 0 0.2741393958395883 -0.056877179510702792 0 0.28007443442101287 -0.061799103716356343 0 0.28351618772518777 -0.053458991616202503 0 0.2807394014679111 -0.038000872253349499 0 0.27361436003936901 -0.034999677146069851 0 0.27240238673917438 -0.042113497984529957 0 0.2807394014679111 -0.038000872253349499 0 0.27361436003936901 -0.034999677146069851 0 0.28248009054126683 -0.027824818882371601 0 0.27395317434556299 -0.0509436520349522 0 0.2807394014679111 -0.038000872253349499 0 0.27240238673917438 -0.042113497984529957 0 0.27395317434556299 -0.0509436520349522 0 0.27240238673917438 -0.042113497984529957 0 0.26742863268251632 -0.045985676557136583 0 0.27361436003936901 -0.034999677146069851 0 0.27240238673917438 -0.042113497984529957 0 0.26639580208115188 -0.040117194771298603 0 0.27240238673917438 -0.042113497984529957 0 0.26742863268251632 -0.045985676557136583 0 0.26639580208115188 -0.040117194771298603 0 0.27361436003936901 -0.034999677146069851 0 0.26639580208115188 -0.040117194771298603 0 0.26859201328057281 -0.027442020841521631 0 0.2539732262079259 -0.044675773385505282 0 0.25845033672230949 -0.02738613623275089 0 0.26859201328057281 -0.027442020841521631 0 0.2539732262079259 -0.044675773385505282 0 0.25845033672230949 -0.02738613623275089 0 0.24422464309495209 -0.046986837608536558 0 0.25845033672230949 -0.02738613623275089 0 0.24422464309495209 -0.046986837608536558 0 0.26639580208115188 -0.040117194771298603 0 0.2539732262079259 -0.044675773385505282 0 0.26859201328057281 -0.027442020841521631 0 0.2539732262079259 -0.044675773385505282 0 0.26859201328057281 -0.027442020841521631 0 0.26639580208115188 -0.040117194771298603 0 0.26227784506780882 -0.045421506107560787 0 0.2539732262079259 -0.044675773385505282 0 0.26742863268251632 -0.045985676557136583 0 0.26639580208115188 -0.040117194771298603 0 0.26227784506780882 -0.045421506107560787 0 0.25013504981522988 -0.025019616072594848 0 0.25845033672230949 -0.02738613623275089 0 0.24524507923365879 -0.0330622213940093 0 0.25845033672230949 -0.02738613623275089 0 0.27267603034966698 -0.0077854348569651906 0 0.25845033672230949 -0.02738613623275089 0 0.25886508985187012 -0.013172853544477199 0 0.27267603034966698 -0.0077854348569651906 0 0.25013504981522988 -0.025019616072594848 0 0.25247407830029878 -0.019873092178793648 0 0.25845033672230949 -0.02738613623275089 0 0.25247407830029878 -0.019873092178793648 0 0.25845033672230949 -0.02738613623275089 0 0.25886508985187012 -0.013172853544477199 0 0.25598072684389089 -0.0058943492075353007 0 0.25006914023697918 -0.01208141302270524 0 0.2479891295484222 -0.0022684572774312019 0 0.25894279220913391 0.003459445712386486 0 0.25598072684389089 -0.0058943492075353007 0 0.2479891295484222 -0.0022684572774312019 0 0.25598072684389089 -0.0058943492075353007 0 0.25006914023697918 -0.01208141302270524 0 0.25886508985187012 -0.013172853544477199 0 0.25247407830029878 -0.019873092178793648 0 0.25006914023697918 -0.01208141302270524 0 0.25886508985187012 -0.013172853544477199 0 0.25886508985187012 -0.013172853544477199 0 0.26317147738524183 -0.0038637327990410169 0 0.27267603034966698 -0.0077854348569651906 0 0.25598072684389089 -0.0058943492075353007 0 0.25886508985187012 -0.013172853544477199 0 0.26317147738524183 -0.0038637327990410169 0 0.25894279220913391 0.003459445712386486 0 0.25598072684389089 -0.0058943492075353007 0 0.26317147738524183 -0.0038637327990410169 0 0.27267603034966698 -0.0077854348569651906 0 0.26859201328057281 -0.027442020841521631 0 0.28321080035321983 -0.010208268297538009 0 0.26939274767164711 0.0040745279013861191 0 0.26317147738524183 -0.0038637327990410169 0 0.27267603034966698 -0.0077854348569651906 0 0.28687677889875068 0.001725005618485562 0 0.27267603034966698 -0.0077854348569651906 0 0.28321080035321983 -0.010208268297538009 0 0.26859201328057281 -0.027442020841521631 0 0.28321080035321983 -0.010208268297538009 0 0.25845033672230949 -0.02738613623275089 0 0.27267603034966698 -0.0077854348569651906 0 0.26859201328057281 -0.027442020841521631 0 0.26859201328057281 -0.027442020841521631 0 0.28248009054126683 -0.027824818882371601 0 0.28321080035321983 -0.010208268297538009 0 0.27361436003936901 -0.034999677146069851 0 0.26859201328057281 -0.027442020841521631 0 0.28248009054126683 -0.027824818882371601 0 0.29465383366866438 -0.01919356567853802 0 0.28248009054126683 -0.027824818882371601 0 0.29533908139447967 -0.037354518578573179 0 0.29465383366866438 -0.01919356567853802 0 0.28248009054126683 -0.027824818882371601 0 0.28321080035321983 -0.010208268297538009 0 0.29465383366866438 -0.01919356567853802 0 0.29533908139447967 -0.037354518578573179 0 0.2978295874258669 0.0070254842464454832 0 0.28321080035321983 -0.010208268297538009 0 0.29396858594285019 -0.001032612778502764 0 0.2978295874258669 0.0070254842464454832 0 0.28687677889875068 0.001725005618485562 0 0.28321080035321983 -0.010208268297538009 0 0.29465383366866438 -0.01919356567853802 0 0.28321080035321983 -0.010208268297538009 0 0.29396858594285019 -0.001032612778502764 0 0.2978295874258669 0.0070254842464454832 0 0.28321080035321983 -0.010208268297538009 0 0.29465383366866438 -0.01919356567853802 0 0.29396858594285019 -0.001032612778502764 0 0.30752965714041391 0.0058765203804442539 0 0.29465383366866438 -0.01919356567853802 0 0.29396858594285019 -0.001032612778502764 0 0.30752965714041391 0.0058765203804442539 0 0.3196214637881436 -0.021924893160697439 0 0.29465383366866438 -0.01919356567853802 0 0.3196214637881436 -0.021924893160697439 0 0.29465383366866438 -0.01919356567853802 0 0.29533908139447967 -0.037354518578573179 0 0.3196214637881436 -0.021924893160697439 0 0.29533908139447967 -0.037354518578573179 0 0.3196214637881436 -0.021924893160697439 0 0.31660160940309118 -0.035871797032442469 0 0.29533908139447967 -0.037354518578573179 0 0.31292981148517318 -0.054457989835630861 0 0.31660160940309118 -0.035871797032442469 0 0.29533908139447967 -0.037354518578573179 0 0.31292981148517318 -0.054457989835630861 0 0.29642507544735103 -0.06613635338217283 0 0.31292981148517318 -0.054457989835630861 0 0.29642507544735103 -0.06613635338217283 0 0.29533908139447967 -0.037354518578573179 0 0.29642507544735103 -0.06613635338217283 0 0.29301224914481439 -0.054007794946804598 0 0.29533908139447967 -0.037354518578573179 0 0.27395317434556299 -0.0509436520349522 0 0.28351618772518777 -0.053458991616202503 0 0.29533908139447967 -0.037354518578573179 0 0.29301224914481439 -0.054007794946804598 0 0.28351618772518777 -0.053458991616202503 0 0.29533908139447967 -0.037354518578573179 0 0.29642507544735103 -0.06613635338217283 0 0.29533908139447967 -0.037354518578573179 0 0.29347904805936648 -0.068220893163732282 0 0.29301224914481439 -0.054007794946804598 0 0.28521560802072671 -0.062721316040594208 0 0.29347904805936648 -0.068220893163732282 0 0.29301224914481439 -0.054007794946804598 0 0.28521560802072671 -0.062721316040594208 0 0.29301224914481439 -0.054007794946804598 0 0.28351618772518777 -0.053458991616202503 0 0.28521560802072671 -0.062721316040594208 0 0.28007443442101287 -0.061799103716356343 0 0.28351618772518777 -0.053458991616202503 0 0.27395317434556299 -0.0509436520349522 0 0.29533908139447967 -0.037354518578573179 0 0.27395317434556299 -0.0509436520349522 0 0.2807394014679111 -0.038000872253349499 0 0.29533908139447967 -0.037354518578573179 0 0.2807394014679111 -0.038000872253349499 0 0.28248009054126683 -0.027824818882371601 0 0.29533908139447967 -0.037354518578573179 0 0.30290052143222262 -0.20369411332823331 0 0.28158405213751547 -0.22140539282722879 0 0.30290052143222262 -0.20369411332823331 0 0.28158405213751547 -0.22140539282722879 0 0.27747759048209231 -0.20168759245952969 0 0.28632476970011178 -0.18938030831719929 0 0.30290052143222262 -0.20369411332823331 0 0.2980095077463053 -0.17872695304401809 0 0.28632476970011178 -0.18938030831719929 0 0.30290052143222262 -0.20369411332823331 0 0.27747759048209231 -0.20168759245952969 0 0.30290052143222262 -0.20369411332823331 0 0.2980095077463053 -0.17872695304401809 0 0.32549301828835953 -0.18492261693889581 0 0.30290052143222262 -0.20369411332823331 0 0.2980095077463053 -0.17872695304401809 0 0.30290052143222262 -0.20369411332823331 0 0.30715254712033069 -0.22539943122446929 0 0.28158405213751547 -0.22140539282722879 0 0.30290052143222262 -0.20369411332823331 0 0.30715254712033069 -0.22539943122446929 0 0.30290052143222262 -0.20369411332823331 0 0.30715254712033069 -0.22539943122446929 0 0.32148368101975677 -0.2112815477794289 0 0.31140457280844042 -0.24710474912070499 0 0.29234931722919649 -0.23956849287787771 0 0.29718577407036301 -0.25519814195989071 0 0.30715254712033069 -0.22539943122446929 0 0.31140457280844042 -0.24710474912070499 0 0.29234931722919649 -0.23956849287787771 0 0.30715254712033069 -0.22539943122446929 0 0.31140457280844042 -0.24710474912070499 0 0.29234931722919649 -0.23956849287787771 0 0.27362138757170362 -0.2426007269765893 0 0.28009493911397709 -0.25531812806766069 0 0.29234931722919649 -0.23956849287787771 0 0.28158405213751547 -0.22140539282722879 0 0.27362138757170362 -0.2426007269765893 0 0.30715254712033069 -0.22539943122446929 0 0.29234931722919649 -0.23956849287787771 0 0.28158405213751547 -0.22140539282722879 0 0.28158405213751547 -0.22140539282722879 0 0.26621460642996558 -0.23052855599088379 0 0.27362138757170362 -0.2426007269765893 0 0.28158405213751547 -0.22140539282722879 0 0.26621460642996558 -0.23052855599088379 0 0.26307381511529532 -0.2143756044194241 0 0.26621460642996558 -0.23052855599088379 0 0.27362138757170362 -0.2426007269765893 0 0.26034160768121078 -0.2422716922893062 0 0.27362138757170362 -0.2426007269765893 0 0.26034160768121078 -0.2422716922893062 0 0.26515279713901752 -0.25474276698909742 0 0.26034160768121078 -0.2422716922893062 0 0.26515279713901752 -0.25474276698909742 0 0.25575058308532189 -0.25269357128633052 0 0.26034160768121078 -0.2422716922893062 0 0.25134951441318748 -0.22920843539767929 0 0.2499607574480687 -0.24385609709525671 0 0.25575058308532189 -0.25269357128633052 0 0.2462907050713771 -0.25204034373521428 0 0.2499607574480687 -0.24385609709525671 0 0.26034160768121078 -0.2422716922893062 0 0.25575058308532189 -0.25269357128633052 0 0.2499607574480687 -0.24385609709525671 0 0.26621460642996558 -0.23052855599088379 0 0.25134951441318748 -0.22920843539767929 0 0.26307381511529532 -0.2143756044194241 0 0.26621460642996558 -0.23052855599088379 0 0.26034160768121078 -0.2422716922893062 0 0.25134951441318748 -0.22920843539767929 0 0.25134951441318748 -0.22920843539767929 0 0.26307381511529532 -0.2143756044194241 0 0.24314545538918961 -0.20571013864437751 0 0.26307381511529532 -0.2143756044194241 0 0.2593871514889205 -0.19799184377322379 0 0.24314545538918961 -0.20571013864437751 0 0.26307381511529532 -0.2143756044194241 0 0.27747759048209231 -0.20168759245952969 0 0.2593871514889205 -0.19799184377322379 0 0.28158405213751547 -0.22140539282722879 0 0.26307381511529532 -0.2143756044194241 0 0.27747759048209231 -0.20168759245952969 0 0.27747759048209231 -0.20168759245952969 0 0.2593871514889205 -0.19799184377322379 0 0.269221803856454 -0.185599514949991 0 0.28632476970011178 -0.18938030831719929 0 0.27747759048209231 -0.20168759245952969 0 0.269221803856454 -0.185599514949991 0 0.2593871514889205 -0.19799184377322379 0 0.269221803856454 -0.185599514949991 0 0.2437278363918948 -0.18195096812212239 0 0.260919387449559 -0.16579352929295721 0 0.269221803856454 -0.185599514949991 0 0.2437278363918948 -0.18195096812212239 0 0.260919387449559 -0.16579352929295721 0 0.28401442498348639 -0.17719336780422379 0 0.260919387449559 -0.16579352929295721 0 0.27757308642867828 -0.16101723958663619 0 0.28401442498348639 -0.17719336780422379 0 0.260919387449559 -0.16579352929295721 0 0.27757308642867828 -0.16101723958663619 0 0.27224003922127837 -0.1473222684895614 0 0.260919387449559 -0.16579352929295721 0 0.269221803856454 -0.185599514949991 0 0.28401442498348639 -0.17719336780422379 0 0.28632476970011178 -0.18938030831719929 0 0.269221803856454 -0.185599514949991 0 0.28401442498348639 -0.17719336780422379 0 0.260919387449559 -0.16579352929295721 0 0.25452239946831973 -0.14829655140993131 0 0.27224003922127837 -0.1473222684895614 0 0.260919387449559 -0.16579352929295721 0 0.25452239946831973 -0.14829655140993131 0 0.23782434991563151 -0.15439369078169049 0 0.25741251913389712 -0.1305951081492244 0 0.25452239946831973 -0.14829655140993131 0 0.27224003922127837 -0.1473222684895614 0 0.27757308642867828 -0.16101723958663619 0 0.27224003922127837 -0.1473222684895614 0 0.2931184940603897 -0.15375979275980259 0 0.25741251913389712 -0.1305951081492244 0 0.27224003922127837 -0.1473222684895614 0 0.28822748037447399 -0.12879263247558709 0 0.29512866602350563 -0.1184484781339787 0 0.2959534750055749 -0.1435622706191019 0 0.29512866602350563 -0.1184484781339787 0 0.28822748037447399 -0.12879263247558709 0 0.2959534750055749 -0.1435622706191019 0 0.2959534750055749 -0.1435622706191019 0 0.2931184940603897 -0.15375979275980259 0 0.29606782433269818 -0.16881524064208181 0 0.28822748037447399 -0.12879263247558709 0 0.2959534750055749 -0.1435622706191019 0 0.2931184940603897 -0.15375979275980259 0 0.28822748037447399 -0.12879263247558709 0 0.2931184940603897 -0.15375979275980259 0 0.27224003922127837 -0.1473222684895614 0 0.28822748037447399 -0.12879263247558709 0 0.2931184940603897 -0.15375979275980259 0 0.2959534750055749 -0.1435622706191019 0 0.29606782433269818 -0.16881524064208181 0 0.2959534750055749 -0.1435622706191019 0 0.30786991093933941 -0.1327242262548293 0 0.31334084787329858 -0.14560100496875439 0 0.2959534750055749 -0.1435622706191019 0 0.30589655906226038 -0.156608858018214 0 0.31334084787329858 -0.14560100496875439 0 0.30589655906226038 -0.156608858018214 0 0.31666093946419188 -0.15748088094218049 0 0.31334084787329858 -0.14560100496875439 0 0.29512866602350563 -0.1184484781339787 0 0.2959534750055749 -0.1435622706191019 0 0.30010147488007238 -0.1276093355582181 0 0.2959534750055749 -0.1435622706191019 0 0.30786991093933941 -0.1327242262548293 0 0.30010147488007238 -0.1276093355582181 0 0.31399575267335023 -0.12250180558336519 0 0.30554459793957989 -0.1238630007756472 0 0.30786991093933941 -0.1327242262548293 0 0.30554459793957989 -0.1238630007756472 0 0.30786991093933941 -0.1327242262548293 0 0.30010147488007238 -0.1276093355582181 0 0.28401442498348639 -0.17719336780422379 0 0.29606782433269818 -0.16881524064208181 0 0.2980095077463053 -0.17872695304401809 0 0.28632476970011178 -0.18938030831719929 0 0.28401442498348639 -0.17719336780422379 0 0.2980095077463053 -0.17872695304401809 0 0.27757308642867828 -0.16101723958663619 0 0.2931184940603897 -0.15375979275980259 0 0.28401442498348639 -0.17719336780422379 0 0.2931184940603897 -0.15375979275980259 0 0.28401442498348639 -0.17719336780422379 0 0.29606782433269818 -0.16881524064208181 0 0.2931184940603897 -0.15375979275980259 0 0.29606782433269818 -0.16881524064208181 0 0.29606782433269818 -0.16881524064208181 0 0.30589655906226038 -0.156608858018214 0 0.31145366373618227 -0.1686264437044486 0 0.2959534750055749 -0.1435622706191019 0 0.29606782433269818 -0.16881524064208181 0 0.30589655906226038 -0.156608858018214 0 0.30589655906226038 -0.156608858018214 0 0.31145366373618227 -0.1686264437044486 0 0.31666093946419188 -0.15748088094218049 0 0.31145366373618227 -0.1686264437044486 0 0.2980095077463053 -0.17872695304401809 0 0.32549301828835953 -0.18492261693889581 0 0.29606782433269818 -0.16881524064208181 0 0.31145366373618227 -0.1686264437044486 0 0.2980095077463053 -0.17872695304401809 0 0.29606782433269818 -0.16881524064208181 0 0.2980095077463053 -0.17872695304401809 0 0.31145366373618227 -0.1686264437044486 0 0.32549301828835953 -0.18492261693889581 0 0.32738776678709508 -0.16545123116759969 0 0.31145366373618227 -0.1686264437044486 0 0.32738776678709508 -0.16545123116759969 0 0.31666093946419188 -0.15748088094218049 0 0.32738776678709508 -0.16545123116759969 0 0.31666093946419188 -0.15748088094218049 0 0.32968898845727718 -0.1497650634196834 0 0.32738776678709508 -0.16545123116759969 0 0.32968898845727718 -0.1497650634196834 0 0.34808551514449421 -0.1661511205495555 0 0.32549301828835953 -0.18492261693889581 0 0.32738776678709508 -0.16545123116759969 0 0.34808551514449421 -0.1661511205495555 0 0.32549301828835953 -0.18492261693889581 0 0.34808551514449421 -0.1661511205495555 0 0.32549301828835953 -0.18492261693889581 0 0.34808551514449421 -0.1661511205495555 0 0.34521429895780248 -0.1968392362703156 0 0.30786991093933941 -0.1327242262548293 0 0.32373683991627678 -0.1342707635111336 0 0.31334084787329858 -0.14560100496875439 0 0.31399575267335023 -0.12250180558336519 0 0.32517348349888747 -0.118580130041643 0 0.32373683991627678 -0.1342707635111336 0 0.31399575267335023 -0.12250180558336519 0 0.30786991093933941 -0.1327242262548293 0 0.32373683991627678 -0.1342707635111336 0 0.32373683991627678 -0.1342707635111336 0 0.31334084787329858 -0.14560100496875439 0 0.32968898845727718 -0.1497650634196834 0 0.31666093946419188 -0.15748088094218049 0 0.31334084787329858 -0.14560100496875439 0 0.32968898845727718 -0.1497650634196834 0 0.32373683991627678 -0.1342707635111336 0 0.32968898845727718 -0.1497650634196834 0 0.34485783347551252 -0.1433779188078016 0 0.32968898845727718 -0.1497650634196834 0 0.34485783347551252 -0.1433779188078016 0 0.34808551514449421 -0.1661511205495555 0 0.34014121552940491 -0.1203166258242544 0 0.32373683991627678 -0.1342707635111336 0 0.34485783347551252 -0.1433779188078016 0 0.34014121552940491 -0.1203166258242544 0 0.35551888896884759 -0.1297027680154724 0 0.34485783347551252 -0.1433779188078016 0 0.35551888896884759 -0.1297027680154724 0 0.34485783347551252 -0.1433779188078016 0 0.37067801200062889 -0.1473796241602153 0 0.34485783347551252 -0.1433779188078016 0 0.37067801200062889 -0.1473796241602153 0 0.34808551514449421 -0.1661511205495555 0 0.35551888896884759 -0.1297027680154724 0 0.37067801200062889 -0.1473796241602153 0 0.37104303648388809 -0.1272612894930944 0 0.34808551514449421 -0.1661511205495555 0 0.36752808638216261 -0.17990459429682831 0 0.34521429895780248 -0.1968392362703156 0 0.34808551514449421 -0.1661511205495555 0 0.37072349948513561 -0.1630779710757761 0 0.36752808638216261 -0.17990459429682831 0 0.37067801200062889 -0.1473796241602153 0 0.34808551514449421 -0.1661511205495555 0 0.37072349948513561 -0.1630779710757761 0 0.37067801200062889 -0.1473796241602153 0 0.34808551514449421 -0.1661511205495555 0 0.37072349948513561 -0.1630779710757761 0 0.36752808638216261 -0.17990459429682831 0 0.38565700028273392 -0.16791849986101029 0 0.36752808638216261 -0.17990459429682831 0 0.36890805570422369 -0.19954003101511669 0 0.34521429895780248 -0.1968392362703156 0 0.36752808638216261 -0.17990459429682831 0 0.36890805570422369 -0.19954003101511669 0 0.38551481473406651 -0.18910273675150999 0 0.36890805570422369 -0.19954003101511669 0 0.35851964138810982 -0.2171827375251118 0 0.37645297458065691 -0.21353851220024839 0 0.35851964138810982 -0.2171827375251118 0 0.34521429895780248 -0.1968392362703156 0 0.33865146772119931 -0.2184974665014994 0 0.36890805570422369 -0.19954003101511669 0 0.35851964138810982 -0.2171827375251118 0 0.34521429895780248 -0.1968392362703156 0 0.32549301828835953 -0.18492261693889581 0 0.34521429895780248 -0.1968392362703156 0 0.32148368101975677 -0.2112815477794289 0 0.34521429895780248 -0.1968392362703156 0 0.33865146772119931 -0.2184974665014994 0 0.32148368101975677 -0.2112815477794289 0 0.30290052143222262 -0.20369411332823331 0 0.32549301828835953 -0.18492261693889581 0 0.32148368101975677 -0.2112815477794289 0 0.30290052143222262 -0.20369411332823331 0 0.32549301828835953 -0.18492261693889581 0 0.31140457280844042 -0.24710474912070499 0 0.32841487832378857 -0.23419691532036521 0 0.32909477526671738 -0.25319804842994992 0 0.30715254712033069 -0.22539943122446929 0 0.31140457280844042 -0.24710474912070499 0 0.32841487832378857 -0.23419691532036521 0 0.30715254712033069 -0.22539943122446929 0 0.32148368101975677 -0.2112815477794289 0 0.32841487832378857 -0.23419691532036521 0 0.33865146772119931 -0.2184974665014994 0 0.32841487832378857 -0.23419691532036521 0 0.34678876975393269 -0.23153157971564481 0 0.33865146772119931 -0.2184974665014994 0 0.32148368101975677 -0.2112815477794289 0 0.32841487832378857 -0.23419691532036521 0 0.32841487832378857 -0.23419691532036521 0 0.34542116247921317 -0.24786541093840589 0 0.32909477526671738 -0.25319804842994992 0 0.32841487832378857 -0.23419691532036521 0 0.34542116247921317 -0.24786541093840589 0 0.34678876975393269 -0.23153157971564481 0 0.34542116247921317 -0.24786541093840589 0 0.36282952759798831 -0.23490181410806829 0 0.36211004630048071 -0.25874315800932568 0 0.34542116247921317 -0.24786541093840589 0 0.34678876975393269 -0.23153157971564481 0 0.36282952759798831 -0.23490181410806829 0 0.35851964138810982 -0.2171827375251118 0 0.33865146772119931 -0.2184974665014994 0 0.34678876975393269 -0.23153157971564481 0 0.35851964138810982 -0.2171827375251118 0 0.34678876975393269 -0.23153157971564481 0 0.36282952759798831 -0.23490181410806829 0 0.35851964138810982 -0.2171827375251118 0 0.37179579398026102 -0.22561915142401329 0 0.36282952759798831 -0.23490181410806829 0 0.35851964138810982 -0.2171827375251118 0 0.37179579398026102 -0.22561915142401329 0 0.37645297458065691 -0.21353851220024839 0 0.37179579398026102 -0.22561915142401329 0 0.36282952759798831 -0.23490181410806829 0 0.37754581309809132 -0.23651361028518689 0 0.36282952759798831 -0.23490181410806829 0 0.36876625398544938 -0.24898888889403961 0 0.36211004630048071 -0.25874315800932568 0 0.36282952759798831 -0.23490181410806829 0 0.36211004630048071 -0.25874315800932568 0 0.36282952759798831 -0.23490181410806829 0 0.36876625398544938 -0.24898888889403961 0 0.37754581309809132 -0.23651361028518689 0 0.37754581309809132 -0.23651361028518689 0 0.39300219267510322 -0.23842714914515989 0 0.3871149211879113 -0.25548270742864421 0 0.39300219267510322 -0.23842714914515989 0 0.3871149211879113 -0.25548270742864421 0 0.40207495352916539 -0.25113417058953519 0 0.39300219267510322 -0.23842714914515989 0 0.40723458142941671 -0.23497076085713389 0 0.40207495352916539 -0.25113417058953519 0 0.39851670543712209 -0.2244771902628257 0 0.41039622944065363 -0.2185270516157129 0 0.40723458142941671 -0.23497076085713389 0 0.39300219267510322 -0.23842714914515989 0 0.39851670543712209 -0.2244771902628257 0 0.40723458142941671 -0.23497076085713389 0 0.39300219267510322 -0.23842714914515989 0 0.39851670543712209 -0.2244771902628257 0 0.38505811203634721 -0.22522643630241351 0 0.39851670543712209 -0.2244771902628257 0 0.38505811203634721 -0.22522643630241351 0 0.39303519244684892 -0.21278300449704671 0 0.37754581309809132 -0.23651361028518689 0 0.39300219267510322 -0.23842714914515989 0 0.38505811203634721 -0.22522643630241351 0 0.37179579398026102 -0.22561915142401329 0 0.37754581309809132 -0.23651361028518689 0 0.38505811203634721 -0.22522643630241351 0 0.37179579398026102 -0.22561915142401329 0 0.38505811203634721 -0.22522643630241351 0 0.37645297458065691 -0.21353851220024839 0 0.38505811203634721 -0.22522643630241351 0 0.37645297458065691 -0.21353851220024839 0 0.39303519244684892 -0.21278300449704671 0 0.36890805570422369 -0.19954003101511669 0 0.37645297458065691 -0.21353851220024839 0 0.38544293285627962 -0.20314808770867229 0 0.37645297458065691 -0.21353851220024839 0 0.38544293285627962 -0.20314808770867229 0 0.39303519244684892 -0.21278300449704671 0 0.36890805570422369 -0.19954003101511669 0 0.38544293285627962 -0.20314808770867229 0 0.38551481473406651 -0.18910273675150999 0 0.38544293285627962 -0.20314808770867229 0 0.38551481473406651 -0.18910273675150999 0 0.40330362681560211 -0.20077615407943949 0 0.38551481473406651 -0.18910273675150999 0 0.40330362681560211 -0.20077615407943949 0 0.39995041381356911 -0.1868338584648204 0 0.40330362681560211 -0.20077615407943949 0 0.4125958117473455 -0.19170302267586259 0 0.39995041381356911 -0.1868338584648204 0 0.40330362681560211 -0.20077615407943949 0 0.39303519244684892 -0.21278300449704671 0 0.41039622944065363 -0.2185270516157129 0 0.38544293285627962 -0.20314808770867229 0 0.40330362681560211 -0.20077615407943949 0 0.39303519244684892 -0.21278300449704671 0 0.39851670543712209 -0.2244771902628257 0 0.39303519244684892 -0.21278300449704671 0 0.41039622944065363 -0.2185270516157129 0 0.40330362681560211 -0.20077615407943949 0 0.41039622944065363 -0.2185270516157129 0 0.42189732607146729 -0.20211324892629831 0 0.41039622944065363 -0.2185270516157129 0 0.42189732607146729 -0.20211324892629831 0 0.42790605200351661 -0.22140108800821251 0 0.40330362681560211 -0.20077615407943949 0 0.4125958117473455 -0.19170302267586259 0 0.42189732607146729 -0.20211324892629831 0 0.4125958117473455 -0.19170302267586259 0 0.42189732607146729 -0.20211324892629831 0 0.42233780496578233 -0.18319904235883591 0 0.42189732607146729 -0.20211324892629831 0 0.43389642119060762 -0.191962199940241 0 0.42233780496578233 -0.18319904235883591 0 0.42189732607146729 -0.20211324892629831 0 0.43389642119060762 -0.191962199940241 0 0.43723926749718739 -0.20471492206911249 0 0.43723926749718739 -0.20471492206911249 0 0.42790605200351661 -0.22140108800821251 0 0.44233814121790038 -0.22173902575952509 0 0.42189732607146729 -0.20211324892629831 0 0.43723926749718739 -0.20471492206911249 0 0.42790605200351661 -0.22140108800821251 0 0.43048550082884018 -0.24614270293406881 0 0.44233814121790038 -0.22173902575952509 0 0.42790605200351661 -0.22140108800821251 0 0.43048550082884018 -0.24614270293406881 0 0.44233814121790038 -0.22173902575952509 0 0.42790605200351661 -0.22140108800821251 0 0.43048550082884018 -0.24614270293406881 0 0.42088007225406548 -0.23367140350055049 0 0.43048550082884018 -0.24614270293406881 0 0.44582088554477811 -0.24525862245079941 0 0.43357426810421817 -0.25015303326672972 0 0.43048550082884018 -0.24614270293406881 0 0.42846035594967069 -0.25031232086228522 0 0.43357426810421817 -0.25015303326672972 0 0.43048550082884018 -0.24614270293406881 0 0.43357426810421817 -0.25015303326672972 0 0.43048550082884018 -0.24614270293406881 0 0.418537335240391 -0.2435876000290193 0 0.42846035594967069 -0.25031232086228522 0 0.43048550082884018 -0.24614270293406881 0 0.42846035594967069 -0.25031232086228522 0 0.43048550082884018 -0.24614270293406881 0 0.42088007225406548 -0.23367140350055049 0 0.43048550082884018 -0.24614270293406881 0 0.418537335240391 -0.2435876000290193 0 0.42088007225406548 -0.23367140350055049 0 0.418537335240391 -0.2435876000290193 0 0.40723458142941671 -0.23497076085713389 0 0.42088007225406548 -0.23367140350055049 0 0.418537335240391 -0.2435876000290193 0 0.40723458142941671 -0.23497076085713389 0 0.40207495352916539 -0.25113417058953519 0 0.418537335240391 -0.2435876000290193 0 0.40207495352916539 -0.25113417058953519 0 0.42846035594967069 -0.25031232086228522 0 0.41039622944065363 -0.2185270516157129 0 0.40723458142941671 -0.23497076085713389 0 0.42088007225406548 -0.23367140350055049 0 0.41039622944065363 -0.2185270516157129 0 0.42790605200351661 -0.22140108800821251 0 0.42088007225406548 -0.23367140350055049 0 0.3932705088567644 -0.1286081277708763 0 0.38946375456974969 -0.1482633138159434 0 0.40032650034539519 -0.13972272199131119 0 0.3932705088567644 -0.1286081277708763 0 0.38946375456974969 -0.1482633138159434 0 0.40224748518751269 -0.1211494002184121 0 0.40802316631723889 -0.13171289331352951 0 0.40224748518751269 -0.1211494002184121 0 0.40096691517672778 -0.13029828582353201 0 0.3932705088567644 -0.1286081277708763 0 0.40224748518751269 -0.1211494002184121 0 0.40096691517672778 -0.13029828582353201 0 0.40802316631723889 -0.13171289331352951 0 0.40096691517672778 -0.13029828582353201 0 0.40032650034539519 -0.13972272199131119 0 0.40802316631723889 -0.13171289331352951 0 0.40032650034539519 -0.13972272199131119 0 0.40802316631723889 -0.13171289331352951 0 0.40096691517672778 -0.13029828582353201 0 0.40032650034539519 -0.13972272199131119 0 0.3932705088567644 -0.1286081277708763 0 0.37067801200062889 -0.1473796241602153 0 0.37104303648388809 -0.1272612894930944 0 0.3932705088567644 -0.1286081277708763 0 0.37067801200062889 -0.1473796241602153 0 0.3932705088567644 -0.1286081277708763 0 0.37067801200062889 -0.1473796241602153 0 0.37072349948513561 -0.1630779710757761 0 0.38946375456974969 -0.1482633138159434 0 0.37067801200062889 -0.1473796241602153 0 0.3932705088567644 -0.1286081277708763 0 0.38946375456974969 -0.1482633138159434 0 0.40032650034539519 -0.13972272199131119 0 0.38946375456974969 -0.1482633138159434 0 0.40103769468862932 -0.15735650722112959 0 0.38946375456974969 -0.1482633138159434 0 0.40103769468862932 -0.15735650722112959 0 0.38565700028273392 -0.16791849986101029 0 0.40103769468862932 -0.15735650722112959 0 0.38565700028273392 -0.16791849986101029 0 0.40804365254297231 -0.17415516972609171 0 0.37072349948513561 -0.1630779710757761 0 0.38946375456974969 -0.1482633138159434 0 0.38565700028273392 -0.16791849986101029 0 0.38946375456974969 -0.1482633138159434 0 0.38565700028273392 -0.16791849986101029 0 0.38551481473406651 -0.18910273675150999 0 0.38565700028273392 -0.16791849986101029 0 0.39995041381356911 -0.1868338584648204 0 0.36752808638216261 -0.17990459429682831 0 0.38551481473406651 -0.18910273675150999 0 0.38565700028273392 -0.16791849986101029 0 0.38565700028273392 -0.16791849986101029 0 0.39995041381356911 -0.1868338584648204 0 0.40804365254297231 -0.17415516972609171 0 0.4125958117473455 -0.19170302267586259 0 0.40804365254297231 -0.17415516972609171 0 0.42233780496578233 -0.18319904235883591 0 0.4125958117473455 -0.19170302267586259 0 0.39995041381356911 -0.1868338584648204 0 0.40804365254297231 -0.17415516972609171 0 0.42233780496578233 -0.18319904235883591 0 0.43537196508735049 -0.18173276810905351 0 0.42169756570229522 -0.15672283071129131 0 0.43389642119060762 -0.191962199940241 0 0.42233780496578233 -0.18319904235883591 0 0.43537196508735049 -0.18173276810905351 0 0.43537196508735049 -0.18173276810905351 0 0.42169756570229522 -0.15672283071129131 0 0.43537196508735049 -0.18173276810905351 0 0.42169756570229522 -0.15672283071129131 0 0.44011919579772352 -0.15902857640534751 0 0.40804365254297231 -0.17415516972609171 0 0.42233780496578233 -0.18319904235883591 0 0.42169756570229522 -0.15672283071129131 0 0.40103769468862932 -0.15735650722112959 0 0.40804365254297231 -0.17415516972609171 0 0.42169756570229522 -0.15672283071129131 0 0.40032650034539519 -0.13972272199131119 0 0.40103769468862932 -0.15735650722112959 0 0.42169756570229522 -0.15672283071129131 0 0.42169756570229522 -0.15672283071129131 0 0.40802316631723889 -0.13171289331352951 0 0.40032650034539519 -0.13972272199131119 0 0.42169756570229522 -0.15672283071129131 0 0.40802316631723889 -0.13171289331352951 0 0.42169756570229522 -0.15672283071129131 0 0.43087782981676859 -0.131879285754128 0 0.44052259681213413 -0.14512254840888281 0 0.42169756570229522 -0.15672283071129131 0 0.44052259681213413 -0.14512254840888281 0 0.44011919579772352 -0.15902857640534751 0 0.42510906065580589 -0.11393180641703871 0 0.43087782981676859 -0.131879285754128 0 0.40802316631723889 -0.13171289331352951 0 0.42169756570229522 -0.15672283071129131 0 0.43087782981676859 -0.131879285754128 0 0.40802316631723889 -0.13171289331352951 0 0.46093003486481321 -0.11810563265674839 0 0.46623847963083442 -0.1374076686568538 0 0.47239045088042492 -0.13005034139104371 0 0.46093003486481321 -0.11810563265674839 0 0.45430072039358249 -0.1470470373257684 0 0.46093003486481321 -0.11810563265674839 0 0.46623847963083442 -0.1374076686568538 0 0.45430072039358249 -0.1470470373257684 0 0.46093003486481321 -0.11810563265674839 0 0.44582693855797939 -0.1311402400572215 0 0.45430072039358249 -0.1470470373257684 0 0.441730170532879 -0.1159420230490274 0 0.43087782981676859 -0.131879285754128 0 0.44582693855797939 -0.1311402400572215 0 0.43087782981676859 -0.131879285754128 0 0.44582693855797939 -0.1311402400572215 0 0.44052259681213413 -0.14512254840888281 0 0.44582693855797939 -0.1311402400572215 0 0.44052259681213413 -0.14512254840888281 0 0.45430072039358249 -0.1470470373257684 0 0.44052259681213413 -0.14512254840888281 0 0.45430072039358249 -0.1470470373257684 0 0.44011919579772352 -0.15902857640534751 0 0.46623847963083442 -0.1374076686568538 0 0.45430072039358249 -0.1470470373257684 0 0.46795215833203208 -0.14958538313512479 0 0.45430072039358249 -0.1470470373257684 0 0.46795215833203208 -0.14958538313512479 0 0.46249654728105127 -0.15875526896169859 0 0.46249654728105127 -0.15875526896169859 0 0.44767140592235177 -0.17598844199478861 0 0.4590637049386419 -0.17656280063954849 0 0.46795215833203208 -0.14958538313512479 0 0.46765797362325351 -0.16960743348544691 0 0.46249654728105127 -0.15875526896169859 0 0.46765797362325351 -0.16960743348544691 0 0.46249654728105127 -0.15875526896169859 0 0.4590637049386419 -0.17656280063954849 0 0.45430072039358249 -0.1470470373257684 0 0.46249654728105127 -0.15875526896169859 0 0.44767140592235177 -0.17598844199478861 0 0.46249654728105127 -0.15875526896169859 0 0.4590637049386419 -0.17656280063954849 0 0.45430072039358249 -0.1470470373257684 0 0.44011919579772352 -0.15902857640534751 0 0.44767140592235177 -0.17598844199478861 0 0.45430072039358249 -0.1470470373257684 0 0.44767140592235177 -0.17598844199478861 0 0.44767140592235177 -0.17598844199478861 0 0.45131049953134228 -0.18433764364674099 0 0.4590637049386419 -0.17656280063954849 0 0.43537196508735049 -0.18173276810905351 0 0.44011919579772352 -0.15902857640534751 0 0.44767140592235177 -0.17598844199478861 0 0.43389642119060762 -0.191962199940241 0 0.43537196508735049 -0.18173276810905351 0 0.44405046135624082 -0.18412940313962539 0 0.43537196508735049 -0.18173276810905351 0 0.44767140592235177 -0.17598844199478861 0 0.44405046135624082 -0.18412940313962539 0 0.44405046135624082 -0.18412940313962539 0 0.45131049953134228 -0.18433764364674099 0 0.4501360628432447 -0.19063724014234421 0 0.44767140592235177 -0.17598844199478861 0 0.44405046135624082 -0.18412940313962539 0 0.45131049953134228 -0.18433764364674099 0 0.46765797362325351 -0.16960743348544691 0 0.4590637049386419 -0.17656280063954849 0 0.45563086259623248 -0.19437033231739831 0 0.4590637049386419 -0.17656280063954849 0 0.45563086259623248 -0.19437033231739831 0 0.46765797362325351 -0.16960743348544691 0 0.45563086259623248 -0.19437033231739831 0 0.46765797362325351 -0.16960743348544691 0 0.46817453342310178 -0.17984984725849121 0 0.45563086259623248 -0.19437033231739831 0 0.45131049953134228 -0.18433764364674099 0 0.4590637049386419 -0.17656280063954849 0 0.45563086259623248 -0.19437033231739831 0 0.46817453342310178 -0.17984984725849121 0 0.47868008644015098 -0.18364062408913809 0 0.4864423059537345 -0.17561039486471769 0 0.46817453342310178 -0.17984984725849121 0 0.47868008644015098 -0.18364062408913809 0 0.47427671796452459 -0.19390449174425081 0 0.4864423059537345 -0.17561039486471769 0 0.5 -0.16076066479590659 0 0.5 -0.1885669917164324 0 0.47868008644015098 -0.18364062408913809 0 0.4864423059537345 -0.17561039486471769 0 0.5 -0.1885669917164324 0 0.4864423059537345 -0.17561039486471769 0 0.5 -0.16076066479590659 0 0.4874204893839118 -0.1629257968797283 0 0.5 -0.16076066479590659 0 0.4874204893839118 -0.1629257968797283 0 0.48836632050416018 -0.15319142364385391 0 0.46765797362325351 -0.16960743348544691 0 0.47968508465027437 -0.14484453465349531 0 0.46817453342310178 -0.17984984725849121 0 0.4864423059537345 -0.17561039486471769 0 0.47621222687475862 -0.15989320835224299 0 0.46765797362325351 -0.16960743348544691 0 0.46817453342310178 -0.17984984725849121 0 0.47621222687475862 -0.15989320835224299 0 0.4864423059537345 -0.17561039486471769 0 0.4874204893839118 -0.1629257968797283 0 0.47621222687475862 -0.15989320835224299 0 0.46817453342310178 -0.17984984725849121 0 0.47621222687475862 -0.15989320835224299 0 0.4874204893839118 -0.1629257968797283 0 0.47621222687475862 -0.15989320835224299 0 0.48836632050416018 -0.15319142364385391 0 0.46765797362325351 -0.16960743348544691 0 0.47621222687475862 -0.15989320835224299 0 0.47968508465027437 -0.14484453465349531 0 0.47621222687475862 -0.15989320835224299 0 0.48424992032641551 -0.13993656944599481 0 0.47621222687475862 -0.15989320835224299 0 0.48836632050416018 -0.15319142364385391 0 0.48424992032641551 -0.13993656944599481 0 0.46795215833203208 -0.14958538313512479 0 0.46765797362325351 -0.16960743348544691 0 0.47968508465027437 -0.14484453465349531 0 0.47621222687475862 -0.15989320835224299 0 0.47968508465027437 -0.14484453465349531 0 0.48424992032641551 -0.13993656944599481 0 0.46623847963083442 -0.1374076686568538 0 0.46795215833203208 -0.14958538313512479 0 0.47424994269801352 -0.1397372940967013 0 0.46795215833203208 -0.14958538313512479 0 0.47968508465027437 -0.14484453465349531 0 0.47424994269801352 -0.1397372940967013 0 0.47968508465027437 -0.14484453465349531 0 0.47994759956173211 -0.14051186616834291 0 0.47424994269801352 -0.1397372940967013 0 0.47968508465027437 -0.14484453465349531 0 0.48424992032641551 -0.13993656944599481 0 0.47994759956173211 -0.14051186616834291 0 0.5 -0.16076066479590659 0 0.48836632050416018 -0.15319142364385391 0 0.5 -0.13295433787538069 0 0.48836632050416018 -0.15319142364385391 0 0.5 -0.13295433787538069 0 0.48424992032641551 -0.13993656944599481 0 0.48916266477234061 -0.13224727383335569 0 0.48085855782101261 -0.13626791926353529 0 0.48424992032641551 -0.13993656944599481 0 0.5 -0.13295433787538069 0 0.48916266477234061 -0.13224727383335569 0 0.48424992032641551 -0.13993656944599481 0 0.48986304781109291 -0.1242692167884092 0 0.5 -0.13295433787538069 0 0.48916266477234061 -0.13224727383335569 0 0.48986304781109291 -0.1242692167884092 0 0.48916266477234061 -0.13224727383335569 0 0.48085855782101261 -0.13626791926353529 0 0.47499259514944292 -0.1202547269832886 0 0.48085855782101261 -0.13626791926353529 0 0.47239045088042492 -0.13005034139104371 0 0.48085855782101261 -0.13626791926353529 0 0.48424992032641551 -0.13993656944599481 0 0.47994759956173211 -0.14051186616834291 0 0.48085855782101261 -0.13626791926353529 0 0.47994759956173211 -0.14051186616834291 0 0.47424994269801352 -0.1397372940967013 0 0.48085855782101261 -0.13626791926353529 0 0.47424994269801352 -0.1397372940967013 0 0.47239045088042492 -0.13005034139104371 0 0.46623847963083442 -0.1374076686568538 0 0.47424994269801352 -0.1397372940967013 0 0.47239045088042492 -0.13005034139104371 0 0.45735248248792831 -0.2263504469462593 0 0.45606595353113982 -0.2348942090935259 0 0.45040787416373163 -0.22146407059246401 0 0.4593659812364308 -0.22004368230368379 0 0.45735248248792831 -0.2263504469462593 0 0.45040787416373163 -0.22146407059246401 0 0.4593659812364308 -0.22004368230368379 0 0.45735248248792831 -0.2263504469462593 0 0.47005683011064803 -0.22590290220369119 0 0.4593659812364308 -0.22004368230368379 0 0.46586242272604061 -0.21273545752659301 0 0.47005683011064803 -0.22590290220369119 0 0.45735248248792831 -0.2263504469462593 0 0.45606595353113982 -0.2348942090935259 0 0.47005683011064803 -0.22590290220369119 0 0.46661169077989217 -0.2415165845456661 0 0.45606595353113982 -0.2348942090935259 0 0.47005683011064803 -0.22590290220369119 0 0.46661169077989217 -0.2415165845456661 0 0.45571617873614662 -0.24946335937342859 0 0.47785808936807489 -0.24877368548012899 0 0.45571617873614662 -0.24946335937342859 0 0.47785808936807489 -0.24877368548012899 0 0.46661169077989217 -0.2415165845456661 0 0.45518121600666411 -0.24259067484840299 0 0.45571617873614662 -0.24946335937342859 0 0.46661169077989217 -0.2415165845456661 0 0.45518121600666411 -0.24259067484840299 0 0.45606595353113982 -0.2348942090935259 0 0.45571617873614662 -0.24946335937342859 0 0.43357426810421817 -0.25015303326672972 0 0.43048550082884018 -0.24614270293406881 0 0.44582088554477811 -0.24525862245079941 0 0.44233814121790038 -0.22173902575952509 0 0.45571617873614662 -0.24946335937342859 0 0.44582088554477811 -0.24525862245079941 0 0.43357426810421817 -0.25015303326672972 0 0.45518121600666411 -0.24259067484840299 0 0.45606595353113982 -0.2348942090935259 0 0.44582088554477811 -0.24525862245079941 0 0.45518121600666411 -0.24259067484840299 0 0.45571617873614662 -0.24946335937342859 0 0.44582088554477811 -0.24525862245079941 0 0.44582088554477811 -0.24525862245079941 0 0.44233814121790038 -0.22173902575952509 0 0.45040787416373163 -0.22146407059246401 0 0.44582088554477811 -0.24525862245079941 0 0.45040787416373163 -0.22146407059246401 0 0.45606595353113982 -0.2348942090935259 0 0.44582088554477811 -0.24525862245079941 0 0.45040787416373163 -0.22146407059246401 0 0.43723926749718739 -0.20471492206911249 0 0.44233814121790038 -0.22173902575952509 0 0.45499486278268447 -0.1976695187341285 0 0.45040787416373163 -0.22146407059246401 0 0.45499486278268447 -0.1976695187341285 0 0.44233814121790038 -0.22173902575952509 0 0.45040787416373163 -0.22146407059246401 0 0.45499486278268447 -0.1976695187341285 0 0.44233814121790038 -0.22173902575952509 0 0.45499486278268447 -0.1976695187341285 0 0.43723926749718739 -0.20471492206911249 0 0.44395992212319679 -0.19308347956624619 0 0.45499486278268447 -0.1976695187341285 0 0.43389642119060762 -0.191962199940241 0 0.44405046135624082 -0.18412940313962539 0 0.44395992212319679 -0.19308347956624619 0 0.43389642119060762 -0.191962199940241 0 0.43723926749718739 -0.20471492206911249 0 0.44395992212319679 -0.19308347956624619 0 0.44395992212319679 -0.19308347956624619 0 0.45499486278268447 -0.1976695187341285 0 0.45131049953134228 -0.18433764364674099 0 0.4501360628432447 -0.19063724014234421 0 0.45563086259623248 -0.19437033231739831 0 0.44395992212319679 -0.19308347956624619 0 0.4501360628432447 -0.19063724014234421 0 0.45499486278268447 -0.1976695187341285 0 0.44405046135624082 -0.18412940313962539 0 0.44395992212319679 -0.19308347956624619 0 0.4501360628432447 -0.19063724014234421 0 0.46817453342310178 -0.17984984725849121 0 0.46013683997144489 -0.19980648616473931 0 0.47427671796452459 -0.19390449174425081 0 0.46817453342310178 -0.17984984725849121 0 0.46013683997144489 -0.19980648616473931 0 0.46817453342310178 -0.17984984725849121 0 0.45563086259623248 -0.19437033231739831 0 0.46013683997144489 -0.19980648616473931 0 0.4501360628432447 -0.19063724014234421 0 0.45563086259623248 -0.19437033231739831 0 0.45499486278268447 -0.1976695187341285 0 0.45499486278268447 -0.1976695187341285 0 0.46013683997144489 -0.19980648616473931 0 0.45563086259623248 -0.19437033231739831 0 0.45499486278268447 -0.1976695187341285 0 0.45563086259623248 -0.19437033231739831 0 0.45499486278268447 -0.1976695187341285 0 0.46013683997144489 -0.19980648616473931 0 0.46013683997144489 -0.19980648616473931 0 0.46586242272604061 -0.21273545752659301 0 0.48006841998572208 -0.20808990240084899 0 0.45040787416373163 -0.22146407059246401 0 0.45499486278268447 -0.1976695187341285 0 0.4548395438527213 -0.21295904373074681 0 0.4593659812364308 -0.22004368230368379 0 0.45040787416373163 -0.22146407059246401 0 0.4548395438527213 -0.21295904373074681 0 0.4593659812364308 -0.22004368230368379 0 0.4548395438527213 -0.21295904373074681 0 0.46586242272604061 -0.21273545752659301 0 0.46013683997144489 -0.19980648616473931 0 0.4548395438527213 -0.21295904373074681 0 0.45499486278268447 -0.1976695187341285 0 0.46013683997144489 -0.19980648616473931 0 0.4548395438527213 -0.21295904373074681 0 0.46013683997144489 -0.19980648616473931 0 0.4548395438527213 -0.21295904373074681 0 0.46586242272604061 -0.21273545752659301 0 0.46013683997144489 -0.19980648616473931 0 0.48006841998572208 -0.20808990240084899 0 0.46586242272604061 -0.21273545752659301 0 0.48006841998572208 -0.20808990240084899 0 0.47005683011064803 -0.22590290220369119 0 0.46013683997144489 -0.19980648616473931 0 0.48006841998572208 -0.20808990240084899 0 0.47427671796452459 -0.19390449174425081 0 0.47868008644015098 -0.18364062408913809 0 0.47427671796452459 -0.19390449174425081 0 0.5 -0.1885669917164324 0 0.48006841998572208 -0.20808990240084899 0 0.47427671796452459 -0.19390449174425081 0 0.5 -0.1885669917164324 0 0.48006841998572208 -0.20808990240084899 0 0.5 -0.1885669917164324 0 0.49999999999999961 -0.21637331863695819 0 0.48006841998572208 -0.20808990240084899 0 0.49999999999999961 -0.21637331863695819 0 0.48006841998572208 -0.20808990240084899 0 0.49999999999999961 -0.21637331863695819 0 0.4862545149737133 -0.22430099187442659 0 0.49999999999999961 -0.21637331863695819 0 0.5 -0.2322286651118938 0 0.4862545149737133 -0.22430099187442659 0 0.5 -0.2322286651118938 0 0.4862545149737133 -0.22430099187442659 0 0.48731543898686108 -0.23834171508702701 0 0.4862545149737133 -0.22430099187442659 0 0.47005683011064803 -0.22590290220369119 0 0.48731543898686108 -0.23834171508702701 0 0.48006841998572208 -0.20808990240084899 0 0.4862545149737133 -0.22430099187442659 0 0.47005683011064803 -0.22590290220369119 0 0.46661169077989217 -0.2415165845456661 0 0.47005683011064803 -0.22590290220369119 0 0.48731543898686108 -0.23834171508702701 0 0.46661169077989217 -0.2415165845456661 0 0.47785808936807489 -0.24877368548012899 0 0.48731543898686108 -0.23834171508702701 0 0.47785808936807489 -0.24877368548012899 0 0.50000000000000333 -0.24808401158682941 0 0.48731543898686108 -0.23834171508702701 0 0.5 -0.2322286651118938 0 0.50000000000000333 -0.24808401158682941 0 0.48731543898686108 -0.23834171508702701 0 0.47785808936807489 -0.24877368548012899 0 0.50000000000000333 -0.24808401158682941 0 0.50000000000000333 -0.24808401158682941 0 0.48656724266228879 -0.26126228076250718 0 0.5 -0.26842994380811291 0 0.47785808936807489 -0.24877368548012899 0 0.50000000000000333 -0.24808401158682941 0 0.48656724266228879 -0.26126228076250718 0 0.5 -0.26842994380811291 0 0.48208681399926079 -0.27581357356502773 0 0.50000000000000111 -0.28877587602939642 0 0.48656724266228879 -0.26126228076250718 0 0.5 -0.26842994380811291 0 0.48208681399926079 -0.27581357356502773 0 0.48208681399926079 -0.27581357356502773 0 0.46068671901070851 -0.28535474144655731 0 0.48208681399926079 -0.27581357356502773 0 0.46768981413575761 -0.2649492641288182 0 0.46068671901070851 -0.28535474144655731 0 0.48656724266228879 -0.26126228076250718 0 0.48208681399926079 -0.27581357356502773 0 0.46768981413575761 -0.2649492641288182 0 0.47785808936807489 -0.24877368548012899 0 0.48656724266228879 -0.26126228076250718 0 0.46768981413575761 -0.2649492641288182 0 0.45571617873614662 -0.24946335937342859 0 0.47785808936807489 -0.24877368548012899 0 0.46768981413575761 -0.2649492641288182 0 0.45571617873614662 -0.24946335937342859 0 0.46768981413575761 -0.2649492641288182 0 0.44713049355746243 -0.26775388735664418 0 0.46768981413575761 -0.2649492641288182 0 0.44713049355746243 -0.26775388735664418 0 0.46068671901070851 -0.28535474144655731 0 0.44713049355746243 -0.26775388735664418 0 0.46068671901070851 -0.28535474144655731 0 0.45571617873614662 -0.24946335937342859 0 0.44713049355746243 -0.26775388735664418 0 0.43357426810421817 -0.25015303326672972 0 0.44713049355746243 -0.26775388735664418 0 0.43357426810421817 -0.25015303326672972 0 0.43808872290812301 -0.29542998993102848 0 0.44582747314286902 -0.31276753443956201 0 0.43031487288344161 -0.31703067604683871 0 0.43808872290812301 -0.29542998993102848 0 0.45932525709009708 -0.30194153040829069 0 0.44582747314286902 -0.31276753443956201 0 0.43808872290812301 -0.29542998993102848 0 0.46068671901070851 -0.28535474144655731 0 0.45932525709009708 -0.30194153040829069 0 0.43808872290812301 -0.29542998993102848 0 0.46068671901070851 -0.28535474144655731 0 0.44713049355746243 -0.26775388735664418 0 0.43808872290812301 -0.29542998993102848 0 0.46068671901070851 -0.28535474144655731 0 0.46068671901070851 -0.28535474144655731 0 0.47654280981399377 -0.30594164756046982 0 0.46068671901070851 -0.28535474144655731 0 0.45932525709009708 -0.30194153040829069 0 0.47654280981399377 -0.30594164756046982 0 0.45932525709009708 -0.30194153040829069 0 0.46020140703816609 -0.31790014661013011 0 0.44582747314286902 -0.31276753443956201 0 0.47654280981399377 -0.30594164756046982 0 0.46020140703816609 -0.31790014661013011 0 0.45932525709009708 -0.30194153040829069 0 0.47654280981399377 -0.30594164756046982 0 0.46020140703816609 -0.31790014661013011 0 0.47654280981399377 -0.30594164756046982 0 0.48452590656705868 -0.31630657706248883 0 0.48208681399926079 -0.27581357356502773 0 0.46068671901070851 -0.28535474144655731 0 0.47654280981399377 -0.30594164756046982 0 0.48208681399926079 -0.27581357356502773 0 0.47654280981399377 -0.30594164756046982 0 0.50000000000000111 -0.28877587602939642 0 0.50000000000000111 -0.28877587602939642 0 0.5 -0.31627016595707702 0 0.48452590656705868 -0.31630657706248883 0 0.47654280981399377 -0.30594164756046982 0 0.50000000000000111 -0.28877587602939642 0 0.47654280981399377 -0.30594164756046982 0 0.50000000000000111 -0.28877587602939642 0 0.48452590656705868 -0.31630657706248883 0 0.5 -0.31627016595707702 0 0.48452590656705868 -0.31630657706248883 0 0.4798244965011923 -0.33203805400226027 0 0.5 -0.31627016595707702 0 0.4798244965011923 -0.33203805400226027 0 0.5 -0.34376445588475768 0 0.4798244965011923 -0.33203805400226027 0 0.46847105179670839 -0.34389899480205388 0 0.46020140703816609 -0.31790014661013011 0 0.47654280981399377 -0.30594164756046982 0 0.47527365498010271 -0.31804660630883719 0 0.46020140703816609 -0.31790014661013011 0 0.48452590656705868 -0.31630657706248883 0 0.4798244965011923 -0.33203805400226027 0 0.47527365498010271 -0.31804660630883719 0 0.4798244965011923 -0.33203805400226027 0 0.47527365498010271 -0.31804660630883719 0 0.46020140703816609 -0.31790014661013011 0 0.47654280981399377 -0.30594164756046982 0 0.48452590656705868 -0.31630657706248883 0 0.47527365498010271 -0.31804660630883719 0 0.49999999999999711 -0.37125874581243851 0 0.48806042456369142 -0.35612155968098341 0 0.47674069655525092 -0.3698978429939776 0 0.4798244965011923 -0.33203805400226027 0 0.48806042456369142 -0.35612155968098341 0 0.5 -0.34376445588475768 0 0.49999999999999711 -0.37125874581243851 0 0.48806042456369142 -0.35612155968098341 0 0.5 -0.34376445588475768 0 0.4798244965011923 -0.33203805400226027 0 0.48806042456369142 -0.35612155968098341 0 0.46847105179670839 -0.34389899480205388 0 0.48806042456369142 -0.35612155968098341 0 0.47674069655525092 -0.3698978429939776 0 0.46847105179670839 -0.34389899480205388 0 0.47674069655525092 -0.3698978429939776 0 0.46847105179670839 -0.34389899480205388 0 0.47674069655525092 -0.3698978429939776 0 0.45392603783110008 -0.37108838658624999 0 0.46847105179670839 -0.34389899480205388 0 0.45392603783110008 -0.37108838658624999 0 0.46847105179670839 -0.34389899480205388 0 0.44672977628043381 -0.35017364189741718 0 0.45392603783110008 -0.37108838658624999 0 0.44672977628043381 -0.35017364189741718 0 0.42785183481717409 -0.36595316276467199 0 0.45392603783110008 -0.37108838658624999 0 0.42785183481717409 -0.36595316276467199 0 0.43242581624588322 -0.38730115333965082 0 0.46847105179670839 -0.34389899480205388 0 0.46020140703816609 -0.31790014661013011 0 0.46847105179670839 -0.34389899480205388 0 0.46020140703816609 -0.31790014661013011 0 0.45431986664039198 -0.33607192194780172 0 0.46847105179670839 -0.34389899480205388 0 0.44672977628043381 -0.35017364189741718 0 0.45431986664039198 -0.33607192194780172 0 0.44672977628043381 -0.35017364189741718 0 0.44127539957872802 -0.33175003730325792 0 0.42823689835664952 -0.34636857782623809 0 0.44672977628043381 -0.35017364189741718 0 0.45431986664039198 -0.33607192194780172 0 0.44127539957872802 -0.33175003730325792 0 0.46020140703816609 -0.31790014661013011 0 0.45431986664039198 -0.33607192194780172 0 0.44127539957872802 -0.33175003730325792 0 0.44127539957872802 -0.33175003730325792 0 0.44582747314286902 -0.31276753443956201 0 0.43031487288344161 -0.31703067604683871 0 0.46020140703816609 -0.31790014661013011 0 0.44127539957872802 -0.33175003730325792 0 0.46020140703816609 -0.31790014661013011 0 0.44127539957872802 -0.33175003730325792 0 0.44582747314286902 -0.31276753443956201 0 0.44127539957872802 -0.33175003730325792 0 0.43031487288344161 -0.31703067604683871 0 0.41707429101309201 -0.3297381436533145 0 0.44127539957872802 -0.33175003730325792 0 0.41707429101309201 -0.3297381436533145 0 0.42823689835664952 -0.34636857782623809 0 0.41707429101309201 -0.3297381436533145 0 0.42823689835664952 -0.34636857782623809 0 0.40866613474490449 -0.35252068697126149 0 0.41707429101309201 -0.3297381436533145 0 0.39289273070295128 -0.31558048689996993 0 0.41549072680553711 -0.30550523841549909 0 0.43031487288344161 -0.31703067604683871 0 0.41707429101309201 -0.3297381436533145 0 0.41549072680553711 -0.30550523841549909 0 0.44672977628043381 -0.35017364189741718 0 0.42785183481717409 -0.36595316276467199 0 0.42823689835664952 -0.34636857782623809 0 0.42785183481717409 -0.36595316276467199 0 0.40866613474490449 -0.35252068697126149 0 0.42785183481717409 -0.36595316276467199 0 0.42823689835664952 -0.34636857782623809 0 0.40866613474490449 -0.35252068697126149 0 0.42785183481717409 -0.36595316276467199 0 0.4111933065081313 -0.36805982019164402 0 0.41287057948892703 -0.38518927514730122 0 0.42785183481717409 -0.36595316276467199 0 0.40866613474490449 -0.35252068697126149 0 0.4111933065081313 -0.36805982019164402 0 0.39290052262193498 -0.35565000096393579 0 0.38249634533461108 -0.36797477098799591 0 0.39650622041158878 -0.3765742856902482 0 0.4111933065081313 -0.36805982019164402 0 0.39290052262193498 -0.35565000096393579 0 0.39650622041158878 -0.3765742856902482 0 0.40866613474490449 -0.35252068697126149 0 0.39290052262193498 -0.35565000096393579 0 0.38948043467263488 -0.33908821117785082 0 0.40866613474490449 -0.35252068697126149 0 0.38948043467263488 -0.33908821117785082 0 0.40866613474490449 -0.35252068697126149 0 0.4111933065081313 -0.36805982019164402 0 0.39290052262193498 -0.35565000096393579 0 0.39290052262193498 -0.35565000096393579 0 0.37818146540529818 -0.34934783795600571 0 0.38249634533461108 -0.36797477098799591 0 0.39290052262193498 -0.35565000096393579 0 0.37818146540529818 -0.34934783795600571 0 0.38948043467263488 -0.33908821117785082 0 0.37818146540529818 -0.34934783795600571 0 0.38249634533461108 -0.36797477098799591 0 0.37305712147220338 -0.36102055586376819 0 0.41707429101309201 -0.3297381436533145 0 0.40866613474490449 -0.35252068697126149 0 0.38948043467263488 -0.33908821117785082 0 0.41707429101309201 -0.3297381436533145 0 0.39289273070295128 -0.31558048689996993 0 0.38948043467263488 -0.33908821117785082 0 0.37818146540529818 -0.34934783795600571 0 0.38948043467263488 -0.33908821117785082 0 0.37212478857772979 -0.33864880005647208 0 0.38948043467263488 -0.33908821117785082 0 0.37029473460036533 -0.32565573538444043 0 0.38948043467263488 -0.33908821117785082 0 0.37029473460036533 -0.32565573538444043 0 0.37212478857772979 -0.33864880005647208 0 0.39289273070295128 -0.31558048689996993 0 0.38064079273778262 -0.31288188218018531 0 0.37029473460036533 -0.32565573538444043 0 0.39289273070295128 -0.31558048689996993 0 0.37029473460036533 -0.32565573538444043 0 0.39289273070295128 -0.31558048689996993 0 0.38948043467263488 -0.33908821117785082 0 0.37029473460036533 -0.32565573538444043 0 0.38064079273778262 -0.31288188218018531 0 0.37804720550635529 -0.30651687721429538 0 0.38870969627640167 -0.30439929484627132 0 0.38064079273778262 -0.31288188218018531 0 0.37804720550635529 -0.30651687721429538 0 0.37325959660283969 -0.31225701655594912 0 0.37804720550635529 -0.30651687721429538 0 0.38032829646105881 -0.29636137241382532 0 0.36761344479238373 -0.29508033606196837 0 0.37804720550635529 -0.30651687721429538 0 0.38870969627640167 -0.30439929484627132 0 0.38032829646105881 -0.29636137241382532 0 0.38870969627640167 -0.30439929484627132 0 0.3879772147484597 -0.29176707856862888 0 0.38032829646105881 -0.29636137241382532 0 0.39289273070295128 -0.31558048689996993 0 0.38064079273778262 -0.31288188218018531 0 0.38870969627640167 -0.30439929484627132 0 0.39289273070295128 -0.31558048689996993 0 0.39985527598894161 -0.30920798579428682 0 0.41549072680553711 -0.30550523841549909 0 0.39985527598894161 -0.30920798579428682 0 0.39681295496079538 -0.29611275996065012 0 0.40939030264251791 -0.28957609748361951 0 0.39985527598894161 -0.30920798579428682 0 0.40939030264251791 -0.28957609748361951 0 0.39289273070295128 -0.31558048689996993 0 0.41549072680553711 -0.30550523841549909 0 0.39289273070295128 -0.31558048689996993 0 0.38870969627640167 -0.30439929484627132 0 0.39985527598894161 -0.30920798579428682 0 0.38870969627640167 -0.30439929484627132 0 0.39681295496079538 -0.29611275996065012 0 0.3879772147484597 -0.29176707856862888 0 0.38870969627640167 -0.30439929484627132 0 0.39985527598894161 -0.30920798579428682 0 0.39681295496079538 -0.29611275996065012 0 0.39922652050867191 -0.28295197323892363 0 0.39681295496079538 -0.29611275996065012 0 0.40939030264251791 -0.28957609748361951 0 0.39922652050867191 -0.28295197323892363 0 0.39681295496079538 -0.29611275996065012 0 0.3879772147484597 -0.29176707856862888 0 0.39922652050867191 -0.28295197323892363 0 0.3879772147484597 -0.29176707856862888 0 0.38840358504398731 -0.28029486931936831 0 0.3879772147484597 -0.29176707856862888 0 0.37929392098169401 -0.28404327537796259 0 0.38840358504398731 -0.28029486931936831 0 0.38032829646105881 -0.29636137241382532 0 0.37929392098169401 -0.28404327537796259 0 0.36761344479238373 -0.29508033606196837 0 0.3879772147484597 -0.29176707856862888 0 0.38032829646105881 -0.29636137241382532 0 0.37929392098169401 -0.28404327537796259 0 0.37929392098169401 -0.28404327537796259 0 0.38326599173650672 -0.27147868498013239 0 0.3725796289452375 -0.26579697317357759 0 0.37929392098169401 -0.28404327537796259 0 0.38326599173650672 -0.27147868498013239 0 0.38840358504398731 -0.28029486931936831 0 0.38326599173650672 -0.27147868498013239 0 0.38840358504398731 -0.28029486931936831 0 0.39544519547575041 -0.26880031542545191 0 0.37754581309809132 -0.23651361028518689 0 0.3725796289452375 -0.26579697317357759 0 0.37754581309809132 -0.23651361028518689 0 0.3871149211879113 -0.25548270742864421 0 0.3725796289452375 -0.26579697317357759 0 0.38326599173650672 -0.27147868498013239 0 0.3871149211879113 -0.25548270742864421 0 0.39544519547575041 -0.26880031542545191 0 0.38326599173650672 -0.27147868498013239 0 0.3871149211879113 -0.25548270742864421 0 0.3725796289452375 -0.26579697317357759 0 0.3871149211879113 -0.25548270742864421 0 0.40207495352916539 -0.25113417058953519 0 0.39544519547575041 -0.26880031542545191 0 0.40207495352916539 -0.25113417058953519 0 0.39544519547575041 -0.26880031542545191 0 0.41892532929609411 -0.26994420917295231 0 0.39922652050867191 -0.28295197323892363 0 0.39544519547575041 -0.26880031542545191 0 0.41892532929609411 -0.26994420917295231 0 0.39922652050867191 -0.28295197323892363 0 0.38840358504398731 -0.28029486931936831 0 0.39544519547575041 -0.26880031542545191 0 0.41892532929609411 -0.26994420917295231 0 0.40939030264251791 -0.28957609748361951 0 0.41892532929609411 -0.26994420917295231 0 0.42674472615619141 -0.28201696019190231 0 0.40939030264251791 -0.28957609748361951 0 0.39922652050867191 -0.28295197323892363 0 0.41892532929609411 -0.26994420917295231 0 0.40939030264251791 -0.28957609748361951 0 0.40207495352916539 -0.25113417058953519 0 0.41892532929609411 -0.26994420917295231 0 0.42846035594967069 -0.25031232086228522 0 0.40207495352916539 -0.25113417058953519 0 0.42846035594967069 -0.25031232086228522 0 0.44713049355746243 -0.26775388735664418 0 0.4314427817274139 -0.26389233879167029 0 0.43357426810421817 -0.25015303326672972 0 0.41892532929609411 -0.26994420917295231 0 0.42846035594967069 -0.25031232086228522 0 0.41892532929609411 -0.26994420917295231 0 0.42846035594967069 -0.25031232086228522 0 0.4314427817274139 -0.26389233879167029 0 0.42846035594967069 -0.25031232086228522 0 0.4314427817274139 -0.26389233879167029 0 0.43357426810421817 -0.25015303326672972 0 0.42846035594967069 -0.25031232086228522 0 0.43357426810421817 -0.25015303326672972 0 0.41892532929609411 -0.26994420917295231 0 0.4314427817274139 -0.26389233879167029 0 0.42674472615619141 -0.28201696019190231 0 0.44713049355746243 -0.26775388735664418 0 0.4314427817274139 -0.26389233879167029 0 0.42674472615619141 -0.28201696019190231 0 0.43808872290812301 -0.29542998993102848 0 0.42674472615619141 -0.28201696019190231 0 0.41549072680553711 -0.30550523841549909 0 0.44713049355746243 -0.26775388735664418 0 0.43808872290812301 -0.29542998993102848 0 0.42674472615619141 -0.28201696019190231 0 0.43808872290812301 -0.29542998993102848 0 0.43031487288344161 -0.31703067604683871 0 0.41549072680553711 -0.30550523841549909 0 0.43808872290812301 -0.29542998993102848 0 0.41549072680553711 -0.30550523841549909 0 0.39985527598894161 -0.30920798579428682 0 0.41549072680553711 -0.30550523841549909 0 0.40939030264251791 -0.28957609748361951 0 0.42674472615619141 -0.28201696019190231 0 0.41549072680553711 -0.30550523841549909 0 0.40939030264251791 -0.28957609748361951 0 0.43773802119989941 -0.49999999999999978 0 0.45890943729545802 -0.4823892052391901 0 0.4796611806106722 -0.48718440019654963 0 0.43773802119989941 -0.49999999999999978 0 0.44535189907423273 -0.48425652050154361 0 0.43773802119989941 -0.49999999999999978 0 0.44535189907423273 -0.48425652050154361 0 0.45890943729545802 -0.4823892052391901 0 0.43920548674920379 -0.47249175324936749 0 0.44535189907423273 -0.48425652050154361 0 0.45296577694856682 -0.46851304100308783 0 0.43920548674920379 -0.47249175324936749 0 0.44535189907423273 -0.48425652050154361 0 0.42866409193048188 -0.47676758270227471 0 0.44535189907423273 -0.48425652050154361 0 0.45589009982111051 -0.4775459799915327 0 0.45296577694856682 -0.46851304100308783 0 0.44535189907423273 -0.48425652050154361 0 0.45296577694856682 -0.46851304100308783 0 0.45589009982111051 -0.4775459799915327 0 0.45890943729545802 -0.4823892052391901 0 0.46145872075250199 -0.4714816097570898 0 0.44535189907423273 -0.48425652050154361 0 0.45589009982111051 -0.4775459799915327 0 0.45890943729545802 -0.4823892052391901 0 0.45890943729545802 -0.4823892052391901 0 0.46145872075250199 -0.4714816097570898 0 0.47563876839417468 -0.4748936591889994 0 0.46145872075250199 -0.4714816097570898 0 0.45296577694856682 -0.46851304100308783 0 0.45589009982111051 -0.4775459799915327 0 0.46145872075250199 -0.4714816097570898 0 0.45296577694856682 -0.46851304100308783 0 0.43773802119989941 -0.49999999999999978 0 0.4796611806106722 -0.48718440019654963 0 0.5 -0.5 0 0.4796611806106722 -0.48718440019654963 0 0.5 -0.5 0 0.5 -0.47026069904804169 0 0.5 -0.47026069904804169 0 0.47563876839417468 -0.4748936591889994 0 0.47905351322328699 -0.46315238170412548 0 0.4796611806106722 -0.48718440019654963 0 0.5 -0.47026069904804169 0 0.47563876839417468 -0.4748936591889994 0 0.46145872075250199 -0.4714816097570898 0 0.47563876839417468 -0.4748936591889994 0 0.47905351322328699 -0.46315238170412548 0 0.45890943729545802 -0.4823892052391901 0 0.4796611806106722 -0.48718440019654963 0 0.47563876839417468 -0.4748936591889994 0 0.47905351322328699 -0.46315238170412548 0 0.45899603635761982 -0.45604406436020939 0 0.47905351322328699 -0.46315238170412548 0 0.4788951805990147 -0.44564391983896778 0 0.45899603635761982 -0.45604406436020939 0 0.5 -0.47026069904804169 0 0.47905351322328699 -0.46315238170412548 0 0.5 -0.44373220895607401 0 0.5 -0.47026069904804169 0 0.47905351322328699 -0.46315238170412548 0 0.5 -0.44373220895607401 0 0.4788951805990147 -0.44564391983896778 0 0.48552804520920678 -0.42799216931292611 0 0.47905351322328699 -0.46315238170412548 0 0.5 -0.44373220895607401 0 0.4788951805990147 -0.44564391983896778 0 0.4788951805990147 -0.44564391983896778 0 0.45899603635761982 -0.45604406436020939 0 0.46924702726821282 -0.43484773472326599 0 0.45899603635761982 -0.45604406436020939 0 0.46924702726821282 -0.43484773472326599 0 0.45899603635761982 -0.45604406436020939 0 0.44838303037477362 -0.43447900987216292 0 0.46924702726821282 -0.43484773472326599 0 0.46145872075250199 -0.4714816097570898 0 0.47905351322328699 -0.46315238170412548 0 0.45899603635761982 -0.45604406436020939 0 0.46145872075250199 -0.4714816097570898 0 0.45899603635761982 -0.45604406436020939 0 0.45296577694856682 -0.46851304100308783 0 0.45899603635761982 -0.45604406436020939 0 0.45296577694856682 -0.46851304100308783 0 0.44562172027540892 -0.45801600689332289 0 0.45296577694856682 -0.46851304100308783 0 0.42984017904353489 -0.46042986879056458 0 0.43920548674920379 -0.47249175324936749 0 0.45296577694856682 -0.46851304100308783 0 0.42984017904353489 -0.46042986879056458 0 0.44562172027540892 -0.45801600689332289 0 0.43764883001816302 -0.44847867026387339 0 0.42984017904353489 -0.46042986879056458 0 0.45899603635761982 -0.45604406436020939 0 0.44562172027540892 -0.45801600689332289 0 0.45296577694856682 -0.46851304100308783 0 0.45296577694856682 -0.46851304100308783 0 0.42984017904353489 -0.46042986879056458 0 0.45899603635761982 -0.45604406436020939 0 0.44562172027540892 -0.45801600689332289 0 0.43764883001816302 -0.44847867026387339 0 0.45899603635761982 -0.45604406436020939 0 0.43764883001816302 -0.44847867026387339 0 0.44838303037477362 -0.43447900987216292 0 0.43764883001816302 -0.44847867026387339 0 0.44838303037477362 -0.43447900987216292 0 0.43199803478474752 -0.43480066315574151 0 0.45899603635761982 -0.45604406436020939 0 0.43764883001816302 -0.44847867026387339 0 0.44838303037477362 -0.43447900987216292 0 0.43524810038533429 -0.42324892749070769 0 0.43199803478474752 -0.43480066315574151 0 0.44838303037477362 -0.43447900987216292 0 0.45481320319103757 -0.41743251132042969 0 0.43524810038533429 -0.42324892749070769 0 0.45481320319103757 -0.41743251132042969 0 0.43477646914432833 -0.40550992295969079 0 0.43524810038533429 -0.42324892749070769 0 0.45481320319103757 -0.41743251132042969 0 0.46680969583490778 -0.41274858841526157 0 0.46924702726821282 -0.43484773472326599 0 0.45481320319103757 -0.41743251132042969 0 0.46680969583490778 -0.41274858841526157 0 0.46697148891275431 -0.40002921638500172 0 0.44838303037477362 -0.43447900987216292 0 0.45481320319103757 -0.41743251132042969 0 0.46924702726821282 -0.43484773472326599 0 0.5 -0.44373220895607401 0 0.48552804520920678 -0.42799216931292611 0 0.5 -0.40208557795999961 0 0.46924702726821282 -0.43484773472326599 0 0.48552804520920678 -0.42799216931292611 0 0.47949801817880677 -0.41365140508632309 0 0.4788951805990147 -0.44564391983896778 0 0.46924702726821282 -0.43484773472326599 0 0.48552804520920678 -0.42799216931292611 0 0.46924702726821282 -0.43484773472326599 0 0.47949801817880677 -0.41365140508632309 0 0.48552804520920678 -0.42799216931292611 0 0.47949801817880677 -0.41365140508632309 0 0.5 -0.40208557795999961 0 0.46680969583490778 -0.41274858841526157 0 0.46924702726821282 -0.43484773472326599 0 0.47949801817880677 -0.41365140508632309 0 0.46680969583490778 -0.41274858841526157 0 0.47949801817880677 -0.41365140508632309 0 0.47485796399023311 -0.40328323013715978 0 0.47949801817880677 -0.41365140508632309 0 0.47485796399023311 -0.40328323013715978 0 0.48501034131379339 -0.39589669118590137 0 0.46680969583490778 -0.41274858841526157 0 0.47485796399023311 -0.40328323013715978 0 0.46697148891275431 -0.40002921638500172 0 0.47485796399023311 -0.40328323013715978 0 0.47548297721973709 -0.39513831255209197 0 0.46697148891275431 -0.40002921638500172 0 0.47548297721973709 -0.39513831255209197 0 0.47310568845609052 -0.38536867418522291 0 0.46697148891275431 -0.40002921638500172 0 0.47548297721973709 -0.39513831255209197 0 0.48501034131379339 -0.39589669118590137 0 0.47310568845609052 -0.38536867418522291 0 0.47485796399023311 -0.40328323013715978 0 0.47548297721973709 -0.39513831255209197 0 0.48501034131379339 -0.39589669118590137 0 0.47949801817880677 -0.41365140508632309 0 0.48974900908940078 -0.39245507544938019 0 0.47949801817880677 -0.41365140508632309 0 0.5 -0.40208557795999961 0 0.48974900908940078 -0.39245507544938019 0 0.47949801817880677 -0.41365140508632309 0 0.48974900908940078 -0.39245507544938019 0 0.48501034131379339 -0.39589669118590137 0 0.49999999999999711 -0.37125874581243851 0 0.5 -0.40208557795999961 0 0.48974900908940078 -0.39245507544938019 0 0.49999999999999711 -0.37125874581243851 0 0.47674069655525092 -0.3698978429939776 0 0.48974900908940078 -0.39245507544938019 0 0.49999999999999711 -0.37125874581243851 0 0.48974900908940078 -0.39245507544938019 0 0.47674069655525092 -0.3698978429939776 0 0.48501034131379339 -0.39589669118590137 0 0.47310568845609052 -0.38536867418522291 0 0.47674069655525092 -0.3698978429939776 0 0.48974900908940078 -0.39245507544938019 0 0.48501034131379339 -0.39589669118590137 0 0.47674069655525092 -0.3698978429939776 0 0.48501034131379339 -0.39589669118590137 0 0.45392603783110008 -0.37108838658624999 0 0.47310568845609052 -0.38536867418522291 0 0.45155556879862868 -0.3944603689424081 0 0.47674069655525092 -0.3698978429939776 0 0.45392603783110008 -0.37108838658624999 0 0.47310568845609052 -0.38536867418522291 0 0.45481320319103757 -0.41743251132042969 0 0.46697148891275431 -0.40002921638500172 0 0.45155556879862868 -0.3944603689424081 0 0.47310568845609052 -0.38536867418522291 0 0.46697148891275431 -0.40002921638500172 0 0.45155556879862868 -0.3944603689424081 0 0.45481320319103757 -0.41743251132042969 0 0.45155556879862868 -0.3944603689424081 0 0.43477646914432833 -0.40550992295969079 0 0.45155556879862868 -0.3944603689424081 0 0.43242581624588322 -0.38730115333965082 0 0.43477646914432833 -0.40550992295969079 0 0.45392603783110008 -0.37108838658624999 0 0.45155556879862868 -0.3944603689424081 0 0.43242581624588322 -0.38730115333965082 0 0.42785183481717409 -0.36595316276467199 0 0.43242581624588322 -0.38730115333965082 0 0.41287057948892703 -0.38518927514730122 0 0.43242581624588322 -0.38730115333965082 0 0.43477646914432833 -0.40550992295969079 0 0.41749483707519452 -0.40538692165420498 0 0.43242581624588322 -0.38730115333965082 0 0.41749483707519452 -0.40538692165420498 0 0.41287057948892703 -0.38518927514730122 0 0.41749483707519452 -0.40538692165420498 0 0.41287057948892703 -0.38518927514730122 0 0.40336078828097621 -0.40362515372992341 0 0.4111933065081313 -0.36805982019164402 0 0.41287057948892703 -0.38518927514730122 0 0.39650622041158878 -0.3765742856902482 0 0.41287057948892703 -0.38518927514730122 0 0.39650622041158878 -0.3765742856902482 0 0.39372170841196569 -0.3925803949292499 0 0.38249634533461108 -0.36797477098799591 0 0.39650622041158878 -0.3765742856902482 0 0.37900977316023637 -0.39091548517495972 0 0.39650622041158878 -0.3765742856902482 0 0.37900977316023637 -0.39091548517495972 0 0.39372170841196569 -0.3925803949292499 0 0.38249634533461108 -0.36797477098799591 0 0.37900977316023637 -0.39091548517495972 0 0.36724772315424481 -0.38247146420994571 0 0.37900977316023637 -0.39091548517495972 0 0.39372170841196569 -0.3925803949292499 0 0.37842665921942997 -0.40887405987875969 0 0.37900977316023637 -0.39091548517495972 0 0.37842665921942997 -0.40887405987875969 0 0.36824105802713031 -0.4000969440192842 0 0.39372170841196569 -0.3925803949292499 0 0.39194747191700757 -0.41402513481906722 0 0.37842665921942997 -0.40887405987875969 0 0.41287057948892703 -0.38518927514730122 0 0.39372170841196569 -0.3925803949292499 0 0.40336078828097621 -0.40362515372992341 0 0.39372170841196569 -0.3925803949292499 0 0.40336078828097621 -0.40362515372992341 0 0.39194747191700757 -0.41402513481906722 0 0.40336078828097621 -0.40362515372992341 0 0.39194747191700757 -0.41402513481906722 0 0.41036500379586138 -0.42217021861448573 0 0.39194747191700757 -0.41402513481906722 0 0.37842665921942997 -0.40887405987875969 0 0.3754845505291648 -0.42231636227288599 0 0.39194747191700757 -0.41402513481906722 0 0.38276612650569841 -0.43173139982273478 0 0.39495441733924969 -0.43334788207120151 0 0.39194747191700757 -0.41402513481906722 0 0.3754845505291648 -0.42231636227288599 0 0.38276612650569841 -0.43173139982273478 0 0.38276612650569841 -0.43173139982273478 0 0.39495441733924969 -0.43334788207120151 0 0.38358898323347101 -0.44426352436551808 0 0.39495441733924969 -0.43334788207120151 0 0.41630162367870638 -0.44091327616753739 0 0.39194747191700757 -0.41402513481906722 0 0.39495441733924969 -0.43334788207120151 0 0.41036500379586138 -0.42217021861448573 0 0.41036500379586138 -0.42217021861448573 0 0.42295569064062533 -0.42699492369753778 0 0.41630162367870638 -0.44091327616753739 0 0.39495441733924969 -0.43334788207120151 0 0.41036500379586138 -0.42217021861448573 0 0.41630162367870638 -0.44091327616753739 0 0.41749483707519452 -0.40538692165420498 0 0.40336078828097621 -0.40362515372992341 0 0.41036500379586138 -0.42217021861448573 0 0.41749483707519452 -0.40538692165420498 0 0.41036500379586138 -0.42217021861448573 0 0.42458756094721539 -0.41613405657310448 0 0.41036500379586138 -0.42217021861448573 0 0.42458756094721539 -0.41613405657310448 0 0.42295569064062533 -0.42699492369753778 0 0.43477646914432833 -0.40550992295969079 0 0.41749483707519452 -0.40538692165420498 0 0.42458756094721539 -0.41613405657310448 0 0.43477646914432833 -0.40550992295969079 0 0.42458756094721539 -0.41613405657310448 0 0.43524810038533429 -0.42324892749070769 0 0.43199803478474752 -0.43480066315574151 0 0.42295569064062533 -0.42699492369753778 0 0.41630162367870638 -0.44091327616753739 0 0.43524810038533429 -0.42324892749070769 0 0.43199803478474752 -0.43480066315574151 0 0.42295569064062533 -0.42699492369753778 0 0.42458756094721539 -0.41613405657310448 0 0.43524810038533429 -0.42324892749070769 0 0.42295569064062533 -0.42699492369753778 0 0.43764883001816302 -0.44847867026387339 0 0.41630162367870638 -0.44091327616753739 0 0.43764883001816302 -0.44847867026387339 0 0.42984017904353489 -0.46042986879056458 0 0.41630162367870638 -0.44091327616753739 0 0.43764883001816302 -0.44847867026387339 0 0.43199803478474752 -0.43480066315574151 0 0.41630162367870638 -0.44091327616753739 0 0.42984017904353489 -0.46042986879056458 0 0.41583716859034447 -0.46620520778226737 0 0.42866409193048188 -0.47676758270227471 0 0.42984017904353489 -0.46042986879056458 0 0.4067145811385029 -0.45234669657804139 0 0.42984017904353489 -0.46042986879056458 0 0.41583716859034447 -0.46620520778226737 0 0.4067145811385029 -0.45234669657804139 0 0.41583716859034447 -0.46620520778226737 0 0.4067145811385029 -0.45234669657804139 0 0.40148396946935899 -0.46677367853588281 0 0.42984017904353489 -0.46042986879056458 0 0.4067145811385029 -0.45234669657804139 0 0.41630162367870638 -0.44091327616753739 0 0.4067145811385029 -0.45234669657804139 0 0.38358898323347101 -0.44426352436551808 0 0.39182712026942329 -0.45690385307896481 0 0.39495441733924969 -0.43334788207120151 0 0.4067145811385029 -0.45234669657804139 0 0.41630162367870638 -0.44091327616753739 0 0.39495441733924969 -0.43334788207120151 0 0.4067145811385029 -0.45234669657804139 0 0.38358898323347101 -0.44426352436551808 0 0.4067145811385029 -0.45234669657804139 0 0.38358898323347101 -0.44426352436551808 0 0.38358898323347101 -0.44426352436551808 0 0.37514595674159079 -0.45476526552439389 0 0.39182712026942329 -0.45690385307896481 0 0.38276612650569841 -0.43173139982273478 0 0.38358898323347101 -0.44426352436551808 0 0.36596817218281208 -0.43846752572535042 0 0.37514595674159079 -0.45476526552439389 0 0.38538716437757631 -0.46842775420537441 0 0.39182712026942329 -0.45690385307896481 0 0.37514595674159079 -0.45476526552439389 0 0.38538716437757631 -0.46842775420537441 0 0.37212180294075042 -0.46808428500039262 0 0.38538716437757631 -0.46842775420537441 0 0.39182712026942329 -0.45690385307896481 0 0.40148396946935899 -0.46677367853588281 0 0.4067145811385029 -0.45234669657804139 0 0.39182712026942329 -0.45690385307896481 0 0.40148396946935899 -0.46677367853588281 0 0.39434508200087892 -0.48168095957978257 0 0.4057717135424021 -0.48929931529832937 0 0.41138522724611992 -0.47610642689805982 0 0.38538716437757631 -0.46842775420537441 0 0.40148396946935899 -0.46677367853588281 0 0.39434508200087892 -0.48168095957978257 0 0.40148396946935899 -0.46677367853588281 0 0.39434508200087892 -0.48168095957978257 0 0.41138522724611992 -0.47610642689805982 0 0.38538716437757631 -0.46842775420537441 0 0.39434508200087892 -0.48168095957978257 0 0.37586822855092661 -0.48439202442808083 0 0.38538716437757631 -0.46842775420537441 0 0.37586822855092661 -0.48439202442808083 0 0.37212180294075042 -0.46808428500039262 0 0.39434508200087892 -0.48168095957978257 0 0.37586822855092661 -0.48439202442808083 0 0.39289039342582149 -0.5 0 0.37586822855092661 -0.48439202442808083 0 0.39289039342582149 -0.5 0 0.3704665795387827 -0.49999999999999961 0 0.39434508200087892 -0.48168095957978257 0 0.39289039342582149 -0.5 0 0.4057717135424021 -0.48929931529832937 0 0.39289039342582149 -0.5 0 0.4057717135424021 -0.48929931529832937 0 0.41531420731286051 -0.5 0 0.4057717135424021 -0.48929931529832937 0 0.41138522724611992 -0.47610642689805982 0 0.425256426736628 -0.48969697811313823 0 0.4057717135424021 -0.48929931529832937 0 0.41531420731286051 -0.5 0 0.425256426736628 -0.48969697811313823 0 0.41583716859034447 -0.46620520778226737 0 0.41138522724611992 -0.47610642689805982 0 0.42866409193048188 -0.47676758270227471 0 0.41138522724611992 -0.47610642689805982 0 0.42866409193048188 -0.47676758270227471 0 0.425256426736628 -0.48969697811313823 0 0.41583716859034447 -0.46620520778226737 0 0.40148396946935899 -0.46677367853588281 0 0.41138522724611992 -0.47610642689805982 0 0.44535189907423273 -0.48425652050154361 0 0.42866409193048188 -0.47676758270227471 0 0.425256426736628 -0.48969697811313823 0 0.43920548674920379 -0.47249175324936749 0 0.42984017904353489 -0.46042986879056458 0 0.42866409193048188 -0.47676758270227471 0 0.43773802119989941 -0.49999999999999978 0 0.44535189907423273 -0.48425652050154361 0 0.425256426736628 -0.48969697811313823 0 0.43773802119989941 -0.49999999999999978 0 0.41531420731286051 -0.5 0 0.425256426736628 -0.48969697811313823 0 0.32577547594680167 -0.48549728563522948 0 0.313100747974287 -0.5 0 0.34178366375653479 -0.5 0 0.32577547594680167 -0.48549728563522948 0 0.33309118936964399 -0.46704031311580291 0 0.30810638268294871 -0.47012115952174682 0 0.353331436476917 -0.48488928282810861 0 0.33309118936964399 -0.46704031311580291 0 0.32577547594680167 -0.48549728563522948 0 0.353331436476917 -0.48488928282810861 0 0.33309118936964399 -0.46704031311580291 0 0.32577547594680167 -0.48549728563522948 0 0.353331436476917 -0.48488928282810861 0 0.32577547594680167 -0.48549728563522948 0 0.34178366375653479 -0.5 0 0.353331436476917 -0.48488928282810861 0 0.34178366375653479 -0.5 0 0.353331436476917 -0.48488928282810861 0 0.3704665795387827 -0.49999999999999961 0 0.353331436476917 -0.48488928282810861 0 0.3704665795387827 -0.49999999999999961 0 0.37586822855092661 -0.48439202442808083 0 0.353331436476917 -0.48488928282810861 0 0.37586822855092661 -0.48439202442808083 0 0.353331436476917 -0.48488928282810861 0 0.3704665795387827 -0.49999999999999961 0 0.37586822855092661 -0.48439202442808083 0 0.353331436476917 -0.48488928282810861 0 0.36174609683149922 -0.47333229839911978 0 0.37586822855092661 -0.48439202442808083 0 0.36174609683149922 -0.47333229839911978 0 0.37212180294075042 -0.46808428500039262 0 0.353331436476917 -0.48488928282810861 0 0.3511187368843669 -0.46644655109408317 0 0.33309118936964399 -0.46704031311580291 0 0.353331436476917 -0.48488928282810861 0 0.36174609683149922 -0.47333229839911978 0 0.3511187368843669 -0.46644655109408317 0 0.3511187368843669 -0.46644655109408317 0 0.34821094164401439 -0.44963138573543099 0 0.33309118936964399 -0.46704031311580291 0 0.3511187368843669 -0.46644655109408317 0 0.36000734278227892 -0.4581682973830864 0 0.34821094164401439 -0.44963138573543099 0 0.36174609683149922 -0.47333229839911978 0 0.3511187368843669 -0.46644655109408317 0 0.36000734278227892 -0.4581682973830864 0 0.36174609683149922 -0.47333229839911978 0 0.36000734278227892 -0.4581682973830864 0 0.37212180294075042 -0.46808428500039262 0 0.37514595674159079 -0.45476526552439389 0 0.36000734278227892 -0.4581682973830864 0 0.37212180294075042 -0.46808428500039262 0 0.38358898323347101 -0.44426352436551808 0 0.37514595674159079 -0.45476526552439389 0 0.36596817218281208 -0.43846752572535042 0 0.37514595674159079 -0.45476526552439389 0 0.36000734278227892 -0.4581682973830864 0 0.36596817218281208 -0.43846752572535042 0 0.36596817218281208 -0.43846752572535042 0 0.34821094164401439 -0.44963138573543099 0 0.34622956703096991 -0.43300533851794337 0 0.36000734278227892 -0.4581682973830864 0 0.36596817218281208 -0.43846752572535042 0 0.34821094164401439 -0.44963138573543099 0 0.34821094164401439 -0.44963138573543099 0 0.33295970409203041 -0.44505156475946112 0 0.34622956703096991 -0.43300533851794337 0 0.34821094164401439 -0.44963138573543099 0 0.33295970409203041 -0.44505156475946112 0 0.33309118936964399 -0.46704031311580291 0 0.33295970409203041 -0.44505156475946112 0 0.33309118936964399 -0.46704031311580291 0 0.31285094226236981 -0.44919134340349842 0 0.33309118936964399 -0.46704031311580291 0 0.31285094226236981 -0.44919134340349842 0 0.33309118936964399 -0.46704031311580291 0 0.31285094226236981 -0.44919134340349842 0 0.30810638268294871 -0.47012115952174682 0 0.33295970409203041 -0.44505156475946112 0 0.31285094226236981 -0.44919134340349842 0 0.32443481461114221 -0.42819348402864749 0 0.31285094226236981 -0.44919134340349842 0 0.32443481461114221 -0.42819348402864749 0 0.30716585811758268 -0.42152601893676211 0 0.32443481461114221 -0.42819348402864749 0 0.3377381929345476 -0.41993594981441068 0 0.31826237910007699 -0.40611857650776678 0 0.32443481461114221 -0.42819348402864749 0 0.31826237910007699 -0.40611857650776678 0 0.30716585811758268 -0.42152601893676211 0 0.3377381929345476 -0.41993594981441068 0 0.33955155732169001 -0.40481801647484189 0 0.31826237910007699 -0.40611857650776678 0 0.32443481461114221 -0.42819348402864749 0 0.3377381929345476 -0.41993594981441068 0 0.34622956703096991 -0.43300533851794337 0 0.33295970409203041 -0.44505156475946112 0 0.32443481461114221 -0.42819348402864749 0 0.34622956703096991 -0.43300533851794337 0 0.3377381929345476 -0.41993594981441068 0 0.34622956703096991 -0.43300533851794337 0 0.35818280584871282 -0.41603879828427831 0 0.36596817218281208 -0.43846752572535042 0 0.34622956703096991 -0.43300533851794337 0 0.35818280584871282 -0.41603879828427831 0 0.3754845505291648 -0.42231636227288599 0 0.36596817218281208 -0.43846752572535042 0 0.35818280584871282 -0.41603879828427831 0 0.3754845505291648 -0.42231636227288599 0 0.38276612650569841 -0.43173139982273478 0 0.36596817218281208 -0.43846752572535042 0 0.37842665921942997 -0.40887405987875969 0 0.3754845505291648 -0.42231636227288599 0 0.35818280584871282 -0.41603879828427831 0 0.37842665921942997 -0.40887405987875969 0 0.35818280584871282 -0.41603879828427831 0 0.36824105802713031 -0.4000969440192842 0 0.3377381929345476 -0.41993594981441068 0 0.35818280584871282 -0.41603879828427831 0 0.33955155732169001 -0.40481801647484189 0 0.35818280584871282 -0.41603879828427831 0 0.35120943534252291 -0.3914849644630724 0 0.33955155732169001 -0.40481801647484189 0 0.35818280584871282 -0.41603879828427831 0 0.35120943534252291 -0.3914849644630724 0 0.36824105802713031 -0.4000969440192842 0 0.37900977316023637 -0.39091548517495972 0 0.36824105802713031 -0.4000969440192842 0 0.36724772315424481 -0.38247146420994571 0 0.35120943534252291 -0.3914849644630724 0 0.36824105802713031 -0.4000969440192842 0 0.36724772315424481 -0.38247146420994571 0 0.36724772315424481 -0.38247146420994571 0 0.3553956415560332 -0.375446985373177 0 0.36664078794155069 -0.36853845970684512 0 0.35120943534252291 -0.3914849644630724 0 0.3553956415560332 -0.375446985373177 0 0.34024068493209042 -0.37145909403295352 0 0.35120943534252291 -0.3914849644630724 0 0.36724772315424481 -0.38247146420994571 0 0.3553956415560332 -0.375446985373177 0 0.35120943534252291 -0.3914849644630724 0 0.33045907805143321 -0.38798152631774108 0 0.34024068493209042 -0.37145909403295352 0 0.33045907805143321 -0.38798152631774108 0 0.34024068493209042 -0.37145909403295352 0 0.32473595581008968 -0.36877041147622941 0 0.33045907805143321 -0.38798152631774108 0 0.33955155732169001 -0.40481801647484189 0 0.31826237910007699 -0.40611857650776678 0 0.35120943534252291 -0.3914849644630724 0 0.33045907805143321 -0.38798152631774108 0 0.33955155732169001 -0.40481801647484189 0 0.33045907805143321 -0.38798152631774108 0 0.31826237910007699 -0.40611857650776678 0 0.30852465471842783 -0.38296478278532459 0 0.33045907805143321 -0.38798152631774108 0 0.30852465471842783 -0.38296478278532459 0 0.32473595581008968 -0.36877041147622941 0 0.30852465471842783 -0.38296478278532459 0 0.30157177088572762 -0.39984768184154418 0 0.28524522637625171 -0.38748256695808048 0 0.31826237910007699 -0.40611857650776678 0 0.30852465471842783 -0.38296478278532459 0 0.30157177088572762 -0.39984768184154418 0 0.30157177088572762 -0.39984768184154418 0 0.28524522637625171 -0.38748256695808048 0 0.28909827497095891 -0.41314244090476959 0 0.30852465471842783 -0.38296478278532459 0 0.28524522637625171 -0.38748256695808048 0 0.29576167506738288 -0.36584798696867898 0 0.28524522637625171 -0.38748256695808048 0 0.26194523537769671 -0.38343407302417171 0 0.27628411724202862 -0.36524783617958329 0 0.26194523537769671 -0.38343407302417171 0 0.2677956642119742 -0.40840362680373948 0 0.24730388124056729 -0.40448370284608931 0 0.28524522637625171 -0.38748256695808048 0 0.26194523537769671 -0.38343407302417171 0 0.2677956642119742 -0.40840362680373948 0 0.28524522637625171 -0.38748256695808048 0 0.2677956642119742 -0.40840362680373948 0 0.28909827497095891 -0.41314244090476959 0 0.2677956642119742 -0.40840362680373948 0 0.27472650047210662 -0.43131219108599711 0 0.28909827497095891 -0.41314244090476959 0 0.2677956642119742 -0.40840362680373948 0 0.24845486683426421 -0.43056678600332871 0 0.24730388124056729 -0.40448370284608931 0 0.2677956642119742 -0.40840362680373948 0 0.27472650047210662 -0.43131219108599711 0 0.24845486683426421 -0.43056678600332871 0 0.27472650047210662 -0.43131219108599711 0 0.26710508502781599 -0.44926171113960661 0 0.24845486683426421 -0.43056678600332871 0 0.27472650047210662 -0.43131219108599711 0 0.29418269027227539 -0.43431919247607059 0 0.28909827497095891 -0.41314244090476959 0 0.29418269027227539 -0.43431919247607059 0 0.28909827497095891 -0.41314244090476959 0 0.30716585811758268 -0.42152601893676211 0 0.31826237910007699 -0.40611857650776678 0 0.30157177088572762 -0.39984768184154418 0 0.30716585811758268 -0.42152601893676211 0 0.30157177088572762 -0.39984768184154418 0 0.28909827497095891 -0.41314244090476959 0 0.30716585811758268 -0.42152601893676211 0 0.31285094226236981 -0.44919134340349842 0 0.29418269027227539 -0.43431919247607059 0 0.30716585811758268 -0.42152601893676211 0 0.31285094226236981 -0.44919134340349842 0 0.29418269027227539 -0.43431919247607059 0 0.28597809560131299 -0.4567624239266439 0 0.31285094226236981 -0.44919134340349842 0 0.28597809560131299 -0.4567624239266439 0 0.30810638268294871 -0.47012115952174682 0 0.28597809560131299 -0.4567624239266439 0 0.27356505094757272 -0.46654042127887851 0 0.28658471780149791 -0.47429793876749549 0 0.28597809560131299 -0.4567624239266439 0 0.28658471780149791 -0.47429793876749549 0 0.30810638268294871 -0.47012115952174682 0 0.27472650047210662 -0.43131219108599711 0 0.29418269027227539 -0.43431919247607059 0 0.28597809560131299 -0.4567624239266439 0 0.27472650047210662 -0.43131219108599711 0 0.28597809560131299 -0.4567624239266439 0 0.26710508502781599 -0.44926171113960661 0 0.26710508502781599 -0.44926171113960661 0 0.25055382002994903 -0.45112655962101422 0 0.24845486683426421 -0.43056678600332871 0 0.25055382002994903 -0.45112655962101422 0 0.25749380142066591 -0.46566674131117769 0 0.24452211955108941 -0.47321082899062988 0 0.26710508502781599 -0.44926171113960661 0 0.25055382002994903 -0.45112655962101422 0 0.25749380142066591 -0.46566674131117769 0 0.26710508502781599 -0.44926171113960661 0 0.25749380142066591 -0.46566674131117769 0 0.27356505094757272 -0.46654042127887851 0 0.28597809560131299 -0.4567624239266439 0 0.26710508502781599 -0.44926171113960661 0 0.27356505094757272 -0.46654042127887851 0 0.25749380142066591 -0.46566674131117769 0 0.27356505094757272 -0.46654042127887851 0 0.27066355488657068 -0.48671329124946883 0 0.27356505094757272 -0.46654042127887851 0 0.27066355488657068 -0.48671329124946883 0 0.28658471780149791 -0.47429793876749549 0 0.27066355488657068 -0.48671329124946883 0 0.24310759435645521 -0.48732129405658853 0 0.24452211955108941 -0.47321082899062988 0 0.25749380142066591 -0.46566674131117769 0 0.27066355488657068 -0.48671329124946883 0 0.24452211955108941 -0.47321082899062988 0 0.25573491640979129 -0.5 0 0.27066355488657068 -0.48671329124946883 0 0.24310759435645521 -0.48732129405658853 0 0.27066355488657068 -0.48671329124946883 0 0.24310759435645521 -0.48732129405658853 0 0.25573491640979129 -0.5 0 0.27066355488657068 -0.48671329124946883 0 0.2844178321920392 -0.5 0 0.27066355488657068 -0.48671329124946883 0 0.2844178321920392 -0.5 0 0.29821951541668618 -0.48610528844234918 0 0.27066355488657068 -0.48671329124946883 0 0.29821951541668618 -0.48610528844234918 0 0.27066355488657068 -0.48671329124946883 0 0.28658471780149791 -0.47429793876749549 0 0.29821951541668618 -0.48610528844234918 0 0.28658471780149791 -0.47429793876749549 0 0.30810638268294871 -0.47012115952174682 0 0.29821951541668618 -0.48610528844234918 0 0.32577547594680167 -0.48549728563522948 0 0.30810638268294871 -0.47012115952174682 0 0.29821951541668618 -0.48610528844234918 0 0.313100747974287 -0.5 0 0.2844178321920392 -0.5 0 0.29821951541668618 -0.48610528844234918 0 0.32577547594680167 -0.48549728563522948 0 0.29821951541668618 -0.48610528844234918 0 0.32577547594680167 -0.48549728563522948 0 0.313100747974287 -0.5 0 0.29821951541668618 -0.48610528844234918 0 0.330274064289036 -0.28402767586280209 0 0.34332234684577362 -0.29793808318023329 0 0.34457666422559302 -0.26801309975333321 0 0.330274064289036 -0.28402767586280209 0 0.34332234684577362 -0.29793808318023329 0 0.32977293544345387 -0.30596193421111573 0 0.34332234684577362 -0.29793808318023329 0 0.32977293544345387 -0.30596193421111573 0 0.34206802946595682 -0.32786306660713371 0 0.31744302567780058 -0.29875438106107682 0 0.32081511337912821 -0.31891284763754968 0 0.29956219729229971 -0.30996262866796498 0 0.32977293544345387 -0.30596193421111573 0 0.31744302567780058 -0.29875438106107682 0 0.32081511337912821 -0.31891284763754968 0 0.31744302567780058 -0.29875438106107682 0 0.315203972569992 -0.28599406388836862 0 0.30893165249025939 -0.29458973757352408 0 0.330274064289036 -0.28402767586280209 0 0.32977293544345387 -0.30596193421111573 0 0.31744302567780058 -0.29875438106107682 0 0.330274064289036 -0.28402767586280209 0 0.31744302567780058 -0.29875438106107682 0 0.315203972569992 -0.28599406388836862 0 0.31616400359283131 -0.27140021809428472 0 0.31565659849655159 -0.26881006701694032 0 0.34457666422559302 -0.26801309975333321 0 0.31616400359283131 -0.27140021809428472 0 0.31565659849655159 -0.26881006701694032 0 0.330274064289036 -0.28402767586280209 0 0.315203972569992 -0.28599406388836862 0 0.31616400359283131 -0.27140021809428472 0 0.31140457280844042 -0.24710474912070499 0 0.31565659849655159 -0.26881006701694032 0 0.31140457280844042 -0.24710474912070499 0 0.31565659849655159 -0.26881006701694032 0 0.32909477526671738 -0.25319804842994992 0 0.34542116247921317 -0.24786541093840589 0 0.32909477526671738 -0.25319804842994992 0 0.34457666422559302 -0.26801309975333321 0 0.31565659849655159 -0.26881006701694032 0 0.32909477526671738 -0.25319804842994992 0 0.34457666422559302 -0.26801309975333321 0 0.31565659849655159 -0.26881006701694032 0 0.34457666422559302 -0.26801309975333321 0 0.330274064289036 -0.28402767586280209 0 0.31616400359283131 -0.27140021809428472 0 0.34457666422559302 -0.26801309975333321 0 0.35327842571551671 -0.2677733001931194 0 0.36211004630048071 -0.25874315800932568 0 0.36139056500297317 -0.28258450191058321 0 0.34457666422559302 -0.26801309975333321 0 0.35327842571551671 -0.2677733001931194 0 0.36139056500297317 -0.28258450191058321 0 0.34457666422559302 -0.26801309975333321 0 0.35327842571551671 -0.2677733001931194 0 0.34542116247921317 -0.24786541093840589 0 0.35327842571551671 -0.2677733001931194 0 0.36211004630048071 -0.25874315800932568 0 0.34542116247921317 -0.24786541093840589 0 0.34457666422559302 -0.26801309975333321 0 0.34542116247921317 -0.24786541093840589 0 0.34457666422559302 -0.26801309975333321 0 0.35327842571551671 -0.2677733001931194 0 0.36876625398544938 -0.24898888889403961 0 0.37754581309809132 -0.23651361028518689 0 0.3725796289452375 -0.26579697317357759 0 0.36876625398544938 -0.24898888889403961 0 0.36211004630048071 -0.25874315800932568 0 0.3725796289452375 -0.26579697317357759 0 0.36211004630048071 -0.25874315800932568 0 0.36139056500297317 -0.28258450191058321 0 0.36211004630048071 -0.25874315800932568 0 0.3725796289452375 -0.26579697317357759 0 0.36139056500297317 -0.28258450191058321 0 0.3725796289452375 -0.26579697317357759 0 0.36761344479238373 -0.29508033606196837 0 0.3725796289452375 -0.26579697317357759 0 0.36139056500297317 -0.28258450191058321 0 0.36761344479238373 -0.29508033606196837 0 0.36139056500297317 -0.28258450191058321 0 0.36067108370546558 -0.30642584581184062 0 0.36139056500297317 -0.28258450191058321 0 0.36761344479238373 -0.29508033606196837 0 0.36067108370546558 -0.30642584581184062 0 0.37929392098169401 -0.28404327537796259 0 0.3725796289452375 -0.26579697317357759 0 0.36761344479238373 -0.29508033606196837 0 0.34332234684577362 -0.29793808318023329 0 0.36139056500297317 -0.28258450191058321 0 0.36067108370546558 -0.30642584581184062 0 0.34332234684577362 -0.29793808318023329 0 0.34457666422559302 -0.26801309975333321 0 0.34332234684577362 -0.29793808318023329 0 0.34457666422559302 -0.26801309975333321 0 0.36139056500297317 -0.28258450191058321 0 0.34332234684577362 -0.29793808318023329 0 0.36067108370546558 -0.30642584581184062 0 0.35385294866325562 -0.31815161708919842 0 0.37804720550635529 -0.30651687721429538 0 0.36761344479238373 -0.29508033606196837 0 0.37325959660283969 -0.31225701655594912 0 0.36761344479238373 -0.29508033606196837 0 0.37325959660283969 -0.31225701655594912 0 0.36522996683296982 -0.32210974174446261 0 0.36761344479238373 -0.29508033606196837 0 0.3626472606395299 -0.32436369895035932 0 0.36761344479238373 -0.29508033606196837 0 0.36067108370546558 -0.30642584581184062 0 0.3626472606395299 -0.32436369895035932 0 0.36067108370546558 -0.30642584581184062 0 0.35995160240795782 -0.33026718971309799 0 0.37325959660283969 -0.31225701655594912 0 0.36522996683296982 -0.32210974174446261 0 0.37029473460036533 -0.32565573538444043 0 0.36761344479238373 -0.29508033606196837 0 0.3626472606395299 -0.32436369895035932 0 0.36522996683296982 -0.32210974174446261 0 0.36067108370546558 -0.30642584581184062 0 0.3626472606395299 -0.32436369895035932 0 0.35995160240795782 -0.33026718971309799 0 0.38064079273778262 -0.31288188218018531 0 0.37325959660283969 -0.31225701655594912 0 0.37029473460036533 -0.32565573538444043 0 0.3626472606395299 -0.32436369895035932 0 0.37029473460036533 -0.32565573538444043 0 0.35995160240795782 -0.33026718971309799 0 0.37029473460036533 -0.32565573538444043 0 0.35995160240795782 -0.33026718971309799 0 0.3626472606395299 -0.32436369895035932 0 0.36522996683296982 -0.32210974174446261 0 0.37029473460036533 -0.32565573538444043 0 0.36522996683296982 -0.32210974174446261 0 0.37029473460036533 -0.32565573538444043 0 0.35995160240795782 -0.33026718971309799 0 0.35941557651728179 -0.34802939929915899 0 0.37029473460036533 -0.32565573538444043 0 0.37212478857772979 -0.33864880005647208 0 0.35995160240795782 -0.33026718971309799 0 0.3654326502107581 -0.34245967622864359 0 0.35995160240795782 -0.33026718971309799 0 0.35941557651728179 -0.34802939929915899 0 0.37212478857772979 -0.33864880005647208 0 0.3654326502107581 -0.34245967622864359 0 0.37040156667629781 -0.34671437794913718 0 0.37212478857772979 -0.33864880005647208 0 0.3654326502107581 -0.34245967622864359 0 0.35995160240795782 -0.33026718971309799 0 0.35995160240795782 -0.33026718971309799 0 0.35941557651728179 -0.34802939929915899 0 0.34162477060798069 -0.33843815246039383 0 0.35941557651728179 -0.34802939929915899 0 0.34146637893605181 -0.3422169952266676 0 0.34162477060798069 -0.33843815246039383 0 0.35995160240795782 -0.33026718971309799 0 0.34162477060798069 -0.33843815246039383 0 0.35995160240795782 -0.33026718971309799 0 0.34764647170350632 -0.33021231032179682 0 0.34162477060798069 -0.33843815246039383 0 0.35995160240795782 -0.33026718971309799 0 0.34764647170350632 -0.33021231032179682 0 0.35274785573456591 -0.3260756163463463 0 0.34764647170350632 -0.33021231032179682 0 0.34206802946595682 -0.32786306660713371 0 0.34162477060798069 -0.33843815246039383 0 0.34764647170350632 -0.33021231032179682 0 0.34206802946595682 -0.32786306660713371 0 0.35385294866325562 -0.31815161708919842 0 0.35274785573456591 -0.3260756163463463 0 0.34206802946595682 -0.32786306660713371 0 0.34764647170350632 -0.33021231032179682 0 0.35274785573456591 -0.3260756163463463 0 0.34206802946595682 -0.32786306660713371 0 0.34332234684577362 -0.29793808318023329 0 0.35385294866325562 -0.31815161708919842 0 0.34206802946595682 -0.32786306660713371 0 0.36067108370546558 -0.30642584581184062 0 0.35995160240795782 -0.33026718971309799 0 0.35385294866325562 -0.31815161708919842 0 0.35995160240795782 -0.33026718971309799 0 0.35385294866325562 -0.31815161708919842 0 0.35274785573456591 -0.3260756163463463 0 0.38249634533461108 -0.36797477098799591 0 0.36724772315424481 -0.38247146420994571 0 0.36664078794155069 -0.36853845970684512 0 0.38249634533461108 -0.36797477098799591 0 0.36664078794155069 -0.36853845970684512 0 0.37305712147220338 -0.36102055586376819 0 0.3553956415560332 -0.375446985373177 0 0.36664078794155069 -0.36853845970684512 0 0.35901533294662008 -0.36129221050145399 0 0.36664078794155069 -0.36853845970684512 0 0.37305712147220338 -0.36102055586376819 0 0.36517854466496658 -0.35714892472411869 0 0.36664078794155069 -0.36853845970684512 0 0.36517854466496658 -0.35714892472411869 0 0.35901533294662008 -0.36129221050145399 0 0.36517854466496658 -0.35714892472411869 0 0.35941557651728179 -0.34802939929915899 0 0.35901533294662008 -0.36129221050145399 0 0.36517854466496658 -0.35714892472411869 0 0.36469303305047901 -0.34973837317986511 0 0.35941557651728179 -0.34802939929915899 0 0.36517854466496658 -0.35714892472411869 0 0.37030234625384911 -0.35279401393457888 0 0.36469303305047901 -0.34973837317986511 0 0.37818146540529818 -0.34934783795600571 0 0.37305712147220338 -0.36102055586376819 0 0.37030234625384911 -0.35279401393457888 0 0.37305712147220338 -0.36102055586376819 0 0.36517854466496658 -0.35714892472411869 0 0.37030234625384911 -0.35279401393457888 0 0.37818146540529818 -0.34934783795600571 0 0.37212478857772979 -0.33864880005647208 0 0.37040156667629781 -0.34671437794913718 0 0.37818146540529818 -0.34934783795600571 0 0.37030234625384911 -0.35279401393457888 0 0.37040156667629781 -0.34671437794913718 0 0.37030234625384911 -0.35279401393457888 0 0.37040156667629781 -0.34671437794913718 0 0.36469303305047901 -0.34973837317986511 0 0.3654326502107581 -0.34245967622864359 0 0.37040156667629781 -0.34671437794913718 0 0.36469303305047901 -0.34973837317986511 0 0.36469303305047901 -0.34973837317986511 0 0.35941557651728179 -0.34802939929915899 0 0.3654326502107581 -0.34245967622864359 0 0.36469303305047901 -0.34973837317986511 0 0.35941557651728179 -0.34802939929915899 0 0.35003449333301101 -0.35574942476505861 0 0.34024068493209042 -0.37145909403295352 0 0.34146637893605181 -0.3422169952266676 0 0.35941557651728179 -0.34802939929915899 0 0.35003449333301101 -0.35574942476505861 0 0.34146637893605181 -0.3422169952266676 0 0.35941557651728179 -0.34802939929915899 0 0.34146637893605181 -0.3422169952266676 0 0.35941557651728179 -0.34802939929915899 0 0.35901533294662008 -0.36129221050145399 0 0.35941557651728179 -0.34802939929915899 0 0.35003449333301101 -0.35574942476505861 0 0.35901533294662008 -0.36129221050145399 0 0.35003449333301101 -0.35574942476505861 0 0.35901533294662008 -0.36129221050145399 0 0.34024068493209042 -0.37145909403295352 0 0.3553956415560332 -0.375446985373177 0 0.35901533294662008 -0.36129221050145399 0 0.34024068493209042 -0.37145909403295352 0 0.34024068493209042 -0.37145909403295352 0 0.33264239376833749 -0.35548373211026962 0 0.32473595581008968 -0.36877041147622941 0 0.34024068493209042 -0.37145909403295352 0 0.33264239376833749 -0.35548373211026962 0 0.34146637893605181 -0.3422169952266676 0 0.34024068493209042 -0.37145909403295352 0 0.34146637893605181 -0.3422169952266676 0 0.33264239376833749 -0.35548373211026962 0 0.32969677432389999 -0.34883746930945858 0 0.32350037713642671 -0.3535383953733186 0 0.33264239376833749 -0.35548373211026962 0 0.33484083241944268 -0.34588391539316982 0 0.34146637893605181 -0.3422169952266676 0 0.33264239376833749 -0.35548373211026962 0 0.33484083241944268 -0.34588391539316982 0 0.32969677432389999 -0.34883746930945858 0 0.33484083241944268 -0.34588391539316982 0 0.32969677432389999 -0.34883746930945858 0 0.33080291213000951 -0.34437854531234752 0 0.32969677432389999 -0.34883746930945858 0 0.33080291213000951 -0.34437854531234752 0 0.32576759743036687 -0.34544500479448842 0 0.32576759743036687 -0.34544500479448842 0 0.32008489300350967 -0.34478001059398899 0 0.32350037713642671 -0.3535383953733186 0 0.32969677432389999 -0.34883746930945858 0 0.32576759743036687 -0.34544500479448842 0 0.32350037713642671 -0.3535383953733186 0 0.32576759743036687 -0.34544500479448842 0 0.32008489300350967 -0.34478001059398899 0 0.3230261242077439 -0.3426129045732173 0 0.32008489300350967 -0.34478001059398899 0 0.31455300750316167 -0.34989325112993808 0 0.32350037713642671 -0.3535383953733186 0 0.32008489300350967 -0.34478001059398899 0 0.31455300750316167 -0.34989325112993808 0 0.31278358272303802 -0.34129775444127147 0 0.31455300750316167 -0.34989325112993808 0 0.32350037713642671 -0.3535383953733186 0 0.31266700858965563 -0.36105898834543543 0 0.33264239376833749 -0.35548373211026962 0 0.32350037713642671 -0.3535383953733186 0 0.32473595581008968 -0.36877041147622941 0 0.30852465471842783 -0.38296478278532459 0 0.31266700858965563 -0.36105898834543543 0 0.32473595581008968 -0.36877041147622941 0 0.32350037713642671 -0.3535383953733186 0 0.31266700858965563 -0.36105898834543543 0 0.32473595581008968 -0.36877041147622941 0 0.34332234684577362 -0.29793808318023329 0 0.34206802946595682 -0.32786306660713371 0 0.32977293544345387 -0.30596193421111573 0 0.34206802946595682 -0.32786306660713371 0 0.32081511337912821 -0.31891284763754968 0 0.34206802946595682 -0.32786306660713371 0 0.32602109842812482 -0.32927153728442071 0 0.32081511337912821 -0.31891284763754968 0 0.34206802946595682 -0.32786306660713371 0 0.32081511337912821 -0.31891284763754968 0 0.34206802946595682 -0.32786306660713371 0 0.34162477060798069 -0.33843815246039383 0 0.33801441914131958 -0.33597980122333287 0 0.34206802946595682 -0.32786306660713371 0 0.34162477060798069 -0.33843815246039383 0 0.34206802946595682 -0.32786306660713371 0 0.33503975802439162 -0.33352730776002742 0 0.32602109842812482 -0.32927153728442071 0 0.34206802946595682 -0.32786306660713371 0 0.33801441914131958 -0.33597980122333287 0 0.33503975802439162 -0.33352730776002742 0 0.34146637893605181 -0.3422169952266676 0 0.34162477060798069 -0.33843815246039383 0 0.33664845261102122 -0.34065682884787418 0 0.34146637893605181 -0.3422169952266676 0 0.34162477060798069 -0.33843815246039383 0 0.34162477060798069 -0.33843815246039383 0 0.33801441914131958 -0.33597980122333287 0 0.33664845261102122 -0.34065682884787418 0 0.34162477060798069 -0.33843815246039383 0 0.33664845261102122 -0.34065682884787418 0 0.33801441914131958 -0.33597980122333287 0 0.33664845261102122 -0.34065682884787418 0 0.334556636173299 -0.33621284741772872 0 0.33484083241944268 -0.34588391539316982 0 0.34146637893605181 -0.3422169952266676 0 0.33664845261102122 -0.34065682884787418 0 0.34146637893605181 -0.3422169952266676 0 0.33664845261102122 -0.34065682884787418 0 0.33080291213000951 -0.34437854531234752 0 0.33664845261102122 -0.34065682884787418 0 0.32753883147517121 -0.34023469067202677 0 0.33664845261102122 -0.34065682884787418 0 0.334556636173299 -0.33621284741772872 0 0.32852391491646382 -0.33468745183968091 0 0.33484083241944268 -0.34588391539316982 0 0.33080291213000951 -0.34437854531234752 0 0.33664845261102122 -0.34065682884787418 0 0.33503975802439162 -0.33352730776002742 0 0.32852391491646382 -0.33468745183968091 0 0.32602109842812482 -0.32927153728442071 0 0.334556636173299 -0.33621284741772872 0 0.33503975802439162 -0.33352730776002742 0 0.32852391491646382 -0.33468745183968091 0 0.33801441914131958 -0.33597980122333287 0 0.334556636173299 -0.33621284741772872 0 0.33503975802439162 -0.33352730776002742 0 0.32753883147517121 -0.34023469067202677 0 0.31871317492192791 -0.33999191223236508 0 0.30992165968220392 -0.33200201743577268 0 0.32852391491646382 -0.33468745183968091 0 0.32602109842812482 -0.32927153728442071 0 0.30992165968220392 -0.33200201743577268 0 0.33664845261102122 -0.34065682884787418 0 0.32852391491646382 -0.33468745183968091 0 0.30992165968220392 -0.33200201743577268 0 0.33664845261102122 -0.34065682884787418 0 0.32753883147517121 -0.34023469067202677 0 0.30992165968220392 -0.33200201743577268 0 0.32602109842812482 -0.32927153728442071 0 0.31516553794356478 -0.32688419612254632 0 0.30992165968220392 -0.33200201743577268 0 0.33664845261102122 -0.34065682884787418 0 0.30992165968220392 -0.33200201743577268 0 0.32753883147517121 -0.34023469067202677 0 0.3230261242077439 -0.3426129045732173 0 0.31871317492192791 -0.33999191223236508 0 0.33080291213000951 -0.34437854531234752 0 0.32576759743036687 -0.34544500479448842 0 0.32753883147517121 -0.34023469067202677 0 0.32576759743036687 -0.34544500479448842 0 0.32753883147517121 -0.34023469067202677 0 0.3230261242077439 -0.3426129045732173 0 0.32008489300350967 -0.34478001059398899 0 0.3230261242077439 -0.3426129045732173 0 0.31871317492192791 -0.33999191223236508 0 0.31871317492192791 -0.33999191223236508 0 0.31278358272303802 -0.34129775444127147 0 0.30992165968220392 -0.33200201743577268 0 0.32008489300350967 -0.34478001059398899 0 0.31871317492192791 -0.33999191223236508 0 0.31278358272303802 -0.34129775444127147 0 0.32602109842812482 -0.32927153728442071 0 0.31516553794356478 -0.32688419612254632 0 0.32081511337912821 -0.31891284763754968 0 0.31516553794356478 -0.32688419612254632 0 0.32081511337912821 -0.31891284763754968 0 0.29956219729229971 -0.30996262866796498 0 0.31516553794356478 -0.32688419612254632 0 0.30992165968220392 -0.33200201743577268 0 0.29956219729229971 -0.30996262866796498 0 0.30992165968220392 -0.33200201743577268 0 0.28319486675338662 -0.32334720602367162 0 0.29956219729229971 -0.30996262866796498 0 0.32081511337912821 -0.31891284763754968 0 0.29956219729229971 -0.30996262866796498 0 0.31516553794356478 -0.32688419612254632 0 0.29956219729229971 -0.30996262866796498 0 0.31278358272303802 -0.34129775444127147 0 0.30544777269898171 -0.33968681455295602 0 0.30372917606317851 -0.34879110689567611 0 0.31278358272303802 -0.34129775444127147 0 0.30992165968220392 -0.33200201743577268 0 0.30544777269898171 -0.33968681455295602 0 0.30992165968220392 -0.33200201743577268 0 0.30544777269898171 -0.33968681455295602 0 0.29535667232750618 -0.33665637943910393 0 0.30544777269898171 -0.33968681455295602 0 0.29535667232750618 -0.33665637943910393 0 0.30372917606317851 -0.34879110689567611 0 0.30992165968220392 -0.33200201743577268 0 0.29535667232750618 -0.33665637943910393 0 0.28319486675338662 -0.32334720602367162 0 0.29535667232750618 -0.33665637943910393 0 0.28811986741475609 -0.34954264064797458 0 0.28056009198101312 -0.33712721632873971 0 0.29535667232750618 -0.33665637943910393 0 0.28319486675338662 -0.32334720602367162 0 0.28056009198101312 -0.33712721632873971 0 0.30992165968220392 -0.33200201743577268 0 0.28319486675338662 -0.32334720602367162 0 0.30852465471842783 -0.38296478278532459 0 0.31266700858965563 -0.36105898834543543 0 0.29576167506738288 -0.36584798696867898 0 0.31266700858965563 -0.36105898834543543 0 0.30372917606317851 -0.34879110689567611 0 0.29576167506738288 -0.36584798696867898 0 0.31455300750316167 -0.34989325112993808 0 0.31266700858965563 -0.36105898834543543 0 0.30372917606317851 -0.34879110689567611 0 0.31455300750316167 -0.34989325112993808 0 0.31278358272303802 -0.34129775444127147 0 0.30372917606317851 -0.34879110689567611 0 0.30372917606317851 -0.34879110689567611 0 0.28811986741475609 -0.34954264064797458 0 0.29576167506738288 -0.36584798696867898 0 0.29535667232750618 -0.33665637943910393 0 0.30372917606317851 -0.34879110689567611 0 0.28811986741475609 -0.34954264064797458 0 0.28811986741475609 -0.34954264064797458 0 0.29576167506738288 -0.36584798696867898 0 0.27628411724202862 -0.36524783617958329 0 0.28524522637625171 -0.38748256695808048 0 0.29576167506738288 -0.36584798696867898 0 0.27628411724202862 -0.36524783617958329 0 0.27628411724202862 -0.36524783617958329 0 0.26970242523906313 -0.3463930650348116 0 0.25620327224306561 -0.36049072758523892 0 0.28811986741475609 -0.34954264064797458 0 0.27628411724202862 -0.36524783617958329 0 0.26970242523906313 -0.3463930650348116 0 0.28811986741475609 -0.34954264064797458 0 0.26970242523906313 -0.3463930650348116 0 0.28056009198101312 -0.33712721632873971 0 0.26970242523906313 -0.3463930650348116 0 0.25620327224306561 -0.36049072758523892 0 0.25110761996098008 -0.33756133299550262 0 0.26194523537769671 -0.38343407302417171 0 0.27628411724202862 -0.36524783617958329 0 0.25620327224306561 -0.36049072758523892 0 0.26194523537769671 -0.38343407302417171 0 0.25620327224306561 -0.36049072758523892 0 0.2380746425401753 -0.37739124482652259 0 0.28319486675338662 -0.32334720602367162 0 0.25646807382456938 -0.31469239461157061 0 0.28319486675338662 -0.32334720602367162 0 0.25646807382456938 -0.31469239461157061 0 0.26668910057358802 -0.30550764638795852 0 0.28319486675338662 -0.32334720602367162 0 0.26642662817035351 -0.32969679049813649 0 0.25646807382456938 -0.31469239461157061 0 0.26970242523906313 -0.3463930650348116 0 0.26642662817035351 -0.32969679049813649 0 0.28056009198101312 -0.33712721632873971 0 0.28319486675338662 -0.32334720602367162 0 0.26642662817035351 -0.32969679049813649 0 0.28056009198101312 -0.33712721632873971 0 0.26970242523906313 -0.3463930650348116 0 0.26642662817035351 -0.32969679049813649 0 0.25110761996098008 -0.33756133299550262 0 0.26642662817035351 -0.32969679049813649 0 0.25110761996098008 -0.33756133299550262 0 0.25646807382456938 -0.31469239461157061 0 0.26020915296869068 -0.2933899210744732 0 0.26668910057358802 -0.30550764638795852 0 0.24613976577650579 -0.30323365481969039 0 0.25646807382456938 -0.31469239461157061 0 0.26668910057358802 -0.30550764638795852 0 0.24613976577650579 -0.30323365481969039 0 0.26020915296869068 -0.2933899210744732 0 0.25058364390229548 -0.28023087545190861 0 0.26295470628353768 -0.27026240406269297 0 0.26020915296869068 -0.2933899210744732 0 0.25058364390229548 -0.28023087545190861 0 0.24053263080688631 -0.28510356727772701 0 0.26020915296869068 -0.2933899210744732 0 0.24053263080688631 -0.28510356727772701 0 0.26020915296869068 -0.2933899210744732 0 0.28125845178791892 -0.29011251636532881 0 0.26295470628353768 -0.27026240406269297 0 0.26020915296869068 -0.2933899210744732 0 0.27988567513049512 -0.30167627487121951 0 0.28125845178791892 -0.29011251636532881 0 0.26020915296869068 -0.2933899210744732 0 0.26668910057358802 -0.30550764638795852 0 0.27988567513049512 -0.30167627487121951 0 0.26020915296869068 -0.2933899210744732 0 0.27988567513049512 -0.30167627487121951 0 0.28319486675338662 -0.32334720602367162 0 0.26668910057358802 -0.30550764638795852 0 0.27988567513049512 -0.30167627487121951 0 0.27988567513049512 -0.30167627487121951 0 0.29956219729229971 -0.30996262866796498 0 0.28125845178791892 -0.29011251636532881 0 0.29956219729229971 -0.30996262866796498 0 0.27988567513049512 -0.30167627487121951 0 0.28125845178791892 -0.29011251636532881 0 0.29956219729229971 -0.30996262866796498 0 0.28319486675338662 -0.32334720602367162 0 0.27988567513049512 -0.30167627487121951 0 0.29956219729229971 -0.30996262866796498 0 0.28125845178791892 -0.29011251636532881 0 0.30351741442094582 -0.28364787667668517 0 0.29956219729229971 -0.30996262866796498 0 0.30351741442094582 -0.28364787667668517 0 0.30893165249025939 -0.29458973757352408 0 0.29956219729229971 -0.30996262866796498 0 0.315203972569992 -0.28599406388836862 0 0.30351741442094582 -0.28364787667668517 0 0.30893165249025939 -0.29458973757352408 0 0.31744302567780058 -0.29875438106107682 0 0.30893165249025939 -0.29458973757352408 0 0.29956219729229971 -0.30996262866796498 0 0.31140457280844042 -0.24710474912070499 0 0.31565659849655159 -0.26881006701694032 0 0.29718577407036301 -0.25519814195989071 0 0.31565659849655159 -0.26881006701694032 0 0.29718577407036301 -0.25519814195989071 0 0.28930565239004458 -0.26953623553981648 0 0.31565659849655159 -0.26881006701694032 0 0.28930565239004458 -0.26953623553981648 0 0.31565659849655159 -0.26881006701694032 0 0.30351741442094582 -0.28364787667668517 0 0.28930565239004458 -0.26953623553981648 0 0.315203972569992 -0.28599406388836862 0 0.31616400359283131 -0.27140021809428472 0 0.30351741442094582 -0.28364787667668517 0 0.31616400359283131 -0.27140021809428472 0 0.31565659849655159 -0.26881006701694032 0 0.30351741442094582 -0.28364787667668517 0 0.28125845178791892 -0.29011251636532881 0 0.30351741442094582 -0.28364787667668517 0 0.28930565239004458 -0.26953623553981648 0 0.29234931722919649 -0.23956849287787771 0 0.29718577407036301 -0.25519814195989071 0 0.28009493911397709 -0.25531812806766069 0 0.29718577407036301 -0.25519814195989071 0 0.28930565239004458 -0.26953623553981648 0 0.28009493911397709 -0.25531812806766069 0 0.28009493911397709 -0.25531812806766069 0 0.26295470628353768 -0.27026240406269297 0 0.26515279713901752 -0.25474276698909742 0 0.28930565239004458 -0.26953623553981648 0 0.28009493911397709 -0.25531812806766069 0 0.26295470628353768 -0.27026240406269297 0 0.27362138757170362 -0.2426007269765893 0 0.28009493911397709 -0.25531812806766069 0 0.26515279713901752 -0.25474276698909742 0 0.28930565239004458 -0.26953623553981648 0 0.26295470628353768 -0.27026240406269297 0 0.28125845178791892 -0.29011251636532881 0 0.28930565239004458 -0.26953623553981648 0 0.26295470628353768 -0.27026240406269297 0 0.28125845178791892 -0.29011251636532881 0 0.26295470628353768 -0.27026240406269297 0 0.26295470628353768 -0.27026240406269297 0 0.25920525151110962 -0.26619618175379239 0 0.2333624491378041 -0.27107789530058801 0 0.26295470628353768 -0.27026240406269297 0 0.25920525151110962 -0.26619618175379239 0 0.26515279713901752 -0.25474276698909742 0 0.25909559454287789 -0.26033526294480458 0 0.25575058308532189 -0.25269357128633052 0 0.26295470628353768 -0.27026240406269297 0 0.25920525151110962 -0.26619618175379239 0 0.25909559454287789 -0.26033526294480458 0 0.26295470628353768 -0.27026240406269297 0 0.26515279713901752 -0.25474276698909742 0 0.25909559454287789 -0.26033526294480458 0 0.25920525151110962 -0.26619618175379239 0 0.25909559454287789 -0.26033526294480458 0 0.2525593813984649 -0.26013433662011259 0 0.2525593813984649 -0.26013433662011259 0 0.25575058308532189 -0.25269357128633052 0 0.2462907050713771 -0.25204034373521428 0 0.25909559454287789 -0.26033526294480458 0 0.2525593813984649 -0.26013433662011259 0 0.25575058308532189 -0.25269357128633052 0 0.2525593813984649 -0.26013433662011259 0 0.2372713891187809 -0.25677075628574592 0 0.2333624491378041 -0.27107789530058801 0 0.2525593813984649 -0.26013433662011259 0 0.2462907050713771 -0.25204034373521428 0 0.2372713891187809 -0.25677075628574592 0 0.2525593813984649 -0.26013433662011259 0 0.2372713891187809 -0.25677075628574592 0 0.2462907050713771 -0.25204034373521428 0 0.2372713891187809 -0.25677075628574592 0 0.2374752251495614 -0.24157268794541539 0 0.26295470628353768 -0.27026240406269297 0 0.2333624491378041 -0.27107789530058801 0 0.25058364390229548 -0.28023087545190861 0 0.2333624491378041 -0.27107789530058801 0 0.24053263080688631 -0.28510356727772701 0 0.25920525151110962 -0.26619618175379239 0 0.2525593813984649 -0.26013433662011259 0 0.2333624491378041 -0.27107789530058801 0 0.25058364390229548 -0.28023087545190861 0 0.26295470628353768 -0.27026240406269297 0 0.2333624491378041 -0.27107789530058801 0 0.2333624491378041 -0.27107789530058801 0 0.22391874229476511 -0.2824004848955064 0 0.24053263080688631 -0.28510356727772701 0 0.2333624491378041 -0.27107789530058801 0 0.22198339683909701 -0.25340717595137879 0 0.22391874229476511 -0.2824004848955064 0 0.22198339683909701 -0.25340717595137879 0 0.21277476220729311 -0.27908963951381288 0 0.22391874229476511 -0.2824004848955064 0 0.22198339683909701 -0.25340717595137879 0 0.22391874229476511 -0.2824004848955064 0 0.2372713891187809 -0.25677075628574592 0 0.2333624491378041 -0.27107789530058801 0 0.22198339683909701 -0.25340717595137879 0 0.2372713891187809 -0.25677075628574592 0 0.22198339683909701 -0.25340717595137879 0 0.2374752251495614 -0.24157268794541539 0 0.2372713891187809 -0.25677075628574592 0 0.22198339683909701 -0.25340717595137879 0 0.22198339683909701 -0.25340717595137879 0 0.19767743283581299 -0.26201501502554969 0 0.19815896102696709 -0.24816545406213189 0 0.22198339683909701 -0.25340717595137879 0 0.19815896102696709 -0.24816545406213189 0 0.22198339683909701 -0.25340717595137879 0 0.2070014623020448 -0.26844420161526761 0 0.19767743283581299 -0.26201501502554969 0 0.22198339683909701 -0.25340717595137879 0 0.21277476220729311 -0.27908963951381288 0 0.2070014623020448 -0.26844420161526761 0 0.21277476220729311 -0.27908963951381288 0 0.19627752834655959 -0.27465633278028612 0 0.20552852767052071 -0.28818040814850709 0 0.21277476220729311 -0.27908963951381288 0 0.2070014623020448 -0.26844420161526761 0 0.19627752834655959 -0.27465633278028612 0 0.2070014623020448 -0.26844420161526761 0 0.19627752834655959 -0.27465633278028612 0 0.19767743283581299 -0.26201501502554969 0 0.19627752834655959 -0.27465633278028612 0 0.19767743283581299 -0.26201501502554969 0 0.1861358052291735 -0.26379397041404468 0 0.19767743283581299 -0.26201501502554969 0 0.1861358052291735 -0.26379397041404468 0 0.19815896102696709 -0.24816545406213189 0 0.1861358052291735 -0.26379397041404468 0 0.18066177981631051 -0.25348299893649828 0 0.19815896102696709 -0.24816545406213189 0 0.20129939135720101 -0.31175464383988888 0 0.20552852767052071 -0.28818040814850709 0 0.1861316223780578 -0.30340045511113362 0 0.20552852767052071 -0.28818040814850709 0 0.18615950714984131 -0.28714944863913389 0 0.1861316223780578 -0.30340045511113362 0 0.19627752834655959 -0.27465633278028612 0 0.20552852767052071 -0.28818040814850709 0 0.18615950714984131 -0.28714944863913389 0 0.21277476220729311 -0.27908963951381288 0 0.20552852767052071 -0.28818040814850709 0 0.22391874229476511 -0.2824004848955064 0 0.20552852767052071 -0.28818040814850709 0 0.21283890344555609 -0.30228465628523993 0 0.22391874229476511 -0.2824004848955064 0 0.20129939135720101 -0.31175464383988888 0 0.20552852767052071 -0.28818040814850709 0 0.21283890344555609 -0.30228465628523993 0 0.225854087750432 -0.31139379383963389 0 0.22391874229476511 -0.2824004848955064 0 0.21283890344555609 -0.30228465628523993 0 0.225854087750432 -0.31139379383963389 0 0.22391874229476511 -0.2824004848955064 0 0.225854087750432 -0.31139379383963389 0 0.22391874229476511 -0.2824004848955064 0 0.24053263080688631 -0.28510356727772701 0 0.26020915296869068 -0.2933899210744732 0 0.24053263080688631 -0.28510356727772701 0 0.24613976577650579 -0.30323365481969039 0 0.225854087750432 -0.31139379383963389 0 0.24053263080688631 -0.28510356727772701 0 0.24613976577650579 -0.30323365481969039 0 0.225854087750432 -0.31139379383963389 0 0.24613976577650579 -0.30323365481969039 0 0.24147179610371719 -0.32145365581003182 0 0.25110761996098008 -0.33756133299550262 0 0.25646807382456938 -0.31469239461157061 0 0.24147179610371719 -0.32145365581003182 0 0.25646807382456938 -0.31469239461157061 0 0.24613976577650579 -0.30323365481969039 0 0.24147179610371719 -0.32145365581003182 0 0.25110761996098008 -0.33756133299550262 0 0.24147179610371719 -0.32145365581003182 0 0.2277894332060989 -0.3403871027837615 0 0.225854087750432 -0.31139379383963389 0 0.24147179610371719 -0.32145365581003182 0 0.2277894332060989 -0.3403871027837615 0 0.225854087750432 -0.31139379383963389 0 0.2277894332060989 -0.3403871027837615 0 0.2131017443993804 -0.32550716011161479 0 0.225854087750432 -0.31139379383963389 0 0.2277894332060989 -0.3403871027837615 0 0.25620327224306561 -0.36049072758523892 0 0.23939100935974761 -0.35412122659527612 0 0.2380746425401753 -0.37739124482652259 0 0.25110761996098008 -0.33756133299550262 0 0.2277894332060989 -0.3403871027837615 0 0.23939100935974761 -0.35412122659527612 0 0.25620327224306561 -0.36049072758523892 0 0.25110761996098008 -0.33756133299550262 0 0.23939100935974761 -0.35412122659527612 0 0.2277894332060989 -0.3403871027837615 0 0.23939100935974761 -0.35412122659527612 0 0.22160146260088931 -0.35672021721344238 0 0.2277894332060989 -0.3403871027837615 0 0.22160146260088931 -0.35672021721344238 0 0.21393580002607371 -0.34141846605291087 0 0.23939100935974761 -0.35412122659527612 0 0.22160146260088931 -0.35672021721344238 0 0.2380746425401753 -0.37739124482652259 0 0.22160146260088931 -0.35672021721344238 0 0.21646245367279571 -0.38358476595235552 0 0.22160146260088931 -0.35672021721344238 0 0.2380746425401753 -0.37739124482652259 0 0.21646245367279571 -0.38358476595235552 0 0.22160146260088931 -0.35672021721344238 0 0.19836301469614079 -0.36402790855933592 0 0.2025217842010896 -0.37807387373583923 0 0.22160146260088931 -0.35672021721344238 0 0.21646245367279571 -0.38358476595235552 0 0.2025217842010896 -0.37807387373583923 0 0.22160146260088931 -0.35672021721344238 0 0.20535211274276649 -0.35018034328080122 0 0.21393580002607371 -0.34141846605291087 0 0.22160146260088931 -0.35672021721344238 0 0.20535211274276649 -0.35018034328080122 0 0.19836301469614079 -0.36402790855933592 0 0.20535211274276649 -0.35018034328080122 0 0.19180082998577391 -0.35029167033112268 0 0.20100079568597551 -0.33875735092892167 0 0.19180082998577391 -0.35029167033112268 0 0.19836301469614079 -0.36402790855933592 0 0.18636698824462991 -0.36225910140511608 0 0.19180082998577391 -0.35029167033112268 0 0.18636698824462991 -0.36225910140511608 0 0.18448777755487131 -0.35210036546502188 0 0.20535211274276649 -0.35018034328080122 0 0.19180082998577391 -0.35029167033112268 0 0.19836301469614079 -0.36402790855933592 0 0.19836301469614079 -0.36402790855933592 0 0.19083927531350181 -0.37426462870353422 0 0.18636698824462991 -0.36225910140511608 0 0.19836301469614079 -0.36402790855933592 0 0.19083927531350181 -0.37426462870353422 0 0.2025217842010896 -0.37807387373583923 0 0.20129939135720101 -0.31175464383988888 0 0.21283890344555609 -0.30228465628523993 0 0.2131017443993804 -0.32550716011161479 0 0.21283890344555609 -0.30228465628523993 0 0.225854087750432 -0.31139379383963389 0 0.2131017443993804 -0.32550716011161479 0 0.2277894332060989 -0.3403871027837615 0 0.2131017443993804 -0.32550716011161479 0 0.21393580002607371 -0.34141846605291087 0 0.2131017443993804 -0.32550716011161479 0 0.21393580002607371 -0.34141846605291087 0 0.20100079568597551 -0.33875735092892167 0 0.20535211274276649 -0.35018034328080122 0 0.21393580002607371 -0.34141846605291087 0 0.20100079568597551 -0.33875735092892167 0 0.19180082998577391 -0.35029167033112268 0 0.20100079568597551 -0.33875735092892167 0 0.1840044286915227 -0.33601373309634508 0 0.20100079568597551 -0.33875735092892167 0 0.19352690233448341 -0.32516644492614982 0 0.1840044286915227 -0.33601373309634508 0 0.2131017443993804 -0.32550716011161479 0 0.20100079568597551 -0.33875735092892167 0 0.19352690233448341 -0.32516644492614982 0 0.20129939135720101 -0.31175464383988888 0 0.2131017443993804 -0.32550716011161479 0 0.19352690233448341 -0.32516644492614982 0 0.20129939135720101 -0.31175464383988888 0 0.19352690233448341 -0.32516644492614982 0 0.1861316223780578 -0.30340045511113362 0 0.19352690233448341 -0.32516644492614982 0 0.17526094699071121 -0.32121364916979261 0 0.1840044286915227 -0.33601373309634508 0 0.19352690233448341 -0.32516644492614982 0 0.17526094699071121 -0.32121364916979261 0 0.1861316223780578 -0.30340045511113362 0 0.17526094699071121 -0.32121364916979261 0 0.1840044286915227 -0.33601373309634508 0 0.17670370261134591 -0.35101137430815987 0 0.17526094699071121 -0.32121364916979261 0 0.16632300769682529 -0.33914532989683449 0 0.17670370261134591 -0.35101137430815987 0 0.17526094699071121 -0.32121364916979261 0 0.17670370261134591 -0.35101137430815987 0 0.16632300769682529 -0.33914532989683449 0 0.15635532043033851 -0.32762317205032648 0 0.15384528835215919 -0.34888323103730828 0 0.17526094699071121 -0.32121364916979261 0 0.16632300769682529 -0.33914532989683449 0 0.15635532043033851 -0.32762317205032648 0 0.17526094699071121 -0.32121364916979261 0 0.15635532043033851 -0.32762317205032648 0 0.16613015085753399 -0.29794196337136208 0 0.19083927531350181 -0.37426462870353422 0 0.18636698824462991 -0.36225910140511608 0 0.17814645823198061 -0.38080909944652741 0 0.17670370261134591 -0.35101137430815987 0 0.1695008882053643 -0.3539014675276998 0 0.17814645823198061 -0.38080909944652741 0 0.17670370261134591 -0.35101137430815987 0 0.17814645823198061 -0.38080909944652741 0 0.18636698824462991 -0.36225910140511608 0 0.17670370261134591 -0.35101137430815987 0 0.17814645823198061 -0.38080909944652741 0 0.18636698824462991 -0.36225910140511608 0 0.18448777755487131 -0.35210036546502188 0 0.17670370261134591 -0.35101137430815987 0 0.18448777755487131 -0.35210036546502188 0 0.18424918471087839 -0.34735428580016242 0 0.17670370261134591 -0.35101137430815987 0 0.19180082998577391 -0.35029167033112268 0 0.1840044286915227 -0.33601373309634508 0 0.18424918471087839 -0.34735428580016242 0 0.1840044286915227 -0.33601373309634508 0 0.18424918471087839 -0.34735428580016242 0 0.17670370261134591 -0.35101137430815987 0 0.19180082998577391 -0.35029167033112268 0 0.18448777755487131 -0.35210036546502188 0 0.18424918471087839 -0.34735428580016242 0 0.16632300769682529 -0.33914532989683449 0 0.1695008882053643 -0.3539014675276998 0 0.15384528835215919 -0.34888323103730828 0 0.1695008882053643 -0.3539014675276998 0 0.15622266046030589 -0.36560529067035252 0 0.15384528835215919 -0.34888323103730828 0 0.16632300769682529 -0.33914532989683449 0 0.17670370261134591 -0.35101137430815987 0 0.1695008882053643 -0.3539014675276998 0 0.1695008882053643 -0.3539014675276998 0 0.15622266046030589 -0.36560529067035252 0 0.1662516937484437 -0.37945746017663878 0 0.1695008882053643 -0.3539014675276998 0 0.17814645823198061 -0.38080909944652741 0 0.1662516937484437 -0.37945746017663878 0 0.1695008882053643 -0.3539014675276998 0 0.1662516937484437 -0.37945746017663878 0 0.15622266046030589 -0.36560529067035252 0 0.15384528835215919 -0.34888323103730828 0 0.13913284643621729 -0.36987147755796063 0 0.15622266046030589 -0.36560529067035252 0 0.13913284643621729 -0.36987147755796063 0 0.15122325216971341 -0.38057118911269922 0 0.15384528835215919 -0.34888323103730828 0 0.13913284643621729 -0.36987147755796063 0 0.1385684583736729 -0.34280877879487409 0 0.1385684583736729 -0.34280877879487409 0 0.1245186505824013 -0.36113750934922573 0 0.1203073559828662 -0.34481831064573482 0 0.13913284643621729 -0.36987147755796063 0 0.1385684583736729 -0.34280877879487409 0 0.13913284643621729 -0.36987147755796063 0 0.1385684583736729 -0.34280877879487409 0 0.1245186505824013 -0.36113750934922573 0 0.13913284643621729 -0.36987147755796063 0 0.12672469353237761 -0.38193719477194499 0 0.1245186505824013 -0.36113750934922573 0 0.15635532043033851 -0.32762317205032648 0 0.13800407031112841 -0.31574608003178772 0 0.16613015085753399 -0.29794196337136208 0 0.15635532043033851 -0.32762317205032648 0 0.15384528835215919 -0.34888323103730828 0 0.1385684583736729 -0.34280877879487409 0 0.15635532043033851 -0.32762317205032648 0 0.1385684583736729 -0.34280877879487409 0 0.13800407031112841 -0.31574608003178772 0 0.1385684583736729 -0.34280877879487409 0 0.13800407031112841 -0.31574608003178772 0 0.1385684583736729 -0.34280877879487409 0 0.1252730154641265 -0.33501756179834041 0 0.127277047630593 -0.32368123984794023 0 0.1385684583736729 -0.34280877879487409 0 0.1252730154641265 -0.33501756179834041 0 0.1203073559828662 -0.34481831064573482 0 0.13800407031112841 -0.31574608003178772 0 0.127277047630593 -0.32368123984794023 0 0.1207194796176513 -0.31206082339016011 0 0.1385684583736729 -0.34280877879487409 0 0.13800407031112841 -0.31574608003178772 0 0.127277047630593 -0.32368123984794023 0 0.13800407031112841 -0.31574608003178772 0 0.13743968224858391 -0.28868338126870119 0 0.1207194796176513 -0.31206082339016011 0 0.13800407031112841 -0.31574608003178772 0 0.13743968224858391 -0.28868338126870119 0 0.13800407031112841 -0.31574608003178772 0 0.13743968224858391 -0.28868338126870119 0 0.16613015085753399 -0.29794196337136208 0 0.13743968224858391 -0.28868338126870119 0 0.16013622185265231 -0.27370264407204231 0 0.16613015085753399 -0.29794196337136208 0 0.13743968224858391 -0.28868338126870119 0 0.13687529418603939 -0.26162068250561471 0 0.13743968224858391 -0.28868338126870119 0 0.13687529418603939 -0.26162068250561471 0 0.12122917553908071 -0.27280048239714111 0 0.13687529418603939 -0.26162068250561471 0 0.15867772839633809 -0.25707915377424612 0 0.15532271566916761 -0.23874085795770611 0 0.13687529418603939 -0.26162068250561471 0 0.16013622185265231 -0.27370264407204231 0 0.15867772839633809 -0.25707915377424612 0 0.13743968224858391 -0.28868338126870119 0 0.13687529418603939 -0.26162068250561471 0 0.16013622185265231 -0.27370264407204231 0 0.16013622185265231 -0.27370264407204231 0 0.17163424862532001 -0.26348395238230132 0 0.17866520103123101 -0.27392164610568698 0 0.16013622185265231 -0.27370264407204231 0 0.15867772839633809 -0.25707915377424612 0 0.17163424862532001 -0.26348395238230132 0 0.15867772839633809 -0.25707915377424612 0 0.17163424862532001 -0.26348395238230132 0 0.17304535898525439 -0.24904788565112909 0 0.17163424862532001 -0.26348395238230132 0 0.18066177981631051 -0.25348299893649828 0 0.17304535898525439 -0.24904788565112909 0 0.17163424862532001 -0.26348395238230132 0 0.1861358052291735 -0.26379397041404468 0 0.18066177981631051 -0.25348299893649828 0 0.19627752834655959 -0.27465633278028612 0 0.17866520103123101 -0.27392164610568698 0 0.18615950714984131 -0.28714944863913389 0 0.19627752834655959 -0.27465633278028612 0 0.1861358052291735 -0.26379397041404468 0 0.17866520103123101 -0.27392164610568698 0 0.17163424862532001 -0.26348395238230132 0 0.1861358052291735 -0.26379397041404468 0 0.17866520103123101 -0.27392164610568698 0 0.17866520103123101 -0.27392164610568698 0 0.18615950714984131 -0.28714944863913389 0 0.16613015085753399 -0.29794196337136208 0 0.18615950714984131 -0.28714944863913389 0 0.1861316223780578 -0.30340045511113362 0 0.16613015085753399 -0.29794196337136208 0 0.17526094699071121 -0.32121364916979261 0 0.1861316223780578 -0.30340045511113362 0 0.16613015085753399 -0.29794196337136208 0 0.16013622185265231 -0.27370264407204231 0 0.17866520103123101 -0.27392164610568698 0 0.16613015085753399 -0.29794196337136208 0 0.19650118937966099 -0.48458767462136337 0 0.18247472509388471 -0.47020227486163019 0 0.1839174807145193 -0.49999999999999789 0 0.19650118937966099 -0.48458767462136337 0 0.2054847406710314 -0.5 0 0.1839174807145193 -0.49999999999999789 0 0.19650118937966099 -0.48458767462136337 0 0.1995265252191368 -0.47051219141525807 0 0.18247472509388471 -0.47020227486163019 0 0.19650118937966099 -0.48458767462136337 0 0.1995265252191368 -0.47051219141525807 0 0.21142085222808771 -0.48158275099342862 0 0.1995265252191368 -0.47051219141525807 0 0.21142085222808771 -0.48158275099342862 0 0.21140626781342409 -0.46122374827882839 0 0.21142085222808771 -0.48158275099342862 0 0.23068219321441441 -0.47630316546961982 0 0.21140626781342409 -0.46122374827882839 0 0.19650118937966099 -0.48458767462136337 0 0.21142085222808771 -0.48158275099342862 0 0.2054847406710314 -0.5 0 0.21142085222808771 -0.48158275099342862 0 0.2054847406710314 -0.5 0 0.22705200062754341 -0.49999999999999972 0 0.21142085222808771 -0.48158275099342862 0 0.22705200062754341 -0.49999999999999972 0 0.23068219321441441 -0.47630316546961982 0 0.22705200062754341 -0.49999999999999972 0 0.24310759435645521 -0.48732129405658853 0 0.23068219321441441 -0.47630316546961982 0 0.22705200062754341 -0.49999999999999972 0 0.23068219321441441 -0.47630316546961982 0 0.25573491640979129 -0.5 0 0.22705200062754341 -0.49999999999999972 0 0.24310759435645521 -0.48732129405658853 0 0.24310759435645521 -0.48732129405658853 0 0.24452211955108941 -0.47321082899062988 0 0.23068219321441441 -0.47630316546961982 0 0.23068219321441441 -0.47630316546961982 0 0.23431238580128549 -0.45260633093924002 0 0.23068219321441441 -0.47630316546961982 0 0.23431238580128549 -0.45260633093924002 0 0.21140626781342409 -0.46122374827882839 0 0.24452211955108941 -0.47321082899062988 0 0.23068219321441441 -0.47630316546961982 0 0.23431238580128549 -0.45260633093924002 0 0.25055382002994903 -0.45112655962101422 0 0.24452211955108941 -0.47321082899062988 0 0.23431238580128549 -0.45260633093924002 0 0.25055382002994903 -0.45112655962101422 0 0.23431238580128549 -0.45260633093924002 0 0.24845486683426421 -0.43056678600332871 0 0.23431238580128549 -0.45260633093924002 0 0.2061844358166085 -0.43731386343018219 0 0.22816721351006641 -0.42382217308135922 0 0.23431238580128549 -0.45260633093924002 0 0.21140626781342409 -0.46122374827882839 0 0.2061844358166085 -0.43731386343018219 0 0.21140626781342409 -0.46122374827882839 0 0.1958295915806266 -0.45496450832104018 0 0.2061844358166085 -0.43731386343018219 0 0.1995265252191368 -0.47051219141525807 0 0.1958295915806266 -0.45496450832104018 0 0.18247472509388471 -0.47020227486163019 0 0.1995265252191368 -0.47051219141525807 0 0.21140626781342409 -0.46122374827882839 0 0.1958295915806266 -0.45496450832104018 0 0.1958295915806266 -0.45496450832104018 0 0.2061844358166085 -0.43731386343018219 0 0.18103196947325001 -0.44040454972326271 0 0.19189840580791451 -0.42494462472696731 0 0.2061844358166085 -0.43731386343018219 0 0.18103196947325001 -0.44040454972326271 0 0.19189840580791451 -0.42494462472696731 0 0.1954291475964339 -0.41062193775622902 0 0.2113234447447021 -0.41044931469126889 0 0.19189840580791451 -0.42494462472696731 0 0.1954291475964339 -0.41062193775622902 0 0.17958921385261531 -0.41060682458489489 0 0.19189840580791451 -0.42494462472696731 0 0.2113234447447021 -0.41044931469126889 0 0.2061844358166085 -0.43731386343018219 0 0.2113234447447021 -0.41044931469126889 0 0.2061844358166085 -0.43731386343018219 0 0.22816721351006641 -0.42382217308135922 0 0.2113234447447021 -0.41044931469126889 0 0.2061844358166085 -0.43731386343018219 0 0.23431238580128549 -0.45260633093924002 0 0.22816721351006641 -0.42382217308135922 0 0.24845486683426421 -0.43056678600332871 0 0.22816721351006641 -0.42382217308135922 0 0.24845486683426421 -0.43056678600332871 0 0.24730388124056729 -0.40448370284608931 0 0.22816721351006641 -0.42382217308135922 0 0.22802948983690591 -0.39972126622214238 0 0.24730388124056729 -0.40448370284608931 0 0.2113234447447021 -0.41044931469126889 0 0.22816721351006641 -0.42382217308135922 0 0.22802948983690591 -0.39972126622214238 0 0.22802948983690591 -0.39972126622214238 0 0.24730388124056729 -0.40448370284608931 0 0.2380746425401753 -0.37739124482652259 0 0.26194523537769671 -0.38343407302417171 0 0.24730388124056729 -0.40448370284608931 0 0.2380746425401753 -0.37739124482652259 0 0.22802948983690591 -0.39972126622214238 0 0.2380746425401753 -0.37739124482652259 0 0.21646245367279571 -0.38358476595235552 0 0.21646245367279571 -0.38358476595235552 0 0.19890552598050351 -0.3964869870217847 0 0.2025217842010896 -0.37807387373583923 0 0.2113234447447021 -0.41044931469126889 0 0.22802948983690591 -0.39972126622214238 0 0.21646245367279571 -0.38358476595235552 0 0.2113234447447021 -0.41044931469126889 0 0.21646245367279571 -0.38358476595235552 0 0.2113234447447021 -0.41044931469126889 0 0.21646245367279571 -0.38358476595235552 0 0.19890552598050351 -0.3964869870217847 0 0.1954291475964339 -0.41062193775622902 0 0.2113234447447021 -0.41044931469126889 0 0.19890552598050351 -0.3964869870217847 0 0.1954291475964339 -0.41062193775622902 0 0.19890552598050351 -0.3964869870217847 0 0.17958921385261531 -0.41060682458489489 0 0.19890552598050351 -0.3964869870217847 0 0.19000045151593811 -0.3880482826985161 0 0.17958921385261531 -0.41060682458489489 0 0.19890552598050351 -0.3964869870217847 0 0.19000045151593811 -0.3880482826985161 0 0.2025217842010896 -0.37807387373583923 0 0.19083927531350181 -0.37426462870353422 0 0.19000045151593811 -0.3880482826985161 0 0.2025217842010896 -0.37807387373583923 0 0.19083927531350181 -0.37426462870353422 0 0.19000045151593811 -0.3880482826985161 0 0.17814645823198061 -0.38080909944652741 0 0.17814645823198061 -0.38080909944652741 0 0.17958921385261531 -0.41060682458489489 0 0.19000045151593811 -0.3880482826985161 0 0.17814645823198061 -0.38080909944652741 0 0.17958921385261531 -0.41060682458489489 0 0.17814645823198061 -0.38080909944652741 0 0.17073561596382039 -0.39301209499015272 0 0.17958921385261531 -0.41060682458489489 0 0.16300249929152311 -0.40501345282557782 0 0.1662516937484437 -0.37945746017663878 0 0.1548118257048379 -0.39098754083749682 0 0.17073561596382039 -0.39301209499015272 0 0.16300249929152311 -0.40501345282557782 0 0.1662516937484437 -0.37945746017663878 0 0.17073561596382039 -0.39301209499015272 0 0.16300249929152311 -0.40501345282557782 0 0.17958921385261531 -0.41060682458489489 0 0.16300249929152311 -0.40501345282557782 0 0.1662516937484437 -0.37945746017663878 0 0.1662516937484437 -0.37945746017663878 0 0.15122325216971341 -0.38057118911269922 0 0.1548118257048379 -0.39098754083749682 0 0.17814645823198061 -0.38080909944652741 0 0.17073561596382039 -0.39301209499015272 0 0.1662516937484437 -0.37945746017663878 0 0.15622266046030589 -0.36560529067035252 0 0.1662516937484437 -0.37945746017663878 0 0.15122325216971341 -0.38057118911269922 0 0.15122325216971341 -0.38057118911269922 0 0.13969723449876181 -0.39693417632104711 0 0.1548118257048379 -0.39098754083749682 0 0.13913284643621729 -0.36987147755796063 0 0.15122325216971341 -0.38057118911269922 0 0.13969723449876181 -0.39693417632104711 0 0.13913284643621729 -0.36987147755796063 0 0.12672469353237761 -0.38193719477194499 0 0.13969723449876181 -0.39693417632104711 0 0.13913284643621729 -0.36987147755796063 0 0.13969723449876181 -0.39693417632104711 0 0.12672469353237761 -0.38193719477194499 0 0.13969723449876181 -0.39693417632104711 0 0.1219351525082772 -0.40864131998943182 0 0.16300249929152311 -0.40501345282557782 0 0.13969723449876181 -0.39693417632104711 0 0.1524997256598466 -0.41582351463554701 0 0.16300249929152311 -0.40501345282557782 0 0.13969723449876181 -0.39693417632104711 0 0.1548118257048379 -0.39098754083749682 0 0.13969723449876181 -0.39693417632104711 0 0.1524997256598466 -0.41582351463554701 0 0.14026162256130631 -0.42399687508413381 0 0.13969723449876181 -0.39693417632104711 0 0.14026162256130631 -0.42399687508413381 0 0.13969723449876181 -0.39693417632104711 0 0.14026162256130631 -0.42399687508413381 0 0.1219351525082772 -0.40864131998943182 0 0.1272554141007321 -0.42571201066291808 0 0.14026162256130631 -0.42399687508413381 0 0.1219351525082772 -0.40864131998943182 0 0.13018508541287829 -0.43658956786597553 0 0.14026162256130631 -0.42399687508413381 0 0.14082601062385081 -0.45105957384722029 0 0.13018508541287829 -0.43658956786597553 0 0.1272554141007321 -0.42571201066291808 0 0.14026162256130631 -0.42399687508413381 0 0.1524997256598466 -0.41582351463554701 0 0.14026162256130631 -0.42399687508413381 0 0.15975330483460251 -0.43056944547451692 0 0.14026162256130631 -0.42399687508413381 0 0.15975330483460251 -0.43056944547451692 0 0.14082601062385081 -0.45105957384722029 0 0.16300249929152311 -0.40501345282557782 0 0.15975330483460251 -0.43056944547451692 0 0.17958921385261531 -0.41060682458489489 0 0.16300249929152311 -0.40501345282557782 0 0.15975330483460251 -0.43056944547451692 0 0.16300249929152311 -0.40501345282557782 0 0.1524997256598466 -0.41582351463554701 0 0.15975330483460251 -0.43056944547451692 0 0.15975330483460251 -0.43056944547451692 0 0.17958921385261531 -0.41060682458489489 0 0.18103196947325001 -0.44040454972326271 0 0.17958921385261531 -0.41060682458489489 0 0.18103196947325001 -0.44040454972326271 0 0.19189840580791451 -0.42494462472696731 0 0.17958921385261531 -0.41060682458489489 0 0.18103196947325001 -0.44040454972326271 0 0.18103196947325001 -0.44040454972326271 0 0.16491961284223791 -0.45249038001545161 0 0.18247472509388471 -0.47020227486163019 0 0.18103196947325001 -0.44040454972326271 0 0.18247472509388471 -0.47020227486163019 0 0.1958295915806266 -0.45496450832104018 0 0.18103196947325001 -0.44040454972326271 0 0.18247472509388471 -0.47020227486163019 0 0.16491961284223791 -0.45249038001545161 0 0.1605120541856016 -0.47021605617062739 0 0.18247472509388471 -0.47020227486163019 0 0.15975330483460251 -0.43056944547451692 0 0.18103196947325001 -0.44040454972326271 0 0.16491961284223791 -0.45249038001545161 0 0.15975330483460251 -0.43056944547451692 0 0.16491961284223791 -0.45249038001545161 0 0.14082601062385081 -0.45105957384722029 0 0.14026162256130631 -0.42399687508413381 0 0.14082601062385081 -0.45105957384722029 0 0.14082601062385081 -0.45105957384722029 0 0.12543676829432579 -0.44683393452868708 0 0.12531186358948529 -0.45757018679138572 0 0.13018508541287829 -0.43658956786597553 0 0.14082601062385081 -0.45105957384722029 0 0.12543676829432579 -0.44683393452868708 0 0.14082601062385081 -0.45105957384722029 0 0.12842365125323091 -0.46593607888014599 0 0.13328939848609819 -0.47119455711627289 0 0.14082601062385081 -0.45105957384722029 0 0.14139039868639619 -0.47812227261030682 0 0.13328939848609819 -0.47119455711627289 0 0.12842365125323091 -0.46593607888014599 0 0.12531186358948529 -0.45757018679138572 0 0.1232316263288145 -0.46410889533344052 0 0.12842365125323091 -0.46593607888014599 0 0.1245497287119053 -0.47085317529077592 0 0.12311265484265969 -0.46777846846391841 0 0.14082601062385081 -0.45105957384722029 0 0.12842365125323091 -0.46593607888014599 0 0.12531186358948529 -0.45757018679138572 0 0.16491961284223791 -0.45249038001545161 0 0.14082601062385081 -0.45105957384722029 0 0.1605120541856016 -0.47021605617062739 0 0.14082601062385081 -0.45105957384722029 0 0.14139039868639619 -0.47812227261030682 0 0.14082601062385081 -0.45105957384722029 0 0.14139039868639619 -0.47812227261030682 0 0.1605120541856016 -0.47021605617062739 0 0.14139039868639619 -0.47812227261030682 0 0.15939735020609169 -0.48906113630515408 0 0.1605120541856016 -0.47021605617062739 0 0.14139039868639619 -0.47812227261030682 0 0.15939735020609169 -0.48906113630515408 0 0.14139039868639619 -0.47812227261030682 0 0.13328939848609819 -0.47119455711627289 0 0.13520794413867351 -0.47916570768291911 0 0.14139039868639619 -0.47812227261030682 0 0.13520794413867351 -0.47916570768291911 0 0.13309005864575499 -0.48654881223837643 0 0.13328939848609819 -0.47119455711627289 0 0.13520794413867351 -0.47916570768291911 0 0.1282166063692238 -0.47963436787526348 0 0.13520794413867351 -0.47916570768291911 0 0.1282166063692238 -0.47963436787526348 0 0.13309005864575499 -0.48654881223837643 0 0.12842365125323091 -0.46593607888014599 0 0.1275076222339897 -0.47406719287555171 0 0.1245497287119053 -0.47085317529077592 0 0.12842365125323091 -0.46593607888014599 0 0.13328939848609819 -0.47119455711627289 0 0.1275076222339897 -0.47406719287555171 0 0.13328939848609819 -0.47119455711627289 0 0.1282166063692238 -0.47963436787526348 0 0.1275076222339897 -0.47406719287555171 0 0.1282166063692238 -0.47963436787526348 0 0.1275076222339897 -0.47406719287555171 0 0.12271037357175291 -0.47562361121234281 0 0.14139039868639619 -0.47812227261030682 0 0.13309005864575499 -0.48654881223837643 0 0.1417493920694651 -0.49533619053082339 0 0.1325088383252874 -0.49999999999999689 0 0.11946717228548211 -0.4870343347309507 0 0.1325088383252874 -0.49999999999999689 0 0.13309005864575499 -0.48654881223837643 0 0.11946717228548211 -0.4870343347309507 0 0.1282166063692238 -0.47963436787526348 0 0.13309005864575499 -0.48654881223837643 0 0.11946717228548211 -0.4870343347309507 0 0.1325088383252874 -0.49999999999999689 0 0.13309005864575499 -0.48654881223837643 0 0.1417493920694651 -0.49533619053082339 0 0.1325088383252874 -0.49999999999999689 0 0.1417493920694651 -0.49533619053082339 0 0.15495657002553739 -0.5 0 0.14139039868639619 -0.47812227261030682 0 0.14937342774687271 -0.49062989986157102 0 0.15939735020609169 -0.48906113630515408 0 0.14139039868639619 -0.47812227261030682 0 0.1417493920694651 -0.49533619053082339 0 0.14139039868639619 -0.47812227261030682 0 0.1417493920694651 -0.49533619053082339 0 0.14937342774687271 -0.49062989986157102 0 0.1417493920694651 -0.49533619053082339 0 0.14937342774687271 -0.49062989986157102 0 0.15495657002553739 -0.5 0 0.14937342774687271 -0.49062989986157102 0 0.15495657002553739 -0.5 0 0.15939735020609169 -0.48906113630515408 0 0.15939735020609169 -0.48906113630515408 0 0.17467337585270831 -0.48420504396041608 0 0.1774043017257875 -0.50000000000000111 0 0.15939735020609169 -0.48906113630515408 0 0.1774043017257875 -0.50000000000000111 0 0.15495657002553739 -0.5 0 0.15939735020609169 -0.48906113630515408 0 0.1774043017257875 -0.50000000000000111 0 0.15939735020609169 -0.48906113630515408 0 0.1605120541856016 -0.47021605617062739 0 0.17467337585270831 -0.48420504396041608 0 0.1605120541856016 -0.47021605617062739 0 0.17467337585270831 -0.48420504396041608 0 0.18247472509388471 -0.47020227486163019 0 0.18247472509388471 -0.47020227486163019 0 0.1839174807145193 -0.49999999999999789 0 0.17467337585270831 -0.48420504396041608 0 0.18247472509388471 -0.47020227486163019 0 0.1839174807145193 -0.49999999999999789 0 0.17467337585270831 -0.48420504396041608 0 0.1839174807145193 -0.49999999999999789 0 0.1774043017257875 -0.50000000000000111 0 0.065949985054517032 -0.48884997455687013 0 0.080677891680827868 -0.48404188118506331 0 0.084758324792090334 -0.49999999999999989 0 0.065949985054517032 -0.48884997455687013 0 0.084758324792090334 -0.49999999999999989 0 0.055728539092515517 -0.5 0 0.065949985054517032 -0.48884997455687013 0 0.069113753880103546 -0.47032146630200872 0 0.080677891680827868 -0.48404188118506331 0 0.065949985054517032 -0.48884997455687013 0 0.069113753880103546 -0.47032146630200872 0 0.057596711449277201 -0.48334309492942701 0 0.069113753880103546 -0.47032146630200872 0 0.080677891680827868 -0.48404188118506331 0 0.088790870678748121 -0.47481427013272492 0 0.069113753880103546 -0.47032146630200872 0 0.088790870678748121 -0.47481427013272492 0 0.09506323621333454 -0.46277261346061632 0 0.080677891680827868 -0.48404188118506331 0 0.088790870678748121 -0.47481427013272492 0 0.094776523998680279 -0.48622369493371298 0 0.080677891680827868 -0.48404188118506331 0 0.084758324792090334 -0.49999999999999989 0 0.094776523998680279 -0.48622369493371298 0 0.084758324792090334 -0.49999999999999989 0 0.10099043700106421 -0.499999999999999 0 0.094776523998680279 -0.48622369493371298 0 0.084758324792090334 -0.49999999999999989 0 0.094776523998680279 -0.48622369493371298 0 0.10099043700106421 -0.499999999999999 0 0.1064255062456735 -0.47406866946190801 0 0.10099043700106421 -0.499999999999999 0 0.094776523998680279 -0.48622369493371298 0 0.1064255062456735 -0.47406866946190801 0 0.10099043700106421 -0.499999999999999 0 0.11946717228548211 -0.4870343347309507 0 0.1064255062456735 -0.47406866946190801 0 0.1325088383252874 -0.49999999999999689 0 0.1167496376631757 -0.5 0 0.11946717228548211 -0.4870343347309507 0 0.10099043700106421 -0.499999999999999 0 0.1167496376631757 -0.5 0 0.11946717228548211 -0.4870343347309507 0 0.12074084002908721 -0.47045370359981148 0 0.12271037357175291 -0.47562361121234281 0 0.11625567037499381 -0.47238364776222469 0 0.12074084002908721 -0.47045370359981148 0 0.11625567037499381 -0.47238364776222469 0 0.1192823524431306 -0.4663394170250621 0 0.12074084002908721 -0.47045370359981148 0 0.1245497287119053 -0.47085317529077592 0 0.12271037357175291 -0.47562361121234281 0 0.12074084002908721 -0.47045370359981148 0 0.1245497287119053 -0.47085317529077592 0 0.12311265484265969 -0.46777846846391841 0 0.1275076222339897 -0.47406719287555171 0 0.1245497287119053 -0.47085317529077592 0 0.12271037357175291 -0.47562361121234281 0 0.1282166063692238 -0.47963436787526348 0 0.11946717228548211 -0.4870343347309507 0 0.12271037357175291 -0.47562361121234281 0 0.11946717228548211 -0.4870343347309507 0 0.12271037357175291 -0.47562361121234281 0 0.11625567037499381 -0.47238364776222469 0 0.11946717228548211 -0.4870343347309507 0 0.1064255062456735 -0.47406866946190801 0 0.11946717228548211 -0.4870343347309507 0 0.11625567037499381 -0.47238364776222469 0 0.1064255062456735 -0.47406866946190801 0 0.11625567037499381 -0.47238364776222469 0 0.1064255062456735 -0.47406866946190801 0 0.11129693947086181 -0.46795476393154728 0 0.1064255062456735 -0.47406866946190801 0 0.10479472320527 -0.47244738986742602 0 0.1075632658294263 -0.46864028970971422 0 0.1064255062456735 -0.47406866946190801 0 0.1075632658294263 -0.46864028970971422 0 0.11129693947086181 -0.46795476393154728 0 0.088790870678748121 -0.47481427013272492 0 0.094776523998680279 -0.48622369493371298 0 0.10479472320527 -0.47244738986742602 0 0.1064255062456735 -0.47406866946190801 0 0.1075632658294263 -0.46864028970971422 0 0.088790870678748121 -0.47481427013272492 0 0.10479472320527 -0.47244738986742602 0 0.09506323621333454 -0.46277261346061632 0 0.10479472320527 -0.47244738986742602 0 0.1075632658294263 -0.46864028970971422 0 0.1064255062456735 -0.47406866946190801 0 0.10479472320527 -0.47244738986742602 0 0.094776523998680279 -0.48622369493371298 0 0.1064255062456735 -0.47406866946190801 0 0.10479472320527 -0.47244738986742602 0 0.094776523998680279 -0.48622369493371298 0 0.10479472320527 -0.47244738986742602 0 0.10479472320527 -0.47244738986742602 0 0.09506323621333454 -0.46277261346061632 0 0.1060131744550812 -0.45411466011360518 0 0.1075632658294263 -0.46864028970971422 0 0.11260152047704799 -0.44460220652757759 0 0.09506323621333454 -0.46277261346061632 0 0.10011436795704159 -0.45274002486564408 0 0.091519926973447546 -0.44626784630584138 0 0.09506323621333454 -0.46277261346061632 0 0.10386028492466159 -0.46021350167150438 0 0.09506323621333454 -0.46277261346061632 0 0.10386028492466159 -0.46021350167150438 0 0.10011436795704159 -0.45274002486564408 0 0.10386028492466159 -0.46021350167150438 0 0.1060131744550812 -0.45411466011360518 0 0.10011436795704159 -0.45274002486564408 0 0.10386028492466159 -0.46021350167150438 0 0.1060131744550812 -0.45411466011360518 0 0.1075632658294263 -0.46864028970971422 0 0.10479472320527 -0.47244738986742602 0 0.09506323621333454 -0.46277261346061632 0 0.1075632658294263 -0.46864028970971422 0 0.09506323621333454 -0.46277261346061632 0 0.10386028492466159 -0.46021350167150438 0 0.1075632658294263 -0.46864028970971422 0 0.1075632658294263 -0.46864028970971422 0 0.1123560704600764 -0.46204957042440498 0 0.11260152047704799 -0.44460220652757759 0 0.1075632658294263 -0.46864028970971422 0 0.1123560704600764 -0.46204957042440498 0 0.1075632658294263 -0.46864028970971422 0 0.11129693947086181 -0.46795476393154728 0 0.1123560704600764 -0.46204957042440498 0 0.1075632658294263 -0.46864028970971422 0 0.11260152047704799 -0.44460220652757759 0 0.11129693947086181 -0.46795476393154728 0 0.1123560704600764 -0.46204957042440498 0 0.11129693947086181 -0.46795476393154728 0 0.1149697984784732 -0.46556593525158491 0 0.1123560704600764 -0.46204957042440498 0 0.11625567037499381 -0.47238364776222469 0 0.1149697984784732 -0.46556593525158491 0 0.1192823524431306 -0.4663394170250621 0 0.11625567037499381 -0.47238364776222469 0 0.11129693947086181 -0.46795476393154728 0 0.1149697984784732 -0.46556593525158491 0 0.1149697984784732 -0.46556593525158491 0 0.1123560704600764 -0.46204957042440498 0 0.118705430672609 -0.46205297743075813 0 0.1123560704600764 -0.46204957042440498 0 0.11635977570981471 -0.45654396370023359 0 0.118705430672609 -0.46205297743075813 0 0.1123560704600764 -0.46204957042440498 0 0.11635977570981471 -0.45654396370023359 0 0.12531186358948529 -0.45757018679138572 0 0.11635977570981471 -0.45654396370023359 0 0.118705430672609 -0.46205297743075813 0 0.12543676829432579 -0.44683393452868708 0 0.12531186358948529 -0.45757018679138572 0 0.11635977570981471 -0.45654396370023359 0 0.12531186358948529 -0.45757018679138572 0 0.1232316263288145 -0.46410889533344052 0 0.118705430672609 -0.46205297743075813 0 0.1232316263288145 -0.46410889533344052 0 0.12311265484265969 -0.46777846846391841 0 0.1192823524431306 -0.4663394170250621 0 0.12842365125323091 -0.46593607888014599 0 0.1232316263288145 -0.46410889533344052 0 0.12311265484265969 -0.46777846846391841 0 0.12074084002908721 -0.47045370359981148 0 0.12311265484265969 -0.46777846846391841 0 0.1192823524431306 -0.4663394170250621 0 0.1149697984784732 -0.46556593525158491 0 0.1192823524431306 -0.4663394170250621 0 0.118705430672609 -0.46205297743075813 0 0.1232316263288145 -0.46410889533344052 0 0.1192823524431306 -0.4663394170250621 0 0.118705430672609 -0.46205297743075813 0 0.1123560704600764 -0.46204957042440498 0 0.11714561148417681 -0.43534544520691831 0 0.1123560704600764 -0.46204957042440498 0 0.11260152047704799 -0.44460220652757759 0 0.11714561148417681 -0.43534544520691831 0 0.1123560704600764 -0.46204957042440498 0 0.11635977570981471 -0.45654396370023359 0 0.11714561148417681 -0.43534544520691831 0 0.12543676829432579 -0.44683393452868708 0 0.11635977570981471 -0.45654396370023359 0 0.11714561148417681 -0.43534544520691831 0 0.13018508541287829 -0.43658956786597553 0 0.12543676829432579 -0.44683393452868708 0 0.11714561148417681 -0.43534544520691831 0 0.10592643308722841 -0.44437727779358549 0 0.083881602994700072 -0.43088647549478237 0 0.10592643308722841 -0.44437727779358549 0 0.091519926973447546 -0.44626784630584138 0 0.083881602994700072 -0.43088647549478237 0 0.11260152047704799 -0.44460220652757759 0 0.10592643308722841 -0.44437727779358549 0 0.1086116799951807 -0.43095684568344572 0 0.1060131744550812 -0.45411466011360518 0 0.10592643308722841 -0.44437727779358549 0 0.10011436795704159 -0.45274002486564408 0 0.1060131744550812 -0.45411466011360518 0 0.11260152047704799 -0.44460220652757759 0 0.10592643308722841 -0.44437727779358549 0 0.10592643308722841 -0.44437727779358549 0 0.10011436795704159 -0.45274002486564408 0 0.091519926973447546 -0.44626784630584138 0 0.09506323621333454 -0.46277261346061632 0 0.073976492589610171 -0.44180875358221461 0 0.09506323621333454 -0.46277261346061632 0 0.091519926973447546 -0.44626784630584138 0 0.073976492589610171 -0.44180875358221461 0 0.091519926973447546 -0.44626784630584138 0 0.073976492589610171 -0.44180875358221461 0 0.083881602994700072 -0.43088647549478237 0 0.069113753880103546 -0.47032146630200872 0 0.09506323621333454 -0.46277261346061632 0 0.09506323621333454 -0.46277261346061632 0 0.075948319170580939 -0.45709497223106438 0 0.073976492589610171 -0.44180875358221461 0 0.069113753880103546 -0.47032146630200872 0 0.09506323621333454 -0.46277261346061632 0 0.075948319170580939 -0.45709497223106438 0 0.069113753880103546 -0.47032146630200872 0 0.075948319170580939 -0.45709497223106438 0 0.064267892493667544 -0.45245405090636609 0 0.064267892493667544 -0.45245405090636609 0 0.073976492589610171 -0.44180875358221461 0 0.061221704008603092 -0.43412854505433712 0 0.075948319170580939 -0.45709497223106438 0 0.064267892493667544 -0.45245405090636609 0 0.073976492589610171 -0.44180875358221461 0 0.083881602994700072 -0.43088647549478237 0 0.061836772902171017 -0.41739567319598042 0 0.061221704008603092 -0.43412854505433712 0 0.073976492589610171 -0.44180875358221461 0 0.083881602994700072 -0.43088647549478237 0 0.061221704008603092 -0.43412854505433712 0 0.083881602994700072 -0.43088647549478237 0 0.061836772902171017 -0.41739567319598042 0 0.087852613914545186 -0.40334306140395609 0 0.070156507476487037 -0.39917662383738439 0 0.061836772902171017 -0.41739567319598042 0 0.087852613914545186 -0.40334306140395609 0 0.061836772902171017 -0.41739567319598042 0 0.090204007114443943 -0.4177400312392191 0 0.087852613914545186 -0.40334306140395609 0 0.061836772902171017 -0.41739567319598042 0 0.090204007114443943 -0.4177400312392191 0 0.083881602994700072 -0.43088647549478237 0 0.061836772902171017 -0.41739567319598042 0 0.090204007114443943 -0.4177400312392191 0 0.083881602994700072 -0.43088647549478237 0 0.10022705322515101 -0.42809075962971732 0 0.10592643308722841 -0.44437727779358549 0 0.083881602994700072 -0.43088647549478237 0 0.10022705322515101 -0.42809075962971732 0 0.10592643308722841 -0.44437727779358549 0 0.10022705322515101 -0.42809075962971732 0 0.1086116799951807 -0.43095684568344572 0 0.10022705322515101 -0.42809075962971732 0 0.1086116799951807 -0.43095684568344572 0 0.10561771621597441 -0.41891116251106192 0 0.11260152047704799 -0.44460220652757759 0 0.11714561148417681 -0.43534544520691831 0 0.11763977512467 -0.42056412334544119 0 0.11714561148417681 -0.43534544520691831 0 0.1219351525082772 -0.40864131998943182 0 0.11260152047704799 -0.44460220652757759 0 0.11763977512467 -0.42056412334544119 0 0.11260152047704799 -0.44460220652757759 0 0.1086116799951807 -0.43095684568344572 0 0.11763977512467 -0.42056412334544119 0 0.1272554141007321 -0.42571201066291808 0 0.11714561148417681 -0.43534544520691831 0 0.1219351525082772 -0.40864131998943182 0 0.1086116799951807 -0.43095684568344572 0 0.11763977512467 -0.42056412334544119 0 0.10561771621597441 -0.41891116251106192 0 0.13018508541287829 -0.43658956786597553 0 0.1272554141007321 -0.42571201066291808 0 0.11714561148417681 -0.43534544520691831 0 0.1219351525082772 -0.40864131998943182 0 0.11763977512467 -0.42056412334544119 0 0.1226780297722921 -0.39652604016330478 0 0.11763977512467 -0.42056412334544119 0 0.1063857367604352 -0.40565829933023112 0 0.1226780297722921 -0.39652604016330478 0 0.11714561148417681 -0.43534544520691831 0 0.1219351525082772 -0.40864131998943182 0 0.11763977512467 -0.42056412334544119 0 0.11763977512467 -0.42056412334544119 0 0.1226780297722921 -0.39652604016330478 0 0.11763977512467 -0.42056412334544119 0 0.10561771621597441 -0.41891116251106192 0 0.1063857367604352 -0.40565829933023112 0 0.090204007114443943 -0.4177400312392191 0 0.1063857367604352 -0.40565829933023112 0 0.087852613914545186 -0.40334306140395609 0 0.090204007114443943 -0.4177400312392191 0 0.10561771621597441 -0.41891116251106192 0 0.1063857367604352 -0.40565829933023112 0 0.090204007114443943 -0.4177400312392191 0 0.10022705322515101 -0.42809075962971732 0 0.10561771621597441 -0.41891116251106192 0 0.1063857367604352 -0.40565829933023112 0 0.11269819459067421 -0.38831450138448881 0 0.097085641119374302 -0.38571424072610178 0 0.1063857367604352 -0.40565829933023112 0 0.097085641119374302 -0.38571424072610178 0 0.087852613914545186 -0.40334306140395609 0 0.12672469353237761 -0.38193719477194499 0 0.1219351525082772 -0.40864131998943182 0 0.1063857367604352 -0.40565829933023112 0 0.1226780297722921 -0.39652604016330478 0 0.11269819459067421 -0.38831450138448881 0 0.12672469353237761 -0.38193719477194499 0 0.1219351525082772 -0.40864131998943182 0 0.1226780297722921 -0.39652604016330478 0 0.12672469353237761 -0.38193719477194499 0 0.11269819459067421 -0.38831450138448881 0 0.1080928822255358 -0.3703790814713866 0 0.12672469353237761 -0.38193719477194499 0 0.1226780297722921 -0.39652604016330478 0 0.11269819459067421 -0.38831450138448881 0 0.11269819459067421 -0.38831450138448881 0 0.097085641119374302 -0.38571424072610178 0 0.1080928822255358 -0.3703790814713866 0 0.097085641119374302 -0.38571424072610178 0 0.078524092076429908 -0.38558307009035819 0 0.085574671404253372 -0.36606529366265911 0 0.097085641119374302 -0.38571424072610178 0 0.078524092076429908 -0.38558307009035819 0 0.087852613914545186 -0.40334306140395609 0 0.078524092076429908 -0.38558307009035819 0 0.087852613914545186 -0.40334306140395609 0 0.070156507476487037 -0.39917662383738439 0 0.078524092076429908 -0.38558307009035819 0 0.070156507476487037 -0.39917662383738439 0 0.064141871653705745 -0.38905297891460661 0 0.070156507476487037 -0.39917662383738439 0 0.058427186835583247 -0.40050833558202109 0 0.061836772902171017 -0.41739567319598042 0 0.070156507476487037 -0.39917662383738439 0 0.064141871653705745 -0.38905297891460661 0 0.058427186835583247 -0.40050833558202109 0 0.078524092076429908 -0.38558307009035819 0 0.064141871653705745 -0.38905297891460661 0 0.064781398010314309 -0.37536455347105108 0 0.078524092076429908 -0.38558307009035819 0 0.064781398010314309 -0.37536455347105108 0 0.085574671404253372 -0.36606529366265911 0 0.064781398010314309 -0.37536455347105108 0 0.05115882120843647 -0.38571757356542352 0 0.043890455581289831 -0.3709268115488259 0 0.05115882120843647 -0.38571757356542352 0 0.043890455581289831 -0.3709268115488259 0 0.064141871653705745 -0.38905297891460661 0 0.064781398010314309 -0.37536455347105108 0 0.05115882120843647 -0.38571757356542352 0 0.064141871653705745 -0.38905297891460661 0 0.05115882120843647 -0.38571757356542352 0 0.058427186835583247 -0.40050833558202109 0 0.05115882120843647 -0.38571757356542352 0 0.058427186835583247 -0.40050833558202109 0 0.05115882120843647 -0.38571757356542352 0 0.058427186835583247 -0.40050833558202109 0 0.039291666751458072 -0.38953557003537942 0 0.058427186835583247 -0.40050833558202109 0 0.03861507037192409 -0.403184658796582 0 0.039291666751458072 -0.38953557003537942 0 0.039291666751458072 -0.38953557003537942 0 0.030780854092194759 -0.38031894893150719 0 0.043890455581289831 -0.3709268115488259 0 0.05115882120843647 -0.38571757356542352 0 0.039291666751458072 -0.38953557003537942 0 0.043890455581289831 -0.3709268115488259 0 0.030780854092194759 -0.38031894893150719 0 0.043890455581289831 -0.3709268115488259 0 0.030780854092194759 -0.38031894893150719 0 0.0132535835722172 -0.37610527220974688 0 0.01539336784167648 -0.38897364439718468 0 0.039291666751458072 -0.38953557003537942 0 0.030780854092194759 -0.38031894893150719 0 0.01539336784167648 -0.38897364439718468 0 0.030780854092194759 -0.38031894893150719 0 0.0132535835722172 -0.37610527220974688 0 0.022072978528308879 -0.36937310690127451 0 -0.0078283346885702904 -0.37476262999778609 0 -0.0023576536845698339 -0.39611583857600319 0 0.01539336784167648 -0.38897364439718468 0 -0.0078283346885702904 -0.37476262999778609 0 0.01539336784167648 -0.38897364439718468 0 -0.0078283346885702904 -0.37476262999778609 0 0.0132535835722172 -0.37610527220974688 0 0.01539336784167648 -0.38897364439718468 0 -0.0023576536845698339 -0.39611583857600319 0 -0.0081630895937607941 -0.41129335178386173 0 0.01158543002224671 -0.40754374071996963 0 -0.0023576536845698339 -0.39611583857600319 0 0.01539336784167648 -0.38897364439718468 0 0.01158543002224671 -0.40754374071996963 0 0.03861507037192409 -0.403184658796582 0 0.039291666751458072 -0.38953557003537942 0 0.01539336784167648 -0.38897364439718468 0 0.03861507037192409 -0.403184658796582 0 0.01539336784167648 -0.38897364439718468 0 0.026736383496206509 -0.41290648431754168 0 0.01539336784167648 -0.38897364439718468 0 0.026736383496206509 -0.41290648431754168 0 0.01158543002224671 -0.40754374071996963 0 0.03861507037192409 -0.403184658796582 0 0.01539336784167648 -0.38897364439718468 0 0.026736383496206509 -0.41290648431754168 0 0.01158543002224671 -0.40754374071996963 0 0.01747615232015888 -0.42514842909431222 0 0.026736383496206509 -0.41290648431754168 0 0.01747615232015888 -0.42514842909431222 0 0.02768083642208749 -0.42593076319487821 0 0.01158543002224671 -0.40754374071996963 0 0.0026957591361241309 -0.41958824334712869 0 0.01747615232015888 -0.42514842909431222 0 -0.0081630895937607941 -0.41129335178386173 0 0.01158543002224671 -0.40754374071996963 0 0.0026957591361241309 -0.41958824334712869 0 0.0026957591361241309 -0.41958824334712869 0 0.003851027954898749 -0.43172418954792041 0 0.01747615232015888 -0.42514842909431222 0 0.003851027954898749 -0.43172418954792041 0 0.01410030331848921 -0.43483725365991388 0 0.01747615232015888 -0.42514842909431222 0 0.003851027954898749 -0.43172418954792041 0 0.01410030331848921 -0.43483725365991388 0 0.011432193992105429 -0.44462200732167467 0 0.01747615232015888 -0.42514842909431222 0 0.023728282280598981 -0.43798020184644493 0 0.01410030331848921 -0.43483725365991388 0 0.01747615232015888 -0.42514842909431222 0 0.023728282280598981 -0.43798020184644493 0 0.01747615232015888 -0.42514842909431222 0 0.02768083642208749 -0.42593076319487821 0 0.023728282280598981 -0.43798020184644493 0 0.026736383496206509 -0.41290648431754168 0 0.02768083642208749 -0.42593076319487821 0 0.042782527591385587 -0.42768793752121392 0 0.042782527591385587 -0.42768793752121392 0 0.023728282280598981 -0.43798020184644493 0 0.02768083642208749 -0.42593076319487821 0 0.042782527591385587 -0.42768793752121392 0 0.023728282280598981 -0.43798020184644493 0 0.042782527591385587 -0.42768793752121392 0 0.038339333849137569 -0.44224603439757942 0 0.023728282280598981 -0.43798020184644493 0 0.03861507037192409 -0.403184658796582 0 0.026736383496206509 -0.41290648431754168 0 0.042782527591385587 -0.42768793752121392 0 0.03861507037192409 -0.403184658796582 0 0.042782527591385587 -0.42768793752121392 0 0.061836772902171017 -0.41739567319598042 0 0.03861507037192409 -0.403184658796582 0 0.061836772902171017 -0.41739567319598042 0 0.058427186835583247 -0.40050833558202109 0 0.03861507037192409 -0.403184658796582 0 0.061836772902171017 -0.41739567319598042 0 0.042782527591385587 -0.42768793752121392 0 0.061836772902171017 -0.41739567319598042 0 0.061221704008603092 -0.43412854505433712 0 0.042782527591385587 -0.42768793752121392 0 0.061836772902171017 -0.41739567319598042 0 0.042782527591385587 -0.42768793752121392 0 0.061221704008603092 -0.43412854505433712 0 0.052693917870023622 -0.44730825455084611 0 0.064267892493667544 -0.45245405090636609 0 0.061221704008603092 -0.43412854505433712 0 0.052693917870023622 -0.44730825455084611 0 0.069113753880103546 -0.47032146630200872 0 0.064267892493667544 -0.45245405090636609 0 0.052594011880735161 -0.46258963849414558 0 0.064267892493667544 -0.45245405090636609 0 0.052693917870023622 -0.44730825455084611 0 0.052594011880735161 -0.46258963849414558 0 0.033446276913734967 -0.45792526049492271 0 0.024747075647264399 -0.46972246297684461 0 0.043164271546872197 -0.4778703191434 0 0.052693917870023622 -0.44730825455084611 0 0.052594011880735161 -0.46258963849414558 0 0.033446276913734967 -0.45792526049492271 0 0.052594011880735161 -0.46258963849414558 0 0.033446276913734967 -0.45792526049492271 0 0.043164271546872197 -0.4778703191434 0 0.033446276913734967 -0.45792526049492271 0 0.043164271546872197 -0.4778703191434 0 0.042782527591385587 -0.42768793752121392 0 0.052693917870023622 -0.44730825455084611 0 0.038339333849137569 -0.44224603439757942 0 0.033446276913734967 -0.45792526049492271 0 0.038339333849137569 -0.44224603439757942 0 0.023728282280598981 -0.43798020184644493 0 0.052693917870023622 -0.44730825455084611 0 0.033446276913734967 -0.45792526049492271 0 0.038339333849137569 -0.44224603439757942 0 0.023728282280598981 -0.43798020184644493 0 0.011432193992105429 -0.44462200732167467 0 0.01779212199045099 -0.45571080357091009 0 0.033446276913734967 -0.45792526049492271 0 0.023728282280598981 -0.43798020184644493 0 0.033446276913734967 -0.45792526049492271 0 0.023728282280598981 -0.43798020184644493 0 0.01779212199045099 -0.45571080357091009 0 0.023728282280598981 -0.43798020184644493 0 0.011432193992105429 -0.44462200732167467 0 0.01410030331848921 -0.43483725365991388 0 0.023728282280598981 -0.43798020184644493 0 0.011432193992105429 -0.44462200732167467 0 -0.01027783979290609 -0.4450418277695869 0 0.011432193992105429 -0.44462200732167467 0 0.0031349746952128348 -0.45732154608844711 0 -0.01027783979290609 -0.4450418277695869 0 0.003851027954898749 -0.43172418954792041 0 0.011432193992105429 -0.44462200732167467 0 0.011432193992105429 -0.44462200732167467 0 0.0031349746952128348 -0.45732154608844711 0 0.01779212199045099 -0.45571080357091009 0 -0.00094907817261298132 -0.47112804672216879 0 0.0031349746952128348 -0.45732154608844711 0 0.01026392841378935 -0.46669334269712659 0 0.0031349746952128348 -0.45732154608844711 0 0.01026392841378935 -0.46669334269712659 0 0.01779212199045099 -0.45571080357091009 0 0.01026392841378935 -0.46669334269712659 0 0.01779212199045099 -0.45571080357091009 0 0.024747075647264399 -0.46972246297684461 0 0.033446276913734967 -0.45792526049492271 0 0.01779212199045099 -0.45571080357091009 0 0.024747075647264399 -0.46972246297684461 0 0.024747075647264399 -0.46972246297684461 0 0.019392481307258409 -0.48478566889839131 0 0.043164271546872197 -0.4778703191434 0 0.01026392841378935 -0.46669334269712659 0 0.024747075647264399 -0.46972246297684461 0 0.019392481307258409 -0.48478566889839131 0 0.01026392841378935 -0.46669334269712659 0 0.0053352152350804568 -0.4807791696356124 0 0.019392481307258409 -0.48478566889839131 0 -0.0043176495648967151 -0.48070428616945038 0 -0.00094907817261298132 -0.47112804672216879 0 0.0053352152350804568 -0.4807791696356124 0 -0.00094907817261298132 -0.47112804672216879 0 0.01026392841378935 -0.46669334269712659 0 0.0053352152350804568 -0.4807791696356124 0 -0.0023310323066341181 -0.5 0 -0.0043793089323552817 -0.49170101865338262 0 0.019392481307258409 -0.48478566889839131 0 -0.0043793089323552817 -0.49170101865338262 0 0.019392481307258409 -0.48478566889839131 0 -0.0043793089323552817 -0.49170101865338262 0 0.0053352152350804568 -0.4807791696356124 0 0.019392481307258409 -0.48478566889839131 0 -0.0023310323066341181 -0.5 0 0.019392481307258409 -0.48478566889839131 0 0.026698753392940699 -0.5 0 0.019392481307258409 -0.48478566889839131 0 0.026698753392940699 -0.5 0 0.035353585390671842 -0.48974665193930511 0 0.035353585390671842 -0.48974665193930511 0 0.043164271546872197 -0.4778703191434 0 0.052158835315616027 -0.49633061971542908 0 0.026698753392940699 -0.5 0 0.055728539092515517 -0.5 0 0.052158835315616027 -0.49633061971542908 0 0.026698753392940699 -0.5 0 0.035353585390671842 -0.48974665193930511 0 0.052158835315616027 -0.49633061971542908 0 0.019392481307258409 -0.48478566889839131 0 0.035353585390671842 -0.48974665193930511 0 0.043164271546872197 -0.4778703191434 0 0.019392481307258409 -0.48478566889839131 0 0.043164271546872197 -0.4778703191434 0 0.069113753880103546 -0.47032146630200872 0 0.052594011880735161 -0.46258963849414558 0 0.043164271546872197 -0.4778703191434 0 0.069113753880103546 -0.47032146630200872 0 0.043164271546872197 -0.4778703191434 0 0.057596711449277201 -0.48334309492942701 0 0.069113753880103546 -0.47032146630200872 0 0.043164271546872197 -0.4778703191434 0 0.043164271546872197 -0.4778703191434 0 0.057596711449277201 -0.48334309492942701 0 0.052158835315616027 -0.49633061971542908 0 0.065949985054517032 -0.48884997455687013 0 0.057596711449277201 -0.48334309492942701 0 0.052158835315616027 -0.49633061971542908 0 0.043164271546872197 -0.4778703191434 0 0.052158835315616027 -0.49633061971542908 0 0.065949985054517032 -0.48884997455687013 0 0.055728539092515517 -0.5 0 0.052158835315616027 -0.49633061971542908 0 0.091646396761647708 -0.28947790237370968 0 0.07071546022358817 -0.28620470259943642 0 0.079999995207784586 -0.26983589460815821 0 0.091646396761647708 -0.28947790237370968 0 0.072783535289555654 -0.30157633939854622 0 0.07071546022358817 -0.28620470259943642 0 0.091646396761647708 -0.28947790237370968 0 0.087363613427391865 -0.30807629250996549 0 0.072783535289555654 -0.30157633939854622 0 0.072783535289555654 -0.30157633939854622 0 0.073259594084162577 -0.32259772896999273 0 0.056038135353808333 -0.31320409925325249 0 0.087363613427391865 -0.30807629250996549 0 0.072783535289555654 -0.30157633939854622 0 0.073259594084162577 -0.32259772896999273 0 0.072783535289555654 -0.30157633939854622 0 0.07071546022358817 -0.28620470259943642 0 0.04944647540011983 -0.29680206833493911 0 0.07071546022358817 -0.28620470259943642 0 0.079999995207784586 -0.26983589460815821 0 0.059700898458833078 -0.27333130828182889 0 0.06835359365392131 -0.25019388684260668 0 0.079999995207784586 -0.26983589460815821 0 0.08421140423371333 -0.243891226620808 0 0.06835359365392131 -0.25019388684260668 0 0.079999995207784586 -0.26983589460815821 0 0.06835359365392131 -0.25019388684260668 0 0.079999995207784586 -0.26983589460815821 0 0.059700898458833078 -0.27333130828182889 0 0.079999995207784586 -0.26983589460815821 0 0.097662046653794854 -0.25561444261418242 0 0.08421140423371333 -0.243891226620808 0 0.079999995207784586 -0.26983589460815821 0 0.1034904733698796 -0.27103876000237981 0 0.097662046653794854 -0.25561444261418242 0 0.091646396761647708 -0.28947790237370968 0 0.079999995207784586 -0.26983589460815821 0 0.091646396761647708 -0.28947790237370968 0 0.079999995207784586 -0.26983589460815821 0 0.1034904733698796 -0.27103876000237981 0 0.1034904733698796 -0.27103876000237981 0 0.097662046653794854 -0.25561444261418242 0 0.1147239364606354 -0.25215539330366038 0 0.13687529418603939 -0.26162068250561471 0 0.1147239364606354 -0.25215539330366038 0 0.1223190960555403 -0.2394332616338683 0 0.1034904733698796 -0.27103876000237981 0 0.1147239364606354 -0.25215539330366038 0 0.12122917553908071 -0.27280048239714111 0 0.13687529418603939 -0.26162068250561471 0 0.1147239364606354 -0.25215539330366038 0 0.12122917553908071 -0.27280048239714111 0 0.1034904733698796 -0.27103876000237981 0 0.12122917553908071 -0.27280048239714111 0 0.11361649143026541 -0.29050419490534962 0 0.13743968224858391 -0.28868338126870119 0 0.12122917553908071 -0.27280048239714111 0 0.11361649143026541 -0.29050419490534962 0 0.091646396761647708 -0.28947790237370968 0 0.11361649143026541 -0.29050419490534962 0 0.10329279831551071 -0.3091199101392611 0 0.091646396761647708 -0.28947790237370968 0 0.1034904733698796 -0.27103876000237981 0 0.11361649143026541 -0.29050419490534962 0 0.091646396761647708 -0.28947790237370968 0 0.10329279831551071 -0.3091199101392611 0 0.091646396761647708 -0.28947790237370968 0 0.087363613427391865 -0.30807629250996549 0 0.10329279831551071 -0.3091199101392611 0 0.11361649143026541 -0.29050419490534962 0 0.10329279831551071 -0.3091199101392611 0 0.1207194796176513 -0.31206082339016011 0 0.13743968224858391 -0.28868338126870119 0 0.11361649143026541 -0.29050419490534962 0 0.1207194796176513 -0.31206082339016011 0 0.10329279831551071 -0.3091199101392611 0 0.11030782598785099 -0.32334328523235578 0 0.1149391998693738 -0.32876191790481257 0 0.10329279831551071 -0.3091199101392611 0 0.1207194796176513 -0.31206082339016011 0 0.1149391998693738 -0.32876191790481257 0 0.127277047630593 -0.32368123984794023 0 0.1207194796176513 -0.31206082339016011 0 0.1149391998693738 -0.32876191790481257 0 0.1252730154641265 -0.33501756179834041 0 0.127277047630593 -0.32368123984794023 0 0.1149391998693738 -0.32876191790481257 0 0.11030782598785099 -0.32334328523235578 0 0.1149391998693738 -0.32876191790481257 0 0.1071562875265276 -0.34088406714172798 0 0.1252730154641265 -0.33501756179834041 0 0.1149391998693738 -0.32876191790481257 0 0.1203073559828662 -0.34481831064573482 0 0.1149391998693738 -0.32876191790481257 0 0.1071562875265276 -0.34088406714172798 0 0.1203073559828662 -0.34481831064573482 0 0.11030782598785099 -0.32334328523235578 0 0.1071562875265276 -0.34088406714172798 0 0.088168702518997374 -0.33920446067117932 0 0.11030782598785099 -0.32334328523235578 0 0.088168702518997374 -0.33920446067117932 0 0.11030782598785099 -0.32334328523235578 0 0.092685396428672781 -0.32103820683708328 0 0.088168702518997374 -0.33920446067117932 0 0.10329279831551071 -0.3091199101392611 0 0.11030782598785099 -0.32334328523235578 0 0.092685396428672781 -0.32103820683708328 0 0.087363613427391865 -0.30807629250996549 0 0.10329279831551071 -0.3091199101392611 0 0.092685396428672781 -0.32103820683708328 0 0.10329279831551071 -0.3091199101392611 0 0.1149391998693738 -0.32876191790481257 0 0.1245186505824013 -0.36113750934922573 0 0.111761677400382 -0.35565256239397869 0 0.1080928822255358 -0.3703790814713866 0 0.12672469353237761 -0.38193719477194499 0 0.1245186505824013 -0.36113750934922573 0 0.1080928822255358 -0.3703790814713866 0 0.1245186505824013 -0.36113750934922573 0 0.111761677400382 -0.35565256239397869 0 0.1203073559828662 -0.34481831064573482 0 0.1071562875265276 -0.34088406714172798 0 0.111761677400382 -0.35565256239397869 0 0.1203073559828662 -0.34481831064573482 0 0.1071562875265276 -0.34088406714172798 0 0.09828664694928807 -0.35383226801130691 0 0.088168702518997374 -0.33920446067117932 0 0.1071562875265276 -0.34088406714172798 0 0.111761677400382 -0.35565256239397869 0 0.09828664694928807 -0.35383226801130691 0 0.097085641119374302 -0.38571424072610178 0 0.1080928822255358 -0.3703790814713866 0 0.085574671404253372 -0.36606529366265911 0 0.111761677400382 -0.35565256239397869 0 0.09828664694928807 -0.35383226801130691 0 0.1080928822255358 -0.3703790814713866 0 0.09828664694928807 -0.35383226801130691 0 0.1080928822255358 -0.3703790814713866 0 0.085574671404253372 -0.36606529366265911 0 0.085574671404253372 -0.36606529366265911 0 0.066029579050143783 -0.35506563611000291 0 0.088168702518997374 -0.33920446067117932 0 0.09828664694928807 -0.35383226801130691 0 0.085574671404253372 -0.36606529366265911 0 0.088168702518997374 -0.33920446067117932 0 0.066029579050143783 -0.35506563611000291 0 0.088168702518997374 -0.33920446067117932 0 0.064781398010314309 -0.37536455347105108 0 0.085574671404253372 -0.36606529366265911 0 0.066029579050143783 -0.35506563611000291 0 0.066029579050143783 -0.35506563611000291 0 0.088168702518997374 -0.33920446067117932 0 0.073259594084162577 -0.32259772896999273 0 0.066029579050143783 -0.35506563611000291 0 0.073259594084162577 -0.32259772896999273 0 0.048222299164917798 -0.333319266554439 0 0.092685396428672781 -0.32103820683708328 0 0.088168702518997374 -0.33920446067117932 0 0.073259594084162577 -0.32259772896999273 0 0.087363613427391865 -0.30807629250996549 0 0.092685396428672781 -0.32103820683708328 0 0.073259594084162577 -0.32259772896999273 0 0.073259594084162577 -0.32259772896999273 0 0.056038135353808333 -0.31320409925325249 0 0.048222299164917798 -0.333319266554439 0 0.056038135353808333 -0.31320409925325249 0 0.048222299164917798 -0.333319266554439 0 0.036478772830285791 -0.31172509300834528 0 0.048222299164917798 -0.333319266554439 0 0.033610930591278822 -0.35000849021355163 0 0.023331405601267931 -0.32909016887827719 0 0.048222299164917798 -0.333319266554439 0 0.023331405601267931 -0.32909016887827719 0 0.036478772830285791 -0.31172509300834528 0 0.066029579050143783 -0.35506563611000291 0 0.048355778033110031 -0.35315995845717169 0 0.043890455581289831 -0.3709268115488259 0 0.066029579050143783 -0.35506563611000291 0 0.043890455581289831 -0.3709268115488259 0 0.064781398010314309 -0.37536455347105108 0 0.066029579050143783 -0.35506563611000291 0 0.043890455581289831 -0.3709268115488259 0 0.066029579050143783 -0.35506563611000291 0 0.048222299164917798 -0.333319266554439 0 0.048355778033110031 -0.35315995845717169 0 0.048222299164917798 -0.333319266554439 0 0.048355778033110031 -0.35315995845717169 0 0.033610930591278822 -0.35000849021355163 0 0.048355778033110031 -0.35315995845717169 0 0.033610930591278822 -0.35000849021355163 0 0.043890455581289831 -0.3709268115488259 0 0.033610930591278822 -0.35000849021355163 0 0.03286340713970079 -0.36889202113574671 0 0.043890455581289831 -0.3709268115488259 0 0.033610930591278822 -0.35000849021355163 0 0.043890455581289831 -0.3709268115488259 0 0.030780854092194759 -0.38031894893150719 0 0.03286340713970079 -0.36889202113574671 0 0.043890455581289831 -0.3709268115488259 0 0.033610930591278822 -0.35000849021355163 0 0.03286340713970079 -0.36889202113574671 0 0.022072978528308879 -0.36937310690127451 0 0.030780854092194759 -0.38031894893150719 0 0.03286340713970079 -0.36889202113574671 0 0.022072978528308879 -0.36937310690127451 0 0.033610930591278822 -0.35000849021355163 0 0.022072978528308879 -0.36937310690127451 0 0.014393680356963701 -0.35536411395587292 0 0.033610930591278822 -0.35000849021355163 0 0.014393680356963701 -0.35536411395587292 0 0.0105762414372169 -0.3395135522035268 0 -0.00014080085946228561 -0.35082738964002957 0 0.014393680356963701 -0.35536411395587292 0 0.0105762414372169 -0.3395135522035268 0 -0.00014080085946228561 -0.35082738964002957 0 0.014393680356963701 -0.35536411395587292 0 0.0058490520874761691 -0.36709803082098191 0 0.022072978528308879 -0.36937310690127451 0 0.014393680356963701 -0.35536411395587292 0 0.0058490520874761691 -0.36709803082098191 0 0.022072978528308879 -0.36937310690127451 0 0.0058490520874761691 -0.36709803082098191 0 0.0132535835722172 -0.37610527220974688 0 0.022072978528308879 -0.36937310690127451 0 0.0058490520874761691 -0.36709803082098191 0 -0.0078283346885702904 -0.37476262999778609 0 0.0132535835722172 -0.37610527220974688 0 0.0058490520874761691 -0.36709803082098191 0 0.023331405601267931 -0.32909016887827719 0 0.013051880611257029 -0.30817184754300292 0 0.023331405601267931 -0.32909016887827719 0 0.013051880611257029 -0.30817184754300292 0 0.036478772830285791 -0.31172509300834528 0 0.033610930591278822 -0.35000849021355163 0 0.023331405601267931 -0.32909016887827719 0 0.0105762414372169 -0.3395135522035268 0 0.033610930591278822 -0.35000849021355163 0 0.023331405601267931 -0.32909016887827719 0 0.023331405601267931 -0.32909016887827719 0 0.0105762414372169 -0.3395135522035268 0 3.5896068887442723e-05 -0.32803491845883598 0 -0.00014080085946228561 -0.35082738964002957 0 0.0105762414372169 -0.3395135522035268 0 3.5896068887442723e-05 -0.32803491845883598 0 -0.0063780240591087903 -0.31078717533589839 0 3.5896068887442723e-05 -0.32803491845883598 0 0.013051880611257029 -0.30817184754300292 0 0.023331405601267931 -0.32909016887827719 0 3.5896068887442723e-05 -0.32803491845883598 0 0.013051880611257029 -0.30817184754300292 0 0.013051880611257029 -0.30817184754300292 0 0.0027723556212477219 -0.28725352620772771 0 0.0027723556212477219 -0.28725352620772771 0 0.026109415510684009 -0.29202779727133188 0 -0.0017476628817073611 -0.27805551369469472 0 0.0027723556212477219 -0.28725352620772771 0 0.01602201902671789 -0.28191194131808539 0 0.013051880611257029 -0.30817184754300292 0 0.0027723556212477219 -0.28725352620772771 0 0.026109415510684009 -0.29202779727133188 0 0.0027723556212477219 -0.28725352620772771 0 0.026109415510684009 -0.29202779727133188 0 0.01602201902671789 -0.28191194131808539 0 -0.0074917523477661804 -0.29461577546968681 0 0.013051880611257029 -0.30817184754300292 0 0.0027723556212477219 -0.28725352620772771 0 -0.0017476628817073611 -0.27805551369469472 0 0.0027723556212477219 -0.28725352620772771 0 0.026109415510684009 -0.29202779727133188 0 0.01602201902671789 -0.28191194131808539 0 0.036314123194761641 -0.27872041929058161 0 0.013051880611257029 -0.30817184754300292 0 0.026109415510684009 -0.29202779727133188 0 0.036478772830285791 -0.31172509300834528 0 0.026109415510684009 -0.29202779727133188 0 0.036478772830285791 -0.31172509300834528 0 0.04944647540011983 -0.29680206833493911 0 0.026109415510684009 -0.29202779727133188 0 0.04944647540011983 -0.29680206833493911 0 0.036314123194761641 -0.27872041929058161 0 0.026109415510684009 -0.29202779727133188 0 0.04944647540011983 -0.29680206833493911 0 0.04944647540011983 -0.29680206833493911 0 0.059700898458833078 -0.27333130828182889 0 0.036314123194761641 -0.27872041929058161 0 0.07071546022358817 -0.28620470259943642 0 0.04944647540011983 -0.29680206833493911 0 0.059700898458833078 -0.27333130828182889 0 0.072783535289555654 -0.30157633939854622 0 0.04944647540011983 -0.29680206833493911 0 0.056038135353808333 -0.31320409925325249 0 0.036478772830285791 -0.31172509300834528 0 0.04944647540011983 -0.29680206833493911 0 0.072783535289555654 -0.30157633939854622 0 0.056038135353808333 -0.31320409925325249 0 0.04944647540011983 -0.29680206833493911 0 0.06835359365392131 -0.25019388684260668 0 0.044986508142045613 -0.25948109579330381 0 0.047362788675733028 -0.24199119006041811 0 0.06835359365392131 -0.25019388684260668 0 0.059700898458833078 -0.27333130828182889 0 0.044986508142045613 -0.25948109579330381 0 0.06835359365392131 -0.25019388684260668 0 0.044986508142045613 -0.25948109579330381 0 0.059700898458833078 -0.27333130828182889 0 0.036314123194761641 -0.27872041929058161 0 0.044986508142045613 -0.25948109579330381 0 0.036314123194761641 -0.27872041929058161 0 0.044986508142045613 -0.25948109579330381 0 0.02161942263016943 -0.26876830474400021 0 0.044986508142045613 -0.25948109579330381 0 0.02161942263016943 -0.26876830474400021 0 0.044986508142045613 -0.25948109579330381 0 0.029973277209287209 -0.25054958921230208 0 0.02161942263016943 -0.26876830474400021 0 0.044986508142045613 -0.25948109579330381 0 0.029973277209287209 -0.25054958921230208 0 0.047362788675733028 -0.24199119006041811 0 0.029973277209287209 -0.25054958921230208 0 0.015960739131678031 -0.25406337006458851 0 0.02161942263016943 -0.26876830474400021 0 0.01602201902671789 -0.28191194131808539 0 0.036314123194761641 -0.27872041929058161 0 0.02161942263016943 -0.26876830474400021 0 -0.0017476628817073611 -0.27805551369469472 0 0.01602201902671789 -0.28191194131808539 0 0.02161942263016943 -0.26876830474400021 0 -0.0017476628817073611 -0.27805551369469472 0 0.02161942263016943 -0.26876830474400021 0 -0.0017476628817073611 -0.27805551369469472 0 0.02161942263016943 -0.26876830474400021 0 0.0057386521092319797 -0.26220041049146298 0 0.015960739131678031 -0.25406337006458851 0 0.02161942263016943 -0.26876830474400021 0 0.0057386521092319797 -0.26220041049146298 0 0.015960739131678031 -0.25406337006458851 0 0.0057386521092319797 -0.26220041049146298 0 0.0025328853753160741 -0.24958102673793139 0 0.0010854142569982001 -0.23807309260292489 0 0.010575476039053681 -0.22730954243123891 0 0.017210747296828609 -0.24036453645492739 0 0.0010854142569982001 -0.23807309260292489 0 0.0025328853753160741 -0.24958102673793139 0 0.017210747296828609 -0.24036453645492739 0 0.015960739131678031 -0.25406337006458851 0 0.0025328853753160741 -0.24958102673793139 0 0.017210747296828609 -0.24036453645492739 0 -0.0061584899570064598 -0.22962027277065361 0 0.0010854142569982001 -0.23807309260292489 0 0.010575476039053681 -0.22730954243123891 0 -0.0061584899570064598 -0.22962027277065361 0 0.010575476039053681 -0.22730954243123891 0 0.0064165675551885711 -0.21575046092143421 0 -0.0061584899570064598 -0.22962027277065361 0 0.0064165675551885711 -0.21575046092143421 0 0.010575476039053681 -0.22730954243123891 0 0.0064165675551885711 -0.21575046092143421 0 0.021509429760601551 -0.21557394742371069 0 0.010575476039053681 -0.22730954243123891 0 0.0064165675551885711 -0.21575046092143421 0 0.010575476039053681 -0.22730954243123891 0 0.02225812238200572 -0.22838936745028471 0 0.017210747296828609 -0.24036453645492739 0 0.010575476039053681 -0.22730954243123891 0 0.02225812238200572 -0.22838936745028471 0 0.021509429760601551 -0.21557394742371069 0 0.02225812238200572 -0.22838936745028471 0 0.029479073121619459 -0.22118232130399371 0 0.021509429760601551 -0.21557394742371069 0 0.02225812238200572 -0.22838936745028471 0 0.029479073121619459 -0.22118232130399371 0 0.031866256870133697 -0.23515517363185631 0 0.029973277209287209 -0.25054958921230208 0 0.017210747296828609 -0.24036453645492739 0 0.031866256870133697 -0.23515517363185631 0 0.02225812238200572 -0.22838936745028471 0 0.017210747296828609 -0.24036453645492739 0 0.031866256870133697 -0.23515517363185631 0 0.029973277209287209 -0.25054958921230208 0 0.015960739131678031 -0.25406337006458851 0 0.017210747296828609 -0.24036453645492739 0 -0.0015622250741301779 -0.1935745667631632 0 0.01896638504685547 -0.20190848785827681 0 0.0091962193441852118 -0.18107109871456811 0 -0.0015622250741301779 -0.1935745667631632 0 0.0064165675551885711 -0.21575046092143421 0 0.01896638504685547 -0.20190848785827681 0 -0.0015622250741301779 -0.1935745667631632 0 0.0064165675551885711 -0.21575046092143421 0 0.0064165675551885711 -0.21575046092143421 0 0.01896638504685547 -0.20190848785827681 0 0.0064165675551885711 -0.21575046092143421 0 0.021509429760601551 -0.21557394742371069 0 0.01896638504685547 -0.20190848785827681 0 0.029479073121619459 -0.22118232130399371 0 0.021509429760601551 -0.21557394742371069 0 0.033558692489570878 -0.21195100443687931 0 0.021509429760601551 -0.21557394742371069 0 0.029251690937081031 -0.20258635003767089 0 0.033558692489570878 -0.21195100443687931 0 0.021509429760601551 -0.21557394742371069 0 0.01896638504685547 -0.20190848785827681 0 0.029251690937081031 -0.20258635003767089 0 0.01896638504685547 -0.20190848785827681 0 0.031516202538524517 -0.1880665147951214 0 0.0091962193441852118 -0.18107109871456811 0 0.01896638504685547 -0.20190848785827681 0 0.029251690937081031 -0.20258635003767089 0 0.031516202538524517 -0.1880665147951214 0 0.01896638504685547 -0.20190848785827681 0 0.031516202538524517 -0.1880665147951214 0 0.043838458457815248 -0.18986676967386279 0 0.039506267971797952 -0.20154200132731501 0 0.055741541871671067 -0.19352675789948551 0 0.043838458457815248 -0.18986676967386279 0 0.031516202538524517 -0.1880665147951214 0 0.039506267971797952 -0.20154200132731501 0 0.031516202538524517 -0.1880665147951214 0 0.039506267971797952 -0.20154200132731501 0 0.029251690937081031 -0.20258635003767089 0 0.031516202538524517 -0.1880665147951214 0 0.039506267971797952 -0.20154200132731501 0 0.039506267971797952 -0.20154200132731501 0 0.033558692489570878 -0.21195100443687931 0 0.047496333405074677 -0.2150174878595065 0 0.039506267971797952 -0.20154200132731501 0 0.047496333405074677 -0.2150174878595065 0 0.029251690937081031 -0.20258635003767089 0 0.039506267971797952 -0.20154200132731501 0 0.033558692489570878 -0.21195100443687931 0 0.033558692489570878 -0.21195100443687931 0 0.047496333405074677 -0.2150174878595065 0 0.033558692489570878 -0.21195100443687931 0 0.047496333405074677 -0.2150174878595065 0 0.039554961726260877 -0.22474601638733641 0 0.039506267971797952 -0.20154200132731501 0 0.047496333405074677 -0.2150174878595065 0 0.05523956109653505 -0.20714630445374671 0 0.047496333405074677 -0.2150174878595065 0 0.05523956109653505 -0.20714630445374671 0 0.064206587222380762 -0.21869398638814641 0 0.047496333405074677 -0.2150174878595065 0 0.064206587222380762 -0.21869398638814641 0 0.039506267971797952 -0.20154200132731501 0 0.05523956109653505 -0.20714630445374671 0 0.055741541871671067 -0.19352675789948551 0 0.05523956109653505 -0.20714630445374671 0 0.055741541871671067 -0.19352675789948551 0 0.069247075011750078 -0.20695128879428309 0 0.055741541871671067 -0.19352675789948551 0 0.069247075011750078 -0.20695128879428309 0 0.029973277209287209 -0.25054958921230208 0 0.031866256870133697 -0.23515517363185631 0 0.047362788675733028 -0.24199119006041811 0 0.031866256870133697 -0.23515517363185631 0 0.039554961726260877 -0.22474601638733641 0 0.047362788675733028 -0.24199119006041811 0 0.029479073121619459 -0.22118232130399371 0 0.031866256870133697 -0.23515517363185631 0 0.039554961726260877 -0.22474601638733641 0 0.029479073121619459 -0.22118232130399371 0 0.033558692489570878 -0.21195100443687931 0 0.039554961726260877 -0.22474601638733641 0 0.047496333405074677 -0.2150174878595065 0 0.05536207860111314 -0.2282833045590259 0 0.064206587222380762 -0.21869398638814641 0 0.05536207860111314 -0.2282833045590259 0 0.063311866646695691 -0.24149928944984211 0 0.064206587222380762 -0.21869398638814641 0 0.039554961726260877 -0.22474601638733641 0 0.05536207860111314 -0.2282833045590259 0 0.047362788675733028 -0.24199119006041811 0 0.047496333405074677 -0.2150174878595065 0 0.039554961726260877 -0.22474601638733641 0 0.05536207860111314 -0.2282833045590259 0 0.047496333405074677 -0.2150174878595065 0 0.05536207860111314 -0.2282833045590259 0 0.05536207860111314 -0.2282833045590259 0 0.063311866646695691 -0.24149928944984211 0 0.06835359365392131 -0.25019388684260668 0 0.047362788675733028 -0.24199119006041811 0 0.063311866646695691 -0.24149928944984211 0 0.05536207860111314 -0.2282833045590259 0 0.047362788675733028 -0.24199119006041811 0 0.063311866646695691 -0.24149928944984211 0 0.06835359365392131 -0.25019388684260668 0 0.08421140423371333 -0.243891226620808 0 0.06835359365392131 -0.25019388684260668 0 0.063311866646695691 -0.24149928944984211 0 0.063311866646695691 -0.24149928944984211 0 0.074219814037010917 -0.24224782663387789 0 0.081086434463253185 -0.23335707181355411 0 0.06835359365392131 -0.25019388684260668 0 0.063311866646695691 -0.24149928944984211 0 0.074219814037010917 -0.24224782663387789 0 0.06835359365392131 -0.25019388684260668 0 0.074219814037010917 -0.24224782663387789 0 0.08421140423371333 -0.243891226620808 0 0.08421140423371333 -0.243891226620808 0 0.081086434463253185 -0.23335707181355411 0 0.10006921481350529 -0.2375885663990091 0 0.08421140423371333 -0.243891226620808 0 0.10006921481350529 -0.2375885663990091 0 0.074219814037010917 -0.24224782663387789 0 0.08421140423371333 -0.243891226620808 0 0.081086434463253185 -0.23335707181355411 0 0.081086434463253185 -0.23335707181355411 0 0.085851572697872774 -0.2234561975504171 0 0.10006921481350529 -0.2375885663990091 0 0.085851572697872774 -0.2234561975504171 0 0.08275260815182911 -0.2203758196890806 0 0.098293187803831117 -0.21887499219370271 0 0.085851572697872774 -0.2234561975504171 0 0.10006921481350529 -0.2375885663990091 0 0.081086434463253185 -0.23335707181355411 0 0.085851572697872774 -0.2234561975504171 0 0.080916841039686133 -0.2223704849167896 0 0.085851572697872774 -0.2234561975504171 0 0.080916841039686133 -0.2223704849167896 0 0.085851572697872774 -0.2234561975504171 0 0.08275260815182911 -0.2203758196890806 0 0.080916841039686133 -0.2223704849167896 0 0.085851572697872774 -0.2234561975504171 0 0.08275260815182911 -0.2203758196890806 0 0.08275260815182911 -0.2203758196890806 0 0.080916841039686133 -0.2223704849167896 0 0.063311866646695691 -0.24149928944984211 0 0.080916841039686133 -0.2223704849167896 0 0.063311866646695691 -0.24149928944984211 0 0.080916841039686133 -0.2223704849167896 0 0.064206587222380762 -0.21869398638814641 0 0.080916841039686133 -0.2223704849167896 0 0.064206587222380762 -0.21869398638814641 0 0.063311866646695691 -0.24149928944984211 0 0.081086434463253185 -0.23335707181355411 0 0.080916841039686133 -0.2223704849167896 0 0.080916841039686133 -0.2223704849167896 0 0.064206587222380762 -0.21869398638814641 0 0.069247075011750078 -0.20695128879428309 0 0.05523956109653505 -0.20714630445374671 0 0.064206587222380762 -0.21869398638814641 0 0.069247075011750078 -0.20695128879428309 0 0.08275260815182911 -0.2203758196890806 0 0.069247075011750078 -0.20695128879428309 0 0.08275260815182911 -0.2203758196890806 0 0.080916841039686133 -0.2223704849167896 0 0.069247075011750078 -0.20695128879428309 0 0.055741541871671067 -0.19352675789948551 0 0.069247075011750078 -0.20695128879428309 0 0.070887819862862286 -0.1914088031202833 0 0.069247075011750078 -0.20695128879428309 0 0.070887819862862286 -0.1914088031202833 0 0.082832551139222166 -0.19914513048671481 0 0.070887819862862286 -0.1914088031202833 0 0.082832551139222166 -0.19914513048671481 0 0.081821336385090343 -0.18186245165470949 0 0.082832551139222166 -0.19914513048671481 0 0.097084301305641635 -0.20480362112478781 0 0.095405874932467813 -0.18887779734800569 0 0.082832551139222166 -0.19914513048671481 0 0.095405874932467813 -0.18887779734800569 0 0.081821336385090343 -0.18186245165470949 0 0.08275260815182911 -0.2203758196890806 0 0.082832551139222166 -0.19914513048671481 0 0.097084301305641635 -0.20480362112478781 0 0.08275260815182911 -0.2203758196890806 0 0.069247075011750078 -0.20695128879428309 0 0.082832551139222166 -0.19914513048671481 0 0.08275260815182911 -0.2203758196890806 0 0.097084301305641635 -0.20480362112478781 0 0.098293187803831117 -0.21887499219370271 0 0.08275260815182911 -0.2203758196890806 0 0.097084301305641635 -0.20480362112478781 0 0.097084301305641635 -0.20480362112478781 0 0.1146962174531268 -0.21673223195775559 0 0.098293187803831117 -0.21887499219370271 0 0.097084301305641635 -0.20480362112478781 0 0.095405874932467813 -0.18887779734800569 0 0.11141599445945349 -0.1892314225604943 0 0.097084301305641635 -0.20480362112478781 0 0.11141599445945349 -0.1892314225604943 0 0.097084301305641635 -0.20480362112478781 0 0.1210323504124224 -0.2015702574875764 0 0.11141599445945349 -0.1892314225604943 0 0.1210323504124224 -0.2015702574875764 0 0.11141599445945349 -0.1892314225604943 0 0.13523084618428721 -0.18276855246186111 0 0.1210323504124224 -0.2015702574875764 0 0.1146962174531268 -0.21673223195775559 0 0.13583218450739579 -0.2116030352811932 0 0.097084301305641635 -0.20480362112478781 0 0.1210323504124224 -0.2015702574875764 0 0.1146962174531268 -0.21673223195775559 0 0.1110812394106853 -0.22900709064647229 0 0.12594488917549271 -0.2231145762792166 0 0.1363109061234978 -0.23455798374252809 0 0.1110812394106853 -0.22900709064647229 0 0.1223190960555403 -0.2394332616338683 0 0.1363109061234978 -0.23455798374252809 0 0.1110812394106853 -0.22900709064647229 0 0.1363109061234978 -0.23455798374252809 0 0.1146962174531268 -0.21673223195775559 0 0.1110812394106853 -0.22900709064647229 0 0.12594488917549271 -0.2231145762792166 0 0.1110812394106853 -0.22900709064647229 0 0.1223190960555403 -0.2394332616338683 0 0.1084330749156753 -0.23426436422737831 0 0.1147239364606354 -0.25215539330366038 0 0.1223190960555403 -0.2394332616338683 0 0.1084330749156753 -0.23426436422737831 0 0.097662046653794854 -0.25561444261418242 0 0.1147239364606354 -0.25215539330366038 0 0.10006921481350529 -0.2375885663990091 0 0.1147239364606354 -0.25215539330366038 0 0.10006921481350529 -0.2375885663990091 0 0.1084330749156753 -0.23426436422737831 0 0.097662046653794854 -0.25561444261418242 0 0.08421140423371333 -0.243891226620808 0 0.10006921481350529 -0.2375885663990091 0 0.10006921481350529 -0.2375885663990091 0 0.1084330749156753 -0.23426436422737831 0 0.1147239364606354 -0.25215539330366038 0 0.10006921481350529 -0.2375885663990091 0 0.085851572697872774 -0.2234561975504171 0 0.1110812394106853 -0.22900709064647229 0 0.1146962174531268 -0.21673223195775559 0 0.1110812394106853 -0.22900709064647229 0 0.098293187803831117 -0.21887499219370271 0 0.085851572697872774 -0.2234561975504171 0 0.1110812394106853 -0.22900709064647229 0 0.098293187803831117 -0.21887499219370271 0 0.085851572697872774 -0.2234561975504171 0 0.1110812394106853 -0.22900709064647229 0 0.10006921481350529 -0.2375885663990091 0 0.1110812394106853 -0.22900709064647229 0 0.10006921481350529 -0.2375885663990091 0 0.1084330749156753 -0.23426436422737831 0 0.1040552578412003 -0.15282191894301261 0 0.1005807427949069 -0.13366374688330029 0 0.11727103389215909 -0.1361484369810822 0 0.1005807427949069 -0.13366374688330029 0 0.11727103389215909 -0.1361484369810822 0 0.1051359327507693 -0.1227177542784853 0 0.1040552578412003 -0.15282191894301261 0 0.1005807427949069 -0.13366374688330029 0 0.082362828069140165 -0.1319846138898183 0 0.11727103389215909 -0.1361484369810822 0 0.1154331983948798 -0.1174886032934183 0 0.13404900744611239 -0.12609877526333699 0 0.11727103389215909 -0.1361484369810822 0 0.1051359327507693 -0.1227177542784853 0 0.1154331983948798 -0.1174886032934183 0 0.1040552578412003 -0.15282191894301261 0 0.11727103389215909 -0.1361484369810822 0 0.1232701832726428 -0.15427141090171109 0 0.11727103389215909 -0.1361484369810822 0 0.1232701832726428 -0.15427141090171109 0 0.13444198148756639 -0.1449420832838656 0 0.1040552578412003 -0.15282191894301261 0 0.12574768761326591 -0.17365922399620121 0 0.1040552578412003 -0.15282191894301261 0 0.1002282447692335 -0.17458527697826651 0 0.12574768761326591 -0.17365922399620121 0 0.1040552578412003 -0.15282191894301261 0 0.1232701832726428 -0.15427141090171109 0 0.12574768761326591 -0.17365922399620121 0 0.11141599445945349 -0.1892314225604943 0 0.1002282447692335 -0.17458527697826651 0 0.12574768761326591 -0.17365922399620121 0 0.11141599445945349 -0.1892314225604943 0 0.12574768761326591 -0.17365922399620121 0 0.13523084618428721 -0.18276855246186111 0 0.11141599445945349 -0.1892314225604943 0 0.12574768761326591 -0.17365922399620121 0 0.095405874932467813 -0.18887779734800569 0 0.11141599445945349 -0.1892314225604943 0 0.1002282447692335 -0.17458527697826651 0 0.1040552578412003 -0.15282191894301261 0 0.1002282447692335 -0.17458527697826651 0 0.08311303581058499 -0.16124853818171381 0 0.095405874932467813 -0.18887779734800569 0 0.1002282447692335 -0.17458527697826651 0 0.081821336385090343 -0.18186245165470949 0 0.1002282447692335 -0.17458527697826651 0 0.08311303581058499 -0.16124853818171381 0 0.081821336385090343 -0.18186245165470949 0 0.08311303581058499 -0.16124853818171381 0 0.081821336385090343 -0.18186245165470949 0 0.066780308608768796 -0.17493307235476979 0 0.070887819862862286 -0.1914088031202833 0 0.081821336385090343 -0.18186245165470949 0 0.066780308608768796 -0.17493307235476979 0 0.055741541871671067 -0.19352675789948551 0 0.070887819862862286 -0.1914088031202833 0 0.066780308608768796 -0.17493307235476979 0 0.08311303581058499 -0.16124853818171381 0 0.066780308608768796 -0.17493307235476979 0 0.065413952892267702 -0.150678580858252 0 0.065413952892267702 -0.150678580858252 0 0.082362828069140165 -0.1319846138898183 0 0.08311303581058499 -0.16124853818171381 0 0.065413952892267702 -0.150678580858252 0 0.082362828069140165 -0.1319846138898183 0 0.1040552578412003 -0.15282191894301261 0 0.08311303581058499 -0.16124853818171381 0 0.082362828069140165 -0.1319846138898183 0 0.1040552578412003 -0.15282191894301261 0 0.082362828069140165 -0.1319846138898183 0 0.1005807427949069 -0.13366374688330029 0 0.082362828069140165 -0.1319846138898183 0 0.095577299328253623 -0.1174095529111252 0 0.082362828069140165 -0.1319846138898183 0 0.070308403876621794 -0.13238109852993221 0 0.069837722907261313 -0.1199532536492431 0 0.065413952892267702 -0.150678580858252 0 0.082362828069140165 -0.1319846138898183 0 0.070308403876621794 -0.13238109852993221 0 0.082362828069140165 -0.1319846138898183 0 0.069837722907261313 -0.1199532536492431 0 0.065413952892267702 -0.150678580858252 0 0.070308403876621794 -0.13238109852993221 0 0.06118566078759103 -0.13005342953014129 0 0.070308403876621794 -0.13238109852993221 0 0.06118566078759103 -0.13005342953014129 0 0.069837722907261313 -0.1199532536492431 0 0.065413952892267702 -0.150678580858252 0 0.06118566078759103 -0.13005342953014129 0 0.053245925046226952 -0.14076102386291889 0 0.06118566078759103 -0.13005342953014129 0 0.049352038069647858 -0.1295439288512826 0 0.048525659269531229 -0.11802361343548989 0 0.049352038069647858 -0.1295439288512826 0 0.053245925046226952 -0.14076102386291889 0 0.041700188437408421 -0.13409859591225329 0 0.06118566078759103 -0.13005342953014129 0 0.049352038069647858 -0.1295439288512826 0 0.053245925046226952 -0.14076102386291889 0 0.065413952892267702 -0.150678580858252 0 0.053245925046226952 -0.14076102386291889 0 0.048465077715394989 -0.16937254782668559 0 0.053245925046226952 -0.14076102386291889 0 0.040505841312838547 -0.14468304457988079 0 0.048465077715394989 -0.16937254782668559 0 0.040505841312838547 -0.14468304457988079 0 0.03393783807298914 -0.14093707321474161 0 0.030230252537669321 -0.1566253376229266 0 0.040505841312838547 -0.14468304457988079 0 0.030230252537669321 -0.1566253376229266 0 0.040505841312838547 -0.14468304457988079 0 0.03393783807298914 -0.14093707321474161 0 0.041700188437408421 -0.13409859591225329 0 0.03393783807298914 -0.14093707321474161 0 0.041700188437408421 -0.13409859591225329 0 0.024480650806643651 -0.1375151559245551 0 0.041700188437408421 -0.13409859591225329 0 0.042102756807481732 -0.1247829815156095 0 0.031290738437872938 -0.1201921761368282 0 0.049352038069647858 -0.1295439288512826 0 0.041700188437408421 -0.13409859591225329 0 0.042102756807481732 -0.1247829815156095 0 0.053245925046226952 -0.14076102386291889 0 0.040505841312838547 -0.14468304457988079 0 0.041700188437408421 -0.13409859591225329 0 0.055741541871671067 -0.19352675789948551 0 0.066780308608768796 -0.17493307235476979 0 0.048465077715394989 -0.16937254782668559 0 0.043838458457815248 -0.18986676967386279 0 0.055741541871671067 -0.19352675789948551 0 0.048465077715394989 -0.16937254782668559 0 0.066780308608768796 -0.17493307235476979 0 0.065413952892267702 -0.150678580858252 0 0.048465077715394989 -0.16937254782668559 0 0.065413952892267702 -0.150678580858252 0 0.048465077715394989 -0.16937254782668559 0 0.040505841312838547 -0.14468304457988079 0 0.048465077715394989 -0.16937254782668559 0 0.030230252537669321 -0.1566253376229266 0 0.048465077715394989 -0.16937254782668559 0 0.033338822752702377 -0.1705348433046637 0 0.030230252537669321 -0.1566253376229266 0 0.043838458457815248 -0.18986676967386279 0 0.031516202538524517 -0.1880665147951214 0 0.048465077715394989 -0.16937254782668559 0 0.031516202538524517 -0.1880665147951214 0 0.048465077715394989 -0.16937254782668559 0 0.031516202538524517 -0.1880665147951214 0 0.048465077715394989 -0.16937254782668559 0 0.033338822752702377 -0.1705348433046637 0 0.031516202538524517 -0.1880665147951214 0 0.033338822752702377 -0.1705348433046637 0 0.01995466376250531 -0.16856763066597699 0 0.031516202538524517 -0.1880665147951214 0 0.01995466376250531 -0.16856763066597699 0 0.031516202538524517 -0.1880665147951214 0 0.01995466376250531 -0.16856763066597699 0 0.0091962193441852118 -0.18107109871456811 0 0.01995466376250531 -0.16856763066597699 0 0.030230252537669321 -0.1566253376229266 0 0.008868239412810253 -0.14987004135808221 0 0.033338822752702377 -0.1705348433046637 0 0.01995466376250531 -0.16856763066597699 0 0.030230252537669321 -0.1566253376229266 0 0.01995466376250531 -0.16856763066597699 0 0.030230252537669321 -0.1566253376229266 0 -0.0025999653858941639 -0.16131422913783491 0 0.0067086063528142403 -0.16809244781376179 0 0.008868239412810253 -0.14987004135808221 0 0.01995466376250531 -0.16856763066597699 0 0.008868239412810253 -0.14987004135808221 0 0.01995466376250531 -0.16856763066597699 0 0.0067086063528142403 -0.16809244781376179 0 0.008868239412810253 -0.14987004135808221 0 -0.0084927016390539001 -0.17431231470194719 0 0.0067086063528142403 -0.16809244781376179 0 0.0091962193441852118 -0.18107109871456811 0 0.01995466376250531 -0.16856763066597699 0 0.0091962193441852118 -0.18107109871456811 0 0.01995466376250531 -0.16856763066597699 0 0.0067086063528142403 -0.16809244781376179 0 0.0091962193441852118 -0.18107109871456811 0 -0.0015622250741301779 -0.1935745667631632 0 0.0091962193441852118 -0.18107109871456811 0 0.041700188437408421 -0.13409859591225329 0 0.014197789575412951 -0.12328672932727321 0 0.031290738437872938 -0.1201921761368282 0 0.041700188437408421 -0.13409859591225329 0 0.024480650806643651 -0.1375151559245551 0 0.014197789575412951 -0.12328672932727321 0 0.041700188437408421 -0.13409859591225329 0 0.014197789575412951 -0.12328672932727321 0 0.024480650806643651 -0.1375151559245551 0 0.011332123714495041 -0.13546109466502479 0 0.014197789575412951 -0.12328672932727321 0 0.03393783807298914 -0.14093707321474161 0 0.030230252537669321 -0.1566253376229266 0 0.024480650806643651 -0.1375151559245551 0 0.030230252537669321 -0.1566253376229266 0 0.024480650806643651 -0.1375151559245551 0 0.008868239412810253 -0.14987004135808221 0 0.024480650806643651 -0.1375151559245551 0 0.008868239412810253 -0.14987004135808221 0 0.011332123714495041 -0.13546109466502479 0 -0.00221818493688669 -0.13117245205018849 0 -0.0031786103040098569 -0.14705450477373769 0 0.008868239412810253 -0.14987004135808221 0 -0.0031786103040098569 -0.14705450477373769 0 -0.0025999653858941639 -0.16131422913783491 0 0.008868239412810253 -0.14987004135808221 0 -0.00221818493688669 -0.13117245205018849 0 0.008868239412810253 -0.14987004135808221 0 -0.00221818493688669 -0.13117245205018849 0 0.011332123714495041 -0.13546109466502479 0 0.014197789575412951 -0.12328672932727321 0 -0.00221818493688669 -0.13117245205018849 0 0.008868239412810253 -0.14987004135808221 0 0.011332123714495041 -0.13546109466502479 0 -0.013304609286582791 -0.1124748627422944 0 0.014197789575412951 -0.12328672932727321 0 0.014197789575412951 -0.12328672932727321 0 0.020945276257035669 -0.1055296092587116 0 0.0046245275045138064 -0.1076828264142336 0 -0.013304609286582791 -0.1124748627422944 0 0.014197789575412951 -0.12328672932727321 0 0.0046245275045138064 -0.1076828264142336 0 0.014197789575412951 -0.12328672932727321 0 0.020945276257035669 -0.1055296092587116 0 0.031290738437872938 -0.1201921761368282 0 0.020945276257035669 -0.1055296092587116 0 0.031290738437872938 -0.1201921761368282 0 0.040241467446851142 -0.1026788937802551 0 0.020945276257035669 -0.1055296092587116 0 0.028115865357471449 -0.087896533900266943 0 0.040241467446851142 -0.1026788937802551 0 0.020945276257035669 -0.1055296092587116 0 0.0072012692200917657 -0.09144049599341271 0 0.028115865357471449 -0.087896533900266943 0 -0.0070294542012635762 -0.10327829347153671 0 0.0046245275045138064 -0.1076828264142336 0 0.0072012692200917657 -0.09144049599341271 0 0.020945276257035669 -0.1055296092587116 0 0.0046245275045138064 -0.1076828264142336 0 0.0072012692200917657 -0.09144049599341271 0 0.0072012692200917657 -0.09144049599341271 0 0.0054575408194632406 -0.073720759659108445 0 0.018511759797904249 -0.077210571545524964 0 -0.0056293594721457006 -0.082036805430144924 0 0.0072012692200917657 -0.09144049599341271 0 0.0054575408194632406 -0.073720759659108445 0 0.0054575408194632406 -0.073720759659108445 0 0.018354718881549058 -0.065167425818499949 0 0.003426744450576454 -0.054815297075420773 0 -0.0072319765520409062 -0.068818796064575097 0 0.0054575408194632406 -0.073720759659108445 0 0.003426744450576454 -0.054815297075420773 0 0.0054575408194632406 -0.073720759659108445 0 0.018354718881549058 -0.065167425818499949 0 0.018511759797904249 -0.077210571545524964 0 0.018511759797904249 -0.077210571545524964 0 0.028115865357471449 -0.087896533900266943 0 0.033429404710945708 -0.067827642356336801 0 0.018354718881549058 -0.065167425818499949 0 0.018511759797904249 -0.077210571545524964 0 0.033429404710945708 -0.067827642356336801 0 0.0072012692200917657 -0.09144049599341271 0 0.018511759797904249 -0.077210571545524964 0 0.028115865357471449 -0.087896533900266943 0 0.028115865357471449 -0.087896533900266943 0 0.044094628308957058 -0.087651847290754856 0 0.040241467446851142 -0.1026788937802551 0 0.028115865357471449 -0.087896533900266943 0 0.044094628308957058 -0.087651847290754856 0 0.033429404710945708 -0.067827642356336801 0 0.044094628308957058 -0.087651847290754856 0 0.033429404710945708 -0.067827642356336801 0 0.052580487019044733 -0.06457445167855122 0 0.052580487019044733 -0.06457445167855122 0 0.057640786708643768 -0.07951032993234286 0 0.068682665651441266 -0.069637891440837665 0 0.044094628308957058 -0.087651847290754856 0 0.052580487019044733 -0.06457445167855122 0 0.057640786708643768 -0.07951032993234286 0 0.044094628308957058 -0.087651847290754856 0 0.057640786708643768 -0.07951032993234286 0 0.064045145718632748 -0.088800152685812248 0 0.056223070490067702 -0.1049071233711502 0 0.048525659269531229 -0.11802361343548989 0 0.040241467446851142 -0.1026788937802551 0 0.044094628308957058 -0.087651847290754856 0 0.056223070490067702 -0.1049071233711502 0 0.064045145718632748 -0.088800152685812248 0 0.06118566078759103 -0.13005342953014129 0 0.056223070490067702 -0.1049071233711502 0 0.048525659269531229 -0.11802361343548989 0 0.048525659269531229 -0.11802361343548989 0 0.042102756807481732 -0.1247829815156095 0 0.031290738437872938 -0.1201921761368282 0 0.048525659269531229 -0.11802361343548989 0 0.031290738437872938 -0.1201921761368282 0 0.040241467446851142 -0.1026788937802551 0 0.049352038069647858 -0.1295439288512826 0 0.048525659269531229 -0.11802361343548989 0 0.042102756807481732 -0.1247829815156095 0 0.044094628308957058 -0.087651847290754856 0 0.056223070490067702 -0.1049071233711502 0 0.040241467446851142 -0.1026788937802551 0 0.020415517075116841 0.0076517724901667356 0 0.020207185183206099 -0.010785841930981459 0 0.039787151186370009 -0.0039594854922263374 0 0.020207185183206099 -0.010785841930981459 0 0.0047038114401232534 -0.001040937293712483 0 0.0026421611525163911 -0.019923693291100199 0 0.020415517075116841 0.0076517724901667356 0 0.020207185183206099 -0.010785841930981459 0 0.0047038114401232534 -0.001040937293712483 0 0.020207185183206099 -0.010785841930981459 0 0.0026421611525163911 -0.019923693291100199 0 0.018057611388834851 -0.030223969914345401 0 0.0026421611525163911 -0.019923693291100199 0 0.018057611388834851 -0.030223969914345401 0 0.001114662024295677 -0.034644724797188199 0 0.018057611388834851 -0.030223969914345401 0 0.03214982838215158 -0.036550164909951742 0 0.03396684481877061 -0.021771474300517551 0 0.020207185183206099 -0.010785841930981459 0 0.018057611388834851 -0.030223969914345401 0 0.03396684481877061 -0.021771474300517551 0 0.018057611388834851 -0.030223969914345401 0 0.010882918392325341 -0.043546784918672053 0 0.022583515379492949 -0.04946345385366932 0 0.018057611388834851 -0.030223969914345401 0 0.022583515379492949 -0.04946345385366932 0 0.03214982838215158 -0.036550164909951742 0 0.010882918392325341 -0.043546784918672053 0 0.001114662024295677 -0.034644724797188199 0 0.003426744450576454 -0.054815297075420773 0 0.018057611388834851 -0.030223969914345401 0 0.010882918392325341 -0.043546784918672053 0 0.001114662024295677 -0.034644724797188199 0 0.018354718881549058 -0.065167425818499949 0 0.003426744450576454 -0.054815297075420773 0 0.022583515379492949 -0.04946345385366932 0 0.010882918392325341 -0.043546784918672053 0 0.003426744450576454 -0.054815297075420773 0 0.022583515379492949 -0.04946345385366932 0 0.018354718881549058 -0.065167425818499949 0 0.033429404710945708 -0.067827642356336801 0 0.022583515379492949 -0.04946345385366932 0 0.033429404710945708 -0.067827642356336801 0 0.022583515379492949 -0.04946345385366932 0 0.040434423972952403 -0.049093231793294147 0 0.033429404710945708 -0.067827642356336801 0 0.052580487019044733 -0.06457445167855122 0 0.040434423972952403 -0.049093231793294147 0 0.052580487019044733 -0.06457445167855122 0 0.040434423972952403 -0.049093231793294147 0 0.05544232884238081 -0.044875881875575382 0 0.052580487019044733 -0.06457445167855122 0 0.05544232884238081 -0.044875881875575382 0 0.068339170937992105 -0.053424337060716878 0 0.040434423972952403 -0.049093231793294147 0 0.05544232884238081 -0.044875881875575382 0 0.045706746350707102 -0.032198694687932281 0 0.05544232884238081 -0.044875881875575382 0 0.045706746350707102 -0.032198694687932281 0 0.061157621829282929 -0.025231604425866621 0 0.040434423972952403 -0.049093231793294147 0 0.045706746350707102 -0.032198694687932281 0 0.03214982838215158 -0.036550164909951742 0 0.022583515379492949 -0.04946345385366932 0 0.040434423972952403 -0.049093231793294147 0 0.03214982838215158 -0.036550164909951742 0 0.045706746350707102 -0.032198694687932281 0 0.03214982838215158 -0.036550164909951742 0 0.03396684481877061 -0.021771474300517551 0 0.045706746350707102 -0.032198694687932281 0 0.03396684481877061 -0.021771474300517551 0 0.047710046720236987 -0.018368172826886429 0 0.061157621829282929 -0.025231604425866621 0 0.047710046720236987 -0.018368172826886429 0 0.057931869416054299 -0.0086796052278893948 0 0.045706746350707102 -0.032198694687932281 0 0.061157621829282929 -0.025231604425866621 0 0.047710046720236987 -0.018368172826886429 0 0.053306813386582982 0.0056008818424343951 0 0.057931869416054299 -0.0086796052278893948 0 0.039787151186370009 -0.0039594854922263374 0 0.047710046720236987 -0.018368172826886429 0 0.057931869416054299 -0.0086796052278893948 0 0.039787151186370009 -0.0039594854922263374 0 0.053306813386582982 0.0056008818424343951 0 0.065940651683257009 0.0024831850618150888 0 0.057931869416054299 -0.0086796052278893948 0 0.020207185183206099 -0.010785841930981459 0 0.03396684481877061 -0.021771474300517551 0 0.039787151186370009 -0.0039594854922263374 0 0.03396684481877061 -0.021771474300517551 0 0.047710046720236987 -0.018368172826886429 0 0.039787151186370009 -0.0039594854922263374 0 0.07992851590561921 0.0082161523869754144 0 0.085319843464057188 -0.007629982329875426 0 0.074177093133044117 -0.010507922444979889 0 0.07992851590561921 0.0082161523869754144 0 0.085319843464057188 -0.007629982329875426 0 0.09649789417263642 -0.0037639840011086311 0 0.093491186985964037 -0.01472799792969565 0 0.085319843464057188 -0.007629982329875426 0 0.09649789417263642 -0.0037639840011086311 0 0.093491186985964037 -0.01472799792969565 0 0.085319843464057188 -0.007629982329875426 0 0.083581835824733053 -0.016535058395947159 0 0.085319843464057188 -0.007629982329875426 0 0.074177093133044117 -0.010507922444979889 0 0.083581835824733053 -0.016535058395947159 0 0.061157621829282929 -0.025231604425866621 0 0.057931869416054299 -0.0086796052278893948 0 0.074177093133044117 -0.010507922444979889 0 0.065940651683257009 0.0024831850618150888 0 0.057931869416054299 -0.0086796052278893948 0 0.074177093133044117 -0.010507922444979889 0 0.061157621829282929 -0.025231604425866621 0 0.077044537184394621 -0.024954964190685061 0 0.071280738265345076 -0.03811759874850193 0 0.061157621829282929 -0.025231604425866621 0 0.074177093133044117 -0.010507922444979889 0 0.077044537184394621 -0.024954964190685061 0 0.077044537184394621 -0.024954964190685061 0 0.087876518356205288 -0.024854425084499782 0 0.083696735197635597 -0.035074751153617953 0 0.077044537184394621 -0.024954964190685061 0 0.083581835824733053 -0.016535058395947159 0 0.087876518356205288 -0.024854425084499782 0 0.074177093133044117 -0.010507922444979889 0 0.077044537184394621 -0.024954964190685061 0 0.083581835824733053 -0.016535058395947159 0 0.093491186985964037 -0.01472799792969565 0 0.083581835824733053 -0.016535058395947159 0 0.087876518356205288 -0.024854425084499782 0 0.093491186985964037 -0.01472799792969565 0 0.087876518356205288 -0.024854425084499782 0 0.096892307268332672 -0.02266252034611416 0 0.087876518356205288 -0.024854425084499782 0 0.093921030959280866 -0.033511072873054298 0 0.096892307268332672 -0.02266252034611416 0 0.087876518356205288 -0.024854425084499782 0 0.083696735197635597 -0.035074751153617953 0 0.093921030959280866 -0.033511072873054298 0 0.088828324516270887 -0.041348533459236683 0 0.095977453204919599 -0.050472192210401508 0 0.093921030959280866 -0.033511072873054298 0 0.088828324516270887 -0.041348533459236683 0 0.083696735197635597 -0.035074751153617953 0 0.093921030959280866 -0.033511072873054298 0 0.088828324516270887 -0.041348533459236683 0 0.081718078703247488 -0.046336117599872988 0 0.095977453204919599 -0.050472192210401508 0 0.088828324516270887 -0.041348533459236683 0 0.081718078703247488 -0.046336117599872988 0 0.083696735197635597 -0.035074751153617953 0 0.081718078703247488 -0.046336117599872988 0 0.083696735197635597 -0.035074751153617953 0 0.071280738265345076 -0.03811759874850193 0 0.05544232884238081 -0.044875881875575382 0 0.061157621829282929 -0.025231604425866621 0 0.071280738265345076 -0.03811759874850193 0 0.05544232884238081 -0.044875881875575382 0 0.071280738265345076 -0.03811759874850193 0 0.068339170937992105 -0.053424337060716878 0 0.077044537184394621 -0.024954964190685061 0 0.083696735197635597 -0.035074751153617953 0 0.071280738265345076 -0.03811759874850193 0 0.081718078703247488 -0.046336117599872988 0 0.071280738265345076 -0.03811759874850193 0 0.068339170937992105 -0.053424337060716878 0 0.081718078703247488 -0.046336117599872988 0 0.068339170937992105 -0.053424337060716878 0 0.079819511512682115 -0.059373961925762081 0 0.068339170937992105 -0.053424337060716878 0 0.079819511512682115 -0.059373961925762081 0 0.068682665651441266 -0.069637891440837665 0 0.079819511512682115 -0.059373961925762081 0 0.095977453204919599 -0.050472192210401508 0 0.084380189065810102 -0.076999271316981366 0 0.081718078703247488 -0.046336117599872988 0 0.079819511512682115 -0.059373961925762081 0 0.095977453204919599 -0.050472192210401508 0 0.095977453204919599 -0.050472192210401508 0 0.1084893608633546 -0.054995312108922077 0 0.1003826539890946 -0.069656067773248523 0 0.095977453204919599 -0.050472192210401508 0 0.1084893608633546 -0.054995312108922077 0 0.10497618281608501 -0.042163163930312997 0 0.1084893608633546 -0.054995312108922077 0 0.12021542192502691 -0.05736310542253667 0 0.11225492598618329 -0.067700646346746801 0 0.12021542192502691 -0.05736310542253667 0 0.1181844865236701 -0.045884275653046647 0 0.1350650896680477 -0.050994701792827862 0 0.1084893608633546 -0.054995312108922077 0 0.12021542192502691 -0.05736310542253667 0 0.1181844865236701 -0.045884275653046647 0 0.1084893608633546 -0.054995312108922077 0 0.1181844865236701 -0.045884275653046647 0 0.10497618281608501 -0.042163163930312997 0 0.1181844865236701 -0.045884275653046647 0 0.1169603374125384 -0.034526050343312617 0 0.10497618281608501 -0.042163163930312997 0 0.10497618281608501 -0.042163163930312997 0 0.1139069069496291 -0.021464697665753471 0 0.1169603374125384 -0.034526050343312617 0 0.10497618281608501 -0.042163163930312997 0 0.1139069069496291 -0.021464697665753471 0 0.1181844865236701 -0.045884275653046647 0 0.1169603374125384 -0.034526050343312617 0 0.1283586559847627 -0.040725310836502493 0 0.095977453204919599 -0.050472192210401508 0 0.10497618281608501 -0.042163163930312997 0 0.1075747173440291 -0.023945113103821601 0 0.095977453204919599 -0.050472192210401508 0 0.093921030959280866 -0.033511072873054298 0 0.1075747173440291 -0.023945113103821601 0 0.095977453204919599 -0.050472192210401508 0 0.1075747173440291 -0.023945113103821601 0 0.10497618281608501 -0.042163163930312997 0 0.1075747173440291 -0.023945113103821601 0 0.1139069069496291 -0.021464697665753471 0 0.093921030959280866 -0.033511072873054298 0 0.096892307268332672 -0.02266252034611416 0 0.1075747173440291 -0.023945113103821601 0 0.093491186985964037 -0.01472799792969565 0 0.096892307268332672 -0.02266252034611416 0 0.10169828607787421 -0.015923098960230999 0 0.096892307268332672 -0.02266252034611416 0 0.10169828607787421 -0.015923098960230999 0 0.1075747173440291 -0.023945113103821601 0 0.10169828607787421 -0.015923098960230999 0 0.1075747173440291 -0.023945113103821601 0 0.1082483433893755 -0.0084409933366877514 0 0.1169603374125384 -0.034526050343312617 0 0.1213672368215104 -0.025634276355807499 0 0.12969235634276979 -0.031284000123743903 0 0.1169603374125384 -0.034526050343312617 0 0.1213672368215104 -0.025634276355807499 0 0.1139069069496291 -0.021464697665753471 0 0.1213672368215104 -0.025634276355807499 0 0.1139069069496291 -0.021464697665753471 0 0.12490934658110441 -0.01526235729042 0 0.11917198148314 0.002581966002757949 0 0.1075747173440291 -0.023945113103821601 0 0.1139069069496291 -0.021464697665753471 0 0.11917198148314 0.002581966002757949 0 0.1139069069496291 -0.021464697665753471 0 0.1228376310831711 -0.00076623140119310329 0 0.11917198148314 0.002581966002757949 0 0.1075747173440291 -0.023945113103821601 0 0.1082483433893755 -0.0084409933366877514 0 0.1139069069496291 -0.021464697665753471 0 0.12490934658110441 -0.01526235729042 0 0.1228376310831711 -0.00076623140119310329 0 0.1139069069496291 -0.021464697665753471 0 0.1228376310831711 -0.00076623140119310329 0 0.11917198148314 0.002581966002757949 0 0.1075747173440291 -0.023945113103821601 0 0.11917198148314 0.002581966002757949 0 0.1105415625726717 -0.0014271332550589229 0 0.1082483433893755 -0.0084409933366877514 0 0.1078625722471533 0.0022823866337398822 0 0.1105415625726717 -0.0014271332550589229 0 0.1039166904039584 -0.0028966343462391718 0 0.1039166904039584 -0.0028966343462391718 0 0.1082483433893755 -0.0084409933366877514 0 0.10154047648190589 -0.00941290969201335 0 0.1105415625726717 -0.0014271332550589229 0 0.1039166904039584 -0.0028966343462391718 0 0.1082483433893755 -0.0084409933366877514 0 0.10169828607787421 -0.015923098960230999 0 0.1082483433893755 -0.0084409933366877514 0 0.10154047648190589 -0.00941290969201335 0 0.093491186985964037 -0.01472799792969565 0 0.10154047648190589 -0.00941290969201335 0 0.09649789417263642 -0.0037639840011086311 0 0.093491186985964037 -0.01472799792969565 0 0.10169828607787421 -0.015923098960230999 0 0.10154047648190589 -0.00941290969201335 0 0.1039166904039584 -0.0028966343462391718 0 0.10154047648190589 -0.00941290969201335 0 0.09649789417263642 -0.0037639840011086311 0 0.088046088292129038 -0.10430519341125349 0 0.072782924926700548 -0.1035263504235614 0 0.088717560391344957 -0.092993146067331611 0 0.088046088292129038 -0.10430519341125349 0 0.080670658246847674 -0.112136361820053 0 0.072782924926700548 -0.1035263504235614 0 0.088046088292129038 -0.10430519341125349 0 0.088717560391344957 -0.092993146067331611 0 0.100171096126226 -0.096028489315426471 0 0.088046088292129038 -0.10430519341125349 0 0.089116900718008318 -0.11226838151764811 0 0.096817389343646892 -0.1088784313235004 0 0.088046088292129038 -0.10430519341125349 0 0.089116900718008318 -0.11226838151764811 0 0.080670658246847674 -0.112136361820053 0 0.089116900718008318 -0.11226838151764811 0 0.082844213492092533 -0.1195429602861619 0 0.095577299328253623 -0.1174095529111252 0 0.082362828069140165 -0.1319846138898183 0 0.082844213492092533 -0.1195429602861619 0 0.095577299328253623 -0.1174095529111252 0 0.082362828069140165 -0.1319846138898183 0 0.095577299328253623 -0.1174095529111252 0 0.082362828069140165 -0.1319846138898183 0 0.082844213492092533 -0.1195429602861619 0 0.069837722907261313 -0.1199532536492431 0 0.089116900718008318 -0.11226838151764811 0 0.082844213492092533 -0.1195429602861619 0 0.080670658246847674 -0.112136361820053 0 0.080670658246847674 -0.112136361820053 0 0.069837722907261313 -0.1199532536492431 0 0.072782924926700548 -0.1035263504235614 0 0.06118566078759103 -0.13005342953014129 0 0.072782924926700548 -0.1035263504235614 0 0.06118566078759103 -0.13005342953014129 0 0.069837722907261313 -0.1199532536492431 0 0.072782924926700548 -0.1035263504235614 0 0.06118566078759103 -0.13005342953014129 0 0.056223070490067702 -0.1049071233711502 0 0.072782924926700548 -0.1035263504235614 0 0.082844213492092533 -0.1195429602861619 0 0.080670658246847674 -0.112136361820053 0 0.069837722907261313 -0.1199532536492431 0 0.056223070490067702 -0.1049071233711502 0 0.072782924926700548 -0.1035263504235614 0 0.064045145718632748 -0.088800152685812248 0 0.057640786708643768 -0.07951032993234286 0 0.064045145718632748 -0.088800152685812248 0 0.068682665651441266 -0.069637891440837665 0 0.064045145718632748 -0.088800152685812248 0 0.068682665651441266 -0.069637891440837665 0 0.084380189065810102 -0.076999271316981366 0 0.072782924926700548 -0.1035263504235614 0 0.064045145718632748 -0.088800152685812248 0 0.084380189065810102 -0.076999271316981366 0 0.052580487019044733 -0.06457445167855122 0 0.068339170937992105 -0.053424337060716878 0 0.068682665651441266 -0.069637891440837665 0 0.079819511512682115 -0.059373961925762081 0 0.068682665651441266 -0.069637891440837665 0 0.084380189065810102 -0.076999271316981366 0 0.095977453204919599 -0.050472192210401508 0 0.084380189065810102 -0.076999271316981366 0 0.1003826539890946 -0.069656067773248523 0 0.095977453204919599 -0.050472192210401508 0 0.084380189065810102 -0.076999271316981366 0 0.084380189065810102 -0.076999271316981366 0 0.095693843046354268 -0.0841642264331387 0 0.1003826539890946 -0.069656067773248523 0 0.072782924926700548 -0.1035263504235614 0 0.084380189065810102 -0.076999271316981366 0 0.072782924926700548 -0.1035263504235614 0 0.084380189065810102 -0.076999271316981366 0 0.088717560391344957 -0.092993146067331611 0 0.084380189065810102 -0.076999271316981366 0 0.088717560391344957 -0.092993146067331611 0 0.095693843046354268 -0.0841642264331387 0 0.088717560391344957 -0.092993146067331611 0 0.095693843046354268 -0.0841642264331387 0 0.100171096126226 -0.096028489315426471 0 0.095693843046354268 -0.0841642264331387 0 0.1061825878765964 -0.082065358753895937 0 0.100171096126226 -0.096028489315426471 0 0.095693843046354268 -0.0841642264331387 0 0.1061825878765964 -0.082065358753895937 0 0.1003826539890946 -0.069656067773248523 0 0.1061825878765964 -0.082065358753895937 0 0.1152940355071756 -0.093458773729521216 0 0.100171096126226 -0.096028489315426471 0 0.1061825878765964 -0.082065358753895937 0 0.1003826539890946 -0.069656067773248523 0 0.11225492598618329 -0.067700646346746801 0 0.1084893608633546 -0.054995312108922077 0 0.1003826539890946 -0.069656067773248523 0 0.11225492598618329 -0.067700646346746801 0 0.1061825878765964 -0.082065358753895937 0 0.11225492598618329 -0.067700646346746801 0 0.1171317857577618 -0.078667044940758796 0 0.1171317857577618 -0.078667044940758796 0 0.12857779857738699 -0.078718698725873171 0 0.12708324658387871 -0.067240591211139955 0 0.11225492598618329 -0.067700646346746801 0 0.1171317857577618 -0.078667044940758796 0 0.12708324658387871 -0.067240591211139955 0 0.12021542192502691 -0.05736310542253667 0 0.11225492598618329 -0.067700646346746801 0 0.12708324658387871 -0.067240591211139955 0 0.1061825878765964 -0.082065358753895937 0 0.1152940355071756 -0.093458773729521216 0 0.1171317857577618 -0.078667044940758796 0 0.1171317857577618 -0.078667044940758796 0 0.1286838548293292 -0.09135300801218077 0 0.12857779857738699 -0.078718698725873171 0 0.1152940355071756 -0.093458773729521216 0 0.1171317857577618 -0.078667044940758796 0 0.1286838548293292 -0.09135300801218077 0 0.1152940355071756 -0.093458773729521216 0 0.1230450488982011 -0.098166020395255585 0 0.1286838548293292 -0.09135300801218077 0 0.1152940355071756 -0.093458773729521216 0 0.1230450488982011 -0.098166020395255585 0 0.1196469902177196 -0.1061558951397697 0 0.1230450488982011 -0.098166020395255585 0 0.1196469902177196 -0.1061558951397697 0 0.12917406780106669 -0.1036793655145172 0 0.1196469902177196 -0.1061558951397697 0 0.1094725419179296 -0.1044020385603272 0 0.1154331983948798 -0.1174886032934183 0 0.1152940355071756 -0.093458773729521216 0 0.1196469902177196 -0.1061558951397697 0 0.1094725419179296 -0.1044020385603272 0 0.1152940355071756 -0.093458773729521216 0 0.1094725419179296 -0.1044020385603272 0 0.100171096126226 -0.096028489315426471 0 0.1094725419179296 -0.1044020385603272 0 0.096817389343646892 -0.1088784313235004 0 0.100171096126226 -0.096028489315426471 0 0.088046088292129038 -0.10430519341125349 0 0.096817389343646892 -0.1088784313235004 0 0.100171096126226 -0.096028489315426471 0 0.096817389343646892 -0.1088784313235004 0 0.1051359327507693 -0.1227177542784853 0 0.1154331983948798 -0.1174886032934183 0 0.096817389343646892 -0.1088784313235004 0 0.1154331983948798 -0.1174886032934183 0 0.1005807427949069 -0.13366374688330029 0 0.095577299328253623 -0.1174095529111252 0 0.1051359327507693 -0.1227177542784853 0 0.1094725419179296 -0.1044020385603272 0 0.096817389343646892 -0.1088784313235004 0 0.1154331983948798 -0.1174886032934183 0 0.089116900718008318 -0.11226838151764811 0 0.096817389343646892 -0.1088784313235004 0 0.095577299328253623 -0.1174095529111252 0 0.096817389343646892 -0.1088784313235004 0 0.095577299328253623 -0.1174095529111252 0 0.1051359327507693 -0.1227177542784853 0 0.1154331983948798 -0.1174886032934183 0 0.13404900744611239 -0.12609877526333699 0 0.1196469902177196 -0.1061558951397697 0 0.1154331983948798 -0.1174886032934183 0 0.12686113813069899 -0.1114359576666621 0 0.1154331983948798 -0.1174886032934183 0 0.12686113813069899 -0.1114359576666621 0 0.13390982127973511 -0.11942472678041111 0 0.1154331983948798 -0.1174886032934183 0 0.13390982127973511 -0.11942472678041111 0 0.13404900744611239 -0.12609877526333699 0 0.12686113813069899 -0.1114359576666621 0 0.13614161296009411 -0.11043119760519431 0 0.13390982127973511 -0.11942472678041111 0 0.13614161296009411 -0.11043119760519431 0 0.14023431030656019 -0.11642081500581559 0 0.13390982127973511 -0.11942472678041111 0 0.13614161296009411 -0.11043119760519431 0 0.14023431030656019 -0.11642081500581559 0 0.14347338005148061 -0.1082488085161593 0 0.13773130733042549 -0.12113088311922759 0 0.1427320902892944 -0.12257921542734659 0 0.13404900744611239 -0.12609877526333699 0 0.13390982127973511 -0.11942472678041111 0 0.13773130733042549 -0.12113088311922759 0 0.13404900744611239 -0.12609877526333699 0 0.13390982127973511 -0.11942472678041111 0 0.13404900744611239 -0.12609877526333699 0 0.14023431030656019 -0.11642081500581559 0 0.13773130733042549 -0.12113088311922759 0 0.1427320902892944 -0.12257921542734659 0 0.14023431030656019 -0.11642081500581559 0 0.13390982127973511 -0.11942472678041111 0 0.13773130733042549 -0.12113088311922759 0 0.1427320902892944 -0.12257921542734659 0 0.15192118682329561 -0.12273271218809589 0 0.1490682445489844 -0.1279194233146575 0 0.1427320902892944 -0.12257921542734659 0 0.1474293378639818 -0.11515719203513899 0 0.15192118682329561 -0.12273271218809589 0 0.14023431030656019 -0.11642081500581559 0 0.1427320902892944 -0.12257921542734659 0 0.1474293378639818 -0.11515719203513899 0 0.1474293378639818 -0.11515719203513899 0 0.15201290161170181 -0.107226104105896 0 0.14347338005148061 -0.1082488085161593 0 0.14023431030656019 -0.11642081500581559 0 0.1474293378639818 -0.11515719203513899 0 0.14347338005148061 -0.1082488085161593 0 0.1474293378639818 -0.11515719203513899 0 0.15419764536576119 -0.1149677746217292 0 0.15201290161170181 -0.107226104105896 0 0.15419764536576119 -0.1149677746217292 0 0.15201290161170181 -0.107226104105896 0 0.1590985184781393 -0.1107939778183322 0 0.15419764536576119 -0.1149677746217292 0 0.15192118682329561 -0.12273271218809589 0 0.1605262820516872 -0.11892888696118289 0 0.1474293378639818 -0.11515719203513899 0 0.15419764536576119 -0.1149677746217292 0 0.15192118682329561 -0.12273271218809589 0 0.153855148049276 -0.097460838801678593 0 0.15201290161170181 -0.107226104105896 0 0.1462355681673109 -0.099255024001954253 0 0.153855148049276 -0.097460838801678593 0 0.1462355681673109 -0.099255024001954253 0 0.1490737095502995 -0.088653392770718792 0 0.153855148049276 -0.097460838801678593 0 0.15201290161170181 -0.107226104105896 0 0.16008969536972259 -0.10263897543636979 0 0.14347338005148061 -0.1082488085161593 0 0.1462355681673109 -0.099255024001954253 0 0.13800617896953651 -0.1013117005447786 0 0.15201290161170181 -0.107226104105896 0 0.14347338005148061 -0.1082488085161593 0 0.1462355681673109 -0.099255024001954253 0 0.1462355681673109 -0.099255024001954253 0 0.13800617896953651 -0.1013117005447786 0 0.14099209077157121 -0.092629299272494275 0 0.13800617896953651 -0.1013117005447786 0 0.1286838548293292 -0.09135300801218077 0 0.14099209077157121 -0.092629299272494275 0 0.13614161296009411 -0.11043119760519431 0 0.13800617896953651 -0.1013117005447786 0 0.12917406780106669 -0.1036793655145172 0 0.13614161296009411 -0.11043119760519431 0 0.14347338005148061 -0.1082488085161593 0 0.13800617896953651 -0.1013117005447786 0 0.1196469902177196 -0.1061558951397697 0 0.12686113813069899 -0.1114359576666621 0 0.12917406780106669 -0.1036793655145172 0 0.12686113813069899 -0.1114359576666621 0 0.13614161296009411 -0.11043119760519431 0 0.12917406780106669 -0.1036793655145172 0 0.1230450488982011 -0.098166020395255585 0 0.12917406780106669 -0.1036793655145172 0 0.1286838548293292 -0.09135300801218077 0 0.13800617896953651 -0.1013117005447786 0 0.12917406780106669 -0.1036793655145172 0 0.1286838548293292 -0.09135300801218077 0 0.1286838548293292 -0.09135300801218077 0 0.12857779857738699 -0.078718698725873171 0 0.13748132505412469 -0.08396770010957226 0 0.13748132505412469 -0.08396770010957226 0 0.1367334774756912 -0.073531819827653083 0 0.14538989296775451 -0.078880163337803719 0 0.12857779857738699 -0.078718698725873171 0 0.13748132505412469 -0.08396770010957226 0 0.1367334774756912 -0.073531819827653083 0 0.1286838548293292 -0.09135300801218077 0 0.13748132505412469 -0.08396770010957226 0 0.14099209077157121 -0.092629299272494275 0 0.12857779857738699 -0.078718698725873171 0 0.12708324658387871 -0.067240591211139955 0 0.1367334774756912 -0.073531819827653083 0 0.12708324658387871 -0.067240591211139955 0 0.1367334774756912 -0.073531819827653083 0 0.14110971147140131 -0.064913967020147179 0 0.1367334774756912 -0.073531819827653083 0 0.14110971147140131 -0.064913967020147179 0 0.14964674351361701 -0.070099729323911744 0 0.14110971147140131 -0.064913967020147179 0 0.14964674351361701 -0.070099729323911744 0 0.15194569281242609 -0.056105127932606663 0 0.1367334774756912 -0.073531819827653083 0 0.14964674351361701 -0.070099729323911744 0 0.14538989296775451 -0.078880163337803719 0 0.14964674351361701 -0.070099729323911744 0 0.14538989296775451 -0.078880163337803719 0 0.15822082836811369 -0.079982126599630443 0 0.14964674351361701 -0.070099729323911744 0 0.15822082836811369 -0.079982126599630443 0 0.1603896916223197 -0.069044426588861466 0 0.14964674351361701 -0.070099729323911744 0 0.1603896916223197 -0.069044426588861466 0 0.15194569281242609 -0.056105127932606663 0 0.13748132505412469 -0.08396770010957226 0 0.14099209077157121 -0.092629299272494275 0 0.1490737095502995 -0.088653392770718792 0 0.1462355681673109 -0.099255024001954253 0 0.14099209077157121 -0.092629299272494275 0 0.1490737095502995 -0.088653392770718792 0 0.13748132505412469 -0.08396770010957226 0 0.14538989296775451 -0.078880163337803719 0 0.1490737095502995 -0.088653392770718792 0 0.14538989296775451 -0.078880163337803719 0 0.1490737095502995 -0.088653392770718792 0 0.15822082836811369 -0.079982126599630443 0 0.153855148049276 -0.097460838801678593 0 0.1490737095502995 -0.088653392770718792 0 0.1594354292934542 -0.091737259282716963 0 0.1490737095502995 -0.088653392770718792 0 0.1594354292934542 -0.091737259282716963 0 0.15822082836811369 -0.079982126599630443 0 0.1594354292934542 -0.091737259282716963 0 0.15822082836811369 -0.079982126599630443 0 0.1684140015429216 -0.087293140772549349 0 0.15822082836811369 -0.079982126599630443 0 0.1684140015429216 -0.087293140772549349 0 0.1694423915093585 -0.075846288749261012 0 0.1684140015429216 -0.087293140772549349 0 0.1776016981043757 -0.094466756631608209 0 0.16825903644140999 -0.098606158866582916 0 0.1594354292934542 -0.091737259282716963 0 0.1684140015429216 -0.087293140772549349 0 0.16825903644140999 -0.098606158866582916 0 0.15822082836811369 -0.079982126599630443 0 0.1603896916223197 -0.069044426588861466 0 0.1694423915093585 -0.075846288749261012 0 0.1603896916223197 -0.069044426588861466 0 0.1694423915093585 -0.075846288749261012 0 0.17187576892014289 -0.062138750134232333 0 0.17971720707086189 -0.073145871694163048 0 0.17187576892014289 -0.062138750134232333 0 0.19180584502786041 -0.068172372335855602 0 0.17187576892014289 -0.062138750134232333 0 0.19180584502786041 -0.068172372335855602 0 0.1694423915093585 -0.075846288749261012 0 0.17971720707086189 -0.073145871694163048 0 0.17187576892014289 -0.062138750134232333 0 0.1694423915093585 -0.075846288749261012 0 0.17971720707086189 -0.073145871694163048 0 0.17803685153179119 -0.083473416706129469 0 0.17971720707086189 -0.073145871694163048 0 0.18645595400882431 -0.078186102724248294 0 0.19180584502786041 -0.068172372335855602 0 0.1684140015429216 -0.087293140772549349 0 0.17803685153179119 -0.083473416706129469 0 0.1776016981043757 -0.094466756631608209 0 0.1684140015429216 -0.087293140772549349 0 0.1694423915093585 -0.075846288749261012 0 0.17803685153179119 -0.083473416706129469 0 0.17803685153179119 -0.083473416706129469 0 0.18645595400882431 -0.078186102724248294 0 0.18748362772352481 -0.090285751384613616 0 0.17971720707086189 -0.073145871694163048 0 0.17803685153179119 -0.083473416706129469 0 0.18645595400882431 -0.078186102724248294 0 0.17803685153179119 -0.083473416706129469 0 0.18748362772352481 -0.090285751384613616 0 0.1776016981043757 -0.094466756631608209 0 0.1776016981043757 -0.094466756631608209 0 0.1757785255420414 -0.1036637588673371 0 0.18737718651252391 -0.1018645954104864 0 0.18748362772352481 -0.090285751384613616 0 0.1776016981043757 -0.094466756631608209 0 0.18737718651252391 -0.1018645954104864 0 0.1776016981043757 -0.094466756631608209 0 0.1757785255420414 -0.1036637588673371 0 0.16825903644140999 -0.098606158866582916 0 0.1757785255420414 -0.1036637588673371 0 0.17797479248166551 -0.1125427820454727 0 0.16787713834435419 -0.11000951374301229 0 0.1757785255420414 -0.1036637588673371 0 0.18737718651252391 -0.1018645954104864 0 0.17797479248166551 -0.1125427820454727 0 0.18737718651252391 -0.1018645954104864 0 0.18701697985041221 -0.11880972375357141 0 0.17797479248166551 -0.1125427820454727 0 0.18701697985041221 -0.11880972375357141 0 0.173543926957343 -0.1211375462363173 0 0.17990838590865871 -0.12844737664361131 0 0.18701697985041221 -0.11880972375357141 0 0.173543926957343 -0.1211375462363173 0 0.17797479248166551 -0.1125427820454727 0 0.173543926957343 -0.1211375462363173 0 0.17797479248166551 -0.1125427820454727 0 0.16787713834435419 -0.11000951374301229 0 0.173543926957343 -0.1211375462363173 0 0.16787713834435419 -0.11000951374301229 0 0.1605262820516872 -0.11892888696118289 0 0.173543926957343 -0.1211375462363173 0 0.1605262820516872 -0.11892888696118289 0 0.1641162962428066 -0.126449221113482 0 0.15192118682329561 -0.12273271218809589 0 0.1605262820516872 -0.11892888696118289 0 0.1587247560068413 -0.12564209046719049 0 0.1605262820516872 -0.11892888696118289 0 0.1587247560068413 -0.12564209046719049 0 0.1641162962428066 -0.126449221113482 0 0.15419764536576119 -0.1149677746217292 0 0.1605262820516872 -0.11892888696118289 0 0.1590985184781393 -0.1107939778183322 0 0.16787713834435419 -0.11000951374301229 0 0.1605262820516872 -0.11892888696118289 0 0.1590985184781393 -0.1107939778183322 0 0.15201290161170181 -0.107226104105896 0 0.1590985184781393 -0.1107939778183322 0 0.16008969536972259 -0.10263897543636979 0 0.16787713834435419 -0.11000951374301229 0 0.1590985184781393 -0.1107939778183322 0 0.16008969536972259 -0.10263897543636979 0 0.1594354292934542 -0.091737259282716963 0 0.16008969536972259 -0.10263897543636979 0 0.16825903644140999 -0.098606158866582916 0 0.153855148049276 -0.097460838801678593 0 0.1594354292934542 -0.091737259282716963 0 0.16008969536972259 -0.10263897543636979 0 0.1757785255420414 -0.1036637588673371 0 0.16787713834435419 -0.11000951374301229 0 0.16825903644140999 -0.098606158866582916 0 0.16787713834435419 -0.11000951374301229 0 0.16008969536972259 -0.10263897543636979 0 0.16825903644140999 -0.098606158866582916 0 0.1552076984021574 -0.0047487866015848753 0 0.1380919344669613 -0.01469948322874493 0 0.1606476670511833 -0.017066892083396779 0 0.14127976741107601 0.00215554095495248 0 0.1552076984021574 -0.0047487866015848753 0 0.1380919344669613 -0.01469948322874493 0 0.14127976741107601 0.00215554095495248 0 0.1228376310831711 -0.00076623140119310329 0 0.1380919344669613 -0.01469948322874493 0 0.1228376310831711 -0.00076623140119310329 0 0.1380919344669613 -0.01469948322874493 0 0.12490934658110441 -0.01526235729042 0 0.1228376310831711 -0.00076623140119310329 0 0.1380919344669613 -0.01469948322874493 0 0.1380919344669613 -0.01469948322874493 0 0.1415761600091012 -0.038003691908970592 0 0.12969235634276979 -0.031284000123743903 0 0.1213672368215104 -0.025634276355807499 0 0.12490934658110441 -0.01526235729042 0 0.12969235634276979 -0.031284000123743903 0 0.12490934658110441 -0.01526235729042 0 0.1380919344669613 -0.01469948322874493 0 0.12969235634276979 -0.031284000123743903 0 0.1380919344669613 -0.01469948322874493 0 0.15334623785075199 -0.02863273505629621 0 0.1415761600091012 -0.038003691908970592 0 0.1380919344669613 -0.01469948322874493 0 0.15334623785075199 -0.02863273505629621 0 0.1606476670511833 -0.017066892083396779 0 0.1380919344669613 -0.01469948322874493 0 0.15334623785075199 -0.02863273505629621 0 0.15437572795414581 -0.042117567211766717 0 0.1415761600091012 -0.038003691908970592 0 0.15194569281242609 -0.056105127932606663 0 0.15334623785075199 -0.02863273505629621 0 0.15437572795414581 -0.042117567211766717 0 0.1415761600091012 -0.038003691908970592 0 0.1181844865236701 -0.045884275653046647 0 0.1283586559847627 -0.040725310836502493 0 0.1350650896680477 -0.050994701792827862 0 0.1415761600091012 -0.038003691908970592 0 0.12969235634276979 -0.031284000123743903 0 0.1283586559847627 -0.040725310836502493 0 0.1169603374125384 -0.034526050343312617 0 0.12969235634276979 -0.031284000123743903 0 0.1283586559847627 -0.040725310836502493 0 0.1415761600091012 -0.038003691908970592 0 0.1283586559847627 -0.040725310836502493 0 0.1350650896680477 -0.050994701792827862 0 0.1181844865236701 -0.045884275653046647 0 0.1350650896680477 -0.050994701792827862 0 0.12021542192502691 -0.05736310542253667 0 0.12708324658387871 -0.067240591211139955 0 0.1350650896680477 -0.050994701792827862 0 0.12708324658387871 -0.067240591211139955 0 0.14110971147140131 -0.064913967020147179 0 0.1350650896680477 -0.050994701792827862 0 0.14110971147140131 -0.064913967020147179 0 0.15194569281242609 -0.056105127932606663 0 0.1415761600091012 -0.038003691908970592 0 0.1350650896680477 -0.050994701792827862 0 0.15194569281242609 -0.056105127932606663 0 0.1350650896680477 -0.050994701792827862 0 0.15194569281242609 -0.056105127932606663 0 0.14110971147140131 -0.064913967020147179 0 0.1350650896680477 -0.050994701792827862 0 0.15194569281242609 -0.056105127932606663 0 0.15194569281242609 -0.056105127932606663 0 0.16860054123454279 -0.042565986883847551 0 0.15437572795414581 -0.042117567211766717 0 0.15194569281242609 -0.056105127932606663 0 0.16860054123454279 -0.042565986883847551 0 0.1603896916223197 -0.069044426588861466 0 0.15194569281242609 -0.056105127932606663 0 0.17187576892014289 -0.062138750134232333 0 0.15194569281242609 -0.056105127932606663 0 0.165016394264413 -0.053661354003145263 0 0.17187576892014289 -0.062138750134232333 0 0.15194569281242609 -0.056105127932606663 0 0.165016394264413 -0.053661354003145263 0 0.16860054123454279 -0.042565986883847551 0 0.15194569281242609 -0.056105127932606663 0 0.17187576892014289 -0.062138750134232333 0 0.165016394264413 -0.053661354003145263 0 0.17187576892014289 -0.062138750134232333 0 0.18345715790010181 -0.056135992415964377 0 0.165016394264413 -0.053661354003145263 0 0.18345715790010181 -0.056135992415964377 0 0.16860054123454279 -0.042565986883847551 0 0.17187576892014289 -0.062138750134232333 0 0.18345715790010181 -0.056135992415964377 0 0.19180584502786041 -0.068172372335855602 0 0.18345715790010181 -0.056135992415964377 0 0.17385144243116649 -0.043269821226828903 0 0.18595588634396351 -0.043176695624854357 0 0.18345715790010181 -0.056135992415964377 0 0.17385144243116649 -0.043269821226828903 0 0.16860054123454279 -0.042565986883847551 0 0.18345715790010181 -0.056135992415964377 0 0.16860054123454279 -0.042565986883847551 0 0.18595588634396351 -0.043176695624854357 0 0.1782733089797521 -0.034702753096601993 0 0.1941468740000297 -0.021798736782002521 0 0.17385144243116649 -0.043269821226828903 0 0.18595588634396351 -0.043176695624854357 0 0.1782733089797521 -0.034702753096601993 0 0.17385144243116649 -0.043269821226828903 0 0.1782733089797521 -0.034702753096601993 0 0.16860054123454279 -0.042565986883847551 0 0.1782733089797521 -0.034702753096601993 0 0.16860054123454279 -0.042565986883847551 0 0.17385144243116649 -0.043269821226828903 0 0.1782733089797521 -0.034702753096601993 0 0.1782733089797521 -0.034702753096601993 0 0.16860054123454279 -0.042565986883847551 0 0.1670526359884773 -0.02836254214418232 0 0.15334623785075199 -0.02863273505629621 0 0.16860054123454279 -0.042565986883847551 0 0.1670526359884773 -0.02836254214418232 0 0.15334623785075199 -0.02863273505629621 0 0.15437572795414581 -0.042117567211766717 0 0.16860054123454279 -0.042565986883847551 0 0.15334623785075199 -0.02863273505629621 0 0.16860054123454279 -0.042565986883847551 0 0.15334623785075199 -0.02863273505629621 0 0.1606476670511833 -0.017066892083396779 0 0.1670526359884773 -0.02836254214418232 0 0.1606476670511833 -0.017066892083396779 0 0.1670526359884773 -0.02836254214418232 0 0.1743954248261565 -0.018844343600769399 0 0.1782733089797521 -0.034702753096601993 0 0.1743954248261565 -0.018844343600769399 0 0.1918659379284415 -0.0083679514935210662 0 0.1782733089797521 -0.034702753096601993 0 0.1670526359884773 -0.02836254214418232 0 0.1743954248261565 -0.018844343600769399 0 0.1782733089797521 -0.034702753096601993 0 0.1918659379284415 -0.0083679514935210662 0 0.1782733089797521 -0.034702753096601993 0 0.1941468740000297 -0.021798736782002521 0 0.1743954248261565 -0.018844343600769399 0 0.17983697574181159 -0.0080573062328258595 0 0.1918659379284415 -0.0083679514935210662 0 0.1743954248261565 -0.018844343600769399 0 0.17983697574181159 -0.0080573062328258595 0 0.17056947168728639 -0.0076341498549102596 0 0.17983697574181159 -0.0080573062328258595 0 0.18580903226614379 -0.0011502469314075439 0 0.17786282304025339 -0.001583287003114023 0 0.17983697574181159 -0.0080573062328258595 0 0.18580903226614379 -0.0011502469314075439 0 0.1918659379284415 -0.0083679514935210662 0 0.17983697574181159 -0.0080573062328258595 0 0.17786282304025339 -0.001583287003114023 0 0.17056947168728639 -0.0076341498549102596 0 0.17227434920368959 0.00081991249798677823 0 0.17786282304025339 -0.001583287003114023 0 0.17056947168728639 -0.0076341498549102596 0 0.17227434920368959 0.00081991249798677823 0 0.16550177429739321 0.001625335581948511 0 0.17056947168728639 -0.0076341498549102596 0 0.1606476670511833 -0.017066892083396779 0 0.1743954248261565 -0.018844343600769399 0 0.17056947168728639 -0.0076341498549102596 0 0.1552076984021574 -0.0047487866015848753 0 0.1606476670511833 -0.017066892083396779 0 0.17056947168728639 -0.0076341498549102596 0 0.15830422717032419 0.0026668804518291322 0 0.16550177429739321 0.001625335581948511 0 0.1552076984021574 -0.0047487866015848753 0 0.16550177429739321 0.001625335581948511 0 0.1552076984021574 -0.0047487866015848753 0 0.17056947168728639 -0.0076341498549102596 0 0.21653748859829491 -0.0035968485671754561 0 0.20239897911060981 -0.0049616950454924097 0 0.1941468740000297 -0.021798736782002521 0 0.21653748859829491 -0.0035968485671754561 0 0.1941468740000297 -0.021798736782002521 0 0.20955206102217341 -0.019021580532265901 0 0.21653748859829491 -0.0035968485671754561 0 0.20955206102217341 -0.019021580532265901 0 0.22864161374710179 -0.024239001361894639 0 0.21653748859829491 -0.0035968485671754561 0 0.1941468740000297 -0.021798736782002521 0 0.20938161325362409 0.0025060029461209908 0 0.21653748859829491 -0.0035968485671754561 0 0.20239897911060981 -0.0049616950454924097 0 0.19981118715584381 0.0070254328827108366 0 0.20239897911060981 -0.0049616950454924097 0 0.1918659379284415 -0.0083679514935210662 0 0.19981118715584381 0.0070254328827108366 0 0.1918659379284415 -0.0083679514935210662 0 0.20239897911060981 -0.0049616950454924097 0 0.1918659379284415 -0.0083679514935210662 0 0.1941468740000297 -0.021798736782002521 0 0.1894192936343001 0.0060385698470956234 0 0.18580903226614379 -0.0011502469314075439 0 0.1918659379284415 -0.0083679514935210662 0 0.1894192936343001 0.0060385698470956234 0 0.1918659379284415 -0.0083679514935210662 0 0.1918659379284415 -0.0083679514935210662 0 0.1941468740000297 -0.021798736782002521 0 0.1782733089797521 -0.034702753096601993 0 0.1918659379284415 -0.0083679514935210662 0 0.1941468740000297 -0.021798736782002521 0 0.1941468740000297 -0.021798736782002521 0 0.2031559883210855 -0.029985938475911671 0 0.20955206102217341 -0.019021580532265901 0 0.20955206102217341 -0.019021580532265901 0 0.21066165658577479 -0.033085676709690801 0 0.22864161374710179 -0.024239001361894639 0 0.2031559883210855 -0.029985938475911671 0 0.20955206102217341 -0.019021580532265901 0 0.21066165658577479 -0.033085676709690801 0 0.21864271396698939 -0.038649087319523719 0 0.21066165658577479 -0.033085676709690801 0 0.21034122995680221 -0.050048420551560682 0 0.21066165658577479 -0.033085676709690801 0 0.1982633616763636 -0.046037759879686967 0 0.21034122995680221 -0.050048420551560682 0 0.2031559883210855 -0.029985938475911671 0 0.21066165658577479 -0.033085676709690801 0 0.1982633616763636 -0.046037759879686967 0 0.21864271396698939 -0.038649087319523719 0 0.21034122995680221 -0.050048420551560682 0 0.21819242210762169 -0.050823402618315167 0 0.1941468740000297 -0.021798736782002521 0 0.2031559883210855 -0.029985938475911671 0 0.1982633616763636 -0.046037759879686967 0 0.18595588634396351 -0.043176695624854357 0 0.1941468740000297 -0.021798736782002521 0 0.1982633616763636 -0.046037759879686967 0 0.1941468740000297 -0.021798736782002521 0 0.1982633616763636 -0.046037759879686967 0 0.1982633616763636 -0.046037759879686967 0 0.19180584502786041 -0.068172372335855602 0 0.20237984935269879 -0.070276782977371152 0 0.1982633616763636 -0.046037759879686967 0 0.20237984935269879 -0.070276782977371152 0 0.18345715790010181 -0.056135992415964377 0 0.1982633616763636 -0.046037759879686967 0 0.19180584502786041 -0.068172372335855602 0 0.18345715790010181 -0.056135992415964377 0 0.18595588634396351 -0.043176695624854357 0 0.1982633616763636 -0.046037759879686967 0 0.21034122995680221 -0.050048420551560682 0 0.21390737605136481 -0.061417813804776289 0 0.20237984935269879 -0.070276782977371152 0 0.1982633616763636 -0.046037759879686967 0 0.21034122995680221 -0.050048420551560682 0 0.20237984935269879 -0.070276782977371152 0 0.21034122995680221 -0.050048420551560682 0 0.21819242210762169 -0.050823402618315167 0 0.21390737605136481 -0.061417813804776289 0 0.2255736282180465 -0.056882305063223393 0 0.23627526009844421 -0.049694667024589079 0 0.23165324526163639 -0.065502610206523884 0 0.21390737605136481 -0.061417813804776289 0 0.2255736282180465 -0.056882305063223393 0 0.2221192681341374 -0.068345353637844553 0 0.21819242210762169 -0.050823402618315167 0 0.21390737605136481 -0.061417813804776289 0 0.2255736282180465 -0.056882305063223393 0 0.21819242210762169 -0.050823402618315167 0 0.2255736282180465 -0.056882305063223393 0 0.22546512762764079 -0.044057692677509197 0 0.2255736282180465 -0.056882305063223393 0 0.23627526009844421 -0.049694667024589079 0 0.22546512762764079 -0.044057692677509197 0 0.24617004458672351 -0.058202332164817121 0 0.23627526009844421 -0.049694667024589079 0 0.24390890644978661 -0.075150332687283522 0 0.23627526009844421 -0.049694667024589079 0 0.24390890644978661 -0.075150332687283522 0 0.25164978009717781 -0.053061021673298493 0 0.24617004458672351 -0.058202332164817121 0 0.24422464309495209 -0.046986837608536558 0 0.24617004458672351 -0.058202332164817121 0 0.24422464309495209 -0.046986837608536558 0 0.23627526009844421 -0.049694667024589079 0 0.25164978009717781 -0.053061021673298493 0 0.2539732262079259 -0.044675773385505282 0 0.24422464309495209 -0.046986837608536558 0 0.24422464309495209 -0.046986837608536558 0 0.23627526009844421 -0.049694667024589079 0 0.24524507923365879 -0.0330622213940093 0 0.25845033672230949 -0.02738613623275089 0 0.24422464309495209 -0.046986837608536558 0 0.24524507923365879 -0.0330622213940093 0 0.23627526009844421 -0.049694667024589079 0 0.24524507923365879 -0.0330622213940093 0 0.22864161374710179 -0.024239001361894639 0 0.21864271396698939 -0.038649087319523719 0 0.21066165658577479 -0.033085676709690801 0 0.22864161374710179 -0.024239001361894639 0 0.23627526009844421 -0.049694667024589079 0 0.22864161374710179 -0.024239001361894639 0 0.21864271396698939 -0.038649087319523719 0 0.22546512762764079 -0.044057692677509197 0 0.22864161374710179 -0.024239001361894639 0 0.23627526009844421 -0.049694667024589079 0 0.22546512762764079 -0.044057692677509197 0 0.22864161374710179 -0.024239001361894639 0 0.21864271396698939 -0.038649087319523719 0 0.21819242210762169 -0.050823402618315167 0 0.22546512762764079 -0.044057692677509197 0 0.22864161374710179 -0.024239001361894639 0 0.24437070500465241 -0.019757014484825589 0 0.23246643938152739 -0.0092251246746631842 0 0.24524507923365879 -0.0330622213940093 0 0.22864161374710179 -0.024239001361894639 0 0.24437070500465241 -0.019757014484825589 0 0.25013504981522988 -0.025019616072594848 0 0.24524507923365879 -0.0330622213940093 0 0.24437070500465241 -0.019757014484825589 0 0.25247407830029878 -0.019873092178793648 0 0.25006914023697918 -0.01208141302270524 0 0.24437070500465241 -0.019757014484825589 0 0.25013504981522988 -0.025019616072594848 0 0.25247407830029878 -0.019873092178793648 0 0.24437070500465241 -0.019757014484825589 0 0.24437070500465241 -0.019757014484825589 0 0.242989310538931 -0.0092135161021761666 0 0.23246643938152739 -0.0092251246746631842 0 0.25006914023697918 -0.01208141302270524 0 0.242989310538931 -0.0092135161021761666 0 0.2479891295484222 -0.0022684572774312019 0 0.25006914023697918 -0.01208141302270524 0 0.24437070500465241 -0.019757014484825589 0 0.242989310538931 -0.0092135161021761666 0 0.2429424487767215 0.0026164120279975069 0 0.2479891295484222 -0.0022684572774312019 0 0.24005113852307369 -0.0027355710512556022 0 0.242989310538931 -0.0092135161021761666 0 0.2479891295484222 -0.0022684572774312019 0 0.24005113852307369 -0.0027355710512556022 0 0.23517440673197429 0.0051848507458196356 0 0.24005113852307369 -0.0027355710512556022 0 0.23246643938152739 -0.0092251246746631842 0 0.242989310538931 -0.0092135161021761666 0 0.24005113852307369 -0.0027355710512556022 0 0.23246643938152739 -0.0092251246746631842 0 0.22100796739575951 0.001216664300799794 0 0.22864161374710179 -0.024239001361894639 0 0.23246643938152739 -0.0092251246746631842 0 0.23517440673197429 0.0051848507458196356 0 0.22100796739575951 0.001216664300799794 0 0.23246643938152739 -0.0092251246746631842 0 0.22100796739575951 0.001216664300799794 0 0.21653748859829491 -0.0035968485671754561 0 0.22864161374710179 -0.024239001361894639 0 0.22100796739575951 0.001216664300799794 0 0.22864161374710179 -0.024239001361894639 0 0.206496337029034 -0.094515806075055359 0 0.21061282470536921 -0.1187548291727395 0 0.206496337029034 -0.094515806075055359 0 0.22623965631488491 -0.089683688039789988 0 0.22333782165884589 -0.10574313483481231 0 0.206496337029034 -0.094515806075055359 0 0.21061282470536921 -0.1187548291727395 0 0.22333782165884589 -0.10574313483481231 0 0.18737718651252391 -0.1018645954104864 0 0.18701697985041221 -0.11880972375357141 0 0.21061282470536921 -0.1187548291727395 0 0.18701697985041221 -0.11880972375357141 0 0.21061282470536921 -0.1187548291727395 0 0.19260125287660149 -0.13207131947283501 0 0.18748362772352481 -0.090285751384613616 0 0.18737718651252391 -0.1018645954104864 0 0.206496337029034 -0.094515806075055359 0 0.18737718651252391 -0.1018645954104864 0 0.206496337029034 -0.094515806075055359 0 0.21061282470536921 -0.1187548291727395 0 0.18748362772352481 -0.090285751384613616 0 0.206496337029034 -0.094515806075055359 0 0.19448955746265811 -0.082220240722777116 0 0.206496337029034 -0.094515806075055359 0 0.19448955746265811 -0.082220240722777116 0 0.20237984935269879 -0.070276782977371152 0 0.18645595400882431 -0.078186102724248294 0 0.18748362772352481 -0.090285751384613616 0 0.19448955746265811 -0.082220240722777116 0 0.18645595400882431 -0.078186102724248294 0 0.19448955746265811 -0.082220240722777116 0 0.19180584502786041 -0.068172372335855602 0 0.19448955746265811 -0.082220240722777116 0 0.19180584502786041 -0.068172372335855602 0 0.20237984935269879 -0.070276782977371152 0 0.21390737605136481 -0.061417813804776289 0 0.20237984935269879 -0.070276782977371152 0 0.21248527081093549 -0.070330245212121473 0 0.20237984935269879 -0.070276782977371152 0 0.21248527081093549 -0.070330245212121473 0 0.2145783618208984 -0.079628257083024359 0 0.21248527081093549 -0.070330245212121473 0 0.2145783618208984 -0.079628257083024359 0 0.2221192681341374 -0.068345353637844553 0 0.21390737605136481 -0.061417813804776289 0 0.21248527081093549 -0.070330245212121473 0 0.2221192681341374 -0.068345353637844553 0 0.206496337029034 -0.094515806075055359 0 0.20237984935269879 -0.070276782977371152 0 0.2145783618208984 -0.079628257083024359 0 0.206496337029034 -0.094515806075055359 0 0.2145783618208984 -0.079628257083024359 0 0.22623965631488491 -0.089683688039789988 0 0.206496337029034 -0.094515806075055359 0 0.20237984935269879 -0.070276782977371152 0 0.2145783618208984 -0.079628257083024359 0 0.22623965631488491 -0.089683688039789988 0 0.23038916340776741 -0.077440392619678861 0 0.22623965631488491 -0.089683688039789988 0 0.23038916340776741 -0.077440392619678861 0 0.23781669784438761 -0.088769324738514177 0 0.22623965631488491 -0.089683688039789988 0 0.23781669784438761 -0.088769324738514177 0 0.23714180950183539 -0.10160942858925499 0 0.2145783618208984 -0.079628257083024359 0 0.2221192681341374 -0.068345353637844553 0 0.23038916340776741 -0.077440392619678861 0 0.2255736282180465 -0.056882305063223393 0 0.2221192681341374 -0.068345353637844553 0 0.23165324526163639 -0.065502610206523884 0 0.2221192681341374 -0.068345353637844553 0 0.23038916340776741 -0.077440392619678861 0 0.23165324526163639 -0.065502610206523884 0 0.25256726729664603 -0.064532785491330763 0 0.24617004458672351 -0.058202332164817121 0 0.24390890644978661 -0.075150332687283522 0 0.23627526009844421 -0.049694667024589079 0 0.23165324526163639 -0.065502610206523884 0 0.24390890644978661 -0.075150332687283522 0 0.23038916340776741 -0.077440392619678861 0 0.23165324526163639 -0.065502610206523884 0 0.24390890644978661 -0.075150332687283522 0 0.25154255280112903 -0.1006059983499779 0 0.24390890644978661 -0.075150332687283522 0 0.25154255280112903 -0.1006059983499779 0 0.24390890644978661 -0.075150332687283522 0 0.23781669784438761 -0.088769324738514177 0 0.23038916340776741 -0.077440392619678861 0 0.24390890644978661 -0.075150332687283522 0 0.23781669784438761 -0.088769324738514177 0 0.25154255280112903 -0.1006059983499779 0 0.23714180950183539 -0.10160942858925499 0 0.24954668948061209 -0.11284283178631641 0 0.25154255280112903 -0.1006059983499779 0 0.23781669784438761 -0.088769324738514177 0 0.23714180950183539 -0.10160942858925499 0 0.23714180950183539 -0.10160942858925499 0 0.22333782165884589 -0.10574313483481231 0 0.23542538064511609 -0.1194854446592761 0 0.22623965631488491 -0.089683688039789988 0 0.23714180950183539 -0.10160942858925499 0 0.22333782165884589 -0.10574313483481231 0 0.21061282470536921 -0.1187548291727395 0 0.22333782165884589 -0.10574313483481231 0 0.23542538064511609 -0.1194854446592761 0 0.25741251913389712 -0.1305951081492244 0 0.23542538064511609 -0.1194854446592761 0 0.24954668948061209 -0.11284283178631641 0 0.23714180950183539 -0.10160942858925499 0 0.23542538064511609 -0.1194854446592761 0 0.24954668948061209 -0.11284283178631641 0 0.25741251913389712 -0.1305951081492244 0 0.25452239946831973 -0.14829655140993131 0 0.23191914561449989 -0.13726295483178369 0 0.25741251913389712 -0.1305951081492244 0 0.23542538064511609 -0.1194854446592761 0 0.23191914561449989 -0.13726295483178369 0 0.25452239946831973 -0.14829655140993131 0 0.23782434991563151 -0.15439369078169049 0 0.23191914561449989 -0.13726295483178369 0 0.23782434991563151 -0.15439369078169049 0 0.2147293123817042 -0.1429938522704238 0 0.23782434991563151 -0.15439369078169049 0 0.2147293123817042 -0.1429938522704238 0 0.21952864142792899 -0.1712536350637954 0 0.23782434991563151 -0.15439369078169049 0 0.23191914561449989 -0.13726295483178369 0 0.2147293123817042 -0.1429938522704238 0 0.21061282470536921 -0.1187548291727395 0 0.23542538064511609 -0.1194854446592761 0 0.23191914561449989 -0.13726295483178369 0 0.21061282470536921 -0.1187548291727395 0 0.23191914561449989 -0.13726295483178369 0 0.2147293123817042 -0.1429938522704238 0 0.2147293123817042 -0.1429938522704238 0 0.19260125287660149 -0.13207131947283501 0 0.21061282470536921 -0.1187548291727395 0 0.2147293123817042 -0.1429938522704238 0 0.19260125287660149 -0.13207131947283501 0 0.21061282470536921 -0.1187548291727395 0 0.2147293123817042 -0.1429938522704238 0 0.2147293123817042 -0.1429938522704238 0 0.20548350855114439 -0.15623176612928341 0 0.19677556980284089 -0.14597147697610061 0 0.20548350855114439 -0.15623176612928341 0 0.19677556980284089 -0.14597147697610061 0 0.19325106823209409 -0.153061144976989 0 0.19677556980284089 -0.14597147697610061 0 0.19325106823209409 -0.153061144976989 0 0.18786488322971459 -0.15098965934649999 0 0.19325106823209409 -0.153061144976989 0 0.18786488322971459 -0.15098965934649999 0 0.1842505296355367 -0.15589311325690541 0 0.19677556980284089 -0.14597147697610061 0 0.18786488322971459 -0.15098965934649999 0 0.188659048266132 -0.1418371739210742 0 0.2147293123817042 -0.1429938522704238 0 0.19677556980284089 -0.14597147697610061 0 0.19260125287660149 -0.13207131947283501 0 0.19677556980284089 -0.14597147697610061 0 0.188659048266132 -0.1418371739210742 0 0.19260125287660149 -0.13207131947283501 0 0.18830323417204939 -0.1765657128700695 0 0.20313295091115369 -0.1678787213591082 0 0.20600005448239761 -0.18645800734220749 0 0.18830323417204939 -0.1765657128700695 0 0.20600005448239761 -0.18645800734220749 0 0.1956377870383576 -0.1970896374814364 0 0.19325106823209409 -0.153061144976989 0 0.18830323417204939 -0.1765657128700695 0 0.19325106823209409 -0.153061144976989 0 0.18830323417204939 -0.1765657128700695 0 0.20313295091115369 -0.1678787213591082 0 0.19325106823209409 -0.153061144976989 0 0.18830323417204939 -0.1765657128700695 0 0.18144082188941271 -0.16389154531309821 0 0.20548350855114439 -0.15623176612928341 0 0.19325106823209409 -0.153061144976989 0 0.20313295091115369 -0.1678787213591082 0 0.20548350855114439 -0.15623176612928341 0 0.20313295091115369 -0.1678787213591082 0 0.21952864142792899 -0.1712536350637954 0 0.2147293123817042 -0.1429938522704238 0 0.21952864142792899 -0.1712536350637954 0 0.2147293123817042 -0.1429938522704238 0 0.20548350855114439 -0.15623176612928341 0 0.21952864142792899 -0.1712536350637954 0 0.20600005448239761 -0.18645800734220749 0 0.21952864142792899 -0.1712536350637954 0 0.22432797047415351 -0.19951341785716731 0 0.20313295091115369 -0.1678787213591082 0 0.20600005448239761 -0.18645800734220749 0 0.21952864142792899 -0.1712536350637954 0 0.21952864142792899 -0.1712536350637954 0 0.2437278363918948 -0.18195096812212239 0 0.22432797047415351 -0.19951341785716731 0 0.21952864142792899 -0.1712536350637954 0 0.22432797047415351 -0.19951341785716731 0 0.23782434991563151 -0.15439369078169049 0 0.21952864142792899 -0.1712536350637954 0 0.2437278363918948 -0.18195096812212239 0 0.260919387449559 -0.16579352929295721 0 0.23782434991563151 -0.15439369078169049 0 0.260919387449559 -0.16579352929295721 0 0.23782434991563151 -0.15439369078169049 0 0.2437278363918948 -0.18195096812212239 0 0.2437278363918948 -0.18195096812212239 0 0.24314545538918961 -0.20571013864437751 0 0.22432797047415351 -0.19951341785716731 0 0.2593871514889205 -0.19799184377322379 0 0.2437278363918948 -0.18195096812212239 0 0.24314545538918961 -0.20571013864437751 0 0.22432797047415351 -0.19951341785716731 0 0.2342802842193491 -0.2219117808856606 0 0.21564630723174069 -0.21833189921059021 0 0.24314545538918961 -0.20571013864437751 0 0.22432797047415351 -0.19951341785716731 0 0.2342802842193491 -0.2219117808856606 0 0.2462907050713771 -0.25204034373521428 0 0.2499607574480687 -0.24385609709525671 0 0.2374752251495614 -0.24157268794541539 0 0.25134951441318748 -0.22920843539767929 0 0.2499607574480687 -0.24385609709525671 0 0.2374752251495614 -0.24157268794541539 0 0.25134951441318748 -0.22920843539767929 0 0.24314545538918961 -0.20571013864437751 0 0.2342802842193491 -0.2219117808856606 0 0.25134951441318748 -0.22920843539767929 0 0.2374752251495614 -0.24157268794541539 0 0.2342802842193491 -0.2219117808856606 0 0.2374752251495614 -0.24157268794541539 0 0.22060620183210919 -0.232775489656291 0 0.2342802842193491 -0.2219117808856606 0 0.22060620183210919 -0.232775489656291 0 0.2342802842193491 -0.2219117808856606 0 0.21564630723174069 -0.21833189921059021 0 0.22198339683909701 -0.25340717595137879 0 0.2374752251495614 -0.24157268794541539 0 0.22060620183210919 -0.232775489656291 0 0.22198339683909701 -0.25340717595137879 0 0.22060620183210919 -0.232775489656291 0 0.22198339683909701 -0.25340717595137879 0 0.22060620183210919 -0.232775489656291 0 0.20573671357227499 -0.23448295905173899 0 0.22198339683909701 -0.25340717595137879 0 0.20573671357227499 -0.23448295905173899 0 0.19815896102696709 -0.24816545406213189 0 0.22060620183210919 -0.232775489656291 0 0.20573671357227499 -0.23448295905173899 0 0.21564630723174069 -0.21833189921059021 0 0.20573671357227499 -0.23448295905173899 0 0.19801089506944891 -0.22061097325298201 0 0.21564630723174069 -0.21833189921059021 0 0.20573671357227499 -0.23448295905173899 0 0.19801089506944891 -0.22061097325298201 0 0.18862314846194941 -0.23474346369713109 0 0.19801089506944891 -0.22061097325298201 0 0.18862314846194941 -0.23474346369713109 0 0.17884496266341901 -0.22149700646801701 0 0.20573671357227499 -0.23448295905173899 0 0.18862314846194941 -0.23474346369713109 0 0.19815896102696709 -0.24816545406213189 0 0.20600005448239761 -0.18645800734220749 0 0.22432797047415351 -0.19951341785716731 0 0.20571207111442141 -0.20503903284801611 0 0.22432797047415351 -0.19951341785716731 0 0.21564630723174069 -0.21833189921059021 0 0.20571207111442141 -0.20503903284801611 0 0.19801089506944891 -0.22061097325298201 0 0.21564630723174069 -0.21833189921059021 0 0.20571207111442141 -0.20503903284801611 0 0.19801089506944891 -0.22061097325298201 0 0.19227081910603411 -0.2100117569492751 0 0.17884496266341901 -0.22149700646801701 0 0.20571207111442141 -0.20503903284801611 0 0.19227081910603411 -0.2100117569492751 0 0.1956377870383576 -0.1970896374814364 0 0.19801089506944891 -0.22061097325298201 0 0.20571207111442141 -0.20503903284801611 0 0.19227081910603411 -0.2100117569492751 0 0.18830323417204939 -0.1765657128700695 0 0.1956377870383576 -0.1970896374814364 0 0.18335540011200491 -0.20007028076315 0 0.19227081910603411 -0.2100117569492751 0 0.1956377870383576 -0.1970896374814364 0 0.18335540011200491 -0.20007028076315 0 0.1956377870383576 -0.1970896374814364 0 0.18335540011200491 -0.20007028076315 0 0.20600005448239761 -0.18645800734220749 0 0.20571207111442141 -0.20503903284801611 0 0.1956377870383576 -0.1970896374814364 0 0.18830323417204939 -0.1765657128700695 0 0.18335540011200491 -0.20007028076315 0 0.18335540011200491 -0.20007028076315 0 0.16873688803845349 -0.19227854821165941 0 0.17543185729929969 -0.18273889272689711 0 0.19227081910603411 -0.2100117569492751 0 0.18335540011200491 -0.20007028076315 0 0.17884496266341901 -0.22149700646801701 0 0.18335540011200491 -0.20007028076315 0 0.17884496266341901 -0.22149700646801701 0 0.18335540011200491 -0.20007028076315 0 0.16621660047528611 -0.21253283526692829 0 0.17884496266341901 -0.22149700646801701 0 0.16621660047528611 -0.21253283526692829 0 0.1593158439583067 -0.2059041094785751 0 0.15302060169630469 -0.2217977003443504 0 0.18335540011200491 -0.20007028076315 0 0.16621660047528611 -0.21253283526692829 0 0.1593158439583067 -0.2059041094785751 0 0.16621660047528611 -0.21253283526692829 0 0.1593158439583067 -0.2059041094785751 0 0.1593158439583067 -0.2059041094785751 0 0.15759932706250929 -0.18907488386135229 0 0.16873688803845349 -0.19227854821165941 0 0.18335540011200491 -0.20007028076315 0 0.1593158439583067 -0.2059041094785751 0 0.18335540011200491 -0.20007028076315 0 0.1593158439583067 -0.2059041094785751 0 0.16873688803845349 -0.19227854821165941 0 0.18066177981631051 -0.25348299893649828 0 0.19815896102696709 -0.24816545406213189 0 0.17433452521483719 -0.24292373217288479 0 0.19815896102696709 -0.24816545406213189 0 0.17433452521483719 -0.24292373217288479 0 0.18862314846194941 -0.23474346369713109 0 0.19815896102696709 -0.24816545406213189 0 0.17433452521483719 -0.24292373217288479 0 0.18066177981631051 -0.25348299893649828 0 0.17304535898525439 -0.24904788565112909 0 0.17433452521483719 -0.24292373217288479 0 0.17304535898525439 -0.24904788565112909 0 0.17433452521483719 -0.24292373217288479 0 0.18862314846194941 -0.23474346369713109 0 0.17433452521483719 -0.24292373217288479 0 0.17884496266341901 -0.22149700646801701 0 0.17433452521483719 -0.24292373217288479 0 0.17884496266341901 -0.22149700646801701 0 0.17433452521483719 -0.24292373217288479 0 0.17884496266341901 -0.22149700646801701 0 0.16512535944417561 -0.22744738033917331 0 0.16512535944417561 -0.22744738033917331 0 0.15532271566916761 -0.23874085795770611 0 0.15302060169630469 -0.2217977003443504 0 0.16621660047528611 -0.21253283526692829 0 0.17884496266341901 -0.22149700646801701 0 0.16512535944417561 -0.22744738033917331 0 0.16621660047528611 -0.21253283526692829 0 0.16512535944417561 -0.22744738033917331 0 0.15302060169630469 -0.2217977003443504 0 0.17304535898525439 -0.24904788565112909 0 0.17433452521483719 -0.24292373217288479 0 0.15532271566916761 -0.23874085795770611 0 0.15867772839633809 -0.25707915377424612 0 0.17304535898525439 -0.24904788565112909 0 0.15532271566916761 -0.23874085795770611 0 0.17433452521483719 -0.24292373217288479 0 0.16512535944417561 -0.22744738033917331 0 0.15532271566916761 -0.23874085795770611 0 0.17433452521483719 -0.24292373217288479 0 0.15532271566916761 -0.23874085795770611 0 0.15532271566916761 -0.23874085795770611 0 0.1363109061234978 -0.23455798374252809 0 0.13687529418603939 -0.26162068250561471 0 0.15532271566916761 -0.23874085795770611 0 0.1363109061234978 -0.23455798374252809 0 0.15532271566916761 -0.23874085795770611 0 0.15302060169630469 -0.2217977003443504 0 0.1363109061234978 -0.23455798374252809 0 0.15302060169630469 -0.2217977003443504 0 0.1363109061234978 -0.23455798374252809 0 0.13583218450739579 -0.2116030352811932 0 0.12594488917549271 -0.2231145762792166 0 0.1363109061234978 -0.23455798374252809 0 0.13583218450739579 -0.2116030352811932 0 0.1363109061234978 -0.23455798374252809 0 0.13583218450739579 -0.2116030352811932 0 0.13687529418603939 -0.26162068250561471 0 0.1363109061234978 -0.23455798374252809 0 0.13687529418603939 -0.26162068250561471 0 0.1223190960555403 -0.2394332616338683 0 0.1363109061234978 -0.23455798374252809 0 0.1593158439583067 -0.2059041094785751 0 0.15759932706250929 -0.18907488386135229 0 0.14727334507129489 -0.19433633097022029 0 0.14727334507129489 -0.19433633097022029 0 0.13523084618428721 -0.18276855246186111 0 0.1593158439583067 -0.2059041094785751 0 0.14727334507129489 -0.19433633097022029 0 0.1593158439583067 -0.2059041094785751 0 0.14727334507129489 -0.19433633097022029 0 0.13583218450739579 -0.2116030352811932 0 0.1593158439583067 -0.2059041094785751 0 0.13583218450739579 -0.2116030352811932 0 0.1593158439583067 -0.2059041094785751 0 0.15302060169630469 -0.2217977003443504 0 0.13583218450739579 -0.2116030352811932 0 0.1146962174531268 -0.21673223195775559 0 0.12594488917549271 -0.2231145762792166 0 0.13583218450739579 -0.2116030352811932 0 0.1146962174531268 -0.21673223195775559 0 0.13583218450739579 -0.2116030352811932 0 0.13583218450739579 -0.2116030352811932 0 0.13523084618428721 -0.18276855246186111 0 0.1210323504124224 -0.2015702574875764 0 0.13583218450739579 -0.2116030352811932 0 0.13523084618428721 -0.18276855246186111 0 0.14727334507129489 -0.19433633097022029 0 0.13583218450739579 -0.2116030352811932 0 0.13523084618428721 -0.18276855246186111 0 0.13523084618428721 -0.18276855246186111 0 0.13483495552902119 -0.16378539130439421 0 0.13523084618428721 -0.18276855246186111 0 0.14953284821028701 -0.17659781711855899 0 0.13483495552902119 -0.16378539130439421 0 0.12574768761326591 -0.17365922399620121 0 0.13523084618428721 -0.18276855246186111 0 0.13483495552902119 -0.16378539130439421 0 0.12574768761326591 -0.17365922399620121 0 0.13523084618428721 -0.18276855246186111 0 0.15759932706250929 -0.18907488386135229 0 0.14727334507129489 -0.19433633097022029 0 0.14953284821028701 -0.17659781711855899 0 0.14727334507129489 -0.19433633097022029 0 0.13523084618428721 -0.18276855246186111 0 0.14953284821028701 -0.17659781711855899 0 0.15759932706250929 -0.18907488386135229 0 0.14953284821028701 -0.17659781711855899 0 0.16056198994912749 -0.17787080610445691 0 0.14953284821028701 -0.17659781711855899 0 0.15118562361057611 -0.16212531631630639 0 0.13483495552902119 -0.16378539130439421 0 0.15118562361057611 -0.16212531631630639 0 0.13483495552902119 -0.16378539130439421 0 0.15272907190244081 -0.1550331303974728 0 0.15118562361057611 -0.16212531631630639 0 0.15272907190244081 -0.1550331303974728 0 0.15987479688754311 -0.1572750313981319 0 0.14953284821028701 -0.17659781711855899 0 0.15118562361057611 -0.16212531631630639 0 0.1601367247146048 -0.167216461388007 0 0.1232701832726428 -0.15427141090171109 0 0.12574768761326591 -0.17365922399620121 0 0.13483495552902119 -0.16378539130439421 0 0.12574768761326591 -0.17365922399620121 0 0.13483495552902119 -0.16378539130439421 0 0.13483495552902119 -0.16378539130439421 0 0.13444198148756639 -0.1449420832838656 0 0.14315652521050079 -0.14523933820255211 0 0.1232701832726428 -0.15427141090171109 0 0.13483495552902119 -0.16378539130439421 0 0.13444198148756639 -0.1449420832838656 0 0.13483495552902119 -0.16378539130439421 0 0.13444198148756639 -0.1449420832838656 0 0.13444198148756639 -0.1449420832838656 0 0.1434537453928684 -0.13532839273855221 0 0.14315652521050079 -0.14523933820255211 0 0.13444198148756639 -0.1449420832838656 0 0.13404900744611239 -0.12609877526333699 0 0.13444198148756639 -0.1449420832838656 0 0.13404900744611239 -0.12609877526333699 0 0.1434537453928684 -0.13532839273855221 0 0.11727103389215909 -0.1361484369810822 0 0.13444198148756639 -0.1449420832838656 0 0.13404900744611239 -0.12609877526333699 0 0.13404900744611239 -0.12609877526333699 0 0.1490682445489844 -0.1279194233146575 0 0.1609569453379138 -0.13854421730491809 0 0.13404900744611239 -0.12609877526333699 0 0.1609569453379138 -0.13854421730491809 0 0.13404900744611239 -0.12609877526333699 0 0.1434537453928684 -0.13532839273855221 0 0.1609569453379138 -0.13854421730491809 0 0.1434537453928684 -0.13532839273855221 0 0.14993504674019009 -0.14021612160814689 0 0.1609569453379138 -0.13854421730491809 0 0.1427320902892944 -0.12257921542734659 0 0.13404900744611239 -0.12609877526333699 0 0.1490682445489844 -0.1279194233146575 0 0.1434537453928684 -0.13532839273855221 0 0.14993504674019009 -0.14021612160814689 0 0.14315652521050079 -0.14523933820255211 0 0.14993504674019009 -0.14021612160814689 0 0.15469010670848909 -0.14221164189652771 0 0.1609569453379138 -0.13854421730491809 0 0.15568199284830581 -0.1296421963895899 0 0.1490682445489844 -0.1279194233146575 0 0.1609569453379138 -0.13854421730491809 0 0.15192118682329561 -0.12273271218809589 0 0.15568199284830581 -0.1296421963895899 0 0.1587247560068413 -0.12564209046719049 0 0.15192118682329561 -0.12273271218809589 0 0.15568199284830581 -0.1296421963895899 0 0.1490682445489844 -0.1279194233146575 0 0.13483495552902119 -0.16378539130439421 0 0.15469010670848909 -0.14221164189652771 0 0.13483495552902119 -0.16378539130439421 0 0.14315652521050079 -0.14523933820255211 0 0.15469010670848909 -0.14221164189652771 0 0.13483495552902119 -0.16378539130439421 0 0.15469010670848909 -0.14221164189652771 0 0.15272907190244081 -0.1550331303974728 0 0.14993504674019009 -0.14021612160814689 0 0.14315652521050079 -0.14523933820255211 0 0.15469010670848909 -0.14221164189652771 0 0.15272907190244081 -0.1550331303974728 0 0.16278769519534109 -0.1503194818261428 0 0.15987479688754311 -0.1572750313981319 0 0.16278769519534109 -0.1503194818261428 0 0.15987479688754311 -0.1572750313981319 0 0.16866771310860729 -0.15951236945753941 0 0.15469010670848909 -0.14221164189652771 0 0.15272907190244081 -0.1550331303974728 0 0.16278769519534109 -0.1503194818261428 0 0.15469010670848909 -0.14221164189652771 0 0.16278769519534109 -0.1503194818261428 0 0.1609569453379138 -0.13854421730491809 0 0.16278769519534109 -0.1503194818261428 0 0.1609569453379138 -0.13854421730491809 0 0.17433915911560069 -0.15342176620747169 0 0.16278769519534109 -0.1503194818261428 0 0.17433915911560069 -0.15342176620747169 0 0.16866771310860729 -0.15951236945753941 0 0.1609569453379138 -0.13854421730491809 0 0.16898528270356589 -0.1319020538664718 0 0.17739448715537109 -0.13831623988886119 0 0.1587247560068413 -0.12564209046719049 0 0.1613780220681113 -0.13045743568360191 0 0.1641162962428066 -0.126449221113482 0 0.15568199284830581 -0.1296421963895899 0 0.1587247560068413 -0.12564209046719049 0 0.1613780220681113 -0.13045743568360191 0 0.15568199284830581 -0.1296421963895899 0 0.1613780220681113 -0.13045743568360191 0 0.1609569453379138 -0.13854421730491809 0 0.1613780220681113 -0.13045743568360191 0 0.1609569453379138 -0.13854421730491809 0 0.16898528270356589 -0.1319020538664718 0 0.173543926957343 -0.1211375462363173 0 0.16898528270356589 -0.1319020538664718 0 0.1641162962428066 -0.126449221113482 0 0.1613780220681113 -0.13045743568360191 0 0.16898528270356589 -0.1319020538664718 0 0.1641162962428066 -0.126449221113482 0 0.173543926957343 -0.1211375462363173 0 0.16898528270356589 -0.1319020538664718 0 0.17990838590865871 -0.12844737664361131 0 0.16898528270356589 -0.1319020538664718 0 0.17739448715537109 -0.13831623988886119 0 0.17990838590865871 -0.12844737664361131 0 0.188659048266132 -0.1418371739210742 0 0.19260125287660149 -0.13207131947283501 0 0.17739448715537109 -0.13831623988886119 0 0.19260125287660149 -0.13207131947283501 0 0.17739448715537109 -0.13831623988886119 0 0.17990838590865871 -0.12844737664361131 0 0.18701697985041221 -0.11880972375357141 0 0.19260125287660149 -0.13207131947283501 0 0.17990838590865871 -0.12844737664361131 0 0.18786488322971459 -0.15098965934649999 0 0.1609569453379138 -0.13854421730491809 0 0.17433915911560069 -0.15342176620747169 0 0.18786488322971459 -0.15098965934649999 0 0.1609569453379138 -0.13854421730491809 0 0.18786488322971459 -0.15098965934649999 0 0.1609569453379138 -0.13854421730491809 0 0.17739448715537109 -0.13831623988886119 0 0.18786488322971459 -0.15098965934649999 0 0.188659048266132 -0.1418371739210742 0 0.17739448715537109 -0.13831623988886119 0 0.18786488322971459 -0.15098965934649999 0 0.17433915911560069 -0.15342176620747169 0 0.1842505296355367 -0.15589311325690541 0 0.17433915911560069 -0.15342176620747169 0 0.1842505296355367 -0.15589311325690541 0 0.18144082188941271 -0.16389154531309821 0 0.19325106823209409 -0.153061144976989 0 0.1842505296355367 -0.15589311325690541 0 0.18144082188941271 -0.16389154531309821 0 0.18830323417204939 -0.1765657128700695 0 0.18144082188941271 -0.16389154531309821 0 0.17072519494025609 -0.1704686386871877 0 0.17433915911560069 -0.15342176620747169 0 0.18144082188941271 -0.16389154531309821 0 0.16866771310860729 -0.15951236945753941 0 0.18144082188941271 -0.16389154531309821 0 0.16866771310860729 -0.15951236945753941 0 0.17072519494025609 -0.1704686386871877 0 0.18830323417204939 -0.1765657128700695 0 0.18335540011200491 -0.20007028076315 0 0.17543185729929969 -0.18273889272689711 0 0.18830323417204939 -0.1765657128700695 0 0.17543185729929969 -0.18273889272689711 0 0.17072519494025609 -0.1704686386871877 0 0.17543185729929969 -0.18273889272689711 0 0.16056198994912749 -0.17787080610445691 0 0.17072519494025609 -0.1704686386871877 0 0.16873688803845349 -0.19227854821165941 0 0.17543185729929969 -0.18273889272689711 0 0.16056198994912749 -0.17787080610445691 0 0.15759932706250929 -0.18907488386135229 0 0.16873688803845349 -0.19227854821165941 0 0.16056198994912749 -0.17787080610445691 0 0.14953284821028701 -0.17659781711855899 0 0.16056198994912749 -0.17787080610445691 0 0.1601367247146048 -0.167216461388007 0 0.16056198994912749 -0.17787080610445691 0 0.1601367247146048 -0.167216461388007 0 0.17072519494025609 -0.1704686386871877 0 0.1601367247146048 -0.167216461388007 0 0.15987479688754311 -0.1572750313981319 0 0.16866771310860729 -0.15951236945753941 0 0.15118562361057611 -0.16212531631630639 0 0.1601367247146048 -0.167216461388007 0 0.15987479688754311 -0.1572750313981319 0 0.1601367247146048 -0.167216461388007 0 0.16866771310860729 -0.15951236945753941 0 0.17072519494025609 -0.1704686386871877 0 
</DataArray>
</Points>
<Cells>
<DataArray type="UInt32" Name="connectivity" format="ascii">
0 1 2 3 4 5 6 7 8 9 10 11 12 13 14 15 16 17 18 19 20 21 22 23 24 25 26 27 28 29 30 31 32 33 34 35 36 37 38 39 40 41 42 43 44 45 46 47 48 49 50 51 52 53 54 55 56 57 58 59 60 61 62 63 64 65 66 67 68 69 70 71 72 73 74 75 76 77 78 79 80 81 82 83 84 85 86 87 88 89 90 91 92 93 94 95 96 97 98 99 100 101 102 103 104 105 106 107 108 109 110 111 112 113 114 115 116 117 118 119 120 121 122 123 124 125 126 127 128 129 130 131 132 133 134 135 136 137 138 139 140 141 142 143 144 145 146 147 148 149 150 151 152 153 154 155 156 157 158 159 160 161 162 163 164 165 166 167 168 169 170 171 172 173 174 175 176 177 178 179 180 181 182 183 184 185 186 187 188 189 190 191 192 193 194 195 196 197 198 199 200 201 202 203 204 205 206 207 208 209 210 211 212 213 214 215 216 217 218 219 220 221 222 223 224 225 226 227 228 229 230 231 232 233 234 235 236 237 238 239 240 241 242 243 244 245 246 247 248 249 250 251 252 253 254 255 256 257 258 259 260 261 262 263 264 265 266 267 268 269 270 271 272 273 274 275 276 277 278 279 280 281 282 283 284 285 286 287 288 289 290 291 292 293 294 295 296 297 298 299 300 301 302 303 304 305 306 307 308 309 310 311 312 313 314 315 316 317 318 319 320 321 322 323 324 325 326 327 328 329 330 331 332 333 334 335 336 337 338 339 340 341 342 343 344 345 346 347 348 349 350 351 352 353 354 355 356 357 358 359 360 361 362 363 364 365 366 367 368 369 370 371 372 373 374 375 376 377 378 379 380 381 382 383 384 385 386 387 388 389 390 391 392 393 394 395 396 397 398 399 400 401 402 403 404 405 406 407 408 409 410 411 412 413 414 415 416 417 418 419 420 421 422 423 424 425 426 427 428 429 430 431 432 433 434 435 436 437 438 439 440 441 442 443 444 445 446 447 448 449 450 451 452 453 454 455 456 457 458 459 460 461 462 463 464 465 466 467 468 469 470 471 472 473 474 475 476 477 478 479 480 481 482 483 484 485 486 487 488 489 490 491 492 493 494 495 496 497 498 499 500 501 502 503 504 505 506 507 508 509 510 511 512 513 514 515 516 517 518 519 520 521 522 523 524 525 526 527 528 529 530 531 532 533 534 535 536 537 538 539 540 541 542 543 544 545 546 547 548 549 550 551 552 553 554 555 556 557 558 559 560 561 562 563 564 565 566 567 568 569 570 571 572 573 574 575 576 577 578 579 580 581 582 583 584 585 586 587 588 589 590 591 592 593 594 595 596 597 598 599 600 601 602 603 604 605 606 607 608 609 610 611 612 613 614 615 616 617 618 619 620 621 622 623 624 625 626 627 628 629 630 631 632 633 634 635 636 637 638 639 640 641 642 643 644 645 646 647 648 649 650 651 652 653 654 655 656 657 658 659 660 661 662 663 664 665 666 667 668 669 670 671 672 673 674 675 676 677 678 679 680 681 682 683 684 685 686 687 688 689 690 691 692 693 694 695 696 697 698 699 700 701 702 703 704 705 706 707 708 709 710 711 712 713 714 715 716 717 718 719 720 721 722 723 724 725 726 727 728 729 730 731 732 733 734 735 736 737 738 739 740 741 742 743 744 745 746 747 748 749 750 751 752 753 754 755 756 757 758 759 760 761 762 763 764 765 766 767 768 769 770 771 772 773 774 775 776 777 778 779 780 781 782 783 784 785 786 787 788 789 790 791 792 793 794 795 796 797 798 799 800 801 802 803 804 805 806 807 808 809 810 811 812 813 814 815 816 817 818 819 820 821 822 823 824 825 826 827 828 829 830 831 832 833 834 835 836 837 838 839 840 841 842 843 844 845 846 847 848 849 850 851 852 853 854 855 856 857 858 859 860 861 862 863 864 865 866 867 868 869 870 871 872 873 874 875 876 877 878 879 880 881 882 883 884 885 886 887 888 889 890 891 892 893 894 895 896 897 898 899 900 901 902 903 904 905 906 907 908 909 910 911 912 913 914 915 916 917 918 919 920 921 922 923 924 925 926 927 928 929 930 931 932 933 934 935 936 937 938 939 940 941 942 943 944 945 946 947 948 949 950 951 952 953 954 955 956 957 958 959 960 961 962 963 964 965 966 967 968 969 970 971 972 973 974 975 976 977 978 979 980 981 982 983 984 985 986 987 988 989 990 991 992 993 994 995 996 997 998 999 1000 1001 1002 1003 1004 1005 1006 1007 1008 1009 1010 1011 1012 1013 1014 1015 1016 1017 1018 1019 1020 1021 1022 1023 1024 1025 1026 1027 1028 1029 1030 1031 1032 1033 1034 1035 1036 1037 1038 1039 1040 1041 1042 1043 1044 1045 1046 1047 1048 1049 1050 1051 1052 1053 1054 1055 1056 1057 1058 1059 1060 1061 1062 1063 1064 1065 1066 1067 1068 1069 1070 1071 1072 1073 1074 1075 1076 1077 1078 1079 1080 1081 1082 1083 1084 1085 1086 1087 1088 1089 1090 1091 1092 1093 1094 1095 1096 1097 1098 1099 1100 1101 1102 1103 1104 1105 1106 1107 1108 1109 1110 1111 1112 1113 1114 1115 1116 1117 1118 1119 1120 1121 1122 1123 1124 1125 1126 1127 1128 1129 1130 1131 1132 1133 1134 1135 1136 1137 1138 1139 1140 1141 1142 1143 1144 1145 1146 1147 1148 1149 1150 1151 1152 1153 1154 1155 1156 1157 1158 1159 1160 1161 1162 1163 1164 1165 1166 1167 1168 1169 1170 1171 1172 1173 1174 1175 1176 1177 1178 1179 1180 1181 1182 1183 1184 1185 1186 1187 1188 1189 1190 1191 1192 1193 1194 1195 1196 1197 1198 1199 1200 1201 1202 1203 1204 1205 1206 1207 1208 1209 1210 1211 1212 1213 1214 1215 1216 1217 1218 1219 1220 1221 1222 1223 1224 1225 1226 1227 1228 1229 1230 1231 1232 1233 1234 1235 1236 1237 1238 1239 1240 1241 1242 1243 1244 1245 1246 1247 1248 1249 1250 1251 1252 1253 1254 1255 1256 1257 1258 1259 1260 1261 1262 1263 1264 1265 1266 1267 1268 1269 1270 1271 1272 1273 1274 1275 1276 1277 1278 1279 1280 1281 1282 1283 1284 1285 1286 1287 1288 1289 1290 1291 1292 1293 1294 1295 1296 1297 1298 1299 1300 1301 1302 1303 1304 1305 1306 1307 1308 1309 1310 1311 1312 1313 1314 1315 1316 1317 1318 1319 1320 1321 1322 1323 1324 1325 1326 1327 1328 1329 1330 1331 1332 1333 1334 1335 1336 1337 1338 1339 1340 1341 1342 1343 1344 1345 1346 1347 1348 1349 1350 1351 1352 1353 1354 1355 1356 1357 1358 1359 1360 1361 1362 1363 1364 1365 1366 1367 1368 1369 1370 1371 1372 1373 1374 1375 1376 1377 1378 1379 1380 1381 1382 1383 1384 1385 1386 1387 1388 1389 1390 1391 1392 1393 1394 1395 1396 1397 1398 1399 1400 1401 1402 1403 1404 1405 1406 1407 1408 1409 1410 1411 1412 1413 1414 1415 1416 1417 1418 1419 1420 1421 1422 1423 1424 1425 1426 1427 1428 1429 1430 1431 1432 1433 1434 1435 1436 1437 1438 1439 1440 1441 1442 1443 1444 1445 1446 1447 1448 1449 1450 1451 1452 1453 1454 1455 1456 1457 1458 1459 1460 1461 1462 1463 1464 1465 1466 1467 1468 1469 1470 1471 1472 1473 1474 1475 1476 1477 1478 1479 1480 1481 1482 1483 1484 1485 1486 1487 1488 1489 1490 1491 1492 1493 1494 1495 1496 1497 1498 1499 1500 1501 1502 1503 1504 1505 1506 1507 1508 1509 1510 1511 1512 1513 1514 1515 1516 1517 1518 1519 1520 1521 1522 1523 1524 1525 1526 1527 1528 1529 1530 1531 1532 1533 1534 1535 1536 1537 1538 1539 1540 1541 1542 1543 1544 1545 1546 1547 1548 1549 1550 1551 1552 1553 1554 1555 1556 1557 1558 1559 1560 1561 1562 1563 1564 1565 1566 1567 1568 1569 1570 1571 1572 1573 1574 1575 1576 1577 1578 1579 1580 1581 1582 1583 1584 1585 1586 1587 1588 1589 1590 1591 1592 1593 1594 1595 1596 1597 1598 1599 1600 1601 1602 1603 1604 1605 1606 1607 1608 1609 1610 1611 1612 1613 1614 1615 1616 1617 1618 1619 1620 1621 1622 1623 1624 1625 1626 1627 1628 1629 1630 1631 1632 1633 1634 1635 1636 1637 1638 1639 1640 1641 1642 1643 1644 1645 1646 1647 1648 1649 1650 1651 1652 1653 1654 1655 1656 1657 1658 1659 1660 1661 1662 1663 1664 1665 1666 1667 1668 1669 1670 1671 1672 1673 1674 1675 1676 1677 1678 1679 1680 1681 1682 1683 1684 1685 1686 1687 1688 1689 1690 1691 1692 1693 1694 1695 1696 1697 1698 1699 1700 1701 1702 1703 1704 1705 1706 1707 1708 1709 1710 1711 1712 1713 1714 1715 1716 1717 1718 1719 1720 1721 1722 1723 1724 1725 1726 1727 1728 1729 1730 1731 1732 1733 1734 1735 1736 1737 1738 1739 1740 1741 1742 1743 1744 1745 1746 1747 1748 1749 1750 1751 1752 1753 1754 1755 1756 1757 1758 1759 1760 1761 1762 1763 1764 1765 1766 1767 1768 1769 1770 1771 1772 1773 1774 1775 1776 1777 1778 1779 1780 1781 1782 1783 1784 1785 1786 1787 1788 1789 1790 1791 1792 1793 1794 1795 1796 1797 1798 1799 1800 1801 1802 1803 1804 1805 1806 1807 1808 1809 1810 1811 1812 1813 1814 1815 1816 1817 1818 1819 1820 1821 1822 1823 1824 1825 1826 1827 1828 1829 1830 1831 1832 1833 1834 1835 1836 1837 1838 1839 1840 1841 1842 1843 1844 1845 1846 1847 1848 1849 1850 1851 1852 1853 1854 1855 1856 1857 1858 1859 1860 1861 1862 1863 1864 1865 1866 1867 1868 1869 1870 1871 1872 1873 1874 1875 1876 1877 1878 1879 1880 1881 1882 1883 1884 1885 1886 1887 1888 1889 1890 1891 1892 1893 1894 1895 1896 1897 1898 1899 1900 1901 1902 1903 1904 1905 1906 1907 1908 1909 1910 1911 1912 1913 1914 1915 1916 1917 1918 1919 1920 1921 1922 1923 1924 1925 1926 1927 1928 1929 1930 1931 1932 1933 1934 1935 1936 1937 1938 1939 1940 1941 1942 1943 1944 1945 1946 1947 1948 1949 1950 1951 1952 1953 1954 1955 1956 1957 1958 1959 1960 1961 1962 1963 1964 1965 1966 1967 1968 1969 1970 1971 1972 1973 1974 1975 1976 1977 1978 1979 1980 1981 1982 1983 1984 1985 1986 1987 1988 1989 1990 1991 1992 1993 1994 1995 1996 1997 1998 1999 2000 2001 2002 2003 2004 2005 2006 2007 2008 2009 2010 2011 2012 2013 2014 2015 2016 2017 2018 2019 2020 2021 2022 2023 2024 2025 2026 2027 2028 2029 2030 2031 2032 2033 2034 2035 2036 2037 2038 2039 2040 2041 2042 2043 2044 2045 2046 2047 2048 2049 2050 2051 2052 2053 2054 2055 2056 2057 2058 2059 2060 2061 2062 2063 2064 2065 2066 2067 2068 2069 2070 2071 2072 2073 2074 2075 2076 2077 2078 2079 2080 2081 2082 2083 2084 2085 2086 2087 2088 2089 2090 2091 2092 2093 2094 2095 2096 2097 2098 2099 2100 2101 2102 2103 2104 2105 2106 2107 2108 2109 2110 2111 2112 2113 2114 2115 2116 2117 2118 2119 2120 2121 2122 2123 2124 2125 2126 2127 2128 2129 2130 2131 2132 2133 2134 2135 2136 2137 2138 2139 2140 2141 2142 2143 2144 2145 2146 2147 2148 2149 2150 2151 2152 2153 2154 2155 2156 2157 2158 2159 2160 2161 2162 2163 2164 2165 2166 2167 2168 2169 2170 2171 2172 2173 2174 2175 2176 2177 2178 2179 2180 2181 2182 2183 2184 2185 2186 2187 2188 2189 2190 2191 2192 2193 2194 2195 2196 2197 2198 2199 2200 2201 2202 2203 2204 2205 2206 2207 2208 2209 2210 2211 2212 2213 2214 2215 2216 2217 2218 2219 2220 2221 2222 2223 2224 2225 2226 2227 2228 2229 2230 2231 2232 2233 2234 2235 2236 2237 2238 2239 2240 2241 2242 2243 2244 2245 2246 2247 2248 2249 2250 2251 2252 2253 2254 2255 2256 2257 2258 2259 2260 2261 2262 2263 2264 2265 2266 2267 2268 2269 2270 2271 2272 2273 2274 2275 2276 2277 2278 2279 2280 2281 2282 2283 2284 2285 2286 2287 2288 2289 2290 2291 2292 2293 2294 2295 2296 2297 2298 2299 2300 2301 2302 2303 2304 2305 2306 2307 2308 2309 2310 2311 2312 2313 2314 2315 2316 2317 2318 2319 2320 2321 2322 2323 2324 2325 2326 2327 2328 2329 2330 2331 2332 2333 2334 2335 2336 2337 2338 2339 2340 2341 2342 2343 2344 2345 2346 2347 2348 2349 2350 2351 2352 2353 2354 2355 2356 2357 2358 2359 2360 2361 2362 2363 2364 2365 2366 2367 2368 2369 2370 2371 2372 2373 2374 2375 2376 2377 2378 2379 2380 2381 2382 2383 2384 2385 2386 2387 2388 2389 2390 2391 2392 2393 2394 2395 2396 2397 2398 2399 2400 2401 2402 2403 2404 2405 2406 2407 2408 2409 2410 2411 2412 2413 2414 2415 2416 2417 2418 2419 2420 2421 2422 2423 2424 2425 2426 2427 2428 2429 2430 2431 2432 2433 2434 2435 2436 2437 2438 2439 2440 2441 2442 2443 2444 2445 2446 2447 2448 2449 2450 2451 2452 2453 2454 2455 2456 2457 2458 2459 2460 2461 2462 2463 2464 2465 2466 2467 2468 2469 2470 2471 2472 2473 2474 2475 2476 2477 2478 2479 2480 2481 2482 2483 2484 2485 2486 2487 2488 2489 2490 2491 2492 2493 2494 2495 2496 2497 2498 2499 2500 2501 2502 2503 2504 2505 2506 2507 2508 2509 2510 2511 2512 2513 2514 2515 2516 2517 2518 2519 2520 2521 2522 2523 2524 2525 2526 2527 2528 2529 2530 2531 2532 2533 2534 2535 2536 2537 2538 2539 2540 2541 2542 2543 2544 2545 2546 2547 2548 2549 2550 2551 2552 2553 2554 2555 2556 2557 2558 2559 2560 2561 2562 2563 2564 2565 2566 2567 2568 2569 2570 2571 2572 2573 2574 2575 2576 2577 2578 2579 2580 2581 2582 2583 2584 2585 2586 2587 2588 2589 2590 2591 2592 2593 2594 2595 2596 2597 2598 2599 2600 2601 2602 2603 2604 2605 2606 2607 2608 2609 2610 2611 2612 2613 2614 2615 2616 2617 2618 2619 2620 2621 2622 2623 2624 2625 2626 2627 2628 2629 2630 2631 2632 2633 2634 2635 2636 2637 2638 2639 2640 2641 2642 2643 2644 2645 2646 2647 2648 2649 2650 2651 2652 2653 2654 2655 2656 2657 2658 2659 2660 2661 2662 2663 2664 2665 2666 2667 2668 2669 2670 2671 2672 2673 2674 2675 2676 2677 2678 2679 2680 2681 2682 2683 2684 2685 2686 2687 2688 2689 2690 2691 2692 2693 2694 2695 2696 2697 2698 2699 2700 2701 2702 2703 2704 2705 2706 2707 2708 2709 2710 2711 2712 2713 2714 2715 2716 2717 2718 2719 2720 2721 2722 2723 2724 2725 2726 2727 2728 2729 2730 2731 2732 2733 2734 2735 2736 2737 2738 2739 2740 2741 2742 2743 2744 2745 2746 2747 2748 2749 2750 2751 2752 2753 2754 2755 2756 2757 2758 2759 2760 2761 2762 2763 2764 2765 2766 2767 2768 2769 2770 2771 2772 2773 2774 2775 2776 2777 2778 2779 2780 2781 2782 2783 2784 2785 2786 2787 2788 2789 2790 2791 2792 2793 2794 2795 2796 2797 2798 2799 2800 2801 2802 2803 2804 2805 2806 2807 2808 2809 2810 2811 2812 2813 2814 2815 2816 2817 2818 2819 2820 2821 2822 2823 2824 2825 2826 2827 2828 2829 2830 2831 2832 2833 2834 2835 2836 2837 2838 2839 2840 2841 2842 2843 2844 2845 2846 2847 2848 2849 2850 2851 2852 2853 2854 2855 2856 2857 2858 2859 2860 2861 2862 2863 2864 2865 2866 2867 2868 2869 2870 2871 2872 2873 2874 2875 2876 2877 2878 2879 2880 2881 2882 2883 2884 2885 2886 2887 2888 2889 2890 2891 2892 2893 2894 2895 2896 2897 2898 2899 2900 2901 2902 2903 2904 2905 2906 2907 2908 2909 2910 2911 2912 2913 2914 2915 2916 2917 2918 2919 2920 2921 2922 2923 2924 2925 2926 2927 2928 2929 2930 2931 2932 2933 2934 2935 2936 2937 2938 2939 2940 2941 2942 2943 2944 2945 2946 2947 2948 2949 2950 2951 2952 2953 2954 2955 2956 2957 2958 2959 2960 2961 2962 2963 2964 2965 2966 2967 2968 2969 2970 2971 2972 2973 2974 2975 2976 2977 2978 2979 2980 2981 2982 2983 2984 2985 2986 2987 2988 2989 2990 2991 2992 2993 2994 2995 2996 2997 2998 2999 3000 3001 3002 3003 3004 3005 3006 3007 3008 3009 3010 3011 3012 3013 3014 3015 3016 3017 3018 3019 3020 3021 3022 3023 3024 3025 3026 3027 3028 3029 3030 3031 3032 3033 3034 3035 3036 3037 3038 3039 3040 3041 3042 3043 3044 3045 3046 3047 3048 3049 3050 3051 3052 3053 3054 3055 3056 3057 3058 3059 3060 3061 3062 3063 3064 3065 3066 3067 3068 3069 3070 3071 3072 3073 3074 3075 3076 3077 3078 3079 3080 3081 3082 3083 3084 3085 3086 3087 3088 3089 3090 3091 3092 3093 3094 3095 3096 3097 3098 3099 3100 3101 3102 3103 3104 3105 3106 3107 3108 3109 3110 3111 3112 3113 3114 3115 3116 3117 3118 3119 3120 3121 3122 3123 3124 3125 3126 3127 3128 3129 3130 3131 3132 3133 3134 3135 3136 3137 3138 3139 3140 3141 3142 3143 3144 3145 3146 3147 3148 3149 3150 3151 3152 3153 3154 3155 3156 3157 3158 3159 3160 3161 3162 3163 3164 3165 3166 3167 3168 3169 3170 3171 3172 3173 3174 3175 3176 3177 3178 3179 3180 3181 3182 3183 3184 3185 3186 3187 3188 3189 3190 3191 3192 3193 3194 3195 3196 3197 3198 3199 3200 3201 3202 3203 3204 3205 3206 3207 3208 3209 3210 3211 3212 3213 3214 3215 3216 3217 3218 3219 3220 3221 3222 3223 3224 3225 3226 3227 3228 3229 3230 3231 3232 3233 3234 3235 3236 3237 3238 3239 3240 3241 3242 3243 3244 3245 3246 3247 3248 3249 3250 3251 3252 3253 3254 3255 3256 3257 3258 3259 3260 3261 3262 3263 3264 3265 3266 3267 3268 3269 3270 3271 3272 3273 3274 3275 3276 3277 3278 3279 3280 3281 3282 3283 3284 3285 3286 3287 3288 3289 3290 3291 3292 3293 3294 3295 3296 3297 3298 3299 3300 3301 3302 3303 3304 3305 3306 3307 3308 3309 3310 3311 3312 3313 3314 3315 3316 3317 3318 3319 3320 3321 3322 3323 3324 3325 3326 3327 3328 3329 3330 3331 3332 3333 3334 3335 3336 3337 3338 3339 3340 3341 3342 3343 3344 3345 3346 3347 3348 3349 3350 3351 3352 3353 3354 3355 3356 3357 3358 3359 3360 3361 3362 3363 3364 3365 3366 3367 3368 3369 3370 3371 3372 3373 3374 3375 3376 3377 3378 3379 3380 3381 3382 3383 3384 3385 3386 3387 3388 3389 3390 3391 3392 3393 3394 3395 3396 3397 3398 3399 3400 3401 3402 3403 3404 3405 3406 3407 3408 3409 3410 3411 3412 3413 3414 3415 3416 3417 3418 3419 3420 3421 3422 3423 3424 3425 3426 3427 3428 3429 3430 3431 3432 3433 3434 3435 3436 3437 3438 3439 3440 3441 3442 3443 3444 3445 3446 3447 3448 3449 3450 3451 3452 3453 3454 3455 3456 3457 3458 3459 3460 3461 3462 3463 3464 3465 3466 3467 3468 3469 3470 3471 3472 3473 3474 3475 3476 3477 3478 3479 3480 3481 3482 3483 3484 3485 3486 3487 3488 3489 3490 3491 3492 3493 3494 3495 3496 3497 3498 3499 3500 3501 3502 3503 3504 3505 3506 3507 3508 3509 3510 3511 3512 3513 3514 3515 3516 3517 3518 3519 3520 3521 3522 3523 3524 3525 3526 3527 3528 3529 3530 3531 3532 3533 3534 3535 3536 3537 3538 3539 3540 3541 3542 3543 3544 3545 3546 3547 3548 3549 3550 3551 3552 3553 3554 3555 3556 3557 3558 3559 3560 3561 3562 3563 3564 3565 3566 3567 3568 3569 3570 3571 3572 3573 3574 3575 3576 3577 3578 3579 3580 3581 3582 3583 3584 3585 3586 3587 3588 3589 3590 3591 3592 3593 3594 3595 3596 3597 3598 3599 3600 3601 3602 3603 3604 3605 3606 3607 3608 3609 3610 3611 3612 3613 3614 3615 3616 3617 3618 3619 3620 3621 3622 3623 3624 3625 3626 3627 3628 3629 3630 3631 3632 3633 3634 3635 3636 3637 3638 3639 3640 3641 3642 3643 3644 3645 3646 3647 3648 3649 3650 3651 3652 3653 3654 3655 3656 3657 3658 3659 3660 3661 3662 3663 3664 3665 3666 3667 3668 3669 3670 3671 3672 3673 3674 3675 3676 3677 3678 3679 3680 3681 3682 3683 3684 3685 3686 3687 3688 3689 3690 3691 3692 3693 3694 3695 3696 3697 3698 3699 3700 3701 3702 3703 3704 3705 3706 3707 3708 3709 3710 3711 3712 3713 3714 3715 3716 3717 3718 3719 3720 3721 3722 3723 3724 3725 3726 3727 3728 3729 3730 3731 3732 3733 3734 3735 3736 3737 3738 3739 3740 3741 3742 3743 3744 3745 3746 3747 3748 3749 3750 3751 3752 3753 3754 3755 3756 3757 3758 3759 3760 3761 3762 3763 3764 3765 3766 3767 3768 3769 3770 3771 3772 3773 3774 3775 3776 3777 3778 3779 3780 3781 3782 3783 3784 3785 3786 3787 3788 3789 3790 3791 3792 3793 3794 3795 3796 3797 3798 3799 3800 3801 3802 3803 3804 3805 3806 3807 3808 3809 3810 3811 3812 3813 3814 3815 3816 3817 3818 3819 3820 3821 3822 3823 3824 3825 3826 3827 3828 3829 3830 3831 3832 3833 3834 3835 3836 3837 3838 3839 3840 3841 3842 3843 3844 3845 3846 3847 3848 3849 3850 3851 3852 3853 3854 3855 3856 3857 3858 3859 3860 3861 3862 3863 3864 3865 3866 3867 3868 3869 3870 3871 3872 3873 3874 3875 3876 3877 3878 3879 3880 3881 3882 3883 3884 3885 3886 3887 3888 3889 3890 3891 3892 3893 3894 3895 3896 3897 3898 3899 3900 3901 3902 3903 3904 3905 3906 3907 3908 3909 3910 3911 3912 3913 3914 3915 3916 3917 3918 3919 3920 3921 3922 3923 3924 3925 3926 3927 3928 3929 3930 3931 3932 3933 3934 3935 3936 3937 3938 3939 3940 3941 3942 3943 3944 3945 3946 3947 3948 3949 3950 3951 3952 3953 3954 3955 3956 3957 3958 3959 3960 3961 3962 3963 3964 3965 3966 3967 3968 3969 3970 3971 3972 3973 3974 3975 3976 3977 3978 3979 3980 3981 3982 3983 3984 3985 3986 3987 3988 3989 3990 3991 3992 3993 3994 3995 3996 3997 3998 3999 4000 4001 4002 4003 4004 4005 4006 4007 4008 4009 4010 4011 4012 4013 4014 4015 4016 4017 4018 4019 4020 4021 4022 4023 4024 4025 4026 4027 4028 4029 4030 4031 4032 4033 4034 4035 4036 4037 4038 4039 4040 4041 4042 4043 4044 4045 4046 4047 4048 4049 4050 4051 4052 4053 4054 4055 4056 4057 4058 4059 4060 4061 4062 4063 4064 4065 4066 4067 4068 4069 4070 4071 4072 4073 4074 4075 4076 4077 4078 4079 4080 4081 4082 4083 4084 4085 4086 4087 4088 4089 4090 4091 4092 4093 4094 4095 4096 4097 4098 4099 4100 4101 4102 4103 4104 4105 4106 4107 4108 4109 4110 4111 4112 4113 4114 4115 4116 4117 4118 4119 4120 4121 4122 4123 4124 4125 4126 4127 4128 4129 4130 4131 4132 4133 4134 4135 4136 4137 4138 4139 4140 4141 4142 4143 4144 4145 4146 4147 4148 4149 4150 4151 4152 4153 4154 4155 4156 4157 4158 4159 4160 4161 4162 4163 4164 4165 4166 4167 4168 4169 4170 4171 4172 4173 4174 4175 4176 4177 4178 4179 4180 4181 4182 4183 4184 4185 4186 4187 4188 4189 4190 4191 4192 4193 4194 4195 4196 4197 4198 4199 4200 4201 4202 4203 4204 4205 4206 4207 4208 4209 4210 4211 4212 4213 4214 4215 4216 4217 4218 4219 4220 4221 4222 4223 4224 4225 4226 4227 4228 4229 4230 4231 4232 4233 4234 4235 4236 4237 4238 4239 4240 4241 4242 4243 4244 4245 4246 4247 4248 4249 4250 4251 4252 4253 4254 4255 4256 4257 4258 4259 4260 4261 4262 4263 4264 4265 4266 4267 4268 4269 4270 4271 4272 4273 4274 4275 4276 4277 4278 4279 4280 4281 4282 4283 4284 4285 4286 4287 4288 4289 4290 4291 4292 4293 4294 4295 4296 4297 4298 4299 4300 4301 4302 4303 4304 4305 4306 4307 4308 4309 4310 4311 4312 4313 4314 4315 4316 4317 4318 4319 4320 4321 4322 4323 4324 4325 4326 4327 4328 4329 4330 4331 4332 4333 4334 4335 4336 4337 4338 4339 4340 4341 4342 4343 4344 4345 4346 4347 4348 4349 4350 4351 4352 4353 4354 4355 4356 4357 4358 4359 4360 4361 4362 4363 4364 4365 4366 4367 4368 4369 4370 4371 4372 4373 4374 4375 4376 4377 4378 4379 4380 4381 4382 4383 4384 4385 4386 4387 4388 4389 4390 4391 4392 4393 4394 4395 4396 4397 4398 4399 4400 4401 4402 4403 4404 4405 4406 4407 4408 4409 4410 4411 4412 4413 4414 4415 4416 4417 4418 4419 4420 4421 4422 4423 4424 4425 4426 4427 4428 4429 4430 4431 4432 4433 4434 4435 4436 4437 4438 4439 4440 4441 4442 4443 4444 4445 4446 4447 4448 4449 4450 4451 4452 4453 4454 4455 4456 4457 4458 4459 4460 4461 4462 4463 4464 4465 4466 4467 4468 4469 4470 4471 4472 4473 4474 4475 4476 4477 4478 4479 4480 4481 4482 4483 4484 4485 4486 4487 4488 4489 4490 4491 4492 4493 4494 4495 4496 4497 4498 4499 4500 4501 4502 4503 4504 4505 4506 4507 4508 4509 4510 4511 4512 4513 4514 4515 4516 4517 4518 4519 4520 4521 4522 4523 4524 4525 4526 4527 4528 4529 4530 4531 4532 4533 4534 4535 4536 4537 4538 4539 4540 4541 4542 4543 4544 4545 4546 4547 4548 4549 4550 4551 4552 4553 4554 4555 4556 4557 4558 4559 4560 4561 4562 4563 4564 4565 4566 4567 4568 4569 4570 4571 4572 4573 4574 4575 4576 4577 4578 4579 4580 4581 4582 4583 4584 4585 4586 4587 4588 4589 4590 4591 4592 4593 4594 4595 4596 4597 4598 4599 4600 4601 4602 4603 4604 4605 4606 4607 4608 4609 4610 4611 4612 4613 4614 4615 4616 4617 4618 4619 4620 4621 4622 4623 4624 4625 4626 4627 4628 4629 4630 4631 4632 4633 4634 4635 4636 4637 4638 4639 4640 4641 4642 4643 4644 4645 4646 4647 4648 4649 4650 4651 4652 4653 4654 4655 4656 4657 4658 4659 4660 4661 4662 4663 4664 4665 4666 4667 4668 4669 4670 4671 4672 4673 4674 4675 4676 4677 4678 4679 4680 4681 4682 4683 4684 4685 4686 4687 4688 4689 4690 4691 4692 4693 4694 4695 4696 4697 4698 4699 4700 4701 4702 4703 4704 4705 4706 4707 4708 4709 4710 4711 4712 4713 4714 4715 4716 4717 4718 4719 4720 4721 4722 4723 4724 4725 4726 4727 4728 4729 4730 4731 4732 4733 4734 4735 4736 4737 4738 4739 4740 4741 4742 4743 4744 4745 4746 4747 4748 4749 4750 4751 4752 4753 4754 4755 4756 4757 4758 4759 4760 4761 4762 4763 4764 4765 4766 4767 4768 4769 4770 4771 4772 4773 4774 4775 4776 4777 4778 4779 4780 4781 4782 4783 4784 4785 4786 4787 4788 4789 4790 4791 4792 4793 4794 4795 4796 4797 4798 4799 4800 4801 4802 4803 4804 4805 4806 4807 4808 4809 4810 4811 4812 4813 4814 4815 4816 4817 4818 4819 4820 4821 4822 4823 4824 4825 4826 4827 4828 4829 4830 4831 4832 4833 4834 4835 4836 4837 4838 4839 4840 4841 4842 4843 4844 4845 4846 4847 4848 4849 4850 4851 4852 4853 4854 4855 4856 4857 4858 4859 4860 4861 4862 4863 4864 4865 4866 4867 4868 4869 4870 4871 4872 4873 4874 4875 4876 4877 4878 4879 4880 4881 4882 4883 4884 4885 4886 4887 4888 4889 4890 4891 4892 4893 4894 4895 4896 4897 4898 4899 4900 4901 4902 4903 4904 4905 4906 4907 4908 4909 4910 4911 4912 4913 4914 4915 4916 4917 4918 4919 4920 4921 4922 4923 4924 4925 4926 4927 4928 4929 4930 4931 4932 4933 4934 4935 4936 4937 4938 4939 4940 4941 4942 4943 4944 4945 4946 4947 4948 4949 4950 4951 4952 4953 4954 4955 4956 4957 4958 4959 4960 4961 4962 4963 4964 4965 4966 4967 4968 4969 4970 4971 4972 4973 4974 4975 4976 4977 4978 4979 4980 4981 4982 4983 4984 4985 4986 4987 4988 4989 4990 4991 4992 4993 4994 4995 4996 4997 4998 4999 5000 5001 5002 5003 5004 5005 5006 5007 5008 5009 5010 5011 5012 5013 5014 5015 5016 5017 5018 5019 5020 5021 5022 5023 5024 5025 5026 5027 5028 5029 5030 5031 5032 5033 5034 5035 5036 5037 5038 5039 5040 5041 5042 5043 5044 5045 5046 5047 5048 5049 5050 5051 5052 5053 5054 5055 5056 5057 5058 5059 5060 5061 5062 5063 5064 5065 5066 5067 5068 5069 5070 5071 5072 5073 5074 5075 5076 5077 5078 5079 5080 5081 5082 5083 5084 5085 5086 5087 5088 5089 5090 5091 5092 5093 5094 5095 5096 5097 5098 5099 5100 5101 5102 5103 5104 5105 5106 5107 5108 5109 5110 5111 5112 5113 5114 5115 5116 5117 5118 5119 5120 5121 5122 5123 5124 5125 5126 5127 5128 5129 5130 5131 5132 5133 5134 5135 5136 5137 5138 5139 5140 5141 5142 5143 5144 5145 5146 5147 5148 5149 5150 5151 5152 5153 5154 5155 5156 5157 5158 5159 5160 5161 5162 5163 5164 5165 5166 5167 5168 5169 5170 5171 5172 5173 5174 5175 5176 5177 5178 5179 5180 5181 5182 5183 5184 5185 5186 5187 5188 5189 5190 5191 5192 5193 5194 5195 5196 5197 5198 5199 5200 5201 5202 5203 5204 5205 5206 5207 5208 5209 5210 5211 5212 5213 5214 5215 5216 5217 5218 5219 5220 5221 5222 5223 5224 5225 5226 5227 5228 5229 5230 5231 5232 5233 5234 5235 5236 5237 5238 5239 5240 5241 5242 5243 5244 5245 5246 5247 5248 5249 5250 5251 5252 5253 5254 5255 5256 5257 5258 5259 5260 5261 5262 5263 5264 5265 5266 5267 5268 5269 5270 5271 5272 5273 5274 5275 5276 5277 5278 5279 5280 5281 5282 5283 5284 5285 5286 5287 5288 5289 5290 5291 5292 5293 5294 5295 5296 5297 5298 5299 5300 5301 5302 5303 5304 5305 5306 5307 5308 5309 5310 5311 5312 5313 5314 5315 5316 5317 5318 5319 5320 5321 5322 5323 5324 5325 5326 5327 5328 5329 5330 5331 5332 5333 5334 5335 5336 5337 5338 5339 5340 5341 5342 5343 5344 5345 5346 5347 5348 5349 5350 5351 5352 5353 5354 5355 5356 5357 5358 5359 5360 5361 5362 5363 5364 5365 5366 5367 5368 5369 5370 5371 5372 5373 5374 5375 5376 5377 5378 5379 5380 5381 5382 5383 5384 5385 5386 5387 5388 5389 5390 5391 5392 5393 5394 5395 5396 5397 5398 5399 5400 5401 5402 5403 5404 5405 5406 5407 5408 5409 5410 5411 5412 5413 5414 5415 5416 5417 5418 5419 5420 5421 5422 5423 5424 5425 5426 5427 5428 5429 5430 5431 5432 5433 5434 5435 5436 5437 5438 5439 5440 5441 5442 5443 5444 5445 5446 5447 5448 5449 5450 5451 5452 5453 5454 5455 5456 5457 5458 5459 5460 5461 5462 5463 5464 5465 5466 5467 5468 5469 5470 5471 5472 5473 5474 5475 5476 5477 5478 5479 5480 5481 5482 5483 5484 5485 5486 5487 5488 5489 5490 5491 5492 5493 5494 5495 5496 5497 5498 5499 5500 5501 5502 5503 5504 5505 5506 5507 5508 5509 5510 5511 5512 5513 5514 5515 5516 5517 5518 5519 5520 5521 5522 5523 5524 5525 5526 5527 5528 5529 5530 5531 5532 5533 5534 5535 5536 5537 5538 5539 5540 5541 5542 5543 5544 5545 5546 5547 5548 5549 5550 5551 5552 5553 5554 5555 5556 5557 5558 5559 5560 5561 5562 5563 5564 5565 5566 5567 5568 5569 5570 5571 5572 5573 5574 5575 5576 5577 5578 5579 5580 5581 5582 5583 5584 5585 5586 5587 5588 5589 5590 5591 5592 5593 5594 5595 5596 5597 5598 5599 5600 5601 5602 5603 5604 5605 5606 5607 5608 5609 5610 5611 5612 5613 5614 5615 5616 5617 5618 5619 5620 5621 5622 5623 5624 5625 5626 5627 5628 5629 5630 5631 5632 5633 5634 5635 5636 5637 5638 5639 5640 5641 5642 5643 5644 5645 5646 5647 5648 5649 5650 5651 5652 5653 5654 5655 5656 5657 5658 5659 5660 5661 5662 5663 5664 5665 5666 5667 5668 5669 5670 5671 5672 5673 5674 5675 5676 5677 5678 5679 5680 5681 5682 5683 5684 5685 5686 5687 5688 5689 5690 5691 5692 5693 5694 5695 5696 5697 5698 5699 5700 5701 5702 5703 5704 5705 5706 5707 5708 5709 5710 5711 5712 5713 5714 5715 5716 5717 5718 5719 5720 5721 5722 5723 5724 5725 5726 5727 5728 5729 5730 5731 5732 5733 5734 5735 5736 5737 5738 5739 5740 5741 5742 5743 5744 5745 5746 5747 5748 5749 5750 5751 5752 5753 5754 5755 5756 5757 5758 5759 5760 5761 5762 5763 5764 5765 5766 5767 5768 5769 5770 5771 5772 5773 5774 5775 5776 5777 5778 5779 5780 5781 5782 5783 5784 5785 5786 5787 5788 5789 5790 5791 5792 5793 5794 5795 5796 5797 5798 5799 5800 5801 5802 5803 5804 5805 5806 5807 5808 5809 5810 5811 5812 5813 5814 5815 5816 5817 5818 5819 5820 5821 5822 5823 5824 5825 5826 5827 5828 5829 5830 5831 5832 5833 5834 5835 5836 5837 5838 5839 5840 5841 5842 5843 5844 5845 5846 5847 5848 5849 5850 5851 5852 5853 5854 5855 5856 5857 5858 5859 5860 5861 5862 5863 5864 5865 5866 5867 5868 5869 5870 5871 5872 5873 5874 5875 5876 5877 5878 5879 5880 5881 5882 5883 5884 5885 5886 5887 5888 5889 5890 5891 5892 5893 5894 5895 5896 5897 5898 5899 5900 5901 5902 5903 5904 5905 5906 5907 5908 5909 5910 5911 5912 5913 5914 5915 5916 5917 5918 5919 5920 5921 5922 5923 5924 5925 5926 5927 5928 5929 5930 5931 5932 5933 5934 5935 5936 5937 5938 5939 5940 5941 5942 5943 5944 5945 5946 5947 5948 5949 5950 5951 5952 5953 5954 5955 5956 5957 5958 5959 5960 5961 5962 5963 5964 5965 5966 5967 5968 5969 5970 5971 5972 5973 5974 5975 5976 5977 5978 5979 5980 5981 5982 5983 5984 5985 5986 5987 5988 5989 5990 5991 5992 5993 5994 5995 5996 5997 5998 5999 6000 6001 6002 6003 6004 6005 6006 6007 6008 6009 6010 6011 6012 6013 6014 6015 6016 6017 6018 6019 6020 6021 6022 6023 6024 6025 6026 6027 6028 6029 6030 6031 6032 6033 6034 6035 6036 6037 6038 6039 6040 6041 6042 6043 6044 6045 6046 6047 6048 6049 6050 6051 6052 6053 6054 6055 6056 6057 6058 6059 6060 6061 6062 6063 6064 6065 6066 6067 6068 6069 6070 6071 6072 6073 6074 6075 6076 6077 6078 6079 6080 6081 6082 6083 6084 6085 6086 6087 6088 6089 6090 6091 6092 6093 6094 6095 6096 6097 6098 6099 6100 6101 6102 6103 6104 6105 6106 6107 6108 6109 6110 6111 6112 6113 6114 6115 6116 6117 6118 6119 6120 6121 6122 6123 6124 6125 6126 6127 6128 6129 6130 6131 6132 6133 6134 6135 6136 6137 6138 6139 6140 6141 6142 6143 6144 6145 6146 6147 6148 6149 6150 6151 6152 6153 6154 6155 6156 6157 6158 6159 6160 6161 6162 6163 6164 6165 6166 6167 6168 6169 6170 6171 6172 6173 6174 6175 6176 6177 6178 6179 6180 6181 6182 6183 6184 6185 6186 6187 6188 6189 6190 6191 6192 6193 6194 6195 6196 6197 6198 6199 6200 6201 6202 6203 6204 6205 6206 6207 6208 6209 6210 6211 6212 6213 6214 6215 6216 6217 6218 6219 6220 6221 6222 6223 6224 6225 6226 6227 6228 6229 6230 6231 6232 6233 6234 6235 6236 6237 6238 6239 6240 6241 6242 6243 6244 6245 6246 6247 6248 6249 6250 6251 6252 6253 6254 6255 6256 6257 6258 6259 6260 6261 6262 6263 6264 6265 6266 6267 6268 6269 6270 6271 6272 6273 6274 6275 6276 6277 6278 6279 6280 6281 6282 6283 6284 6285 6286 6287 6288 6289 6290 6291 6292 6293 6294 6295 6296 6297 6298 6299 6300 6301 6302 6303 6304 6305 6306 6307 6308 6309 6310 6311 6312 6313 6314 6315 6316 6317 6318 6319 6320 6321 6322 6323 6324 6325 6326 6327 6328 6329 6330 6331 6332 6333 6334 6335 6336 6337 6338 6339 6340 6341 6342 6343 6344 6345 6346 6347 6348 6349 6350 6351 6352 6353 6354 6355 6356 6357 6358 6359 6360 6361 6362 6363 6364 6365 6366 6367 6368 6369 6370 6371 6372 6373 6374 6375 6376 6377 6378 6379 6380 6381 6382 6383 6384 6385 6386 6387 6388 6389 6390 6391 6392 6393 6394 6395 6396 6397 6398 6399 6400 6401 6402 6403 6404 6405 6406 6407 6408 6409 6410 6411 6412 6413 6414 6415 6416 6417 6418 6419 6420 6421 6422 6423 6424 6425 6426 6427 6428 6429 6430 6431 6432 6433 6434 6435 6436 6437 6438 6439 6440 6441 6442 6443 6444 6445 6446 6447 6448 6449 6450 6451 6452 6453 6454 6455 6456 6457 6458 6459 6460 6461 6462 6463 6464 6465 6466 6467 6468 6469 6470 6471 6472 6473 6474 6475 6476 6477 6478 6479 6480 6481 6482 6483 6484 6485 6486 6487 6488 6489 6490 6491 6492 6493 6494 6495 6496 6497 6498 6499 6500 6501 6502 6503 6504 6505 6506 6507 6508 6509 6510 6511 6512 6513 6514 6515 6516 6517 6518 6519 6520 6521 6522 6523 6524 6525 6526 6527 6528 6529 6530 6531 6532 6533 6534 6535 6536 6537 6538 6539 6540 6541 6542 6543 6544 6545 6546 6547 6548 6549 6550 6551 6552 6553 6554 6555 6556 6557 6558 6559 6560 6561 6562 6563 6564 6565 6566 6567 6568 6569 6570 6571 6572 6573 6574 6575 6576 6577 6578 6579 6580 6581 6582 6583 6584 6585 6586 6587 6588 6589 6590 6591 6592 6593 6594 6595 6596 6597 6598 6599 6600 6601 6602 6603 6604 6605 6606 6607 6608 6609 6610 6611 6612 6613 6614 6615 6616 6617 6618 6619 6620 6621 6622 6623 6624 6625 6626 6627 6628 6629 6630 6631 6632 6633 6634 6635 6636 6637 6638 6639 6640 6641 6642 6643 6644 6645 6646 6647 6648 6649 6650 6651 6652 6653 6654 6655 6656 6657 6658 6659 6660 6661 6662 6663 6664 6665 6666 6667 6668 6669 6670 6671 6672 6673 6674 6675 6676 6677 6678 6679 6680 6681 6682 6683 6684 6685 6686 6687 6688 6689 6690 6691 6692 6693 6694 6695 6696 6697 6698 6699 6700 6701 6702 6703 6704 6705 6706 6707 6708 6709 6710 6711 6712 6713 6714 6715 6716 6717 6718 6719 6720 6721 6722 6723 6724 6725 6726 6727 6728 6729 6730 6731 6732 6733 6734 6735 6736 6737 6738 6739 6740 6741 6742 6743 6744 6745 6746 6747 6748 6749 6750 6751 6752 6753 6754 6755 6756 6757 6758 6759 6760 6761 6762 6763 6764 6765 6766 6767 6768 6769 6770 6771 6772 6773 6774 6775 6776 6777 6778 6779 6780 6781 6782 6783 6784 6785 6786 6787 6788 6789 6790 6791 6792 6793 6794 6795 6796 6797 6798 6799 6800 6801 6802 6803 6804 6805 6806 6807 6808 6809 6810 6811 6812 6813 6814 6815 6816 6817 6818 6819 6820 6821 6822 6823 6824 6825 6826 6827 6828 6829 6830 6831 6832 6833 6834 6835 6836 6837 6838 6839 6840 6841 6842 6843 6844 6845 6846 6847 6848 6849 6850 6851 6852 6853 6854 6855 6856 6857 6858 6859 6860 6861 6862 6863 6864 6865 6866 6867 6868 6869 6870 6871 6872 6873 6874 6875 6876 6877 6878 6879 6880 6881 6882 6883 6884 6885 6886 6887 6888 6889 6890 6891 6892 6893 6894 6895 6896 6897 6898 6899 6900 6901 6902 6903 6904 6905 6906 6907 6908 6909 6910 6911 6912 6913 6914 6915 6916 6917 6918 6919 6920 6921 6922 6923 6924 6925 6926 6927 6928 6929 6930 6931 6932 6933 6934 6935 6936 6937 6938 6939 6940 6941 6942 6943 6944 6945 6946 6947 6948 6949 6950 6951 6952 6953 6954 6955 6956 6957 6958 6959 6960 6961 6962 6963 6964 6965 6966 6967 6968 6969 6970 6971 6972 6973 6974 6975 6976 6977 6978 6979 6980 6981 6982 6983 6984 6985 6986 6987 6988 6989 6990 6991 6992 6993 6994 6995 6996 6997 6998 6999 7000 7001 7002 7003 7004 7005 7006 7007 7008 7009 7010 7011 7012 7013 7014 7015 7016 7017 7018 7019 7020 7021 7022 7023 7024 7025 7026 7027 7028 7029 7030 7031 7032 7033 7034 7035 7036 7037 7038 7039 7040 7041 7042 7043 7044 7045 7046 7047 7048 7049 7050 7051 7052 7053 7054 7055 7056 7057 7058 7059 7060 7061 7062 7063 7064 7065 7066 7067 7068 7069 7070 7071 7072 7073 7074 7075 7076 7077 7078 7079 7080 7081 7082 7083 7084 7085 7086 7087 7088 7089 7090 7091 7092 7093 7094 7095 7096 7097 7098 7099 7100 7101 7102 7103 7104 7105 7106 7107 7108 7109 7110 7111 7112 7113 7114 7115 7116 7117 7118 7119 7120 7121 7122 7123 7124 7125 7126 7127 7128 7129 7130 7131 7132 7133 7134 7135 7136 7137 7138 7139 7140 7141 7142 7143 7144 7145 7146 7147 7148 7149 7150 7151 7152 7153 7154 7155 7156 7157 7158 7159 7160 7161 7162 7163 7164 7165 7166 7167 7168 7169 7170 7171 7172 7173 7174 7175 7176 7177 7178 7179 7180 7181 7182 7183 7184 7185 7186 7187 7188 7189 7190 7191 7192 7193 7194 7195 7196 7197 7198 7199 7200 7201 7202 7203 7204 7205 7206 7207 7208 7209 7210 7211 7212 7213 7214 7215 7216 7217 7218 7219 7220 7221 7222 7223 7224 7225 7226 7227 7228 7229 7230 7231 7232 7233 7234 7235 7236 7237 7238 7239 7240 7241 7242 7243 7244 7245 7246 7247 7248 7249 7250 7251 7252 7253 7254 7255 7256 7257 7258 7259 7260 7261 7262 7263 7264 7265 7266 7267 7268 7269 7270 7271 7272 7273 7274 7275 7276 7277 7278 7279 7280 7281 7282 7283 7284 7285 7286 7287 7288 7289 7290 7291 7292 7293 7294 7295 7296 7297 7298 7299 7300 7301 7302 7303 7304 7305 7306 7307 7308 7309 7310 7311 7312 7313 7314 7315 7316 7317 7318 7319 7320 7321 7322 7323 7324 7325 7326 7327 7328 7329 7330 7331 7332 7333 7334 7335 7336 7337 7338 7339 7340 7341 7342 7343 7344 7345 7346 7347 7348 7349 7350 7351 7352 7353 7354 7355 7356 7357 7358 7359 7360 7361 7362 7363 7364 7365 7366 7367 7368 7369 7370 7371 7372 7373 7374 7375 7376 7377 7378 7379 7380 7381 7382 7383 7384 7385 7386 7387 7388 7389 7390 7391 7392 7393 7394 7395 7396 7397 7398 7399 7400 7401 7402 7403 7404 7405 7406 7407 7408 7409 7410 7411 7412 7413 7414 7415 7416 7417 7418 7419 7420 7421 7422 7423 7424 7425 7426 7427 7428 7429 7430 7431 7432 7433 7434 7435 7436 7437 7438 7439 7440 7441 7442 7443 7444 7445 7446 7447 7448 7449 7450 7451 7452 7453 7454 7455 7456 7457 7458 7459 7460 7461 7462 7463 7464 7465 7466 7467 7468 7469 7470 7471 7472 7473 7474 7475 7476 7477 7478 7479 7480 7481 7482 7483 7484 7485 7486 7487 7488 7489 7490 7491 7492 7493 7494 7495 7496 7497 7498 7499 7500 7501 7502 7503 7504 7505 7506 7507 7508 7509 7510 7511 7512 7513 7514 7515 7516 7517 7518 7519 7520 7521 7522 7523 7524 7525 7526 7527 7528 7529 7530 7531 7532 7533 7534 7535 7536 7537 7538 7539 7540 7541 7542 7543 7544 7545 7546 7547 7548 7549 7550 7551 7552 7553 7554 7555 7556 7557 7558 7559 7560 7561 7562 7563 7564 7565 7566 7567 7568 7569 7570 7571 7572 7573 7574 7575 7576 7577 7578 7579 7580 7581 7582 7583 7584 7585 7586 7587 7588 7589 7590 7591 7592 7593 7594 7595 7596 7597 7598 7599 7600 7601 7602 7603 7604 7605 7606 7607 7608 7609 7610 7611 7612 7613 7614 7615 7616 7617 7618 7619 7620 7621 7622 7623 7624 7625 7626 7627 7628 7629 7630 7631 7632 7633 7634 7635 7636 7637 7638 7639 7640 7641 7642 7643 7644 7645 7646 7647 7648 7649 7650 7651 7652 7653 7654 7655 7656 7657 7658 7659 7660 7661 7662 7663 7664 7665 7666 7667 7668 7669 7670 7671 7672 7673 7674 7675 7676 7677 7678 7679 7680 7681 7682 7683 7684 7685 7686 7687 7688 7689 7690 7691 7692 7693 7694 7695 7696 7697 7698 7699 7700 7701 7702 7703 7704 7705 7706 7707 7708 7709 7710 7711 7712 7713 7714 7715 7716 7717 7718 7719 7720 7721 7722 7723 7724 7725 7726 7727 7728 7729 7730 7731 7732 7733 7734 7735 7736 7737 7738 7739 7740 7741 7742 7743 7744 7745 7746 7747 7748 7749 7750 7751 7752 7753 7754 7755 7756 7757 7758 7759 7760 7761 7762 7763 7764 7765 7766 7767 7768 7769 7770 7771 7772 7773 7774 7775 7776 7777 7778 7779 7780 7781 7782 7783 7784 7785 7786 7787 7788 7789 7790 7791 7792 7793 7794 7795 7796 7797 7798 7799 7800 7801 7802 7803 7804 7805 7806 7807 7808 7809 7810 7811 7812 7813 7814 7815 7816 7817 7818 7819 7820 7821 7822 7823 7824 7825 7826 7827 7828 7829 7830 7831 7832 7833 7834 7835 7836 7837 7838 7839 7840 7841 7842 7843 7844 7845 7846 7847 7848 7849 7850 7851 7852 7853 7854 7855 7856 7857 7858 7859 7860 7861 7862 7863 7864 7865 7866 7867 7868 7869 7870 7871 7872 7873 7874 7875 7876 7877 7878 7879 7880 7881 7882 7883 7884 7885 7886 7887 7888 7889 7890 7891 7892 7893 7894 7895 7896 7897 7898 7899 7900 7901 7902 7903 7904 7905 7906 7907 7908 7909 7910 7911 7912 7913 7914 7915 7916 7917 7918 7919 7920 7921 7922 7923 7924 7925 7926 7927 7928 7929 7930 7931 7932 7933 7934 7935 7936 7937 7938 7939 7940 7941 7942 7943 7944 7945 7946 7947 7948 7949 7950 7951 7952 7953 7954 7955 7956 7957 7958 7959 7960 7961 7962 7963 7964 7965 7966 7967 7968 7969 7970 7971 7972 7973 7974 7975 7976 7977 7978 7979 7980 7981 7982 7983 7984 7985 7986 7987 7988 7989 7990 7991 7992 7993 7994 7995 7996 7997 7998 7999 8000 8001 8002 8003 8004 8005 8006 8007 8008 8009 8010 8011 8012 8013 8014 8015 8016 8017 8018 8019 8020 8021 8022 8023 8024 8025 8026 8027 8028 8029 8030 8031 8032 8033 8034 8035 8036 8037 8038 8039 8040 8041 8042 8043 8044 8045 8046 8047 8048 8049 8050 8051 8052 8053 8054 8055 8056 8057 8058 8059 8060 8061 8062 8063 8064 8065 8066 8067 8068 8069 8070 8071 8072 8073 8074 8075 8076 8077 8078 8079 8080 8081 8082 8083 8084 8085 8086 8087 8088 8089 8090 8091 8092 8093 8094 8095 8096 8097 8098 8099 8100 8101 8102 8103 8104 8105 8106 8107 8108 8109 8110 8111 8112 8113 8114 8115 8116 8117 8118 8119 8120 8121 8122 8123 8124 8125 8126 8127 8128 8129 8130 8131 8132 8133 8134 8135 8136 8137 8138 8139 8140 8141 8142 8143 8144 8145 8146 8147 8148 8149 8150 8151 8152 8153 8154 8155 8156 8157 8158 8159 8160 8161 8162 8163 8164 8165 8166 8167 8168 8169 8170 8171 8172 8173 8174 8175 8176 8177 8178 8179 8180 8181 8182 8183 8184 8185 8186 8187 8188 8189 8190 8191 8192 8193 8194 8195 8196 8197 8198 8199 8200 8201 8202 8203 8204 8205 8206 8207 8208 8209 8210 8211 8212 8213 8214 8215 8216 8217 8218 8219 8220 8221 8222 8223 8224 8225 8226 8227 8228 8229 8230 8231 8232 8233 8234 8235 8236 8237 8238 8239 8240 8241 8242 8243 8244 8245 8246 8247 8248 8249 8250 8251 8252 8253 8254 8255 8256 8257 8258 8259 8260 8261 8262 8263 8264 8265 8266 8267 8268 8269 8270 8271 8272 8273 8274 8275 8276 8277 8278 8279 8280 8281 8282 8283 8284 8285 8286 8287 8288 8289 8290 8291 8292 8293 8294 8295 8296 8297 8298 8299 8300 8301 8302 8303 8304 8305 8306 8307 8308 8309 8310 8311 8312 8313 8314 8315 8316 8317 8318 8319 8320 8321 8322 8323 8324 8325 8326 8327 8328 8329 8330 8331 8332 8333 8334 8335 8336 8337 8338 8339 8340 8341 8342 8343 8344 8345 8346 8347 8348 8349 8350 8351 8352 8353 8354 8355 8356 8357 8358 8359 8360 8361 8362 8363 8364 8365 8366 8367 8368 8369 8370 8371 8372 8373 8374 8375 8376 8377 8378 8379 8380 8381 8382 8383 8384 8385 8386 8387 8388 8389 8390 8391 8392 8393 8394 8395 8396 8397 8398 8399 8400 8401 8402 8403 8404 8405 8406 8407 8408 8409 8410 8411 8412 8413 8414 8415 8416 8417 8418 8419 8420 8421 8422 8423 8424 8425 8426 8427 8428 8429 8430 8431 8432 8433 8434 8435 8436 8437 8438 8439 8440 8441 8442 8443 8444 8445 8446 8447 8448 8449 8450 8451 8452 8453 8454 8455 8456 8457 8458 8459 8460 8461 8462 8463 8464 8465 8466 8467 8468 8469 8470 8471 8472 8473 8474 8475 8476 8477 8478 8479 8480 8481 8482 8483 8484 8485 8486 8487 8488 8489 8490 8491 8492 8493 8494 8495 8496 8497 8498 8499 8500 8501 8502 8503 8504 8505 8506 8507 8508 8509 8510 8511 8512 8513 8514 8515 8516 8517 8518 8519 8520 8521 8522 8523 8524 8525 8526 8527 8528 8529 8530 8531 8532 8533 8534 8535 8536 8537 8538 8539 8540 8541 8542 8543 8544 8545 8546 8547 8548 8549 8550 8551 8552 8553 8554 8555 8556 8557 8558 8559 8560 8561 8562 8563 8564 8565 8566 8567 8568 8569 8570 8571 8572 8573 8574 8575 8576 8577 8578 8579 8580 8581 8582 8583 8584 8585 8586 8587 8588 8589 8590 8591 8592 8593 8594 8595 8596 8597 8598 8599 8600 8601 8602 8603 8604 8605 8606 8607 8608 8609 8610 8611 8612 8613 8614 8615 8616 8617 8618 8619 8620 8621 8622 8623 8624 8625 8626 8627 8628 8629 8630 8631 8632 8633 8634 8635 8636 8637 8638 8639 8640 8641 8642 8643 8644 8645 8646 8647 8648 8649 8650 8651 8652 8653 8654 8655 8656 8657 8658 8659 8660 8661 8662 8663 8664 8665 8666 8667 8668 8669 8670 8671 8672 8673 8674 8675 8676 8677 8678 8679 8680 8681 8682 8683 8684 8685 8686 8687 8688 8689 8690 8691 8692 8693 8694 8695 8696 8697 8698 8699 8700 8701 8702 8703 8704 8705 8706 8707 8708 8709 8710 8711 8712 8713 8714 8715 8716 8717 8718 8719 8720 8721 8722 8723 8724 8725 8726 8727 8728 8729 8730 8731 8732 8733 8734 8735 8736 8737 8738 8739 8740 8741 8742 8743 8744 8745 8746 8747 8748 8749 8750 8751 8752 8753 8754 8755 8756 8757 8758 8759 8760 8761 8762 8763 8764 8765 8766 8767 8768 8769 8770 8771 8772 8773 8774 8775 8776 8777 8778 8779 8780 8781 8782 8783 8784 8785 8786 8787 8788 8789 8790 8791 8792 8793 8794 8795 8796 8797 8798 8799 8800 8801 8802 8803 8804 8805 8806 8807 8808 8809 8810 8811 8812 8813 8814 8815 8816 8817 8818 8819 8820 8821 8822 8823 8824 8825 8826 8827 8828 8829 8830 8831 8832 8833 8834 8835 8836 8837 8838 8839 8840 8841 8842 8843 8844 8845 8846 8847 8848 8849 8850 8851 8852 8853 8854 8855 8856 8857 8858 8859 8860 8861 8862 8863 8864 8865 8866 8867 8868 8869 8870 8871 8872 8873 8874 8875 8876 8877 8878 8879 8880 8881 8882 8883 8884 8885 8886 8887 8888 8889 8890 8891 8892 8893 8894 8895 8896 8897 8898 8899 8900 8901 8902 8903 8904 8905 8906 8907 8908 8909 8910 8911 8912 8913 8914 8915 8916 8917 8918 8919 8920 8921 8922 8923 8924 8925 8926 8927 8928 8929 8930 8931 8932 8933 8934 8935 8936 8937 8938 8939 8940 8941 8942 8943 8944 8945 8946 8947 8948 8949 8950 8951 8952 8953 8954 8955 8956 8957 8958 8959 8960 8961 8962 8963 8964 8965 8966 8967 8968 8969 8970 8971 8972 8973 8974 8975 8976 8977 8978 8979 8980 8981 8982 8983 8984 8985 8986 8987 8988 8989 8990 8991 8992 8993 8994 8995 8996 8997 8998 8999 9000 9001 9002 9003 9004 9005 9006 9007 9008 9009 9010 9011 9012 9013 9014 9015 9016 9017 9018 9019 9020 9021 9022 9023 9024 9025 9026 9027 9028 9029 9030 9031 9032 9033 9034 9035 9036 9037 9038 9039 9040 9041 9042 9043 9044 9045 9046 9047 9048 9049 9050 9051 9052 9053 9054 9055 9056 9057 9058 9059 9060 9061 9062 9063 9064 9065 9066 9067 9068 9069 9070 9071 9072 9073 9074 9075 9076 9077 9078 9079 9080 9081 9082 9083 9084 9085 9086 9087 9088 9089 9090 9091 9092 9093 9094 9095 9096 9097 9098 9099 9100 9101 9102 9103 9104 9105 9106 9107 9108 9109 9110 9111 9112 9113 9114 9115 9116 9117 9118 9119 9120 9121 9122 9123 9124 9125 9126 9127 9128 9129 9130 9131 9132 9133 9134 9135 9136 9137 9138 9139 9140 9141 9142 9143 9144 9145 9146 9147 9148 9149 9150 9151 9152 9153 9154 9155 9156 9157 9158 9159 9160 9161 9162 9163 9164 9165 9166 9167 9168 9169 9170 9171 9172 9173 9174 9175 9176 9177 9178 9179 9180 9181 9182 9183 9184 9185 9186 9187 9188 9189 9190 9191 9192 9193 9194 9195 9196 9197 9198 9199 9200 9201 9202 9203 9204 9205 9206 9207 9208 9209 9210 9211 9212 9213 9214 9215 9216 9217 9218 9219 9220 9221 9222 9223 9224 9225 9226 9227 9228 9229 9230 9231 9232 9233 9234 9235 9236 9237 9238 9239 9240 9241 9242 9243 9244 9245 9246 9247 9248 9249 9250 9251 9252 9253 9254 9255 9256 9257 9258 9259 9260 9261 9262 9263 9264 9265 9266 9267 9268 9269 9270 9271 9272 9273 9274 9275 9276 9277 9278 9279 9280 9281 9282 9283 9284 9285 9286 9287 9288 9289 9290 9291 9292 9293 9294 9295 9296 9297 9298 9299 9300 9301 9302 9303 9304 9305 9306 9307 9308 9309 9310 9311 9312 9313 9314 9315 9316 9317 9318 9319 9320 9321 9322 9323 9324 9325 9326 9327 9328 9329 9330 9331 9332 9333 9334 9335 9336 9337 9338 9339 9340 9341 9342 9343 9344 9345 9346 9347 9348 9349 9350 9351 9352 9353 9354 9355 9356 9357 9358 9359 9360 9361 9362 9363 9364 9365 9366 9367 9368 9369 9370 9371 9372 9373 9374 9375 9376 9377 9378 9379 9380 9381 9382 9383 9384 9385 9386 9387 9388 9389 9390 9391 9392 9393 9394 9395 9396 9397 9398 9399 9400 9401 9402 9403 9404 9405 9406 9407 9408 9409 9410 9411 9412 9413 9414 9415 9416 9417 9418 9419 9420 9421 9422 9423 9424 9425 9426 9427 9428 9429 9430 9431 9432 9433 9434 9435 9436 9437 9438 9439 9440 9441 9442 9443 9444 9445 9446 9447 9448 9449 9450 9451 9452 9453 9454 9455 9456 9457 9458 9459 9460 9461 9462 9463 9464 9465 9466 9467 9468 9469 9470 9471 9472 9473 9474 9475 9476 9477 9478 9479 9480 9481 9482 9483 9484 9485 9486 9487 9488 9489 9490 9491 9492 9493 9494 9495 9496 9497 9498 9499 9500 9501 9502 9503 9504 9505 9506 9507 9508 9509 9510 9511 9512 9513 9514 9515 9516 9517 9518 9519 9520 9521 9522 9523 9524 9525 9526 9527 9528 9529 9530 9531 9532 9533 9534 9535 9536 9537 9538 9539 9540 9541 9542 9543 9544 9545 9546 9547 9548 9549 9550 9551 9552 9553 9554 9555 9556 9557 9558 9559 9560 9561 9562 9563 9564 9565 9566 9567 9568 9569 9570 9571 9572 9573 9574 9575 9576 9577 9578 9579 9580 9581 9582 9583 9584 9585 9586 9587 9588 9589 9590 9591 9592 9593 9594 9595 9596 9597 9598 9599 9600 9601 9602 9603 9604 9605 9606 9607 9608 9609 9610 9611 9612 9613 9614 9615 9616 9617 9618 9619 9620 9621 9622 9623 9624 9625 9626 9627 9628 9629 9630 9631 9632 9633 9634 9635 9636 9637 9638 9639 9640 9641 9642 9643 9644 9645 9646 9647 9648 9649 9650 9651 9652 9653 9654 9655 9656 9657 9658 9659 9660 9661 9662 9663 9664 9665 9666 9667 9668 9669 9670 9671 9672 9673 9674 9675 9676 9677 9678 9679 9680 9681 9682 9683 9684 9685 9686 9687 9688 9689 9690 9691 9692 9693 9694 9695 9696 9697 9698 9699 9700 9701 9702 9703 9704 9705 9706 9707 9708 9709 9710 9711 9712 9713 9714 9715 9716 9717 9718 9719 9720 9721 9722 9723 9724 9725 9726 9727 9728 9729 9730 9731 9732 9733 9734 9735 9736 9737 9738 9739 9740 9741 9742 9743 9744 9745 9746 9747 9748 9749 9750 9751 9752 9753 9754 9755 9756 9757 9758 9759 9760 9761 9762 9763 9764 9765 9766 9767 9768 9769 9770 9771 9772 9773 9774 9775 9776 9777 9778 9779 9780 9781 9782 9783 9784 9785 9786 9787 9788 9789 9790 9791 9792 9793 9794 9795 9796 9797 9798 9799 9800 9801 9802 9803 9804 9805 9806 9807 9808 9809 9810 9811 9812 9813 9814 9815 9816 9817 9818 9819 9820 9821 9822 9823 9824 9825 9826 9827 9828 9829 9830 9831 9832 9833 9834 9835 9836 9837 9838 9839 9840 9841 9842 9843 9844 9845 9846 9847 9848 9849 9850 9851 9852 9853 9854 9855 9856 9857 9858 9859 9860 9861 9862 9863 9864 9865 9866 9867 9868 9869 9870 9871 9872 9873 9874 9875 9876 9877 9878 9879 9880 9881 9882 9883 9884 9885 9886 9887 9888 9889 9890 9891 9892 9893 9894 9895 9896 9897 9898 9899 9900 9901 9902 9903 9904 9905 9906 9907 9908 9909 9910 9911 9912 9913 9914 9915 9916 9917 9918 9919 9920 9921 9922 9923 9924 9925 9926 9927 9928 9929 9930 9931 9932 9933 9934 9935 9936 9937 9938 9939 9940 9941 9942 9943 9944 9945 9946 9947 9948 9949 9950 9951 9952 9953 9954 9955 9956 9957 9958 9959 9960 9961 9962 9963 9964 9965 9966 9967 9968 9969 9970 9971 9972 9973 9974 9975 9976 9977 9978 9979 9980 9981 9982 9983 9984 9985 9986 9987 9988 9989 9990 9991 9992 9993 9994 9995 9996 9997 9998 9999 10000 10001 10002 10003 10004 10005 10006 10007 10008 10009 10010 10011 10012 10013 10014 10015 10016 10017 10018 10019 10020 10021 10022 10023 10024 10025 10026 10027 10028 10029 10030 10031 10032 10033 10034 10035 10036 10037 10038 10039 10040 10041 10042 10043 10044 10045 10046 10047 10048 10049 10050 10051 10052 10053 10054 10055 10056 10057 10058 10059 10060 10061 10062 10063 10064 10065 10066 10067 10068 10069 10070 10071 10072 10073 10074 10075 10076 10077 10078 10079 10080 10081 10082 10083 10084 10085 10086 10087 10088 10089 10090 10091 10092 10093 10094 10095 10096 10097 10098 10099 10100 10101 10102 10103 10104 10105 10106 10107 10108 10109 10110 10111 10112 10113 10114 10115 10116 10117 10118 10119 10120 10121 10122 10123 10124 10125 10126 10127 10128 10129 10130 10131 10132 10133 10134 10135 10136 10137 10138 10139 10140 10141 10142 10143 10144 10145 10146 10147 10148 10149 10150 10151 10152 10153 10154 10155 10156 10157 10158 10159 10160 10161 10162 10163 10164 10165 10166 10167 10168 10169 10170 10171 10172 10173 10174 10175 10176 10177 10178 10179 10180 10181 10182 10183 10184 10185 10186 10187 10188 10189 10190 10191 10192 10193 10194 10195 10196 10197 10198 10199 10200 10201 10202 10203 10204 10205 10206 10207 10208 10209 10210 10211 10212 10213 10214 10215 10216 10217 10218 10219 10220 10221 10222 10223 10224 10225 10226 10227 10228 10229 10230 10231 10232 10233 10234 10235 10236 10237 10238 10239 10240 10241 10242 10243 10244 10245 10246 10247 10248 10249 10250 10251 10252 10253 10254 10255 10256 10257 10258 10259 10260 10261 10262 10263 10264 10265 10266 10267 10268 10269 10270 10271 10272 10273 10274 10275 10276 10277 10278 10279 10280 10281 10282 10283 10284 10285 10286 10287 10288 10289 10290 10291 10292 10293 10294 10295 10296 10297 10298 10299 10300 10301 10302 10303 10304 10305 10306 10307 10308 10309 10310 10311 10312 10313 10314 10315 10316 10317 10318 10319 10320 10321 10322 10323 10324 10325 10326 10327 10328 10329 10330 10331 10332 10333 10334 10335 10336 10337 10338 10339 10340 10341 10342 10343 10344 10345 10346 10347 10348 10349 10350 10351 10352 10353 10354 10355 10356 10357 10358 10359 10360 10361 10362 10363 10364 10365 10366 10367 10368 10369 10370 10371 10372 10373 10374 10375 10376 10377 10378 10379 10380 10381 10382 10383 10384 10385 10386 10387 10388 10389 10390 10391 10392 10393 10394 10395 10396 10397 10398 10399 10400 10401 10402 10403 10404 10405 10406 10407 10408 10409 10410 10411 10412 10413 10414 10415 10416 10417 10418 10419 10420 10421 10422 10423 10424 10425 10426 10427 10428 10429 10430 10431 10432 10433 10434 10435 10436 10437 10438 10439 10440 10441 10442 10443 10444 10445 10446 10447 10448 10449 10450 10451 10452 10453 10454 10455 10456 10457 10458 10459 10460 10461 10462 10463 10464 10465 10466 10467 10468 10469 10470 10471 10472 10473 10474 10475 10476 10477 10478 10479 10480 10481 10482 10483 10484 10485 10486 10487 10488 10489 10490 10491 10492 10493 10494 10495 10496 10497 10498 10499 10500 10501 10502 10503 10504 10505 10506 10507 10508 10509 10510 10511 10512 10513 10514 10515 10516 10517 10518 10519 10520 10521 10522 10523 10524 10525 10526 10527 10528 10529 10530 10531 10532 10533 10534 10535 10536 10537 10538 10539 10540 10541 10542 10543 10544 10545 10546 10547 10548 10549 10550 10551 10552 10553 10554 10555 10556 10557 10558 10559 10560 10561 10562 10563 10564 10565 10566 10567 10568 10569 10570 10571 10572 10573 10574 10575 10576 10577 10578 10579 10580 10581 10582 10583 10584 10585 10586 10587 10588 10589 10590 10591 10592 10593 10594 10595 10596 10597 10598 10599 10600 10601 10602 10603 10604 10605 10606 10607 10608 10609 10610 10611 10612 10613 10614 10615 10616 10617 10618 10619 10620 10621 10622 10623 10624 10625 10626 10627 10628 10629 10630 10631 10632 10633 10634 10635 10636 10637 10638 10639 10640 10641 10642 10643 10644 10645 10646 10647 10648 10649 10650 10651 10652 10653 10654 10655 10656 10657 10658 10659 10660 10661 10662 10663 10664 10665 10666 10667 10668 10669 10670 10671 10672 10673 10674 10675 10676 10677 10678 10679 10680 10681 10682 10683 10684 10685 10686 10687 10688 10689 10690 10691 10692 10693 10694 10695 10696 10697 10698 10699 10700 10701 10702 10703 10704 10705 10706 10707 10708 10709 10710 10711 10712 10713 10714 10715 10716 10717 10718 10719 10720 10721 10722 10723 10724 10725 10726 10727 10728 10729 10730 10731 10732 10733 10734 10735 10736 10737 10738 10739 10740 10741 10742 10743 10744 10745 10746 10747 10748 10749 10750 10751 10752 10753 10754 10755 10756 10757 10758 10759 10760 10761 10762 10763 10764 10765 10766 10767 10768 10769 10770 10771 10772 10773 10774 10775 10776 10777 10778 10779 10780 10781 10782 10783 10784 10785 10786 10787 10788 10789 10790 10791 10792 10793 10794 10795 10796 10797 10798 10799 10800 10801 10802 10803 10804 10805 10806 10807 10808 10809 10810 10811 10812 10813 10814 10815 10816 10817 10818 10819 10820 10821 10822 10823 10824 10825 10826 10827 10828 10829 10830 10831 10832 10833 10834 10835 10836 10837 10838 10839 10840 10841 10842 10843 10844 10845 10846 10847 10848 10849 10850 10851 10852 10853 10854 10855 10856 10857 10858 10859 10860 10861 10862 10863 10864 10865 10866 10867 10868 10869 10870 10871 10872 10873 10874 10875 10876 10877 10878 10879 10880 10881 10882 10883 10884 10885 10886 10887 10888 10889 10890 10891 10892 10893 10894 10895 10896 10897 10898 10899 10900 10901 10902 10903 10904 10905 10906 10907 10908 10909 10910 10911 10912 10913 10914 10915 10916 10917 10918 10919 10920 10921 10922 10923 10924 10925 10926 10927 10928 10929 10930 10931 10932 10933 10934 10935 10936 10937 10938 10939 10940 10941 10942 10943 10944 10945 10946 10947 10948 10949 10950 10951 10952 10953 10954 10955 10956 10957 10958 10959 10960 10961 10962 10963 10964 10965 10966 10967 10968 10969 10970 10971 10972 10973 10974 10975 10976 10977 10978 10979 10980 10981 10982 10983 10984 10985 10986 10987 10988 10989 10990 10991 10992 10993 10994 10995 10996 10997 10998 10999 11000 11001 11002 11003 11004 11005 11006 11007 11008 11009 11010 11011 11012 11013 11014 11015 11016 11017 11018 11019 11020 11021 11022 11023 11024 11025 11026 11027 11028 11029 11030 11031 11032 11033 11034 11035 11036 11037 11038 11039 11040 11041 11042 11043 11044 11045 11046 11047 11048 11049 11050 11051 11052 11053 11054 11055 11056 11057 11058 11059 11060 11061 11062 11063 11064 11065 11066 11067 11068 11069 11070 11071 11072 11073 11074 11075 11076 11077 11078 11079 11080 11081 11082 11083 11084 11085 11086 11087 11088 11089 11090 11091 11092 11093 11094 11095 11096 11097 11098 11099 11100 11101 11102 11103 11104 11105 11106 11107 11108 11109 11110 11111 11112 11113 11114 11115 11116 11117 11118 11119 11120 11121 11122 11123 11124 11125 11126 11127 11128 11129 11130 11131 11132 11133 11134 11135 11136 11137 11138 11139 11140 11141 11142 11143 11144 11145 11146 11147 11148 11149 11150 11151 11152 11153 11154 11155 11156 11157 11158 11159 11160 11161 11162 11163 11164 11165 11166 11167 11168 11169 11170 11171 11172 11173 11174 11175 11176 11177 11178 11179 11180 11181 11182 11183 11184 11185 11186 11187 11188 11189 11190 11191 11192 11193 11194 11195 11196 11197 11198 11199 11200 11201 11202 11203 11204 11205 11206 11207 11208 11209 11210 11211 11212 11213 11214 11215 11216 11217 11218 11219 11220 11221 11222 11223 11224 11225 11226 11227 11228 11229 11230 11231 11232 11233 11234 11235 11236 11237 11238 11239 11240 11241 11242 11243 11244 11245 11246 11247 11248 11249 11250 11251 11252 11253 11254 11255 11256 11257 11258 11259 11260 11261 11262 11263 11264 11265 11266 11267 11268 11269 11270 11271 11272 11273 11274 11275 11276 11277 11278 11279 11280 11281 11282 11283 11284 11285 11286 11287 11288 11289 11290 11291 11292 11293 11294 11295 11296 11297 11298 11299 11300 11301 11302 11303 11304 11305 11306 11307 11308 11309 11310 11311 11312 11313 11314 11315 11316 11317 11318 11319 11320 11321 11322 11323 11324 11325 11326 11327 11328 11329 11330 11331 11332 11333 11334 11335 11336 11337 11338 11339 11340 11341 11342 11343 11344 11345 11346 11347 11348 11349 11350 11351 11352 11353 11354 11355 11356 11357 11358 11359 11360 11361 11362 11363 11364 11365 11366 11367 11368 11369 11370 11371 11372 11373 11374 11375 11376 11377 11378 11379 11380 11381 11382 11383 11384 11385 11386 11387 11388 11389 11390 11391 11392 11393 11394 11395 11396 11397 11398 11399 11400 11401 11402 11403 11404 11405 11406 11407 11408 11409 11410 11411 11412 11413 11414 11415 11416 11417 11418 11419 11420 11421 11422 11423 11424 11425 11426 11427 11428 11429 11430 11431 11432 11433 11434 11435 11436 11437 11438 11439 11440 11441 11442 11443 11444 11445 11446 11447 11448 11449 11450 11451 11452 11453 11454 11455 11456 11457 11458 11459 11460 11461 11462 11463 11464 11465 11466 11467 11468 11469 11470 11471 11472 11473 11474 11475 11476 11477 11478 11479 11480 11481 11482 11483 11484 11485 11486 11487 11488 11489 11490 11491 11492 11493 11494 11495 11496 11497 11498 11499 11500 11501 11502 11503 11504 11505 11506 11507 11508 11509 11510 11511 11512 11513 11514 11515 11516 11517 11518 11519 11520 11521 11522 11523 11524 11525 11526 11527 11528 11529 11530 11531 11532 11533 11534 11535 11536 11537 11538 11539 11540 11541 11542 11543 11544 11545 11546 11547 11548 11549 11550 11551 11552 11553 11554 11555 11556 11557 11558 11559 11560 11561 11562 11563 11564 11565 11566 11567 11568 11569 11570 11571 11572 11573 11574 11575 11576 11577 11578 11579 11580 11581 11582 11583 11584 11585 11586 11587 11588 11589 11590 11591 11592 11593 11594 11595 11596 11597 11598 11599 11600 11601 11602 11603 11604 11605 11606 11607 11608 11609 11610 11611 11612 11613 11614 11615 11616 11617 11618 11619 11620 11621 11622 11623 11624 11625 11626 11627 11628 11629 11630 11631 11632 11633 11634 11635 11636 11637 11638 11639 11640 11641 11642 11643 11644 11645 11646 11647 11648 11649 11650 11651 11652 11653 11654 11655 11656 11657 11658 11659 11660 11661 11662 11663 11664 11665 11666 11667 11668 11669 11670 11671 11672 11673 11674 11675 11676 11677 11678 11679 11680 11681 11682 11683 11684 11685 11686 11687 11688 11689 11690 11691 11692 11693 11694 11695 11696 11697 11698 11699 11700 11701 11702 11703 11704 11705 11706 11707 11708 11709 11710 11711 11712 11713 11714 11715 11716 11717 11718 11719 11720 11721 11722 11723 11724 11725 11726 11727 11728 11729 11730 11731 11732 11733 11734 11735 11736 11737 11738 11739 11740 11741 11742 11743 11744 11745 11746 11747 11748 11749 11750 11751 11752 11753 11754 11755 11756 11757 11758 11759 11760 11761 11762 11763 11764 11765 11766 11767 11768 11769 11770 11771 11772 11773 11774 11775 11776 11777 11778 11779 11780 11781 11782 11783 11784 11785 11786 11787 11788 11789 11790 11791 11792 11793 11794 11795 11796 11797 11798 11799 11800 11801 11802 11803 11804 11805 11806 11807 11808 11809 11810 11811 11812 11813 11814 11815 11816 11817 11818 11819 11820 11821 11822 11823 11824 11825 11826 11827 11828 11829 11830 11831 11832 11833 11834 11835 11836 11837 11838 11839 11840 11841 11842 11843 11844 11845 11846 11847 11848 11849 11850 11851 11852 11853 11854 11855 11856 11857 11858 11859 11860 11861 11862 11863 11864 11865 11866 11867 11868 11869 11870 11871 11872 11873 11874 11875 11876 11877 11878 11879 11880 11881 11882 11883 11884 11885 11886 11887 11888 11889 11890 11891 11892 11893 11894 11895 11896 11897 11898 11899 11900 11901 11902 11903 11904 11905 11906 11907 11908 11909 11910 11911 11912 11913 11914 11915 11916 11917 11918 11919 11920 11921 11922 11923 11924 11925 11926 11927 11928 11929 11930 11931 11932 11933 11934 11935 11936 11937 11938 11939 11940 11941 11942 11943 11944 11945 11946 11947 11948 11949 11950 11951 11952 11953 11954 11955 11956 11957 11958 11959 11960 11961 11962 11963 11964 11965 11966 11967 11968 11969 11970 11971 11972 11973 11974 11975 11976 11977 11978 11979 11980 11981 11982 11983 11984 11985 11986 11987 11988 11989 11990 11991 11992 11993 11994 11995 11996 11997 11998 11999 12000 12001 12002 12003 12004 12005 12006 12007 12008 12009 12010 12011 12012 12013 12014 12015 12016 12017 12018 12019 12020 12021 12022 12023 12024 12025 12026 12027 12028 12029 12030 12031 12032 12033 12034 12035 12036 12037 12038 12039 12040 12041 12042 12043 12044 12045 12046 12047 12048 12049 12050 12051 12052 12053 12054 12055 12056 12057 12058 12059 12060 12061 12062 12063 12064 12065 12066 12067 12068 12069 12070 12071 12072 12073 12074 12075 12076 12077 12078 12079 12080 12081 12082 12083 12084 12085 12086 12087 12088 12089 12090 12091 12092 12093 12094 12095 12096 12097 12098 12099 12100 12101 12102 12103 12104 12105 12106 12107 12108 12109 12110 12111 12112 12113 12114 12115 12116 12117 12118 12119 12120 12121 12122 12123 12124 12125 12126 12127 12128 12129 12130 12131 12132 12133 12134 12135 12136 12137 12138 12139 12140 12141 12142 12143 12144 12145 12146 12147 12148 12149 12150 12151 12152 12153 12154 12155 12156 12157 12158 12159 12160 12161 12162 12163 12164 12165 12166 12167 12168 12169 12170 12171 12172 12173 12174 12175 12176 12177 12178 12179 12180 12181 12182 12183 12184 12185 12186 12187 12188 12189 12190 12191 12192 12193 12194 12195 12196 12197 12198 12199 12200 12201 12202 12203 12204 12205 12206 12207 12208 12209 12210 12211 12212 12213 12214 12215 12216 12217 12218 12219 12220 12221 12222 12223 12224 12225 12226 12227 12228 12229 12230 12231 12232 12233 12234 12235 12236 12237 12238 12239 12240 12241 12242 12243 12244 12245 12246 12247 12248 12249 12250 12251 12252 12253 12254 12255 12256 12257 12258 12259 12260 12261 12262 12263 12264 12265 12266 12267 12268 12269 12270 12271 12272 12273 12274 12275 12276 12277 12278 12279 12280 12281 12282 12283 12284 12285 12286 12287 12288 12289 12290 12291 12292 12293 12294 12295 12296 12297 12298 12299 12300 12301 12302 12303 12304 12305 12306 12307 12308 12309 12310 12311 12312 12313 12314 12315 12316 12317 12318 12319 12320 12321 12322 12323 12324 12325 12326 12327 12328 12329 12330 12331 12332 12333 12334 12335 12336 12337 12338 12339 12340 12341 12342 12343 12344 12345 12346 12347 12348 12349 12350 12351 12352 12353 12354 12355 12356 12357 12358 12359 12360 12361 12362 12363 12364 12365 12366 12367 12368 12369 12370 12371 12372 12373 12374 12375 12376 12377 12378 12379 12380 12381 12382 12383 12384 12385 12386 12387 12388 12389 12390 12391 12392 12393 12394 12395 12396 12397 12398 12399 12400 12401 12402 12403 12404 12405 12406 12407 12408 12409 12410 12411 12412 12413 12414 12415 12416 12417 12418 12419 12420 12421 12422 12423 12424 12425 12426 12427 12428 12429 12430 12431 12432 12433 12434 12435 12436 12437 12438 12439 12440 12441 12442 12443 12444 12445 12446 12447 12448 12449 12450 12451 12452 12453 12454 12455 12456 12457 12458 12459 12460 12461 12462 12463 12464 12465 12466 12467 12468 12469 12470 12471 12472 12473 12474 12475 12476 12477 12478 12479 12480 12481 12482 12483 12484 12485 12486 12487 12488 12489 12490 12491 12492 12493 12494 12495 12496 12497 12498 12499 12500 12501 12502 12503 12504 12505 12506 12507 12508 12509 12510 12511 12512 12513 12514 12515 12516 12517 12518 12519 12520 12521 12522 12523 12524 12525 12526 12527 12528 12529 12530 12531 12532 12533 12534 12535 12536 12537 12538 12539 12540 12541 12542 12543 12544 12545 12546 12547 12548 12549 12550 12551 12552 12553 12554 12555 12556 12557 12558 12559 12560 12561 12562 12563 12564 12565 12566 12567 12568 12569 12570 12571 12572 12573 12574 12575 12576 12577 12578 12579 12580 12581 12582 12583 12584 12585 12586 12587 12588 12589 12590 12591 12592 12593 12594 12595 12596 12597 12598 12599 12600 12601 12602 12603 12604 12605 12606 12607 12608 12609 12610 12611 12612 12613 12614 12615 12616 12617 12618 12619 12620 12621 12622 12623 12624 12625 12626 12627 12628 12629 12630 12631 12632 12633 12634 12635 12636 12637 12638 12639 12640 12641 12642 12643 12644 12645 12646 12647 12648 12649 12650 12651 12652 12653 12654 12655 12656 12657 12658 12659 12660 12661 12662 12663 12664 12665 12666 12667 12668 12669 12670 12671 12672 12673 12674 12675 12676 12677 12678 12679 12680 12681 12682 12683 12684 12685 12686 12687 12688 12689 12690 12691 12692 12693 12694 12695 12696 12697 12698 12699 12700 12701 12702 12703 12704 12705 12706 12707 12708 12709 12710 12711 12712 12713 12714 12715 12716 12717 12718 12719 12720 12721 12722 12723 12724 12725 12726 12727 12728 12729 12730 12731 12732 12733 12734 12735 12736 12737 12738 12739 12740 12741 12742 12743 12744 12745 12746 12747 12748 12749 12750 12751 12752 12753 12754 12755 12756 12757 12758 12759 12760 12761 12762 12763 12764 12765 12766 12767 12768 12769 12770 12771 12772 12773 12774 12775 12776 12777 12778 12779 12780 12781 12782 12783 12784 12785 12786 12787 12788 12789 12790 12791 12792 12793 12794 12795 12796 12797 12798 12799 12800 12801 12802 12803 12804 12805 12806 12807 12808 12809 12810 12811 12812 12813 12814 12815 12816 12817 12818 12819 12820 12821 12822 12823 12824 12825 12826 12827 12828 12829 12830 12831 12832 12833 12834 12835 12836 12837 12838 12839 12840 12841 12842 12843 12844 12845 12846 12847 12848 12849 12850 12851 12852 12853 12854 12855 12856 12857 12858 12859 12860 12861 12862 12863 12864 12865 12866 12867 12868 12869 12870 12871 12872 12873 12874 12875 12876 12877 12878 12879 12880 12881 12882 12883 12884 12885 12886 12887 12888 12889 12890 12891 12892 12893 12894 12895 12896 12897 12898 12899 12900 12901 12902 12903 12904 12905 12906 12907 12908 12909 12910 12911 12912 12913 12914 12915 12916 12917 12918 12919 12920 12921 12922 12923 12924 12925 12926 12927 12928 12929 12930 12931 12932 12933 12934 12935 12936 12937 12938 12939 12940 12941 12942 12943 12944 12945 12946 12947 12948 12949 12950 12951 12952 12953 12954 12955 12956 12957 12958 12959 12960 12961 12962 12963 12964 12965 12966 12967 12968 12969 12970 12971 12972 12973 12974 12975 12976 12977 12978 12979 12980 12981 12982 12983 12984 12985 12986 12987 12988 12989 12990 12991 12992 12993 12994 12995 12996 12997 12998 12999 13000 13001 13002 13003 13004 13005 13006 13007 13008 13009 13010 13011 13012 13013 13014 13015 13016 13017 13018 13019 13020 13021 13022 13023 13024 13025 13026 13027 13028 13029 13030 13031 13032 13033 13034 13035 13036 13037 13038 13039 13040 13041 13042 13043 13044 13045 13046 13047 13048 13049 13050 13051 13052 13053 13054 13055 13056 13057 13058 13059 13060 13061 13062 13063 13064 13065 13066 13067 13068 13069 13070 13071 13072 13073 13074 13075 13076 13077 13078 13079 13080 13081 13082 13083 13084 13085 13086 13087 13088 13089 13090 13091 13092 13093 13094 13095 13096 13097 13098 13099 13100 13101 13102 13103 13104 13105 13106 13107 13108 13109 13110 13111 13112 13113 13114 13115 13116 13117 13118 13119 13120 13121 13122 13123 13124 13125 13126 13127 13128 13129 13130 13131 13132 13133 13134 13135 13136 13137 13138 13139 13140 13141 13142 13143 13144 13145 13146 13147 13148 13149 13150 13151 13152 13153 13154 13155 13156 13157 13158 13159 13160 13161 13162 13163 13164 13165 13166 13167 13168 13169 13170 13171 13172 13173 13174 13175 13176 13177 13178 13179 13180 13181 13182 13183 13184 13185 13186 13187 13188 13189 13190 13191 13192 13193 13194 13195 13196 13197 13198 13199 13200 13201 13202 13203 13204 13205 13206 13207 13208 13209 13210 13211 13212 13213 13214 13215 13216 13217 13218 13219 13220 13221 13222 13223 13224 13225 13226 13227 13228 13229 13230 13231 13232 13233 13234 13235 13236 13237 13238 13239 13240 13241 13242 13243 13244 13245 13246 13247 13248 13249 13250 13251 13252 13253 13254 13255 13256 13257 13258 13259 13260 13261 13262 13263 13264 13265 13266 13267 13268 13269 13270 13271 13272 13273 13274 13275 13276 13277 13278 13279 13280 13281 13282 13283 13284 13285 13286 13287 13288 13289 13290 13291 13292 13293 13294 13295 13296 13297 13298 13299 13300 13301 13302 13303 13304 13305 13306 13307 13308 13309 13310 13311 13312 13313 13314 13315 13316 13317 13318 13319 13320 13321 13322 13323 13324 13325 13326 13327 13328 13329 13330 13331 13332 13333 13334 13335 13336 13337 13338 13339 13340 13341 13342 13343 13344 13345 13346 13347 13348 13349 13350 13351 13352 13353 13354 13355 13356 13357 13358 13359 13360 13361 13362 13363 13364 13365 13366 13367 13368 13369 13370 13371 13372 13373 13374 13375 13376 13377 13378 13379 13380 13381 13382 13383 13384 13385 13386 13387 13388 13389 13390 13391 13392 13393 13394 13395 13396 13397 13398 13399 13400 13401 13402 13403 13404 13405 13406 13407 13408 13409 13410 13411 13412 13413 13414 13415 13416 13417 13418 13419 13420 13421 13422 13423 13424 13425 13426 13427 13428 13429 13430 13431 13432 13433 13434 13435 13436 13437 13438 13439 13440 13441 13442 13443 13444 13445 13446 13447 13448 13449 13450 13451 13452 13453 13454 13455 13456 13457 13458 13459 13460 13461 13462 13463 13464 13465 13466 13467 13468 13469 13470 13471 13472 13473 13474 13475 13476 13477 13478 13479 13480 13481 13482 13483 13484 13485 13486 13487 13488 13489 13490 13491 13492 13493 13494 13495 13496 13497 13498 13499 13500 13501 13502 13503 13504 13505 13506 13507 13508 13509 13510 13511 13512 13513 13514 13515 13516 13517 13518 13519 13520 13521 13522 13523 13524 13525 13526 13527 13528 13529 13530 13531 13532 13533 13534 13535 13536 13537 13538 13539 13540 13541 13542 13543 13544 13545 13546 13547 13548 13549 13550 13551 13552 13553 13554 13555 13556 13557 13558 13559 13560 13561 13562 13563 13564 13565 13566 13567 13568 13569 13570 13571 13572 13573 13574 13575 13576 13577 13578 13579 13580 13581 13582 13583 13584 13585 13586 13587 13588 13589 13590 13591 13592 13593 13594 13595 13596 13597 13598 13599 13600 13601 13602 13603 13604 13605 13606 13607 13608 13609 13610 13611 13612 13613 13614 13615 13616 13617 13618 13619 13620 13621 13622 13623 13624 13625 13626 13627 13628 13629 13630 13631 13632 13633 13634 13635 13636 13637 13638 13639 13640 13641 13642 13643 13644 13645 13646 13647 13648 13649 13650 13651 13652 13653 13654 13655 13656 13657 13658 13659 13660 13661 13662 13663 13664 13665 13666 13667 13668 13669 13670 13671 13672 13673 13674 13675 13676 13677 13678 13679 13680 13681 13682 13683 13684 13685 13686 13687 13688 13689 13690 13691 13692 13693 13694 13695 13696 13697 13698 13699 13700 13701 13702 13703 13704 13705 13706 13707 13708 13709 13710 13711 13712 13713 13714 13715 13716 13717 13718 13719 13720 13721 13722 13723 13724 13725 13726 13727 13728 13729 13730 13731 13732 13733 13734 13735 13736 13737 13738 13739 13740 13741 13742 13743 13744 13745 13746 13747 13748 13749 13750 13751 13752 13753 13754 13755 13756 13757 13758 13759 13760 13761 13762 13763 13764 13765 13766 13767 13768 13769 13770 13771 13772 13773 13774 13775 13776 13777 13778 13779 13780 13781 13782 13783 13784 13785 13786 13787 13788 13789 13790 13791 13792 13793 13794 13795 13796 13797 13798 13799 13800 13801 13802 13803 13804 13805 13806 13807 13808 13809 13810 13811 13812 13813 13814 13815 13816 13817 13818 13819 13820 13821 13822 13823 13824 13825 13826 13827 13828 13829 13830 13831 13832 13833 13834 13835 13836 13837 13838 13839 13840 13841 13842 13843 13844 13845 13846 13847 13848 13849 13850 13851 13852 13853 13854 13855 13856 13857 13858 13859 13860 13861 13862 13863 13864 13865 13866 13867 13868 13869 13870 13871 13872 13873 13874 13875 13876 13877 13878 13879 13880 13881 13882 13883 13884 13885 13886 13887 13888 13889 13890 13891 13892 13893 13894 13895 13896 13897 13898 13899 13900 13901 13902 13903 13904 13905 13906 13907 13908 13909 13910 13911 13912 13913 13914 13915 13916 13917 13918 13919 13920 13921 13922 13923 13924 13925 13926 13927 13928 13929 13930 13931 13932 13933 13934 13935 13936 13937 13938 13939 13940 13941 13942 13943 13944 13945 13946 13947 13948 13949 13950 13951 13952 13953 13954 13955 13956 13957 13958 13959 13960 13961 13962 13963 13964 13965 13966 13967 13968 13969 13970 13971 13972 13973 13974 13975 13976 13977 13978 13979 13980 13981 13982 13983 13984 13985 13986 13987 13988 13989 13990 13991 13992 13993 13994 13995 13996 13997 13998 13999 14000 14001 14002 14003 14004 14005 14006 14007 14008 14009 14010 14011 14012 14013 14014 14015 14016 14017 14018 14019 14020 14021 14022 14023 14024 14025 14026 14027 14028 14029 14030 14031 14032 14033 14034 14035 14036 14037 14038 14039 14040 14041 14042 14043 14044 14045 14046 14047 14048 14049 14050 14051 14052 14053 14054 14055 14056 14057 14058 14059 14060 14061 14062 14063 14064 14065 14066 14067 14068 14069 14070 14071 14072 14073 14074 14075 14076 14077 14078 14079 14080 14081 14082 14083 14084 14085 14086 14087 14088 14089 14090 14091 14092 14093 14094 14095 14096 14097 14098 14099 14100 14101 14102 14103 14104 14105 14106 14107 14108 14109 14110 14111 14112 14113 14114 14115 14116 14117 14118 14119 14120 14121 14122 14123 14124 14125 14126 14127 14128 14129 14130 14131 14132 14133 14134 14135 14136 14137 14138 14139 14140 14141 14142 14143 14144 14145 14146 14147 14148 14149 14150 14151 14152 14153 14154 14155 14156 14157 14158 14159 14160 14161 14162 14163 14164 14165 14166 14167 14168 14169 14170 14171 14172 14173 14174 14175 14176 14177 14178 14179 14180 14181 14182 14183 14184 14185 14186 14187 14188 14189 14190 14191 14192 14193 14194 14195 14196 14197 14198 14199 14200 14201 14202 14203 14204 14205 14206 14207 14208 14209 14210 14211 14212 14213 14214 14215 14216 14217 14218 14219 14220 14221 14222 14223 14224 14225 14226 14227 14228 14229 14230 14231 14232 14233 14234 14235 14236 14237 14238 14239 14240 14241 14242 14243 14244 14245 14246 14247 14248 14249 14250 14251 14252 14253 14254 14255 14256 14257 14258 14259 14260 14261 14262 14263 14264 14265 14266 14267 14268 14269 14270 14271 14272 14273 14274 14275 14276 14277 14278 14279 14280 14281 14282 14283 14284 14285 14286 14287 14288 14289 14290 14291 14292 14293 14294 14295 14296 14297 14298 14299 14300 14301 14302 14303 14304 14305 14306 14307 14308 14309 14310 14311 14312 14313 14314 14315 14316 14317 14318 14319 14320 14321 14322 14323 14324 14325 14326 14327 14328 14329 14330 14331 14332 14333 14334 14335 14336 14337 14338 14339 14340 14341 14342 14343 14344 14345 14346 14347 14348 14349 14350 14351 14352 14353 14354 14355 14356 14357 14358 14359 14360 14361 14362 14363 14364 14365 14366 14367 14368 14369 14370 14371 14372 14373 14374 14375 14376 14377 14378 14379 14380 14381 14382 14383 14384 14385 14386 14387 14388 14389 14390 14391 14392 14393 14394 14395 14396 14397 14398 14399 14400 14401 14402 14403 14404 14405 14406 14407 14408 14409 14410 14411 14412 14413 14414 14415 14416 14417 14418 14419 14420 14421 14422 14423 14424 14425 14426 14427 14428 14429 14430 14431 14432 14433 14434 14435 14436 14437 14438 14439 14440 14441 14442 14443 14444 14445 14446 14447 14448 14449 14450 14451 14452 14453 14454 14455 14456 14457 14458 14459 14460 14461 14462 14463 14464 14465 14466 14467 14468 14469 14470 14471 14472 14473 14474 14475 14476 14477 14478 14479 14480 14481 14482 14483 14484 14485 14486 14487 14488 14489 14490 14491 14492 14493 14494 14495 14496 14497 14498 14499 14500 14501 14502 14503 14504 14505 14506 14507 14508 14509 14510 14511 14512 14513 14514 14515 14516 14517 14518 14519 14520 14521 14522 14523 14524 14525 14526 14527 14528 14529 14530 14531 14532 14533 14534 14535 14536 14537 14538 14539 14540 14541 14542 14543 14544 14545 14546 14547 14548 14549 14550 14551 14552 14553 14554 14555 14556 14557 14558 14559 14560 14561 14562 14563 14564 14565 14566 14567 14568 14569 14570 14571 14572 14573 14574 14575 14576 14577 14578 14579 14580 14581 14582 14583 14584 14585 14586 14587 14588 14589 14590 14591 14592 14593 14594 14595 14596 14597 14598 14599 14600 14601 14602 14603 14604 14605 14606 14607 14608 14609 14610 14611 14612 14613 14614 14615 14616 14617 14618 14619 14620 14621 14622 14623 14624 14625 14626 14627 14628 14629 14630 14631 14632 14633 14634 14635 14636 14637 14638 14639 14640 14641 14642 14643 14644 14645 14646 14647 14648 14649 14650 14651 14652 14653 14654 14655 14656 14657 14658 14659 14660 14661 14662 14663 14664 14665 14666 14667 14668 14669 14670 14671 14672 14673 14674 14675 14676 14677 14678 14679 14680 14681 14682 14683 14684 14685 14686 14687 14688 14689 14690 14691 14692 14693 14694 14695 14696 14697 14698 14699 14700 14701 14702 14703 14704 14705 14706 14707 14708 14709 14710 14711 14712 14713 14714 14715 14716 14717 14718 14719 14720 14721 14722 14723 14724 14725 14726 14727 14728 14729 14730 14731 14732 14733 14734 14735 14736 14737 14738 14739 14740 14741 14742 14743 14744 14745 14746 14747 14748 14749 14750 14751 14752 14753 14754 14755 14756 14757 14758 14759 14760 14761 14762 14763 14764 14765 14766 14767 14768 14769 14770 14771 14772 14773 14774 14775 14776 14777 14778 14779 14780 14781 14782 14783 14784 14785 14786 14787 14788 14789 14790 14791 14792 14793 14794 14795 14796 14797 14798 14799 14800 14801 14802 14803 14804 14805 14806 14807 14808 14809 14810 14811 14812 14813 14814 14815 14816 14817 14818 14819 14820 14821 14822 14823 14824 14825 14826 14827 14828 14829 14830 14831 14832 14833 14834 14835 14836 14837 14838 14839 14840 14841 14842 14843 14844 14845 14846 14847 14848 14849 14850 14851 14852 14853 14854 14855 14856 14857 14858 14859 14860 14861 14862 14863 14864 14865 14866 14867 14868 14869 14870 14871 14872 14873 14874 14875 14876 14877 14878 14879 14880 14881 14882 14883 14884 14885 14886 14887 14888 14889 14890 14891 14892 14893 14894 14895 14896 14897 14898 14899 14900 14901 14902 14903 14904 14905 14906 14907 14908 14909 14910 14911 14912 14913 14914 14915 14916 14917 14918 14919 14920 14921 14922 14923 14924 14925 14926 14927 14928 14929 14930 14931 14932 14933 14934 14935 14936 14937 14938 14939 14940 14941 14942 14943 14944 14945 14946 14947 14948 14949 14950 14951 14952 14953 14954 14955 14956 14957 14958 14959 14960 14961 14962 14963 14964 14965 14966 14967 14968 14969 14970 14971 14972 14973 14974 14975 14976 14977 14978 14979 14980 14981 14982 14983 14984 14985 14986 14987 14988 14989 14990 14991 14992 14993 14994 14995 14996 14997 14998 14999 15000 15001 15002 15003 15004 15005 15006 15007 15008 15009 15010 15011 15012 15013 15014 15015 15016 15017 15018 15019 15020 15021 15022 15023 15024 15025 15026 15027 15028 15029 15030 15031 15032 15033 15034 15035 15036 15037 15038 15039 15040 15041 15042 15043 15044 15045 15046 15047 15048 15049 15050 15051 15052 15053 15054 15055 15056 15057 15058 15059 15060 15061 15062 15063 15064 15065 15066 15067 15068 15069 15070 15071 15072 15073 15074 15075 15076 15077 15078 15079 15080 15081 15082 15083 15084 15085 15086 15087 15088 15089 15090 15091 15092 15093 15094 15095 15096 15097 15098 15099 15100 15101 15102 15103 15104 15105 15106 15107 15108 15109 15110 15111 15112 15113 15114 15115 15116 15117 15118 15119 15120 15121 15122 15123 15124 15125 15126 15127 15128 15129 15130 15131 15132 15133 15134 15135 15136 15137 15138 15139 15140 15141 15142 15143 15144 15145 15146 15147 15148 15149 15150 15151 15152 15153 15154 15155 15156 15157 15158 15159 15160 15161 15162 15163 15164 15165 15166 15167 15168 15169 15170 15171 15172 15173 15174 15175 15176 15177 15178 15179 15180 15181 15182 15183 15184 15185 15186 15187 15188 15189 15190 15191 15192 15193 15194 15195 15196 15197 15198 15199 15200 15201 15202 15203 15204 15205 15206 15207 15208 15209 15210 15211 15212 15213 15214 15215 15216 15217 15218 15219 15220 15221 15222 15223 15224 15225 15226 15227 15228 15229 15230 15231 15232 15233 15234 15235 15236 15237 15238 15239 15240 15241 15242 15243 15244 15245 15246 15247 15248 15249 15250 15251 15252 15253 15254 15255 15256 15257 15258 15259 15260 15261 15262 15263 15264 15265 15266 15267 15268 15269 15270 15271 15272 15273 15274 15275 15276 15277 15278 15279 15280 15281 15282 15283 15284 15285 15286 15287 15288 15289 15290 15291 15292 15293 15294 15295 15296 15297 15298 15299 15300 15301 15302 15303 15304 15305 15306 15307 15308 15309 15310 15311 15312 15313 15314 15315 15316 15317 15318 15319 15320 15321 15322 15323 15324 15325 15326 15327 15328 15329 15330 15331 15332 15333 15334 15335 15336 15337 15338 15339 15340 15341 15342 15343 15344 15345 15346 15347 15348 15349 15350 15351 15352 15353 15354 15355 15356 15357 15358 15359 15360 15361 15362 15363 15364 15365 15366 15367 15368 15369 15370 15371 15372 15373 15374 15375 15376 15377 15378 15379 15380 15381 15382 15383 15384 15385 15386 15387 15388 15389 15390 15391 15392 15393 15394 15395 15396 15397 15398 15399 15400 15401 15402 15403 15404 15405 15406 15407 15408 15409 15410 15411 15412 15413 15414 15415 15416 15417 15418 15419 15420 15421 15422 15423 15424 15425 15426 15427 15428 15429 15430 15431 15432 15433 15434 15435 15436 15437 15438 15439 15440 15441 15442 15443 15444 15445 15446 15447 15448 15449 15450 15451 15452 15453 15454 15455 15456 15457 15458 15459 15460 15461 15462 15463 15464 15465 15466 15467 15468 15469 15470 15471 15472 15473 15474 15475 15476 15477 15478 15479 15480 15481 15482 15483 15484 15485 15486 15487 15488 15489 15490 15491 15492 15493 15494 15495 15496 15497 15498 15499 15500 15501 15502 15503 15504 15505 15506 15507 15508 15509 15510 15511 15512 15513 15514 15515 15516 15517 15518 15519 15520 15521 15522 15523 15524 15525 15526 15527 15528 15529 15530 15531 15532 15533 15534 15535 15536 15537 15538 15539 15540 15541 15542 15543 15544 15545 15546 15547 15548 15549 15550 15551 15552 15553 15554 15555 15556 15557 15558 15559 15560 15561 15562 15563 15564 15565 15566 15567 15568 15569 15570 15571 15572 15573 15574 15575 15576 15577 15578 15579 15580 15581 15582 15583 15584 15585 15586 15587 15588 15589 15590 15591 15592 15593 15594 15595 15596 15597 15598 15599 15600 15601 15602 15603 15604 15605 15606 15607 15608 15609 15610 15611 15612 15613 15614 15615 15616 15617 15618 15619 15620 15621 15622 15623 15624 15625 15626 15627 15628 15629 15630 15631 15632 15633 15634 15635 15636 15637 15638 15639 15640 15641 15642 15643 15644 15645 15646 15647 15648 15649 15650 15651 15652 15653 15654 15655 15656 15657 15658 15659 15660 15661 15662 15663 15664 15665 15666 15667 15668 15669 15670 15671 15672 15673 15674 15675 15676 15677 15678 15679 15680 15681 15682 15683 15684 15685 15686 15687 15688 15689 15690 15691 15692 15693 15694 15695 15696 15697 15698 15699 15700 15701 15702 15703 15704 15705 15706 15707 15708 15709 15710 15711 15712 15713 15714 15715 15716 15717 15718 15719 15720 15721 15722 15723 15724 15725 15726 15727 15728 15729 15730 15731 15732 15733 15734 15735 15736 15737 15738 15739 15740 15741 15742 15743 15744 15745 15746 15747 15748 15749 15750 15751 15752 15753 15754 15755 15756 15757 15758 15759 15760 15761 15762 15763 15764 15765 15766 15767 15768 15769 15770 15771 15772 15773 15774 15775 15776 15777 15778 15779 15780 15781 15782 15783 15784 15785 15786 15787 15788 15789 15790 15791 15792 15793 15794 15795 15796 15797 15798 15799 15800 15801 15802 15803 15804 15805 15806 15807 15808 15809 15810 15811 15812 15813 15814 15815 15816 15817 15818 15819 15820 15821 15822 15823 15824 15825 15826 15827 15828 15829 15830 15831 15832 15833 15834 15835 15836 15837 15838 15839 15840 15841 15842 15843 15844 15845 15846 15847 15848 15849 15850 15851 15852 15853 15854 15855 15856 15857 15858 15859 15860 15861 15862 15863 15864 15865 15866 15867 15868 15869 15870 15871 15872 15873 15874 15875 15876 15877 15878 15879 15880 15881 15882 15883 15884 15885 15886 15887 15888 15889 15890 15891 15892 15893 15894 15895 15896 15897 15898 15899 15900 15901 15902 15903 15904 15905 15906 15907 15908 15909 15910 15911 15912 15913 15914 15915 15916 15917 15918 15919 15920 15921 15922 15923 15924 15925 15926 15927 15928 15929 15930 15931 15932 15933 15934 15935 15936 15937 15938 15939 15940 15941 15942 15943 15944 15945 15946 15947 15948 15949 15950 15951 15952 15953 15954 15955 15956 15957 15958 15959 15960 15961 15962 15963 15964 15965 15966 15967 15968 15969 15970 15971 15972 15973 15974 15975 15976 15977 15978 15979 15980 15981 15982 15983 15984 15985 15986 15987 15988 15989 15990 15991 15992 15993 15994 15995 15996 15997 15998 15999 16000 16001 16002 16003 16004 16005 16006 16007 16008 16009 16010 16011 16012 16013 16014 16015 16016 16017 16018 16019 16020 16021 16022 16023 16024 16025 16026 16027 16028 16029 16030 16031 16032 16033 16034 16035 16036 16037 16038 16039 16040 16041 16042 16043 16044 16045 16046 16047 16048 16049 16050 16051 16052 16053 16054 16055 16056 16057 16058 16059 16060 16061 16062 16063 16064 16065 16066 16067 16068 16069 16070 16071 16072 16073 16074 16075 16076 16077 16078 16079 16080 16081 16082 16083 16084 16085 16086 16087 16088 16089 16090 16091 16092 16093 16094 16095 16096 16097 16098 16099 16100 16101 16102 16103 16104 16105 16106 16107 16108 16109 16110 16111 16112 16113 16114 16115 16116 16117 16118 16119 16120 16121 16122 16123 16124 16125 16126 16127 16128 16129 16130 16131 16132 16133 16134 16135 16136 16137 16138 16139 16140 16141 16142 16143 16144 16145 16146 16147 16148 16149 16150 16151 16152 16153 16154 16155 16156 16157 16158 16159 16160 16161 16162 16163 16164 16165 16166 16167 16168 16169 16170 16171 16172 16173 16174 16175 16176 16177 16178 16179 16180 16181 16182 16183 16184 16185 16186 16187 16188 16189 16190 16191 16192 16193 16194 16195 16196 16197 16198 16199 16200 16201 16202 16203 16204 16205 16206 16207 16208 16209 16210 16211 16212 16213 16214 16215 16216 16217 16218 16219 16220 16221 16222 16223 16224 16225 16226 16227 16228 16229 16230 16231 16232 16233 16234 16235 16236 16237 16238 16239 16240 16241 16242 16243 16244 16245 16246 16247 16248 16249 16250 16251 16252 16253 16254 16255 16256 16257 16258 16259 16260 16261 16262 16263 16264 16265 16266 16267 16268 16269 16270 16271 16272 16273 16274 16275 16276 16277 16278 16279 16280 16281 16282 16283 16284 16285 16286 16287 16288 16289 16290 16291 16292 16293 16294 16295 16296 16297 16298 16299 16300 16301 16302 16303 16304 16305 16306 16307 16308 16309 16310 16311 16312 16313 16314 16315 16316 16317 16318 16319 16320 16321 16322 16323 16324 16325 16326 16327 16328 16329 16330 16331 16332 16333 16334 16335 16336 16337 16338 16339 16340 16341 16342 16343 16344 16345 16346 16347 16348 16349 16350 16351 16352 16353 16354 16355 16356 16357 16358 16359 16360 16361 16362 16363 16364 16365 16366 16367 16368 16369 16370 16371 16372 16373 16374 16375 16376 16377 16378 16379 16380 16381 16382 16383 16384 16385 16386 16387 16388 16389 16390 16391 16392 16393 16394 16395 16396 16397 16398 16399 16400 16401 16402 16403 16404 16405 16406 16407 16408 16409 16410 16411 16412 16413 16414 16415 16416 16417 16418 16419 16420 16421 16422 16423 16424 16425 16426 16427 16428 16429 16430 16431 16432 16433 16434 16435 16436 16437 16438 16439 16440 16441 16442 16443 16444 16445 16446 16447 16448 16449 16450 16451 16452 16453 16454 16455 16456 16457 16458 16459 16460 16461 16462 16463 16464 16465 16466 16467 16468 16469 16470 16471 16472 16473 16474 16475 16476 16477 16478 16479 16480 16481 16482 16483 16484 16485 16486 16487 16488 16489 16490 16491 16492 16493 16494 16495 16496 16497 16498 16499 16500 16501 16502 16503 16504 16505 16506 16507 16508 16509 16510 16511 16512 16513 16514 16515 16516 16517 16518 16519 16520 16521 16522 16523 16524 16525 16526 16527 16528 16529 16530 16531 16532 16533 16534 16535 16536 16537 16538 16539 16540 16541 16542 16543 16544 16545 16546 16547 16548 16549 16550 16551 16552 16553 16554 16555 16556 16557 16558 16559 16560 16561 16562 16563 16564 16565 16566 16567 16568 16569 16570 16571 16572 16573 16574 16575 16576 16577 16578 16579 16580 16581 16582 16583 16584 16585 16586 16587 16588 16589 16590 16591 16592 16593 16594 16595 16596 16597 16598 16599 16600 16601 16602 16603 16604 16605 16606 16607 16608 16609 16610 16611 16612 16613 16614 16615 16616 16617 16618 16619 16620 16621 16622 16623 16624 16625 16626 16627 16628 16629 16630 16631 16632 16633 16634 16635 16636 16637 16638 16639 16640 16641 16642 16643 16644 16645 16646 16647 16648 16649 16650 16651 16652 16653 16654 16655 16656 16657 16658 16659 16660 16661 16662 16663 16664 16665 16666 16667 16668 16669 16670 16671 16672 16673 16674 16675 16676 16677 16678 16679 16680 16681 16682 16683 16684 16685 16686 16687 16688 16689 16690 16691 16692 16693 16694 16695 16696 16697 16698 16699 16700 16701 16702 16703 16704 16705 16706 16707 16708 16709 16710 16711 16712 16713 16714 16715 16716 16717 16718 16719 16720 16721 16722 16723 16724 16725 16726 16727 16728 16729 16730 16731 16732 16733 16734 16735 16736 16737 16738 16739 16740 16741 16742 16743 16744 16745 16746 16747 16748 16749 16750 16751 16752 16753 16754 16755 16756 16757 16758 16759 16760 16761 16762 16763 16764 16765 16766 16767 16768 16769 16770 16771 16772 16773 16774 16775 16776 16777 16778 16779 16780 16781 16782 16783 16784 16785 16786 16787 16788 16789 16790 16791 16792 16793 16794 16795 16796 16797 16798 16799 16800 16801 16802 16803 16804 16805 16806 16807 16808 16809 16810 16811 16812 16813 16814 16815 16816 16817 16818 16819 16820 16821 16822 16823 16824 16825 16826 16827 16828 16829 16830 16831 16832 16833 16834 16835 16836 16837 16838 16839 16840 16841 16842 16843 16844 16845 16846 16847 16848 16849 16850 16851 16852 16853 16854 16855 16856 16857 16858 16859 16860 16861 16862 16863 16864 16865 16866 16867 16868 16869 16870 16871 16872 16873 16874 16875 16876 16877 16878 16879 16880 16881 16882 16883 16884 16885 16886 16887 16888 16889 16890 16891 16892 16893 16894 16895 16896 16897 16898 16899 16900 16901 16902 16903 16904 16905 16906 16907 16908 16909 16910 16911 16912 16913 16914 16915 16916 16917 16918 16919 16920 16921 16922 16923 16924 16925 16926 16927 16928 16929 16930 16931 16932 16933 16934 16935 16936 16937 16938 16939 16940 16941 16942 16943 16944 16945 16946 16947 16948 16949 16950 16951 16952 16953 16954 16955 16956 16957 16958 16959 16960 16961 16962 16963 16964 16965 16966 16967 16968 16969 16970 16971 16972 16973 16974 16975 16976 16977 16978 16979 16980 16981 16982 16983 16984 16985 16986 16987 16988 16989 16990 16991 16992 16993 16994 16995 16996 16997 16998 16999 17000 17001 17002 17003 17004 17005 17006 17007 17008 17009 17010 17011 17012 17013 17014 17015 17016 17017 17018 17019 17020 17021 17022 17023 17024 17025 17026 17027 17028 17029 17030 17031 17032 17033 17034 17035 17036 17037 17038 17039 17040 17041 17042 17043 17044 17045 17046 17047 17048 17049 17050 17051 17052 17053 17054 17055 17056 17057 17058 17059 17060 17061 17062 17063 17064 17065 17066 17067 17068 17069 17070 17071 17072 17073 17074 17075 17076 17077 17078 17079 17080 17081 17082 17083 17084 17085 17086 17087 17088 17089 17090 17091 17092 17093 17094 17095 17096 17097 17098 17099 17100 17101 17102 17103 17104 17105 17106 17107 17108 17109 17110 17111 17112 17113 17114 17115 17116 17117 17118 17119 17120 17121 17122 17123 17124 17125 17126 17127 17128 17129 17130 17131 17132 17133 17134 17135 17136 17137 17138 17139 17140 17141 17142 17143 17144 17145 17146 17147 17148 17149 17150 17151 17152 17153 17154 17155 17156 17157 17158 17159 17160 17161 17162 17163 17164 17165 17166 17167 17168 17169 17170 17171 17172 17173 17174 17175 17176 17177 17178 17179 17180 17181 17182 17183 17184 17185 17186 17187 17188 17189 17190 17191 17192 17193 17194 17195 17196 17197 17198 17199 17200 17201 17202 17203 17204 17205 17206 17207 17208 17209 17210 17211 17212 17213 17214 17215 17216 17217 17218 17219 17220 17221 17222 17223 17224 17225 17226 17227 17228 17229 17230 17231 17232 17233 17234 17235 17236 17237 17238 17239 17240 17241 17242 17243 17244 17245 17246 17247 17248 17249 17250 17251 17252 17253 17254 17255 17256 17257 17258 17259 17260 17261 17262 17263 17264 17265 17266 17267 17268 17269 17270 17271 17272 17273 17274 17275 17276 17277 17278 17279 17280 17281 17282 17283 17284 17285 17286 17287 17288 17289 17290 17291 17292 17293 17294 17295 17296 17297 17298 17299 17300 17301 17302 17303 17304 17305 17306 17307 17308 17309 17310 17311 17312 17313 17314 17315 17316 17317 17318 17319 17320 17321 17322 17323 17324 17325 17326 17327 17328 17329 17330 17331 17332 17333 17334 17335 17336 17337 17338 17339 17340 17341 17342 17343 17344 17345 17346 17347 17348 17349 17350 17351 17352 17353 17354 17355 17356 17357 17358 17359 17360 17361 17362 17363 17364 17365 17366 17367 17368 17369 17370 17371 17372 17373 17374 17375 17376 17377 17378 17379 17380 17381 17382 17383 17384 17385 17386 17387 17388 17389 17390 17391 17392 17393 17394 17395 17396 17397 17398 17399 17400 17401 17402 17403 17404 17405 17406 17407 17408 17409 17410 17411 17412 17413 17414 17415 17416 17417 17418 17419 17420 17421 17422 17423 17424 17425 17426 17427 17428 17429 17430 17431 17432 17433 17434 17435 17436 17437 17438 17439 17440 17441 17442 17443 17444 17445 17446 17447 17448 17449 17450 17451 17452 17453 17454 17455 17456 17457 17458 17459 17460 17461 17462 17463 17464 17465 17466 17467 17468 17469 17470 17471 17472 17473 17474 17475 17476 17477 17478 17479 17480 17481 17482 17483 17484 17485 17486 17487 17488 17489 17490 17491 17492 17493 17494 17495 17496 17497 17498 17499 17500 17501 17502 17503 17504 17505 17506 17507 17508 17509 17510 17511 17512 17513 17514 17515 17516 17517 17518 17519 17520 17521 17522 17523 17524 17525 17526 17527 17528 17529 17530 17531 17532 17533 17534 17535 17536 17537 17538 17539 17540 17541 17542 17543 17544 17545 17546 17547 17548 17549 17550 17551 17552 17553 17554 17555 17556 17557 17558 17559 17560 17561 17562 17563 17564 17565 17566 17567 17568 17569 17570 17571 17572 17573 17574 17575 17576 17577 17578 17579 17580 17581 17582 17583 17584 17585 17586 17587 17588 17589 17590 17591 17592 17593 17594 17595 17596 17597 17598 17599 17600 17601 17602 17603 17604 17605 17606 17607 17608 17609 17610 17611 17612 17613 17614 17615 17616 17617 17618 17619 17620 17621 17622 17623 17624 17625 17626 17627 17628 17629 17630 17631 17632 17633 17634 17635 17636 17637 17638 17639 17640 17641 17642 17643 17644 17645 17646 17647 17648 17649 17650 17651 17652 17653 17654 17655 17656 17657 17658 17659 17660 17661 17662 17663 17664 17665 17666 17667 17668 17669 17670 17671 17672 17673 17674 17675 17676 17677 17678 17679 17680 17681 17682 17683 17684 17685 17686 17687 17688 17689 17690 17691 17692 17693 17694 17695 17696 17697 17698 17699 17700 17701 17702 17703 17704 17705 17706 17707 17708 17709 17710 17711 17712 17713 17714 17715 17716 17717 17718 17719 17720 17721 17722 17723 17724 17725 17726 17727 17728 17729 17730 17731 17732 17733 17734 17735 17736 17737 17738 17739 17740 17741 17742 17743 17744 17745 17746 17747 17748 17749 17750 17751 17752 17753 17754 17755 17756 17757 17758 17759 17760 17761 17762 17763 17764 17765 17766 17767 17768 17769 17770 17771 17772 17773 17774 17775 17776 17777 17778 17779 17780 17781 17782 17783 17784 17785 17786 17787 17788 17789 17790 17791 17792 17793 17794 17795 17796 17797 17798 17799 17800 17801 17802 17803 17804 17805 17806 17807 17808 17809 17810 17811 17812 17813 17814 17815 17816 17817 17818 17819 17820 17821 17822 17823 17824 17825 17826 17827 17828 17829 17830 17831 17832 17833 17834 17835 17836 17837 17838 17839 17840 17841 17842 17843 17844 17845 17846 17847 17848 17849 17850 17851 17852 17853 17854 17855 17856 17857 17858 17859 17860 17861 17862 17863 17864 17865 17866 17867 17868 17869 17870 17871 17872 17873 17874 17875 17876 17877 17878 17879 17880 17881 17882 17883 17884 17885 17886 17887 17888 17889 17890 17891 17892 17893 17894 17895 17896 17897 17898 17899 17900 17901 17902 17903 17904 17905 17906 17907 17908 17909 17910 17911 17912 17913 17914 17915 17916 17917 17918 17919 17920 17921 17922 17923 17924 17925 17926 17927 17928 17929 17930 17931 17932 17933 17934 17935 17936 17937 17938 17939 17940 17941 17942 17943 17944 17945 17946 17947 17948 17949 17950 17951 17952 17953 17954 17955 17956 17957 17958 17959 17960 17961 17962 17963 17964 17965 17966 17967 17968 17969 17970 17971 17972 17973 17974 17975 17976 17977 17978 17979 17980 17981 17982 17983 17984 17985 17986 17987 17988 17989 17990 17991 17992 17993 17994 17995 17996 17997 17998 17999 18000 18001 18002 18003 18004 18005 18006 18007 18008 18009 18010 18011 18012 18013 18014 18015 18016 18017 18018 18019 18020 18021 18022 18023 18024 18025 18026 18027 18028 18029 18030 18031 18032 18033 18034 18035 18036 18037 18038 18039 18040 18041 18042 18043 18044 18045 18046 18047 18048 18049 18050 18051 18052 18053 18054 18055 18056 18057 18058 18059 18060 18061 18062 18063 18064 18065 18066 18067 18068 18069 18070 18071 18072 18073 18074 18075 18076 18077 18078 18079 18080 18081 18082 18083 18084 18085 18086 18087 18088 18089 18090 18091 18092 18093 18094 18095 18096 18097 18098 18099 18100 18101 18102 18103 18104 18105 18106 18107 18108 18109 18110 18111 18112 18113 18114 18115 18116 18117 18118 18119 18120 18121 18122 18123 18124 18125 18126 18127 18128 18129 18130 18131 18132 18133 18134 18135 18136 18137 18138 18139 18140 18141 18142 18143 18144 18145 18146 18147 18148 18149 18150 18151 18152 18153 18154 18155 18156 18157 18158 18159 18160 18161 18162 18163 18164 18165 18166 18167 18168 18169 18170 18171 18172 18173 18174 18175 18176 18177 18178 18179 18180 18181 18182 18183 18184 18185 18186 18187 18188 18189 18190 18191 18192 18193 18194 18195 18196 18197 18198 18199 18200 18201 18202 18203 18204 18205 18206 18207 18208 18209 18210 18211 18212 18213 18214 18215 18216 18217 18218 18219 18220 18221 18222 18223 18224 18225 18226 18227 18228 18229 18230 18231 18232 18233 18234 18235 18236 18237 18238 18239 18240 18241 18242 18243 18244 18245 18246 18247 18248 18249 18250 18251 18252 18253 18254 18255 18256 18257 18258 18259 18260 18261 18262 18263 18264 18265 18266 18267 18268 18269 18270 18271 18272 18273 18274 18275 18276 18277 18278 18279 18280 18281 18282 18283 18284 18285 18286 18287 18288 18289 18290 18291 18292 18293 18294 18295 18296 18297 18298 18299 18300 18301 18302 18303 18304 18305 18306 18307 18308 18309 18310 18311 18312 18313 18314 18315 18316 18317 18318 18319 18320 18321 18322 18323 18324 18325 18326 18327 18328 18329 18330 18331 18332 18333 18334 18335 18336 18337 18338 18339 18340 18341 18342 18343 18344 18345 18346 18347 18348 18349 18350 18351 18352 18353 18354 18355 18356 18357 18358 18359 18360 18361 18362 18363 18364 18365 18366 18367 18368 18369 18370 18371 18372 18373 18374 18375 18376 18377 18378 18379 18380 18381 18382 18383 18384 18385 18386 18387 18388 18389 18390 18391 18392 18393 18394 18395 18396 18397 18398 18399 18400 18401 18402 18403 18404 18405 18406 18407 18408 18409 18410 18411 18412 18413 18414 18415 18416 18417 18418 18419 18420 18421 18422 18423 18424 18425 18426 18427 18428 18429 18430 18431 18432 18433 18434 18435 18436 18437 18438 18439 18440 18441 18442 18443 18444 18445 18446 18447 18448 18449 18450 18451 18452 18453 18454 18455 18456 18457 18458 18459 18460 18461 18462 18463 18464 18465 18466 18467 18468 18469 18470 18471 18472 18473 18474 18475 18476 18477 18478 18479 18480 18481 18482 18483 18484 18485 18486 18487 18488 18489 18490 18491 18492 18493 18494 18495 18496 18497 18498 18499 18500 18501 18502 18503 18504 18505 18506 18507 18508 18509 18510 18511 18512 18513 18514 18515 18516 18517 18518 18519 18520 18521 18522 18523 18524 18525 18526 18527 18528 18529 18530 18531 18532 18533 18534 18535 18536 18537 18538 18539 18540 18541 18542 18543 18544 18545 18546 18547 18548 18549 18550 18551 18552 18553 18554 18555 18556 18557 18558 18559 18560 18561 18562 18563 18564 18565 18566 18567 18568 18569 18570 18571 18572 18573 18574 18575 18576 18577 18578 18579 18580 18581 18582 18583 18584 18585 18586 18587 18588 18589 18590 18591 18592 18593 18594 18595 18596 18597 18598 18599 18600 18601 18602 18603 18604 18605 18606 18607 18608 18609 18610 18611 18612 18613 18614 18615 18616 18617 18618 18619 18620 18621 18622 18623 18624 18625 18626 18627 18628 18629 18630 18631 18632 18633 18634 18635 18636 18637 18638 18639 18640 18641 18642 18643 18644 18645 18646 18647 18648 18649 18650 18651 18652 18653 18654 18655 18656 18657 18658 18659 18660 18661 18662 18663 18664 18665 18666 18667 18668 18669 18670 18671 18672 18673 18674 18675 18676 18677 18678 18679 18680 18681 18682 18683 18684 18685 18686 18687 18688 18689 18690 18691 18692 18693 18694 18695 18696 18697 18698 18699 18700 18701 18702 18703 18704 18705 18706 18707 18708 18709 18710 18711 18712 18713 18714 18715 18716 18717 18718 18719 18720 18721 18722 18723 18724 18725 18726 18727 18728 18729 18730 18731 18732 18733 18734 18735 18736 18737 18738 18739 18740 18741 18742 18743 18744 18745 18746 18747 18748 18749 18750 18751 18752 18753 18754 18755 18756 18757 18758 18759 18760 18761 18762 18763 18764 18765 18766 18767 18768 18769 18770 18771 18772 18773 18774 18775 18776 18777 18778 18779 18780 18781 18782 18783 18784 18785 18786 18787 18788 18789 18790 18791 18792 18793 18794 18795 18796 18797 18798 18799 18800 18801 18802 18803 18804 18805 18806 18807 18808 18809 18810 18811 18812 18813 18814 18815 18816 18817 18818 18819 18820 18821 18822 18823 18824 18825 18826 18827 18828 18829 18830 18831 18832 18833 18834 18835 18836 18837 18838 18839 18840 18841 18842 18843 18844 18845 18846 18847 18848 18849 18850 18851 18852 18853 18854 18855 18856 18857 18858 18859 18860 18861 18862 18863 18864 18865 18866 18867 18868 18869 18870 18871 18872 18873 18874 18875 18876 18877 18878 18879 18880 18881 18882 18883 18884 18885 18886 18887 18888 18889 18890 18891 18892 18893 18894 18895 18896 18897 18898 18899 18900 18901 18902 18903 18904 18905 18906 18907 18908 18909 18910 18911 18912 18913 18914 18915 18916 18917 18918 18919 18920 18921 18922 18923 18924 18925 18926 18927 18928 18929 18930 18931 18932 18933 18934 18935 18936 18937 18938 18939 18940 18941 18942 18943 18944 18945 18946 18947 18948 18949 18950 18951 18952 18953 18954 18955 18956 18957 18958 18959 18960 18961 18962 18963 18964 18965 18966 18967 18968 18969 18970 18971 18972 18973 18974 18975 18976 18977 18978 18979 18980 18981 18982 18983 18984 18985 18986 18987 18988 18989 18990 18991 18992 18993 18994 18995 18996 18997 18998 18999 19000 19001 19002 19003 19004 19005 19006 19007 19008 19009 19010 19011 19012 19013 19014 19015 19016 19017 19018 19019 19020 19021 19022 19023 19024 19025 19026 19027 19028 19029 19030 19031 19032 19033 19034 19035 19036 19037 19038 19039 19040 19041 19042 19043 19044 19045 19046 19047 19048 19049 19050 19051 19052 19053 19054 19055 19056 19057 19058 19059 19060 19061 19062 19063 19064 19065 19066 19067 19068 19069 19070 19071 19072 19073 19074 19075 19076 19077 19078 19079 19080 19081 19082 19083 19084 19085 19086 19087 19088 19089 19090 19091 19092 19093 19094 19095 19096 19097 19098 19099 19100 19101 19102 19103 19104 19105 19106 19107 19108 19109 19110 19111 19112 19113 19114 19115 19116 19117 19118 19119 19120 19121 19122 19123 19124 19125 19126 19127 19128 19129 19130 19131 19132 19133 19134 19135 19136 19137 19138 19139 19140 19141 19142 19143 19144 19145 19146 19147 19148 19149 19150 19151 19152 19153 19154 19155 19156 19157 19158 19159 19160 19161 19162 19163 19164 19165 19166 19167 19168 19169 19170 19171 19172 19173 19174 19175 19176 19177 19178 19179 19180 19181 19182 19183 19184 19185 19186 19187 19188 19189 19190 19191 19192 19193 19194 19195 19196 19197 19198 19199 19200 19201 19202 19203 19204 19205 19206 19207 19208 19209 19210 19211 19212 19213 19214 19215 19216 19217 19218 19219 19220 19221 19222 19223 19224 19225 19226 19227 19228 19229 19230 19231 19232 19233 19234 19235 19236 19237 19238 19239 19240 19241 19242 19243 19244 19245 19246 19247 19248 19249 19250 19251 19252 19253 19254 19255 19256 19257 19258 19259 19260 19261 19262 19263 19264 19265 19266 19267 19268 19269 19270 19271 19272 19273 19274 19275 19276 19277 19278 19279 19280 19281 19282 19283 19284 19285 19286 19287 19288 19289 19290 19291 19292 19293 19294 19295 19296 19297 19298 19299 19300 19301 19302 19303 19304 19305 19306 19307 19308 19309 19310 19311 19312 19313 19314 19315 19316 19317 19318 19319 19320 19321 19322 19323 19324 19325 19326 19327 19328 19329 19330 19331 19332 19333 19334 19335 19336 19337 19338 19339 19340 19341 19342 19343 19344 19345 19346 19347 19348 19349 19350 19351 19352 19353 19354 19355 19356 19357 19358 19359 19360 19361 19362 19363 19364 19365 19366 19367 19368 19369 19370 19371 19372 19373 19374 19375 19376 19377 19378 19379 19380 19381 19382 19383 19384 19385 19386 19387 19388 19389 19390 19391 19392 19393 19394 19395 19396 19397 19398 19399 19400 19401 19402 19403 19404 19405 19406 19407 19408 19409 19410 19411 19412 19413 19414 19415 19416 19417 19418 19419 19420 19421 19422 19423 19424 19425 19426 19427 19428 19429 19430 19431 19432 19433 19434 19435 19436 19437 19438 19439 19440 19441 19442 19443 19444 19445 19446 19447 19448 19449 19450 19451 19452 19453 19454 19455 19456 19457 19458 19459 19460 19461 19462 19463 19464 19465 19466 19467 19468 19469 19470 19471 19472 19473 19474 19475 19476 19477 19478 19479 19480 19481 19482 19483 19484 19485 19486 19487 19488 19489 19490 19491 19492 19493 19494 19495 19496 19497 19498 19499 19500 19501 19502 19503 19504 19505 19506 19507 19508 19509 19510 19511 19512 19513 19514 19515 19516 19517 19518 19519 19520 19521 19522 19523 19524 19525 19526 19527 19528 19529 19530 19531 19532 19533 19534 19535 19536 19537 19538 19539 19540 19541 19542 19543 19544 19545 19546 19547 19548 19549 19550 19551 19552 19553 19554 19555 19556 19557 19558 19559 19560 19561 19562 19563 19564 19565 19566 19567 19568 19569 19570 19571 19572 19573 19574 19575 19576 19577 19578 19579 19580 19581 19582 19583 19584 19585 19586 19587 19588 19589 19590 19591 19592 19593 19594 19595 19596 19597 19598 19599 19600 19601 19602 19603 19604 19605 19606 19607 19608 19609 19610 19611 19612 19613 19614 19615 19616 19617 19618 19619 19620 19621 19622 19623 19624 19625 19626 19627 19628 19629 19630 19631 19632 19633 19634 19635 19636 19637 19638 19639 19640 19641 19642 19643 19644 19645 19646 19647 19648 19649 19650 19651 19652 19653 19654 19655 19656 19657 19658 19659 19660 19661 19662 19663 19664 19665 19666 19667 19668 19669 19670 19671 19672 19673 19674 19675 19676 19677 19678 19679 19680 19681 19682 19683 19684 19685 19686 19687 19688 19689 19690 19691 19692 19693 19694 19695 19696 19697 19698 19699 19700 19701 19702 19703 19704 19705 19706 19707 19708 19709 19710 19711 19712 19713 19714 19715 19716 19717 19718 19719 19720 19721 19722 19723 19724 19725 19726 19727 19728 19729 19730 19731 19732 19733 19734 19735 19736 19737 19738 19739 19740 19741 19742 19743 19744 19745 19746 19747 19748 19749 19750 19751 19752 19753 19754 19755 19756 19757 19758 19759 19760 19761 19762 19763 19764 19765 19766 19767 19768 19769 19770 19771 19772 19773 19774 19775 19776 19777 19778 19779 19780 19781 19782 19783 19784 19785 19786 19787 19788 19789 19790 19791 19792 19793 19794 19795 19796 19797 19798 19799 19800 19801 19802 19803 19804 19805 19806 19807 19808 19809 19810 19811 19812 19813 19814 19815 19816 19817 19818 19819 19820 19821 19822 19823 19824 19825 19826 19827 19828 19829 19830 19831 19832 19833 19834 19835 19836 19837 19838 19839 19840 19841 19842 19843 19844 19845 19846 19847 19848 19849 19850 19851 19852 19853 19854 19855 19856 19857 19858 19859 19860 19861 19862 19863 19864 19865 19866 19867 19868 19869 19870 19871 19872 19873 19874 19875 19876 19877 19878 19879 19880 19881 19882 19883 19884 19885 19886 19887 19888 19889 19890 19891 19892 19893 19894 19895 19896 19897 19898 19899 19900 19901 19902 19903 19904 19905 19906 19907 19908 19909 19910 19911 19912 19913 19914 19915 19916 19917 19918 19919 19920 19921 19922 19923 19924 19925 19926 19927 19928 19929 19930 19931 19932 19933 19934 19935 19936 19937 19938 19939 19940 19941 19942 19943 19944 19945 19946 19947 19948 19949 19950 19951 19952 19953 19954 19955 19956 19957 19958 19959 19960 19961 19962 19963 19964 19965 19966 19967 19968 19969 19970 19971 19972 19973 19974 19975 19976 19977 19978 19979 19980 19981 19982 19983 19984 19985 19986 19987 19988 19989 19990 19991 19992 19993 19994 19995 19996 19997 19998 19999 20000 20001 20002 20003 20004 20005 20006 20007 20008 20009 20010 20011 20012 20013 20014 20015 20016 20017 20018 20019 20020 20021 20022 20023 20024 20025 20026 20027 20028 20029 20030 20031 20032 20033 20034 20035 20036 20037 20038 20039 20040 20041 20042 20043 20044 20045 20046 20047 20048 20049 20050 20051 20052 20053 20054 20055 20056 20057 20058 20059 20060 20061 20062 20063 20064 20065 20066 20067 20068 20069 20070 20071 20072 20073 20074 20075 20076 20077 20078 20079 20080 20081 20082 20083 20084 20085 20086 20087 20088 20089 20090 20091 20092 20093 20094 20095 20096 20097 20098 20099 20100 20101 20102 20103 20104 20105 20106 20107 20108 20109 20110 20111 20112 20113 20114 20115 20116 20117 20118 20119 20120 20121 20122 20123 20124 20125 20126 20127 20128 20129 20130 20131 20132 20133 20134 20135 20136 20137 20138 20139 20140 20141 20142 20143 20144 20145 20146 20147 20148 20149 20150 20151 20152 20153 20154 20155 20156 20157 20158 20159 20160 20161 20162 20163 20164 20165 20166 20167 20168 20169 20170 20171 20172 20173 20174 20175 20176 20177 20178 20179 20180 20181 20182 20183 20184 20185 20186 20187 20188 20189 20190 20191 20192 20193 20194 20195 20196 20197 20198 20199 20200 20201 20202 20203 20204 20205 20206 20207 20208 20209 20210 20211 20212 20213 20214 20215 20216 20217 20218 20219 20220 20221 20222 20223 20224 20225 20226 20227 20228 20229 20230 20231 20232 20233 20234 20235 20236 20237 20238 20239 20240 20241 20242 20243 20244 20245 20246 20247 20248 20249 20250 20251 20252 20253 20254 20255 20256 20257 20258 20259 20260 20261 20262 20263 20264 20265 20266 20267 20268 20269 20270 20271 20272 20273 20274 20275 20276 20277 20278 20279 20280 20281 20282 20283 20284 20285 20286 20287 20288 20289 20290 20291 20292 20293 20294 20295 20296 20297 20298 20299 20300 20301 20302 20303 20304 20305 20306 20307 20308 20309 20310 20311 20312 20313 20314 20315 20316 20317 20318 20319 20320 20321 20322 20323 20324 20325 20326 20327 20328 20329 20330 20331 20332 20333 20334 20335 20336 20337 20338 20339 20340 20341 20342 20343 20344 20345 20346 20347 20348 20349 20350 20351 20352 20353 20354 20355 20356 20357 20358 20359 20360 20361 20362 20363 20364 20365 20366 20367 20368 20369 20370 20371 20372 20373 20374 20375 20376 20377 20378 20379 20380 20381 20382 20383 20384 20385 20386 20387 20388 20389 20390 20391 20392 20393 20394 20395 20396 20397 20398 20399 20400 20401 20402 20403 20404 20405 20406 20407 20408 20409 20410 20411 20412 20413 20414 20415 20416 20417 20418 20419 20420 20421 20422 20423 20424 20425 20426 20427 20428 20429 20430 20431 20432 20433 20434 20435 20436 20437 20438 20439 20440 20441 20442 20443 20444 20445 20446 20447 20448 20449 20450 20451 20452 20453 20454 20455 20456 20457 20458 20459 20460 20461 20462 20463 20464 20465 20466 20467 20468 20469 20470 20471 20472 20473 20474 20475 20476 20477 20478 20479 20480 20481 20482 20483 20484 20485 20486 20487 20488 20489 20490 20491 20492 20493 20494 20495 20496 20497 20498 20499 20500 20501 20502 20503 20504 20505 20506 20507 20508 20509 20510 20511 20512 20513 20514 20515 20516 20517 20518 20519 20520 20521 20522 20523 20524 20525 20526 20527 20528 20529 20530 20531 20532 20533 20534 20535 20536 20537 20538 20539 20540 20541 20542 20543 20544 20545 20546 20547 20548 20549 20550 20551 20552 20553 20554 20555 20556 20557 20558 20559 20560 20561 20562 20563 20564 20565 20566 20567 20568 20569 20570 20571 20572 20573 20574 20575 20576 20577 20578 20579 20580 20581 20582 20583 20584 20585 20586 20587 20588 20589 20590 20591 20592 20593 20594 20595 20596 20597 20598 20599 20600 20601 20602 20603 20604 20605 20606 20607 20608 20609 20610 20611 20612 20613 20614 20615 20616 20617 20618 20619 20620 20621 20622 20623 20624 20625 20626 20627 20628 20629 20630 20631 20632 20633 20634 20635 20636 20637 20638 20639 20640 20641 20642 20643 20644 20645 20646 20647 20648 20649 20650 20651 20652 20653 20654 20655 20656 20657 20658 20659 20660 20661 20662 20663 20664 20665 20666 20667 20668 20669 20670 20671 20672 20673 20674 20675 20676 20677 20678 20679 20680 20681 20682 20683 20684 20685 20686 20687 20688 20689 20690 20691 20692 20693 20694 20695 20696 20697 20698 20699 20700 20701 20702 20703 20704 20705 20706 20707 20708 20709 20710 20711 20712 20713 20714 20715 20716 20717 20718 20719 20720 20721 20722 20723 20724 20725 20726 20727 20728 20729 20730 20731 20732 20733 20734 20735 20736 20737 20738 20739 20740 20741 20742 20743 20744 20745 20746 20747 20748 20749 20750 20751 20752 20753 20754 20755 20756 20757 20758 20759 20760 20761 20762 20763 20764 20765 20766 20767 20768 20769 20770 20771 20772 20773 20774 20775 20776 20777 20778 20779 20780 20781 20782 20783 20784 20785 20786 20787 20788 20789 20790 20791 20792 20793 20794 20795 20796 20797 20798 20799 20800 20801 20802 20803 20804 20805 20806 20807 20808 20809 20810 20811 20812 20813 20814 20815 20816 20817 20818 20819 20820 20821 20822 20823 20824 20825 20826 20827 20828 20829 20830 20831 20832 20833 20834 20835 20836 20837 20838 20839 20840 20841 20842 20843 20844 20845 20846 20847 20848 20849 20850 20851 20852 20853 20854 20855 20856 20857 20858 20859 20860 20861 20862 20863 20864 20865 20866 20867 20868 20869 20870 20871 20872 20873 20874 20875 20876 20877 20878 20879 20880 20881 20882 20883 20884 20885 20886 20887 20888 20889 20890 20891 20892 20893 20894 20895 20896 20897 20898 20899 20900 20901 20902 20903 20904 20905 20906 20907 20908 20909 20910 20911 20912 20913 20914 20915 20916 20917 20918 20919 20920 20921 20922 20923 20924 20925 20926 20927 20928 20929 20930 20931 20932 20933 20934 20935 20936 20937 20938 20939 20940 20941 20942 20943 20944 20945 20946 20947 20948 20949 20950 20951 20952 20953 20954 20955 20956 20957 20958 20959 20960 20961 20962 20963 20964 20965 20966 20967 20968 20969 20970 20971 20972 20973 20974 20975 20976 20977 20978 20979 20980 20981 20982 20983 20984 20985 20986 20987 20988 20989 20990 20991 20992 20993 20994 20995 20996 20997 20998 20999 21000 21001 21002 21003 21004 21005 21006 21007 21008 21009 21010 21011 21012 21013 21014 21015 21016 21017 21018 21019 21020 21021 21022 21023 21024 21025 21026 21027 21028 21029 21030 21031 21032 21033 21034 21035 21036 21037 21038 21039 21040 21041 21042 21043 21044 21045 21046 21047 21048 21049 21050 21051 21052 21053 21054 21055 21056 21057 21058 21059 21060 21061 21062 21063 21064 21065 21066 21067 21068 21069 21070 21071 21072 21073 21074 21075 21076 21077 21078 21079 21080 21081 21082 21083 21084 21085 21086 21087 21088 21089 21090 21091 21092 21093 21094 21095 21096 21097 21098 21099 21100 21101 21102 21103 21104 21105 21106 21107 21108 21109 21110 21111 21112 21113 21114 21115 21116 21117 21118 21119 21120 21121 21122 21123 21124 21125 21126 21127 21128 21129 21130 21131 21132 21133 21134 21135 21136 21137 21138 21139 21140 21141 21142 21143 21144 21145 21146 21147 21148 21149 21150 21151 21152 21153 21154 21155 21156 21157 21158 21159 21160 21161 21162 21163 21164 21165 21166 21167 21168 21169 21170 21171 21172 21173 21174 21175 21176 21177 21178 21179 21180 21181 21182 21183 21184 21185 21186 21187 21188 21189 21190 21191 21192 21193 21194 21195 21196 21197 21198 21199 21200 21201 21202 21203 21204 21205 21206 21207 21208 21209 21210 21211 21212 21213 21214 21215 21216 21217 21218 21219 21220 21221 21222 21223 21224 21225 21226 21227 21228 21229 21230 21231 21232 21233 21234 21235 21236 21237 21238 21239 21240 21241 21242 21243 21244 21245 21246 21247 21248 21249 21250 21251 21252 21253 21254 21255 21256 21257 21258 21259 21260 21261 21262 21263 21264 21265 21266 21267 21268 21269 21270 21271 21272 21273 21274 21275 21276 21277 21278 21279 21280 21281 21282 21283 21284 21285 21286 21287 21288 21289 21290 21291 21292 21293 21294 21295 21296 21297 21298 21299 21300 21301 21302 21303 21304 21305 21306 21307 21308 21309 21310 21311 21312 21313 21314 21315 21316 21317 21318 21319 21320 21321 21322 21323 21324 21325 21326 21327 21328 21329 21330 21331 21332 21333 21334 21335 21336 21337 21338 21339 21340 21341 21342 21343 21344 21345 21346 21347 21348 21349 21350 21351 21352 21353 21354 21355 21356 21357 21358 21359 21360 21361 21362 21363 21364 21365 21366 21367 21368 21369 21370 21371 21372 21373 21374 21375 21376 21377 21378 21379 21380 21381 21382 21383 21384 21385 21386 21387 21388 21389 21390 21391 21392 21393 21394 21395 21396 21397 21398 21399 21400 21401 21402 21403 21404 21405 21406 21407 21408 21409 21410 21411 21412 21413 21414 21415 21416 21417 21418 21419 21420 21421 21422 21423 21424 21425 21426 21427 21428 21429 21430 21431 21432 21433 21434 21435 21436 21437 21438 21439 21440 21441 21442 21443 21444 21445 21446 21447 21448 21449 21450 21451 21452 21453 21454 21455 21456 21457 21458 21459 21460 21461 21462 21463 21464 21465 21466 21467 21468 21469 21470 21471 21472 21473 21474 21475 21476 21477 21478 21479 21480 21481 21482 21483 21484 21485 21486 21487 21488 21489 21490 21491 21492 21493 21494 21495 21496 21497 21498 21499 21500 21501 21502 21503 21504 21505 21506 21507 21508 21509 21510 21511 21512 21513 21514 21515 21516 21517 21518 21519 21520 21521 21522 21523 21524 21525 21526 21527 21528 21529 21530 21531 21532 21533 21534 21535 21536 21537 21538 21539 21540 21541 21542 21543 21544 21545 21546 21547 21548 21549 21550 21551 21552 21553 21554 21555 21556 21557 21558 21559 21560 21561 21562 21563 21564 21565 21566 21567 21568 21569 21570 21571 21572 21573 21574 21575 21576 21577 21578 21579 21580 21581 21582 21583 21584 21585 21586 21587 21588 21589 21590 21591 21592 21593 21594 21595 21596 21597 21598 21599 21600 21601 21602 21603 21604 21605 21606 21607 21608 21609 21610 21611 21612 21613 21614 21615 21616 21617 21618 21619 21620 21621 21622 21623 21624 21625 21626 21627 21628 21629 21630 21631 21632 21633 21634 21635 21636 21637 21638 21639 21640 21641 21642 21643 21644 21645 21646 21647 21648 21649 21650 21651 21652 21653 21654 21655 21656 21657 21658 21659 21660 21661 21662 21663 21664 21665 21666 21667 21668 21669 21670 21671 21672 21673 21674 21675 21676 21677 21678 21679 21680 21681 21682 21683 21684 21685 21686 21687 21688 21689 21690 21691 21692 21693 21694 21695 21696 21697 21698 21699 21700 21701 21702 21703 21704 21705 21706 21707 21708 21709 21710 21711 21712 21713 21714 21715 21716 21717 21718 21719 21720 21721 21722 21723 21724 21725 21726 21727 21728 21729 21730 21731 21732 21733 21734 21735 21736 21737 21738 21739 21740 21741 21742 21743 21744 21745 21746 21747 21748 21749 21750 21751 21752 21753 21754 21755 21756 21757 21758 21759 21760 21761 21762 21763 21764 21765 21766 21767 21768 21769 21770 21771 21772 21773 21774 21775 21776 21777 21778 21779 21780 21781 21782 21783 21784 21785 21786 21787 21788 21789 21790 21791 21792 21793 21794 21795 21796 21797 21798 21799 21800 21801 21802 21803 21804 21805 21806 21807 21808 21809 21810 21811 21812 21813 21814 21815 21816 21817 21818 21819 21820 21821 21822 21823 21824 21825 21826 21827 21828 21829 21830 21831 21832 21833 21834 21835 21836 21837 21838 21839 21840 21841 21842 21843 21844 21845 21846 21847 21848 21849 21850 21851 21852 21853 21854 21855 21856 21857 21858 21859 21860 21861 21862 21863 21864 21865 21866 21867 21868 21869 21870 21871 21872 21873 21874 21875 21876 21877 21878 21879 21880 21881 21882 21883 21884 21885 21886 21887 21888 21889 21890 21891 21892 21893 21894 21895 21896 21897 21898 21899 21900 21901 21902 21903 21904 21905 21906 21907 21908 21909 21910 21911 21912 21913 21914 21915 21916 21917 21918 21919 21920 21921 21922 21923 21924 21925 21926 21927 21928 21929 21930 21931 21932 21933 21934 21935 21936 21937 21938 21939 21940 21941 21942 21943 21944 21945 21946 21947 21948 21949 21950 21951 21952 21953 21954 21955 21956 21957 21958 21959 21960 21961 21962 21963 21964 21965 21966 21967 21968 21969 21970 21971 21972 21973 21974 21975 21976 21977 21978 21979 21980 21981 21982 21983 21984 21985 21986 21987 21988 21989 21990 21991 21992 21993 21994 21995 21996 21997 21998 21999 22000 22001 22002 22003 22004 22005 22006 22007 22008 22009 22010 22011 22012 22013 22014 22015 22016 22017 22018 22019 22020 22021 22022 22023 22024 22025 22026 22027 22028 22029 22030 22031 22032 22033 22034 22035 22036 22037 22038 22039 22040 22041 22042 22043 22044 22045 22046 22047 22048 22049 22050 22051 22052 22053 22054 22055 22056 22057 22058 22059 22060 22061 22062 22063 22064 22065 22066 22067 22068 22069 22070 22071 22072 22073 22074 22075 22076 22077 22078 22079 22080 22081 22082 22083 22084 22085 22086 22087 22088 22089 22090 22091 22092 22093 22094 22095 22096 22097 22098 22099 22100 22101 22102 22103 22104 22105 22106 22107 22108 22109 22110 22111 22112 22113 22114 22115 22116 22117 22118 22119 22120 22121 22122 22123 22124 22125 22126 22127 22128 22129 22130 22131 22132 22133 22134 22135 22136 22137 22138 22139 22140 22141 22142 22143 22144 22145 22146 22147 22148 22149 22150 22151 22152 22153 22154 22155 22156 22157 22158 22159 22160 22161 22162 22163 22164 22165 22166 22167 22168 22169 22170 22171 22172 22173 22174 22175 22176 22177 22178 22179 22180 22181 22182 22183 22184 22185 22186 22187 22188 22189 22190 22191 22192 22193 22194 22195 22196 22197 22198 22199 22200 22201 22202 22203 22204 22205 22206 22207 22208 22209 22210 22211 22212 22213 22214 22215 22216 22217 22218 22219 22220 22221 22222 22223 22224 22225 22226 22227 22228 22229 22230 22231 22232 22233 22234 22235 22236 22237 22238 22239 22240 22241 22242 22243 22244 22245 22246 22247 22248 22249 22250 22251 22252 22253 22254 22255 22256 22257 22258 22259 22260 22261 22262 22263 22264 22265 22266 22267 22268 22269 22270 22271 22272 22273 22274 22275 22276 22277 22278 22279 22280 22281 22282 22283 22284 22285 22286 22287 22288 22289 22290 22291 22292 22293 22294 22295 22296 22297 22298 22299 22300 22301 22302 22303 22304 22305 22306 22307 22308 22309 22310 22311 22312 22313 22314 22315 22316 22317 22318 22319 22320 22321 22322 22323 22324 22325 22326 22327 22328 22329 22330 22331 22332 22333 22334 22335 22336 22337 22338 22339 22340 22341 22342 22343 22344 22345 22346 22347 22348 22349 22350 22351 22352 22353 22354 22355 22356 22357 22358 22359 22360 22361 22362 22363 22364 22365 22366 22367 22368 22369 22370 22371 22372 22373 22374 22375 22376 22377 22378 22379 22380 22381 22382 22383 22384 22385 22386 22387 22388 22389 22390 22391 22392 22393 22394 22395 22396 22397 22398 22399 22400 22401 22402 22403 22404 22405 22406 22407 22408 22409 22410 22411 22412 22413 22414 22415 22416 22417 22418 22419 22420 22421 22422 22423 22424 22425 22426 22427 22428 22429 22430 22431 22432 22433 22434 22435 22436 22437 22438 22439 22440 22441 22442 22443 22444 22445 22446 22447 22448 22449 22450 22451 22452 22453 22454 22455 22456 22457 22458 22459 22460 22461 22462 22463 22464 22465 22466 22467 22468 22469 22470 22471 22472 22473 22474 22475 22476 22477 22478 22479 22480 22481 22482 22483 22484 22485 22486 22487 22488 22489 22490 22491 22492 22493 22494 22495 22496 22497 22498 22499 22500 22501 22502 22503 22504 22505 22506 22507 22508 22509 22510 22511 22512 22513 22514 22515 22516 22517 22518 22519 22520 22521 22522 22523 22524 22525 22526 22527 22528 22529 22530 22531 22532 22533 22534 22535 22536 22537 22538 22539 22540 22541 22542 22543 22544 22545 22546 22547 22548 22549 22550 22551 22552 22553 22554 22555 22556 22557 22558 22559 22560 22561 22562 22563 22564 22565 22566 22567 22568 22569 22570 22571 22572 22573 22574 22575 22576 22577 22578 22579 22580 22581 22582 22583 22584 22585 22586 22587 22588 22589 22590 22591 22592 22593 22594 22595 22596 22597 22598 22599 22600 22601 22602 22603 22604 22605 22606 22607 22608 22609 22610 22611 22612 22613 22614 22615 22616 22617 22618 22619 22620 22621 22622 22623 22624 22625 22626 22627 22628 22629 22630 22631 22632 22633 22634 22635 22636 22637 22638 22639 22640 22641 22642 22643 22644 22645 22646 22647 22648 22649 22650 22651 22652 22653 22654 22655 22656 22657 22658 22659 22660 22661 22662 22663 22664 22665 22666 22667 22668 22669 22670 22671 22672 22673 22674 22675 22676 22677 22678 22679 22680 22681 22682 22683 22684 22685 22686 22687 22688 22689 22690 22691 22692 22693 22694 22695 22696 22697 22698 22699 22700 22701 22702 22703 22704 22705 22706 22707 22708 22709 22710 22711 22712 22713 22714 22715 22716 22717 22718 22719 22720 22721 22722 22723 22724 22725 22726 22727 22728 22729 22730 22731 22732 22733 22734 22735 22736 22737 22738 22739 22740 22741 22742 22743 22744 22745 22746 22747 22748 22749 22750 22751 22752 22753 22754 22755 22756 22757 22758 22759 22760 22761 22762 22763 22764 22765 22766 22767 22768 22769 22770 22771 22772 22773 22774 22775 22776 22777 22778 22779 22780 22781 22782 22783 22784 22785 22786 22787 22788 22789 22790 22791 22792 22793 22794 22795 22796 22797 22798 22799 22800 22801 22802 22803 22804 22805 22806 22807 22808 22809 22810 22811 22812 22813 22814 22815 22816 22817 22818 22819 22820 22821 22822 22823 22824 22825 22826 22827 22828 22829 22830 22831 22832 22833 22834 22835 22836 22837 22838 22839 22840 22841 22842 22843 22844 22845 22846 22847 22848 22849 22850 22851 22852 22853 22854 22855 22856 22857 22858 22859 22860 22861 22862 22863 22864 22865 22866 22867 22868 22869 22870 22871 22872 22873 22874 22875 22876 22877 22878 22879 22880 22881 22882 22883 22884 22885 22886 22887 22888 22889 22890 22891 22892 22893 22894 22895 22896 22897 22898 22899 22900 22901 22902 22903 22904 22905 22906 22907 22908 22909 22910 22911 22912 22913 22914 22915 22916 22917 22918 22919 22920 22921 22922 22923 22924 22925 22926 22927 22928 22929 22930 22931 22932 22933 22934 22935 22936 22937 22938 22939 22940 22941 22942 22943 22944 22945 22946 22947 22948 22949 22950 22951 22952 22953 22954 22955 22956 22957 22958 22959 22960 22961 22962 22963 22964 22965 22966 22967 22968 22969 22970 22971 22972 22973 22974 22975 22976 22977 22978 22979 22980 22981 22982 22983 22984 22985 22986 22987 22988 22989 22990 22991 22992 22993 22994 22995 22996 22997 22998 22999 23000 23001 23002 23003 23004 23005 23006 23007 23008 23009 23010 23011 23012 23013 23014 23015 23016 23017 23018 23019 23020 23021 23022 23023 23024 23025 23026 23027 23028 23029 23030 23031 23032 23033 23034 23035 23036 23037 23038 23039 23040 23041 23042 23043 23044 23045 23046 23047 23048 23049 23050 23051 23052 23053 23054 23055 23056 23057 23058 23059 23060 23061 23062 23063 23064 23065 23066 23067 23068 23069 23070 23071 23072 23073 23074 23075 23076 23077 23078 23079 23080 23081 23082 23083 23084 23085 23086 23087 23088 23089 23090 23091 23092 23093 23094 23095 23096 23097 23098 23099 23100 23101 23102 23103 23104 23105 23106 23107 23108 23109 23110 23111 23112 23113 23114 23115 23116 23117 23118 23119 23120 23121 23122 23123 23124 23125 23126 23127 23128 23129 23130 23131 23132 23133 23134 23135 23136 23137 23138 23139 23140 23141 23142 23143 23144 23145 23146 23147 23148 23149 23150 23151 23152 23153 23154 23155 23156 23157 23158 23159 23160 23161 23162 23163 23164 23165 23166 23167 23168 23169 23170 23171 23172 23173 23174 23175 23176 23177 23178 23179 23180 23181 23182 23183 23184 23185 23186 23187 23188 23189 23190 23191 23192 23193 23194 23195 23196 23197 23198 23199 23200 23201 23202 23203 23204 23205 23206 23207 23208 23209 23210 23211 23212 23213 23214 23215 23216 23217 23218 23219 23220 23221 23222 23223 23224 23225 23226 23227 23228 23229 23230 23231 23232 23233 23234 23235 23236 23237 23238 23239 23240 23241 23242 23243 23244 23245 23246 23247 23248 23249 23250 23251 23252 23253 23254 23255 23256 23257 23258 23259 23260 23261 23262 23263 23264 23265 23266 23267 23268 23269 23270 23271 23272 23273 23274 23275 23276 23277 23278 23279 23280 23281 23282 23283 23284 23285 23286 23287 23288 23289 23290 23291 23292 23293 23294 23295 23296 23297 23298 23299 23300 23301 23302 23303 23304 23305 23306 23307 23308 23309 23310 23311 23312 23313 23314 23315 23316 23317 23318 23319 23320 23321 23322 23323 23324 23325 23326 23327 23328 23329 23330 23331 23332 23333 23334 23335 23336 23337 23338 23339 23340 23341 23342 23343 23344 23345 23346 23347 23348 23349 23350 23351 23352 23353 23354 23355 23356 23357 23358 23359 23360 23361 23362 23363 23364 23365 23366 23367 23368 23369 23370 23371 23372 23373 23374 23375 23376 23377 23378 23379 23380 23381 23382 23383 23384 23385 23386 23387 23388 23389 23390 23391 23392 23393 23394 23395 23396 23397 23398 23399 23400 23401 23402 23403 23404 23405 23406 23407 23408 23409 23410 23411 23412 23413 23414 23415 23416 23417 23418 23419 23420 23421 23422 23423 23424 23425 23426 23427 23428 23429 23430 23431 23432 23433 23434 23435 23436 23437 23438 23439 23440 23441 23442 23443 23444 23445 23446 23447 23448 23449 23450 23451 23452 23453 23454 23455 23456 23457 23458 23459 23460 23461 23462 23463 23464 23465 23466 23467 23468 23469 23470 23471 23472 23473 23474 23475 23476 23477 23478 23479 23480 23481 23482 23483 23484 23485 23486 23487 23488 23489 23490 23491 23492 23493 23494 23495 23496 23497 23498 23499 23500 23501 23502 23503 23504 23505 23506 23507 23508 23509 23510 23511 23512 23513 23514 23515 23516 23517 23518 23519 23520 23521 23522 23523 23524 23525 23526 23527 23528 23529 23530 23531 23532 23533 23534 23535 23536 23537 23538 23539 23540 23541 23542 23543 23544 23545 23546 23547 23548 23549 23550 23551 23552 23553 23554 23555 23556 23557 23558 23559 23560 23561 23562 23563 23564 23565 23566 23567 23568 23569 23570 23571 23572 23573 23574 23575 23576 23577 23578 23579 23580 23581 23582 23583 23584 23585 23586 23587 23588 23589 23590 23591 23592 23593 23594 23595 23596 23597 23598 23599 23600 23601 23602 23603 23604 23605 23606 23607 23608 23609 23610 23611 23612 23613 23614 23615 23616 23617 23618 23619 23620 23621 23622 23623 23624 23625 23626 23627 23628 23629 23630 23631 23632 23633 23634 23635 23636 23637 23638 23639 23640 23641 23642 23643 23644 23645 23646 23647 23648 23649 23650 23651 23652 23653 23654 23655 23656 23657 23658 23659 23660 23661 23662 23663 23664 23665 23666 23667 23668 23669 23670 23671 23672 23673 23674 23675 23676 23677 23678 23679 23680 23681 23682 23683 23684 23685 23686 23687 23688 23689 23690 23691 23692 23693 23694 23695 23696 23697 23698 23699 23700 23701 23702 23703 23704 23705 23706 23707 23708 23709 23710 23711 23712 23713 23714 23715 23716 23717 23718 23719 23720 23721 23722 23723 23724 23725 23726 23727 23728 23729 23730 23731 23732 23733 23734 23735 23736 23737 23738 23739 23740 23741 23742 23743 23744 23745 23746 23747 23748 23749 23750 23751 23752 23753 23754 23755 23756 23757 23758 23759 23760 23761 23762 23763 23764 23765 23766 23767 23768 23769 23770 23771 23772 23773 23774 23775 23776 23777 23778 23779 23780 23781 23782 23783 23784 23785 23786 23787 23788 23789 23790 23791 23792 23793 23794 23795 23796 23797 23798 23799 23800 23801 23802 23803 23804 23805 23806 23807 23808 23809 23810 23811 23812 23813 23814 23815 23816 23817 23818 23819 23820 23821 23822 23823 23824 23825 23826 23827 23828 23829 23830 23831 23832 23833 23834 23835 23836 23837 23838 23839 23840 23841 23842 23843 23844 23845 23846 23847 23848 23849 23850 23851 23852 23853 23854 23855 23856 23857 23858 23859 23860 23861 23862 23863 23864 23865 23866 23867 23868 23869 23870 23871 23872 23873 23874 23875 23876 23877 23878 23879 23880 23881 23882 23883 23884 23885 23886 23887 23888 23889 23890 23891 23892 23893 23894 23895 23896 23897 23898 23899 23900 23901 23902 23903 23904 23905 23906 23907 23908 23909 23910 23911 23912 23913 23914 23915 23916 23917 23918 23919 23920 23921 23922 23923 23924 23925 23926 23927 23928 23929 23930 23931 23932 23933 23934 23935 23936 23937 23938 23939 23940 23941 23942 23943 23944 23945 23946 23947 23948 23949 23950 23951 23952 23953 23954 23955 23956 23957 23958 23959 23960 23961 23962 23963 23964 23965 23966 23967 23968 23969 23970 23971 23972 23973 23974 23975 23976 23977 23978 23979 23980 23981 23982 23983 23984 23985 23986 23987 23988 23989 23990 23991 23992 23993 23994 23995 23996 23997 23998 23999 24000 24001 24002 24003 24004 24005 24006 24007 24008 24009 24010 24011 24012 24013 24014 24015 24016 24017 24018 24019 24020 24021 24022 24023 24024 24025 24026 24027 24028 24029 24030 24031 24032 24033 24034 24035 24036 24037 24038 24039 24040 24041 24042 24043 24044 24045 24046 24047 24048 24049 24050 24051 24052 24053 24054 24055 24056 24057 24058 24059 24060 24061 24062 24063 24064 24065 24066 24067 24068 24069 24070 24071 24072 24073 24074 24075 24076 24077 24078 24079 24080 24081 24082 24083 24084 24085 24086 24087 24088 24089 24090 24091 24092 24093 24094 24095 24096 24097 24098 24099 24100 24101 24102 24103 24104 24105 24106 24107 24108 24109 24110 24111 24112 24113 24114 24115 24116 24117 24118 24119 24120 24121 24122 24123 24124 24125 24126 24127 24128 24129 24130 24131 24132 24133 24134 24135 24136 24137 24138 24139 24140 24141 24142 24143 24144 24145 24146 24147 24148 24149 24150 24151 24152 24153 24154 24155 24156 24157 24158 24159 24160 24161 24162 24163 24164 24165 24166 24167 24168 24169 24170 24171 24172 24173 24174 24175 24176 24177 24178 24179 24180 24181 24182 24183 24184 24185 24186 24187 24188 24189 24190 24191 24192 24193 24194 24195 24196 24197 24198 24199 24200 24201 24202 24203 24204 24205 24206 24207 24208 24209 24210 24211 24212 24213 24214 24215 24216 24217 24218 24219 24220 24221 24222 24223 24224 24225 24226 24227 24228 24229 24230 24231 24232 24233 24234 24235 24236 24237 24238 24239 24240 24241 24242 24243 24244 24245 24246 24247 24248 24249 24250 24251 24252 24253 24254 24255 24256 24257 24258 24259 24260 24261 24262 24263 24264 24265 24266 24267 24268 24269 24270 24271 24272 24273 24274 24275 24276 24277 24278 24279 24280 24281 24282 24283 24284 24285 24286 24287 24288 24289 24290 24291 24292 24293 24294 24295 24296 24297 24298 24299 24300 24301 24302 24303 24304 24305 24306 24307 24308 24309 24310 24311 24312 24313 24314 24315 24316 24317 24318 24319 24320 24321 24322 24323 24324 24325 24326 24327 24328 24329 24330 24331 24332 24333 24334 24335 24336 24337 24338 24339 24340 24341 24342 24343 24344 24345 24346 24347 24348 24349 24350 24351 24352 24353 24354 24355 24356 24357 24358 24359 24360 24361 24362 24363 24364 24365 24366 24367 24368 24369 24370 24371 24372 24373 24374 24375 24376 24377 24378 24379 24380 24381 24382 24383 24384 24385 24386 24387 24388 24389 24390 24391 24392 24393 24394 24395 24396 24397 24398 24399 24400 24401 24402 24403 24404 24405 24406 24407 24408 24409 24410 24411 24412 24413 24414 24415 24416 24417 24418 24419 24420 24421 24422 24423 24424 24425 24426 24427 24428 24429 24430 24431 24432 24433 24434 24435 24436 24437 24438 24439 24440 24441 24442 24443 24444 24445 24446 24447 24448 24449 24450 24451 24452 24453 24454 24455 24456 24457 24458 24459 24460 24461 24462 24463 24464 24465 24466 24467 24468 24469 24470 24471 24472 24473 24474 24475 24476 24477 24478 24479 24480 24481 24482 24483 24484 24485 24486 24487 24488 24489 24490 24491 24492 24493 24494 24495 24496 24497 24498 24499 24500 24501 24502 24503 24504 24505 24506 24507 24508 24509 24510 24511 24512 24513 24514 24515 24516 24517 24518 24519 24520 24521 24522 24523 24524 24525 24526 24527 24528 24529 24530 24531 24532 24533 24534 24535 24536 24537 24538 24539 24540 24541 24542 24543 24544 24545 24546 24547 24548 24549 24550 24551 24552 24553 24554 24555 24556 24557 24558 24559 24560 24561 24562 24563 24564 24565 24566 24567 24568 24569 24570 24571 24572 24573 24574 24575 24576 24577 24578 24579 24580 24581 24582 24583 24584 24585 24586 24587 24588 24589 24590 24591 24592 24593 24594 24595 24596 24597 24598 24599 24600 24601 24602 24603 24604 24605 24606 24607 24608 24609 24610 24611 24612 24613 24614 24615 24616 24617 24618 24619 24620 24621 24622 24623 24624 24625 24626 24627 24628 24629 24630 24631 24632 24633 24634 24635 24636 24637 24638 24639 24640 24641 24642 24643 24644 24645 24646 24647 24648 24649 24650 24651 24652 24653 24654 24655 24656 24657 24658 24659 24660 24661 24662 24663 24664 24665 24666 24667 24668 24669 24670 24671 24672 24673 24674 24675 24676 24677 24678 24679 24680 24681 24682 24683 24684 24685 24686 24687 24688 24689 24690 24691 24692 24693 24694 24695 24696 24697 24698 24699 24700 24701 24702 24703 24704 24705 24706 24707 24708 24709 24710 24711 24712 24713 24714 24715 24716 24717 24718 24719 24720 24721 24722 24723 24724 24725 24726 24727 24728 24729 24730 24731 24732 24733 24734 24735 24736 24737 24738 24739 24740 24741 24742 24743 24744 24745 24746 24747 24748 24749 24750 24751 24752 24753 24754 24755 24756 24757 24758 24759 24760 24761 24762 24763 24764 24765 24766 24767 24768 24769 24770 24771 24772 24773 24774 24775 24776 24777 24778 24779 24780 24781 24782 24783 24784 24785 24786 24787 24788 24789 24790 24791 24792 24793 24794 24795 24796 24797 24798 24799 24800 24801 24802 24803 24804 24805 24806 24807 24808 24809 24810 24811 24812 24813 24814 24815 24816 24817 24818 24819 24820 24821 24822 24823 24824 24825 24826 24827 24828 24829 24830 24831 24832 24833 24834 24835 24836 24837 24838 24839 24840 24841 24842 24843 24844 24845 24846 24847 24848 24849 24850 24851 24852 24853 24854 24855 24856 24857 24858 24859 24860 24861 24862 24863 24864 24865 24866 24867 24868 24869 24870 24871 24872 24873 24874 24875 24876 24877 24878 24879 24880 24881 24882 24883 24884 24885 24886 24887 24888 24889 24890 24891 24892 24893 24894 24895 24896 24897 24898 24899 24900 24901 24902 24903 24904 24905 24906 24907 24908 24909 24910 24911 24912 24913 24914 24915 24916 24917 24918 24919 24920 24921 24922 24923 24924 24925 24926 24927 24928 24929 24930 24931 24932 24933 24934 24935 24936 24937 24938 24939 24940 24941 24942 24943 24944 24945 24946 24947 24948 24949 24950 24951 24952 24953 24954 24955 24956 24957 24958 24959 24960 24961 24962 24963 24964 24965 24966 24967 24968 24969 24970 24971 24972 24973 24974 24975 24976 24977 24978 24979 24980 24981 24982 24983 24984 24985 24986 24987 24988 24989 24990 24991 24992 24993 24994 24995 24996 24997 24998 24999 25000 25001 25002 25003 25004 25005 25006 25007 25008 25009 25010 25011 25012 25013 25014 25015 25016 25017 25018 25019 25020 25021 25022 25023 25024 25025 25026 25027 25028 25029 25030 25031 25032 25033 25034 25035 25036 25037 25038 25039 25040 25041 25042 25043 25044 25045 25046 25047 25048 25049 25050 25051 25052 25053 25054 25055 25056 25057 25058 25059 25060 25061 25062 25063 25064 25065 25066 25067 25068 25069 25070 25071 25072 25073 25074 25075 25076 25077 25078 25079 25080 25081 25082 25083 25084 25085 25086 25087 25088 25089 25090 25091 25092 25093 25094 25095 25096 25097 25098 25099 25100 25101 25102 25103 25104 25105 25106 25107 25108 25109 25110 25111 25112 25113 25114 25115 25116 25117 25118 25119 25120 25121 25122 25123 25124 25125 25126 25127 25128 25129 25130 25131 25132 25133 25134 25135 25136 25137 25138 25139 25140 25141 25142 25143 25144 25145 25146 25147 25148 25149 25150 25151 25152 25153 25154 25155 25156 25157 25158 25159 25160 25161 25162 25163 25164 25165 25166 25167 25168 25169 25170 25171 25172 25173 25174 25175 25176 25177 25178 25179 25180 25181 25182 25183 25184 25185 25186 25187 25188 25189 25190 25191 25192 25193 25194 25195 25196 25197 25198 25199 25200 25201 25202 25203 25204 25205 25206 25207 25208 25209 25210 25211 25212 25213 25214 25215 25216 25217 25218 25219 25220 25221 25222 25223 25224 25225 25226 25227 25228 25229 25230 25231 25232 25233 25234 25235 25236 25237 25238 25239 25240 25241 25242 25243 25244 25245 25246 25247 25248 25249 25250 25251 25252 25253 25254 25255 25256 25257 25258 25259 25260 25261 25262 25263 25264 25265 25266 25267 25268 25269 25270 25271 25272 25273 25274 25275 25276 25277 25278 25279 25280 25281 25282 25283 25284 25285 25286 25287 25288 25289 25290 25291 25292 25293 25294 25295 25296 25297 25298 25299 25300 25301 25302 25303 25304 25305 25306 25307 25308 25309 25310 25311 25312 25313 25314 25315 25316 25317 25318 25319 25320 25321 25322 25323 25324 25325 25326 25327 25328 25329 25330 25331 25332 25333 25334 25335 25336 25337 25338 25339 25340 25341 25342 25343 25344 25345 25346 25347 25348 25349 25350 25351 25352 25353 25354 25355 25356 25357 25358 25359 25360 25361 25362 25363 25364 25365 25366 25367 25368 25369 25370 25371 25372 25373 25374 25375 25376 25377 25378 25379 25380 25381 25382 25383 25384 25385 25386 25387 25388 25389 25390 25391 25392 25393 25394 25395 25396 25397 25398 25399 25400 25401 25402 25403 25404 25405 25406 25407 25408 25409 25410 25411 25412 25413 25414 25415 25416 25417 25418 25419 25420 25421 25422 25423 25424 25425 25426 25427 25428 25429 25430 25431 25432 25433 25434 25435 25436 25437 25438 25439 25440 25441 25442 25443 25444 25445 25446 25447 25448 25449 25450 25451 25452 25453 25454 25455 25456 25457 25458 25459 25460 25461 25462 25463 25464 25465 25466 25467 25468 25469 25470 25471 25472 25473 25474 25475 25476 25477 25478 25479 25480 25481 25482 25483 25484 25485 25486 25487 25488 25489 25490 25491 25492 25493 25494 25495 25496 25497 25498 25499 25500 25501 25502 25503 25504 25505 25506 25507 25508 25509 25510 25511 25512 25513 25514 25515 25516 25517 25518 25519 25520 25521 25522 25523 25524 25525 25526 25527 25528 25529 25530 25531 25532 25533 25534 25535 25536 25537 25538 25539 25540 25541 25542 25543 25544 25545 25546 25547 25548 25549 25550 25551 25552 25553 25554 25555 25556 25557 25558 25559 25560 25561 25562 25563 25564 25565 25566 25567 25568 25569 25570 25571 25572 25573 25574 25575 25576 25577 25578 25579 25580 25581 25582 25583 25584 25585 25586 25587 25588 25589 25590 25591 25592 25593 25594 25595 25596 25597 25598 25599 25600 25601 25602 25603 25604 25605 25606 25607 25608 25609 25610 25611 25612 25613 25614 25615 25616 25617 25618 25619 25620 25621 25622 25623 25624 25625 25626 25627 25628 25629 25630 25631 25632 25633 25634 25635 25636 25637 25638 25639 25640 25641 25642 25643 25644 25645 25646 25647 25648 25649 25650 25651 25652 25653 25654 25655 25656 25657 25658 25659 25660 25661 25662 25663 25664 25665 25666 25667 25668 25669 25670 25671 25672 25673 25674 25675 25676 25677 25678 25679 25680 25681 25682 25683 25684 25685 25686 25687 25688 25689 25690 25691 25692 25693 25694 25695 25696 25697 25698 25699 25700 25701 25702 25703 25704 25705 25706 25707 25708 25709 25710 25711 25712 25713 25714 25715 25716 25717 25718 25719 25720 25721 25722 25723 25724 25725 25726 25727 25728 25729 25730 25731 25732 25733 25734 25735 25736 25737 25738 25739 25740 25741 25742 25743 25744 25745 25746 25747 25748 25749 25750 25751 25752 25753 25754 25755 25756 25757 25758 25759 25760 25761 25762 25763 25764 25765 25766 25767 25768 25769 25770 25771 25772 25773 25774 25775 25776 25777 25778 25779 25780 25781 25782 25783 25784 25785 25786 25787 25788 25789 25790 25791 25792 25793 25794 25795 25796 25797 25798 25799 25800 25801 25802 25803 25804 25805 25806 25807 25808 25809 25810 25811 25812 25813 25814 25815 25816 25817 25818 25819 25820 25821 25822 25823 25824 25825 25826 25827 25828 25829 25830 25831 25832 25833 25834 25835 25836 25837 25838 25839 25840 25841 25842 25843 25844 25845 25846 25847 25848 25849 25850 25851 25852 25853 25854 25855 25856 25857 25858 25859 25860 25861 25862 25863 25864 25865 25866 25867 25868 25869 25870 25871 25872 25873 25874 25875 25876 25877 25878 25879 25880 25881 25882 25883 25884 25885 25886 25887 25888 25889 25890 25891 25892 25893 25894 25895 25896 25897 25898 25899 25900 25901 25902 25903 25904 25905 25906 25907 25908 25909 25910 25911 25912 25913 25914 25915 25916 25917 25918 25919 25920 25921 25922 25923 25924 25925 25926 25927 25928 25929 25930 25931 25932 25933 25934 25935 25936 25937 25938 25939 25940 25941 25942 25943 25944 25945 25946 25947 25948 25949 25950 25951 25952 25953 25954 25955 25956 25957 25958 25959 25960 25961 25962 25963 25964 25965 25966 25967 25968 25969 25970 25971 25972 25973 25974 25975 25976 25977 25978 25979 25980 25981 25982 25983 25984 25985 25986 25987 25988 25989 25990 25991 25992 25993 25994 25995 25996 25997 25998 25999 26000 26001 26002 26003 26004 26005 26006 26007 26008 26009 26010 26011 26012 26013 26014 26015 26016 26017 26018 26019 26020 26021 26022 26023 26024 26025 26026 26027 26028 26029 26030 26031 26032 26033 26034 26035 26036 26037 26038 26039 26040 26041 26042 26043 26044 26045 26046 26047 26048 26049 26050 26051 26052 26053 26054 26055 26056 26057 26058 26059 26060 26061 26062 26063 26064 26065 26066 26067 26068 26069 26070 26071 26072 26073 26074 26075 26076 26077 26078 26079 26080 26081 26082 26083 26084 26085 26086 26087 26088 26089 26090 26091 26092 26093 26094 26095 26096 26097 26098 26099 26100 26101 26102 26103 26104 26105 26106 26107 26108 26109 26110 26111 26112 26113 26114 26115 26116 26117 26118 26119 26120 26121 26122 26123 26124 26125 26126 26127 26128 26129 26130 26131 26132 26133 26134 26135 26136 26137 26138 26139 26140 26141 26142 26143 26144 26145 26146 26147 26148 26149 26150 26151 26152 26153 26154 26155 26156 26157 26158 26159 26160 26161 26162 26163 26164 26165 26166 26167 26168 26169 26170 26171 26172 26173 26174 26175 26176 26177 26178 26179 26180 26181 26182 26183 26184 26185 26186 26187 26188 26189 26190 26191 26192 26193 26194 26195 26196 26197 26198 26199 26200 26201 26202 26203 26204 26205 26206 26207 26208 26209 26210 26211 26212 26213 26214 26215 26216 26217 26218 26219 26220 26221 26222 26223 26224 26225 26226 26227 26228 26229 26230 26231 26232 26233 26234 26235 26236 26237 26238 26239 26240 26241 26242 26243 26244 26245 26246 26247 26248 26249 26250 26251 26252 26253 26254 26255 26256 26257 26258 26259 26260 26261 26262 26263 26264 26265 26266 26267 26268 26269 26270 26271 26272 26273 26274 26275 26276 26277 26278 26279 26280 26281 26282 26283 26284 26285 26286 26287 26288 26289 26290 26291 26292 26293 26294 26295 26296 26297 26298 26299 26300 26301 26302 26303 26304 26305 26306 26307 26308 26309 26310 26311 26312 26313 26314 26315 26316 26317 26318 26319 26320 26321 26322 26323 26324 26325 26326 26327 26328 26329 26330 26331 26332 26333 26334 26335 26336 26337 26338 26339 26340 26341 26342 26343 26344 26345 26346 26347 26348 26349 26350 26351 26352 26353 26354 26355 26356 26357 26358 26359 26360 26361 26362 26363 26364 26365 26366 26367 26368 26369 26370 26371 26372 26373 26374 26375 26376 26377 26378 26379 26380 26381 26382 26383 26384 26385 26386 26387 26388 26389 26390 26391 26392 26393 26394 26395 26396 26397 26398 26399 26400 26401 26402 26403 26404 26405 26406 26407 26408 26409 26410 26411 26412 26413 26414 26415 26416 26417 26418 26419 26420 26421 26422 26423 26424 26425 26426 26427 26428 26429 26430 26431 26432 26433 26434 26435 26436 26437 26438 26439 26440 26441 26442 26443 26444 26445 26446 26447 26448 26449 26450 26451 26452 26453 26454 26455 26456 26457 26458 26459 26460 26461 26462 26463 26464 26465 26466 26467 26468 26469 26470 26471 26472 26473 26474 26475 26476 26477 26478 26479 26480 26481 26482 26483 26484 26485 26486 26487 26488 26489 26490 26491 26492 26493 26494 26495 26496 26497 26498 26499 26500 26501 26502 26503 26504 26505 26506 26507 26508 26509 26510 26511 26512 26513 26514 26515 26516 26517 26518 26519 26520 26521 26522 26523 26524 26525 26526 26527 26528 26529 26530 26531 26532 26533 26534 26535 26536 26537 26538 26539 26540 26541 26542 26543 26544 26545 26546 26547 26548 26549 26550 26551 26552 26553 26554 26555 26556 26557 26558 26559 26560 26561 26562 26563 26564 26565 26566 26567 26568 26569 26570 26571 26572 26573 26574 26575 26576 26577 26578 26579 26580 26581 26582 26583 26584 26585 26586 26587 26588 26589 26590 26591 26592 26593 26594 26595 26596 26597 26598 26599 26600 26601 26602 26603 26604 26605 26606 26607 26608 26609 26610 26611 26612 26613 26614 26615 26616 26617 26618 26619 26620 26621 26622 26623 26624 26625 26626 26627 26628 26629 26630 26631 26632 26633 26634 26635 26636 26637 26638 26639 26640 26641 26642 26643 26644 26645 26646 26647 26648 26649 26650 26651 26652 26653 26654 26655 26656 26657 26658 26659 26660 26661 26662 26663 26664 26665 26666 26667 26668 26669 26670 26671 26672 26673 26674 26675 26676 26677 26678 26679 26680 26681 26682 26683 26684 26685 26686 26687 26688 26689 26690 26691 26692 26693 26694 26695 26696 26697 26698 26699 26700 26701 26702 26703 26704 26705 26706 26707 26708 26709 26710 26711 26712 26713 26714 26715 26716 26717 26718 26719 26720 26721 26722 26723 26724 26725 26726 26727 26728 26729 26730 26731 26732 26733 26734 26735 26736 26737 26738 26739 26740 26741 26742 26743 26744 26745 26746 26747 26748 26749 26750 26751 26752 26753 26754 26755 26756 26757 26758 26759 26760 26761 26762 26763 26764 26765 26766 26767 26768 26769 26770 26771 26772 26773 26774 26775 26776 26777 26778 26779 26780 26781 26782 26783 26784 26785 26786 26787 26788 26789 26790 26791 26792 26793 26794 26795 26796 26797 26798 26799 26800 26801 26802 26803 26804 26805 26806 26807 26808 26809 26810 26811 26812 26813 26814 26815 26816 26817 26818 26819 26820 26821 26822 26823 26824 26825 26826 26827 26828 26829 26830 26831 26832 26833 26834 26835 26836 26837 26838 26839 26840 26841 26842 26843 26844 26845 26846 26847 26848 26849 26850 26851 26852 26853 26854 26855 26856 26857 26858 26859 26860 26861 26862 26863 26864 26865 26866 26867 26868 26869 26870 26871 26872 26873 26874 26875 26876 26877 26878 26879 26880 26881 26882 26883 26884 26885 26886 26887 26888 26889 26890 26891 26892 26893 26894 26895 26896 26897 26898 26899 26900 26901 26902 26903 26904 26905 26906 26907 26908 26909 26910 26911 26912 26913 26914 26915 26916 26917 26918 26919 26920 26921 26922 26923 26924 26925 26926 26927 26928 26929 26930 26931 26932 26933 26934 26935 26936 26937 26938 26939 26940 26941 26942 26943 26944 26945 26946 26947 26948 26949 26950 26951 26952 26953 26954 26955 26956 26957 26958 26959 26960 26961 26962 26963 26964 26965 26966 26967 26968 26969 26970 26971 26972 26973 26974 26975 26976 26977 26978 26979 26980 26981 26982 26983 26984 26985 26986 26987 26988 26989 26990 26991 26992 26993 26994 26995 26996 26997 26998 26999 27000 27001 27002 27003 27004 27005 27006 27007 27008 27009 27010 27011 27012 27013 27014 27015 27016 27017 27018 27019 27020 27021 27022 27023 27024 27025 27026 27027 27028 27029 27030 27031 27032 27033 27034 27035 27036 27037 27038 27039 27040 27041 27042 27043 27044 27045 27046 27047 27048 27049 27050 27051 27052 27053 27054 27055 27056 27057 27058 27059 27060 27061 27062 27063 27064 27065 27066 27067 27068 27069 27070 27071 27072 27073 27074 27075 27076 27077 27078 27079 27080 27081 27082 27083 27084 27085 27086 27087 27088 27089 27090 27091 27092 27093 27094 27095 27096 27097 27098 27099 27100 27101 27102 27103 27104 27105 27106 27107 27108 27109 27110 27111 27112 27113 27114 27115 27116 27117 27118 27119 27120 27121 27122 27123 27124 27125 27126 27127 27128 27129 27130 27131 27132 27133 27134 27135 27136 27137 27138 27139 27140 27141 27142 27143 27144 27145 27146 27147 27148 27149 27150 27151 27152 27153 27154 27155 27156 27157 27158 27159 27160 27161 27162 27163 27164 27165 27166 27167 27168 27169 27170 27171 27172 27173 27174 27175 27176 27177 27178 27179 27180 27181 27182 27183 27184 27185 27186 27187 27188 27189 27190 27191 27192 27193 27194 27195 27196 27197 27198 27199 27200 27201 27202 27203 27204 27205 27206 27207 27208 27209 27210 27211 27212 27213 27214 27215 27216 27217 27218 27219 27220 27221 27222 27223 27224 27225 27226 27227 27228 27229 27230 27231 27232 27233 27234 27235 27236 27237 27238 27239 27240 27241 27242 27243 27244 27245 27246 27247 27248 27249 27250 27251 27252 27253 27254 27255 27256 27257 27258 27259 27260 27261 27262 27263 27264 27265 27266 27267 27268 27269 27270 27271 27272 27273 27274 27275 27276 27277 27278 27279 27280 27281 27282 27283 27284 27285 27286 27287 27288 27289 27290 27291 27292 27293 27294 27295 27296 27297 27298 27299 27300 27301 27302 27303 27304 27305 27306 27307 27308 27309 27310 27311 27312 27313 27314 27315 27316 27317 27318 27319 27320 27321 27322 27323 27324 27325 27326 27327 27328 27329 27330 27331 27332 27333 27334 27335 27336 27337 27338 27339 27340 27341 27342 27343 27344 27345 27346 27347 27348 27349 27350 27351 27352 27353 27354 27355 27356 27357 27358 27359 27360 27361 27362 27363 27364 27365 27366 27367 27368 27369 27370 27371 27372 27373 27374 27375 27376 27377 27378 27379 27380 27381 27382 27383 27384 27385 27386 27387 27388 27389 27390 27391 27392 27393 27394 27395 27396 27397 27398 27399 27400 27401 27402 27403 27404 27405 27406 27407 27408 27409 27410 27411 27412 27413 27414 27415 27416 27417 27418 27419 27420 27421 27422 27423 27424 27425 27426 27427 27428 27429 27430 27431 27432 27433 27434 27435 27436 27437 27438 27439 27440 27441 27442 27443 27444 27445 27446 27447 27448 27449 27450 27451 27452 27453 27454 27455 27456 27457 27458 27459 27460 27461 27462 27463 27464 27465 27466 27467 27468 27469 27470 27471 27472 27473 27474 27475 27476 27477 27478 27479 27480 27481 27482 27483 27484 27485 27486 27487 27488 27489 27490 27491 27492 27493 27494 27495 27496 27497 27498 27499 27500 27501 27502 27503 27504 27505 27506 27507 27508 27509 27510 27511 27512 27513 27514 27515 27516 27517 27518 27519 27520 27521 27522 27523 27524 27525 27526 27527 27528 27529 27530 27531 27532 27533 27534 27535 27536 27537 27538 27539 27540 27541 27542 27543 27544 27545 27546 27547 27548 27549 27550 27551 27552 27553 27554 27555 27556 27557 27558 27559 27560 27561 27562 27563 27564 27565 27566 27567 27568 27569 27570 27571 27572 27573 27574 27575 27576 27577 27578 27579 27580 27581 27582 27583 27584 27585 27586 27587 27588 27589 27590 27591 27592 27593 27594 27595 27596 27597 27598 27599 27600 27601 27602 27603 27604 27605 27606 27607 27608 27609 27610 27611 27612 27613 27614 27615 27616 27617 27618 27619 27620 27621 27622 27623 27624 27625 27626 27627 27628 27629 27630 27631 27632 27633 27634 27635 27636 27637 27638 27639 27640 27641 27642 27643 27644 27645 27646 27647 27648 27649 27650 27651 27652 27653 27654 27655 27656 27657 27658 27659 27660 27661 27662 27663 27664 27665 27666 27667 27668 27669 27670 27671 27672 27673 27674 27675 27676 27677 27678 27679 27680 27681 27682 27683 27684 27685 27686 27687 27688 27689 27690 27691 27692 27693 27694 27695 27696 27697 27698 27699 27700 27701 27702 27703 27704 27705 27706 27707 27708 27709 27710 27711 27712 27713 27714 27715 27716 27717 27718 27719 27720 27721 27722 27723 27724 27725 27726 27727 27728 27729 27730 27731 27732 27733 27734 27735 27736 27737 27738 27739 27740 27741 27742 27743 27744 27745 27746 27747 27748 27749 27750 27751 27752 27753 27754 27755 27756 27757 27758 27759 27760 27761 27762 27763 27764 27765 27766 27767 27768 27769 27770 27771 27772 27773 27774 27775 27776 27777 27778 27779 27780 27781 27782 27783 27784 27785 27786 27787 27788 27789 27790 27791 27792 27793 27794 27795 27796 27797 27798 27799 27800 27801 27802 27803 27804 27805 27806 27807 27808 27809 27810 27811 27812 27813 27814 27815 27816 27817 27818 27819 27820 27821 27822 27823 27824 27825 27826 27827 27828 27829 27830 27831 27832 27833 27834 27835 27836 27837 27838 27839 27840 27841 27842 27843 27844 27845 27846 27847 27848 27849 27850 27851 27852 27853 27854 27855 27856 27857 27858 27859 27860 27861 27862 27863 27864 27865 27866 27867 27868 27869 27870 27871 27872 27873 27874 27875 27876 27877 27878 27879 27880 27881 27882 27883 27884 27885 27886 27887 27888 27889 27890 27891 27892 27893 27894 27895 27896 27897 27898 27899 27900 27901 27902 27903 27904 27905 27906 27907 27908 27909 27910 27911 27912 27913 27914 27915 27916 27917 27918 27919 27920 27921 27922 27923 27924 27925 27926 27927 27928 27929 27930 27931 27932 27933 27934 27935 27936 27937 27938 27939 27940 27941 27942 27943 27944 27945 27946 27947 27948 27949 27950 27951 27952 27953 27954 27955 27956 27957 27958 27959 27960 27961 27962 27963 27964 27965 27966 27967 27968 27969 27970 27971 27972 27973 27974 27975 27976 27977 27978 27979 27980 27981 27982 27983 27984 27985 27986 27987 27988 27989 27990 27991 27992 27993 27994 27995 27996 27997 27998 27999 28000 28001 28002 28003 28004 28005 28006 28007 28008 28009 28010 28011 28012 28013 28014 28015 28016 28017 28018 28019 28020 28021 28022 28023 28024 28025 28026 28027 28028 28029 28030 28031 28032 28033 28034 28035 28036 28037 28038 28039 28040 28041 28042 28043 28044 28045 28046 28047 28048 28049 28050 28051 28052 28053 28054 28055 28056 28057 28058 28059 28060 28061 28062 28063 28064 28065 28066 28067 28068 28069 28070 28071 28072 28073 28074 28075 28076 28077 28078 28079 28080 28081 28082 28083 28084 28085 28086 28087 28088 28089 28090 28091 28092 28093 28094 28095 28096 28097 28098 28099 28100 28101 28102 28103 28104 28105 28106 28107 28108 28109 28110 28111 28112 28113 28114 28115 28116 28117 28118 28119 28120 28121 28122 28123 28124 28125 28126 28127 28128 28129 28130 28131 28132 28133 28134 28135 28136 28137 28138 28139 28140 28141 28142 28143 28144 28145 28146 28147 28148 28149 28150 28151 28152 28153 28154 28155 28156 28157 28158 28159 28160 28161 28162 28163 28164 28165 28166 28167 28168 28169 28170 28171 28172 28173 28174 28175 28176 28177 28178 28179 28180 28181 28182 28183 28184 28185 28186 28187 28188 28189 28190 28191 28192 28193 28194 28195 28196 28197 28198 28199 28200 28201 28202 28203 28204 28205 28206 28207 28208 28209 28210 28211 28212 28213 28214 28215 28216 28217 28218 28219 28220 28221 28222 28223 28224 28225 28226 28227 28228 28229 28230 28231 28232 28233 28234 28235 28236 28237 28238 28239 28240 28241 28242 28243 28244 28245 28246 28247 28248 28249 28250 28251 28252 28253 28254 28255 28256 28257 28258 28259 28260 28261 28262 28263 28264 28265 28266 28267 28268 28269 28270 28271 28272 28273 28274 28275 28276 28277 28278 28279 28280 28281 28282 28283 28284 28285 28286 28287 28288 28289 28290 28291 28292 28293 28294 28295 28296 28297 28298 28299 28300 28301 28302 28303 28304 28305 28306 28307 28308 28309 28310 28311 28312 28313 28314 28315 28316 28317 28318 28319 28320 28321 28322 28323 28324 28325 28326 28327 28328 28329 28330 28331 28332 28333 28334 28335 28336 28337 28338 28339 28340 28341 28342 28343 28344 28345 28346 28347 28348 28349 28350 28351 28352 28353 28354 28355 28356 28357 28358 28359 28360 28361 28362 28363 28364 28365 28366 28367 28368 28369 28370 28371 28372 28373 28374 28375 28376 28377 28378 28379 28380 28381 28382 28383 28384 28385 28386 28387 28388 28389 28390 28391 28392 28393 28394 28395 28396 28397 28398 28399 28400 28401 28402 28403 28404 28405 28406 28407 28408 28409 28410 28411 28412 28413 28414 28415 28416 28417 28418 28419 28420 28421 28422 28423 28424 28425 28426 28427 28428 28429 28430 28431 28432 28433 28434 28435 28436 28437 28438 28439 28440 28441 28442 28443 28444 28445 28446 28447 28448 28449 28450 28451 28452 28453 28454 28455 28456 28457 28458 28459 28460 28461 28462 28463 28464 28465 28466 28467 28468 28469 28470 28471 28472 28473 28474 28475 28476 28477 28478 28479 28480 28481 28482 28483 28484 28485 28486 28487 28488 28489 28490 28491 28492 28493 28494 28495 28496 28497 28498 28499 28500 28501 28502 28503 28504 28505 28506 28507 28508 28509 28510 28511 28512 28513 28514 28515 28516 28517 28518 28519 28520 28521 28522 28523 28524 28525 28526 28527 28528 28529 28530 28531 28532 28533 28534 28535 28536 28537 28538 28539 28540 28541 28542 28543 28544 28545 28546 28547 28548 28549 28550 28551 28552 28553 28554 28555 28556 28557 28558 28559 28560 28561 28562 28563 28564 28565 28566 28567 28568 28569 28570 28571 28572 28573 28574 28575 28576 28577 28578 28579 28580 28581 28582 28583 28584 28585 28586 28587 28588 28589 28590 28591 28592 28593 28594 28595 28596 28597 28598 28599 28600 28601 28602 28603 28604 28605 28606 28607 28608 28609 28610 28611 28612 28613 28614 28615 28616 28617 28618 28619 28620 28621 28622 28623 28624 28625 28626 28627 28628 28629 28630 28631 28632 28633 28634 28635 28636 28637 28638 28639 28640 28641 28642 28643 28644 28645 28646 28647 28648 28649 28650 28651 28652 28653 28654 28655 28656 28657 28658 28659 28660 28661 28662 28663 28664 28665 28666 28667 28668 28669 28670 28671 28672 28673 28674 28675 28676 28677 28678 28679 28680 28681 28682 28683 28684 28685 28686 28687 28688 28689 28690 28691 28692 28693 28694 28695 28696 28697 28698 28699 28700 28701 28702 28703 28704 28705 28706 28707 28708 28709 28710 28711 28712 28713 28714 28715 28716 28717 28718 28719 28720 28721 28722 28723 28724 28725 28726 28727 28728 28729 28730 28731 28732 28733 28734 28735 28736 28737 28738 28739 28740 28741 28742 28743 28744 28745 28746 28747 28748 28749 28750 28751 28752 28753 28754 28755 28756 28757 28758 28759 28760 28761 28762 28763 28764 28765 28766 28767 28768 28769 28770 28771 28772 28773 28774 28775 28776 28777 28778 28779 28780 28781 28782 28783 28784 28785 28786 28787 28788 28789 28790 28791 28792 28793 28794 28795 28796 28797 28798 28799 28800 28801 28802 28803 28804 28805 28806 28807 28808 28809 28810 28811 28812 28813 28814 28815 28816 28817 28818 28819 28820 28821 28822 28823 28824 28825 28826 28827 28828 28829 28830 28831 28832 28833 28834 28835 28836 28837 28838 28839 28840 28841 28842 28843 28844 28845 28846 28847 28848 28849 28850 28851 28852 28853 28854 28855 28856 28857 28858 28859 28860 28861 28862 28863 28864 28865 28866 28867 28868 28869 28870 28871 28872 28873 28874 28875 28876 28877 28878 28879 28880 28881 28882 28883 28884 28885 28886 28887 28888 28889 28890 28891 28892 28893 28894 28895 28896 28897 28898 28899 28900 28901 28902 28903 28904 28905 28906 28907 28908 28909 28910 28911 28912 28913 28914 28915 28916 28917 28918 28919 28920 28921 28922 28923 28924 28925 28926 28927 28928 28929 28930 28931 28932 28933 28934 28935 28936 28937 28938 28939 28940 28941 28942 28943 28944 28945 28946 28947 28948 28949 28950 28951 28952 28953 28954 28955 28956 28957 28958 28959 28960 28961 28962 28963 28964 28965 28966 28967 28968 28969 28970 28971 28972 28973 28974 28975 28976 28977 28978 28979 28980 28981 28982 28983 28984 28985 28986 28987 28988 28989 28990 28991 28992 28993 28994 28995 28996 28997 28998 28999 29000 29001 29002 29003 29004 29005 29006 29007 29008 29009 29010 29011 29012 29013 29014 29015 29016 29017 29018 29019 29020 29021 29022 29023 29024 29025 29026 29027 29028 29029 29030 29031 29032 29033 29034 29035 29036 29037 29038 29039 29040 29041 29042 29043 29044 29045 29046 29047 29048 29049 29050 29051 29052 29053 29054 29055 29056 29057 29058 29059 29060 29061 29062 29063 29064 29065 29066 29067 29068 29069 29070 29071 29072 29073 29074 29075 29076 29077 29078 29079 29080 29081 29082 29083 29084 29085 29086 29087 29088 29089 29090 29091 29092 29093 29094 29095 29096 29097 29098 29099 29100 29101 29102 29103 29104 29105 29106 29107 29108 29109 29110 29111 29112 29113 29114 29115 29116 29117 29118 29119 29120 29121 29122 29123 29124 29125 29126 29127 29128 29129 29130 29131 29132 29133 29134 29135 29136 29137 29138 29139 29140 29141 29142 29143 29144 29145 29146 29147 29148 29149 29150 29151 29152 29153 29154 29155 29156 29157 29158 29159 29160 29161 29162 29163 29164 29165 29166 29167 29168 29169 29170 29171 29172 29173 29174 29175 29176 29177 29178 29179 29180 29181 29182 29183 29184 29185 29186 29187 29188 29189 29190 29191 29192 29193 29194 29195 29196 29197 29198 29199 29200 29201 29202 29203 29204 29205 29206 29207 29208 29209 29210 29211 29212 29213 29214 29215 29216 29217 29218 29219 29220 29221 29222 29223 29224 29225 29226 29227 29228 29229 29230 29231 29232 29233 29234 29235 29236 29237 29238 29239 29240 29241 29242 29243 29244 29245 29246 29247 29248 29249 29250 29251 29252 29253 29254 29255 29256 29257 29258 29259 29260 29261 29262 29263 29264 29265 29266 29267 29268 29269 29270 29271 29272 29273 29274 29275 29276 29277 29278 29279 29280 29281 29282 29283 29284 29285 29286 29287 29288 29289 29290 29291 29292 29293 29294 29295 29296 29297 29298 29299 29300 29301 29302 29303 29304 29305 29306 29307 29308 29309 29310 29311 29312 29313 29314 29315 29316 29317 29318 29319 29320 29321 29322 29323 29324 29325 29326 29327 29328 29329 29330 29331 29332 29333 29334 29335 29336 29337 29338 29339 29340 29341 29342 29343 29344 29345 29346 29347 29348 29349 29350 29351 29352 29353 29354 29355 29356 29357 29358 29359 29360 29361 29362 29363 29364 29365 29366 29367 29368 29369 29370 29371 29372 29373 29374 29375 29376 29377 29378 29379 29380 29381 29382 29383 29384 29385 29386 29387 29388 29389 29390 29391 29392 29393 29394 29395 29396 29397 29398 29399 29400 29401 29402 29403 29404 29405 29406 29407 29408 29409 29410 29411 29412 29413 29414 29415 29416 29417 29418 29419 29420 29421 29422 29423 29424 29425 29426 29427 29428 29429 29430 29431 29432 29433 29434 29435 29436 29437 29438 29439 29440 29441 29442 29443 29444 29445 29446 29447 29448 29449 29450 29451 29452 29453 29454 29455 29456 29457 29458 29459 29460 29461 29462 29463 29464 29465 29466 29467 29468 29469 29470 29471 29472 29473 29474 29475 29476 29477 29478 29479 29480 29481 29482 29483 29484 29485 29486 29487 29488 29489 29490 29491 29492 29493 29494 29495 29496 29497 29498 29499 29500 29501 29502 29503 29504 29505 29506 29507 29508 29509 29510 29511 29512 29513 29514 29515 29516 29517 29518 29519 29520 29521 29522 29523 29524 29525 29526 29527 29528 29529 29530 29531 29532 29533 29534 29535 29536 29537 29538 29539 29540 29541 29542 29543 29544 29545 29546 29547 29548 29549 29550 29551 29552 29553 29554 29555 29556 29557 29558 29559 29560 29561 29562 29563 29564 29565 29566 29567 29568 29569 29570 29571 29572 29573 29574 29575 29576 29577 29578 29579 29580 29581 29582 29583 29584 29585 29586 29587 29588 29589 29590 29591 29592 29593 29594 29595 29596 29597 29598 29599 29600 29601 29602 29603 29604 29605 29606 29607 29608 29609 29610 29611 29612 29613 29614 29615 29616 29617 29618 29619 29620 29621 29622 29623 29624 29625 29626 29627 29628 29629 29630 29631 29632 29633 29634 29635 29636 29637 29638 29639 29640 29641 29642 29643 29644 29645 29646 29647 29648 29649 29650 29651 29652 29653 29654 29655 29656 29657 29658 29659 29660 29661 29662 29663 29664 29665 29666 29667 29668 29669 29670 29671 29672 29673 29674 29675 29676 29677 29678 29679 29680 29681 29682 29683 29684 29685 29686 29687 29688 29689 29690 29691 29692 29693 29694 29695 29696 29697 29698 29699 29700 29701 29702 29703 29704 29705 29706 29707 29708 29709 29710 29711 29712 29713 29714 29715 29716 29717 29718 29719 29720 29721 29722 29723 29724 29725 29726 29727 29728 29729 29730 29731 29732 29733 29734 29735 29736 29737 29738 29739 29740 29741 29742 29743 29744 29745 29746 29747 29748 29749 29750 29751 29752 29753 29754 29755 29756 29757 29758 29759 29760 29761 29762 29763 29764 29765 29766 29767 29768 29769 29770 29771 29772 29773 29774 29775 29776 29777 29778 29779 29780 29781 29782 29783 29784 29785 29786 29787 29788 29789 29790 29791 29792 29793 29794 29795 29796 29797 29798 29799 29800 29801 29802 29803 29804 29805 29806 29807 29808 29809 29810 29811 29812 29813 29814 29815 29816 29817 29818 29819 29820 29821 29822 29823 29824 29825 29826 29827 29828 29829 29830 29831 29832 29833 29834 29835 29836 29837 29838 29839 29840 29841 29842 29843 29844 29845 29846 29847 29848 29849 29850 29851 29852 29853 29854 29855 29856 29857 29858 29859 29860 29861 29862 29863 29864 29865 29866 29867 29868 29869 29870 29871 29872 29873 29874 29875 29876 29877 29878 29879 29880 29881 29882 29883 29884 29885 29886 29887 29888 29889 29890 29891 29892 29893 29894 29895 29896 29897 29898 29899 29900 29901 29902 29903 29904 29905 29906 29907 29908 29909 29910 29911 29912 29913 29914 29915 29916 29917 29918 29919 29920 29921 29922 29923 29924 29925 29926 29927 29928 29929 29930 29931 29932 29933 29934 29935 29936 29937 29938 29939 29940 29941 29942 29943 29944 29945 29946 29947 29948 29949 29950 29951 29952 29953 29954 29955 29956 29957 29958 29959 29960 29961 29962 29963 29964 29965 29966 29967 29968 29969 29970 29971 29972 29973 29974 29975 29976 29977 29978 29979 29980 29981 29982 29983 29984 29985 29986 29987 29988 29989 29990 29991 29992 29993 29994 29995 29996 29997 29998 29999 30000 30001 30002 30003 30004 30005 30006 30007 30008 30009 30010 30011 30012 30013 30014 30015 30016 30017 30018 30019 30020 30021 30022 30023 30024 30025 30026 30027 30028 30029 30030 30031 30032 30033 30034 30035 30036 30037 30038 30039 30040 30041 30042 30043 30044 30045 30046 30047 30048 30049 30050 30051 30052 30053 30054 30055 30056 30057 30058 30059 30060 30061 30062 30063 30064 30065 30066 30067 30068 30069 30070 30071 30072 30073 30074 30075 30076 30077 30078 30079 30080 30081 30082 30083 30084 30085 30086 30087 30088 30089 30090 30091 30092 30093 30094 30095 30096 30097 30098 30099 30100 30101 30102 30103 30104 30105 30106 30107 30108 30109 30110 30111 30112 30113 30114 30115 30116 30117 30118 30119 30120 30121 30122 30123 30124 30125 30126 30127 30128 30129 30130 30131 30132 30133 30134 30135 30136 30137 30138 30139 30140 30141 30142 30143 30144 30145 30146 30147 30148 30149 30150 30151 30152 30153 30154 30155 30156 30157 30158 30159 30160 30161 30162 30163 30164 30165 30166 30167 30168 30169 30170 30171 30172 30173 30174 30175 30176 30177 30178 30179 30180 30181 30182 30183 30184 30185 30186 30187 30188 30189 30190 30191 30192 30193 30194 30195 30196 30197 30198 30199 30200 30201 30202 30203 30204 30205 30206 30207 30208 30209 30210 30211 30212 30213 30214 30215 30216 30217 30218 30219 30220 30221 30222 30223 30224 30225 30226 30227 30228 30229 30230 30231 30232 30233 30234 30235 30236 30237 30238 30239 30240 30241 30242 30243 30244 30245 30246 30247 30248 30249 30250 30251 30252 30253 30254 30255 30256 30257 30258 30259 30260 30261 30262 30263 30264 30265 30266 30267 30268 30269 30270 30271 30272 30273 30274 30275 30276 30277 30278 30279 30280 30281 30282 30283 30284 30285 30286 30287 30288 30289 30290 30291 30292 30293 30294 30295 30296 30297 30298 30299 30300 30301 30302 30303 30304 30305 30306 30307 30308 30309 30310 30311 30312 30313 30314 30315 30316 30317 30318 30319 30320 30321 30322 30323 30324 30325 30326 30327 30328 30329 30330 30331 30332 30333 30334 30335 30336 30337 30338 30339 30340 30341 30342 30343 30344 30345 30346 30347 30348 30349 30350 30351 30352 30353 30354 30355 30356 30357 30358 30359 30360 30361 30362 30363 30364 30365 30366 30367 30368 30369 30370 30371 30372 30373 30374 30375 30376 30377 30378 30379 30380 30381 30382 30383 30384 30385 30386 30387 30388 30389 30390 30391 30392 30393 30394 30395 30396 30397 30398 30399 30400 30401 30402 30403 30404 30405 30406 30407 30408 30409 30410 30411 30412 30413 30414 30415 30416 30417 30418 30419 30420 30421 30422 30423 30424 30425 30426 30427 30428 30429 30430 30431 30432 30433 30434 30435 30436 30437 30438 30439 30440 30441 30442 30443 30444 30445 30446 30447 30448 30449 30450 30451 30452 30453 30454 30455 30456 30457 30458 30459 30460 30461 30462 30463 30464 30465 30466 30467 30468 30469 30470 30471 30472 30473 30474 30475 30476 30477 30478 30479 30480 30481 30482 30483 30484 30485 30486 30487 30488 30489 30490 30491 30492 30493 30494 30495 30496 30497 30498 30499 30500 30501 30502 30503 30504 30505 30506 30507 30508 30509 30510 30511 30512 30513 30514 30515 30516 30517 30518 30519 30520 30521 30522 30523 30524 30525 30526 30527 30528 30529 30530 30531 30532 30533 30534 30535 30536 30537 30538 30539 30540 30541 30542 30543 30544 30545 30546 30547 30548 30549 30550 30551 30552 30553 30554 30555 30556 30557 30558 30559 30560 30561 30562 30563 30564 30565 30566 30567 30568 30569 30570 30571 30572 30573 30574 30575 30576 30577 
</DataArray>
<DataArray type="UInt32" Name="offsets" format="ascii">
3 6 9 12 15 18 20 23 26 29 31 34 37 40 42 45 48 51 54 57 60 62 64 67 70 73 76 78 80 83 85 87 90 92 95 98 101 103 106 109 111 114 117 120 123 126 129 132 134 137 140 143 146 149 152 155 158 160 163 166 168 171 173 176 178 181 183 186 189 192 195 198 201 204 207 210 213 216 219 222 225 228 231 233 236 239 242 245 248 251 254 257 259 262 265 267 269 272 275 278 281 284 287 290 293 296 299 302 305 307 310 313 316 319 322 324 327 330 332 335 338 341 344 347 350 353 356 359 362 365 368 371 374 377 380 383 386 389 391 394 397 400 403 406 408 411 414 417 420 423 426 429 432 435 438 441 444 447 450 453 456 459 462 465 468 471 474 477 480 482 485 487 490 493 496 498 501 504 507 509 512 515 518 520 522 525 528 530 533 536 539 542 544 547 550 553 556 559 561 564 567 570 573 575 578 580 583 586 588 591 594 597 599 602 605 607 610 613 616 619 622 625 628 631 634 637 639 642 645 647 650 653 656 659 662 665 668 670 673 676 679 682 685 688 691 694 697 700 703 706 709 712 715 718 721 724 727 730 733 735 738 740 743 746 749 752 755 757 760 763 766 769 772 775 778 781 783 786 789 792 794 797 800 802 805 808 811 814 816 819 822 824 827 830 833 836 839 841 844 846 849 852 855 858 861 864 867 870 873 876 879 882 885 888 891 894 897 900 902 905 908 911 914 917 919 921 924 927 930 933 936 939 942 945 948 951 953 956 959 962 965 968 971 974 977 980 982 985 988 990 992 995 998 1001 1003 1006 1009 1011 1014 1017 1020 1023 1026 1029 1032 1035 1038 1041 1044 1047 1050 1053 1056 1058 1061 1064 1067 1070 1073 1076 1079 1082 1084 1087 1090 1092 1095 1098 1101 1104 1106 1109 1112 1115 1118 1121 1124 1127 1130 1133 1136 1139 1142 1145 1148 1150 1152 1155 1158 1160 1162 1165 1167 1170 1172 1175 1177 1180 1183 1185 1188 1191 1194 1197 1200 1203 1206 1209 1212 1214 1216 1219 1222 1224 1227 1230 1233 1236 1239 1241 1244 1247 1249 1252 1255 1258 1261 1263 1266 1269 1272 1274 1277 1280 1283 1285 1288 1290 1293 1296 1298 1301 1304 1307 1310 1313 1316 1319 1322 1325 1328 1331 1333 1336 1339 1342 1345 1348 1351 1353 1356 1359 1362 1364 1367 1370 1373 1376 1379 1382 1385 1387 1390 1393 1396 1399 1402 1404 1407 1409 1412 1415 1418 1421 1424 1426 1428 1431 1434 1437 1439 1441 1444 1446 1449 1452 1455 1458 1461 1464 1467 1469 1472 1475 1478 1481 1484 1487 1490 1493 1496 1499 1502 1505 1508 1511 1513 1516 1519 1521 1524 1526 1529 1532 1535 1538 1541 1544 1547 1550 1553 1556 1559 1562 1565 1568 1570 1573 1576 1579 1582 1585 1588 1591 1594 1597 1600 1603 1606 1609 1612 1615 1618 1620 1623 1626 1629 1632 1635 1638 1641 1644 1647 1650 1653 1655 1657 1660 1663 1666 1669 1672 1675 1678 1681 1684 1687 1690 1693 1696 1699 1702 1705 1707 1710 1713 1716 1719 1722 1725 1728 1730 1733 1736 1739 1742 1745 1748 1751 1754 1756 1759 1762 1765 1767 1770 1773 1776 1779 1782 1785 1788 1791 1794 1797 1800 1803 1806 1809 1812 1815 1818 1821 1824 1827 1830 1833 1836 1839 1842 1845 1848 1851 1853 1856 1858 1861 1864 1867 1870 1873 1876 1879 1882 1885 1888 1891 1894 1897 1899 1902 1905 1908 1910 1913 1916 1919 1922 1925 1928 1931 1934 1937 1940 1943 1946 1949 1951 1953 1956 1959 1962 1965 1968 1971 1974 1976 1979 1982 1985 1988 1991 1994 1997 2000 2003 2006 2009 2011 2014 2017 2020 2023 2026 2029 2032 2034 2037 2040 2043 2046 2049 2052 2055 2058 2061 2064 2067 2070 2073 2076 2079 2082 2085 2087 2090 2093 2096 2099 2102 2105 2108 2111 2114 2117 2119 2122 2125 2128 2131 2134 2136 2139 2142 2145 2147 2150 2153 2156 2159 2161 2164 2167 2170 2173 2176 2179 2182 2184 2187 2189 2192 2195 2197 2200 2202 2205 2208 2211 2214 2217 2220 2223 2226 2229 2232 2235 2238 2241 2244 2247 2250 2253 2256 2259 2262 2265 2268 2271 2274 2277 2280 2283 2286 2289 2292 2295 2298 2301 2304 2307 2309 2312 2314 2316 2319 2322 2325 2328 2331 2334 2337 2340 2343 2346 2349 2351 2354 2357 2360 2363 2366 2369 2372 2374 2377 2379 2382 2384 2387 2390 2393 2396 2399 2402 2404 2407 2409 2411 2414 2417 2420 2423 2426 2429 2432 2435 2438 2441 2444 2447 2450 2453 2456 2459 2462 2464 2467 2470 2473 2476 2479 2482 2485 2488 2491 2494 2497 2500 2503 2506 2508 2511 2514 2517 2520 2523 2526 2529 2532 2535 2538 2541 2544 2547 2549 2552 2555 2558 2561 2564 2567 2570 2573 2576 2578 2581 2584 2587 2590 2593 2595 2597 2600 2603 2606 2609 2611 2613 2616 2619 2622 2625 2628 2631 2634 2637 2640 2643 2646 2648 2651 2654 2657 2660 2662 2665 2668 2671 2674 2677 2680 2682 2685 2688 2690 2693 2695 2698 2701 2704 2706 2709 2712 2715 2718 2721 2724 2727 2729 2732 2735 2738 2741 2743 2745 2748 2751 2753 2756 2759 2762 2764 2766 2768 2770 2773 2776 2778 2781 2784 2787 2790 2793 2796 2799 2802 2804 2806 2809 2812 2815 2818 2821 2824 2826 2829 2831 2834 2837 2840 2842 2845 2848 2851 2854 2857 2860 2863 2866 2869 2872 2875 2878 2881 2884 2887 2890 2893 2896 2899 2902 2905 2908 2911 2914 2917 2920 2923 2926 2928 2931 2934 2937 2940 2943 2946 2949 2952 2955 2958 2961 2964 2967 2970 2973 2976 2979 2982 2985 2988 2991 2993 2996 2999 3002 3005 3008 3011 3014 3017 3020 3022 3025 3028 3031 3034 3037 3040 3042 3045 3048 3051 3054 3057 3059 3062 3065 3068 3071 3074 3076 3079 3082 3085 3088 3091 3094 3097 3100 3103 3106 3108 3111 3114 3117 3120 3122 3124 3127 3130 3132 3135 3138 3141 3144 3146 3149 3152 3154 3157 3160 3163 3166 3169 3171 3173 3176 3179 3182 3185 3188 3191 3193 3196 3199 3202 3205 3208 3211 3214 3216 3218 3221 3224 3227 3229 3232 3235 3238 3240 3243 3246 3248 3251 3253 3256 3259 3262 3264 3267 3270 3272 3274 3277 3280 3283 3286 3289 3292 3294 3297 3299 3302 3304 3307 3310 3313 3315 3317 3320 3322 3325 3328 3331 3334 3337 3340 3343 3346 3349 3352 3355 3358 3361 3364 3367 3370 3372 3375 3378 3381 3384 3387 3390 3393 3395 3398 3401 3404 3407 3410 3412 3415 3418 3421 3423 3426 3429 3432 3435 3437 3440 3442 3445 3447 3450 3453 3456 3459 3461 3464 3467 3469 3472 3475 3478 3481 3484 3487 3490 3493 3496 3499 3502 3504 3507 3510 3513 3516 3518 3521 3524 3527 3530 3532 3535 3538 3541 3544 3547 3550 3552 3555 3558 3561 3563 3566 3568 3570 3573 3576 3579 3582 3585 3588 3591 3594 3597 3600 3603 3606 3609 3612 3615 3618 3621 3624 3627 3630 3633 3636 3639 3642 3645 3648 3651 3654 3656 3659 3662 3664 3666 3669 3671 3674 3677 3680 3683 3685 3688 3691 3693 3696 3699 3702 3705 3708 3711 3714 3717 3720 3723 3726 3729 3732 3735 3738 3741 3744 3747 3750 3753 3756 3759 3762 3765 3768 3771 3774 3777 3779 3782 3785 3788 3791 3794 3797 3800 3803 3805 3808 3811 3814 3817 3820 3823 3826 3828 3831 3833 3836 3839 3842 3844 3847 3850 3853 3856 3859 3862 3865 3867 3870 3872 3875 3878 3881 3884 3887 3889 3892 3895 3898 3901 3904 3907 3910 3913 3916 3919 3922 3925 3928 3931 3934 3937 3940 3943 3946 3949 3952 3955 3958 3961 3964 3967 3970 3973 3976 3979 3982 3985 3988 3991 3994 3997 4000 4003 4006 4008 4010 4013 4016 4018 4021 4024 4027 4029 4032 4035 4038 4040 4042 4045 4048 4050 4053 4056 4059 4062 4065 4068 4071 4074 4077 4080 4083 4086 4089 4092 4095 4098 4101 4104 4107 4110 4113 4115 4118 4120 4123 4126 4129 4132 4135 4138 4141 4144 4147 4150 4153 4156 4159 4162 4165 4168 4171 4174 4177 4180 4183 4186 4189 4192 4195 4198 4201 4204 4207 4210 4213 4216 4219 4222 4225 4228 4231 4234 4237 4240 4243 4246 4249 4252 4255 4257 4260 4262 4265 4267 4270 4273 4275 4278 4281 4284 4287 4290 4293 4296 4299 4302 4305 4308 4311 4314 4317 4320 4323 4326 4329 4332 4335 4338 4341 4344 4347 4350 4353 4356 4358 4361 4364 4367 4370 4373 4376 4379 4382 4385 4388 4391 4394 4397 4400 4403 4406 4409 4412 4415 4418 4421 4424 4427 4430 4433 4436 4439 4442 4445 4448 4451 4454 4457 4460 4463 4466 4469 4472 4475 4478 4481 4484 4487 4490 4493 4496 4499 4502 4505 4507 4510 4513 4516 4519 4521 4524 4527 4530 4533 4536 4539 4542 4545 4547 4550 4553 4556 4559 4562 4564 4566 4568 4571 4574 4577 4580 4582 4584 4587 4590 4592 4595 4598 4601 4604 4607 4610 4613 4616 4619 4622 4625 4628 4631 4634 4636 4638 4641 4643 4646 4649 4652 4655 4658 4661 4664 4667 4670 4673 4676 4679 4682 4685 4688 4691 4694 4697 4699 4702 4705 4708 4711 4714 4717 4719 4722 4725 4728 4731 4734 4737 4740 4743 4746 4749 4752 4755 4758 4761 4764 4767 4770 4773 4775 4778 4781 4784 4787 4790 4793 4796 4799 4802 4804 4807 4810 4812 4815 4818 4821 4824 4827 4830 4833 4836 4839 4842 4845 4848 4851 4854 4857 4860 4862 4865 4867 4870 4873 4876 4879 4881 4884 4886 4889 4892 4894 4896 4899 4902 4904 4907 4910 4913 4915 4918 4921 4924 4927 4930 4933 4935 4938 4941 4944 4946 4949 4952 4955 4958 4960 4963 4966 4969 4972 4975 4978 4981 4983 4986 4989 4992 4995 4998 5000 5003 5006 5008 5011 5014 5017 5020 5023 5026 5029 5031 5034 5037 5040 5042 5044 5047 5050 5053 5055 5058 5061 5064 5067 5070 5072 5074 5076 5079 5082 5085 5088 5091 5094 5097 5100 5103 5105 5107 5110 5112 5115 5118 5121 5124 5127 5129 5132 5135 5137 5140 5142 5145 5148 5151 5153 5156 5159 5161 5164 5167 5170 5173 5176 5179 5182 5184 5187 5190 5192 5194 5197 5200 5202 5205 5207 5210 5213 5215 5218 5221 5223 5226 5228 5231 5234 5237 5239 5242 5245 5247 5250 5252 5255 5258 5260 5263 5265 5268 5271 5274 5277 5279 5281 5284 5287 5290 5293 5296 5299 5302 5305 5308 5310 5313 5316 5319 5322 5325 5328 5331 5334 5337 5340 5343 5346 5349 5352 5355 5358 5361 5364 5366 5368 5371 5374 5377 5379 5382 5385 5388 5391 5393 5396 5399 5401 5404 5407 5410 5412 5415 5418 5420 5423 5426 5429 5432 5434 5437 5440 5443 5446 5449 5451 5454 5457 5460 5462 5464 5467 5470 5472 5475 5478 5481 5484 5487 5489 5491 5494 5497 5500 5503 5505 5508 5511 5514 5517 5519 5522 5525 5528 5531 5534 5537 5540 5543 5546 5549 5552 5555 5558 5561 5564 5567 5570 5573 5576 5579 5582 5585 5588 5591 5594 5597 5600 5603 5605 5608 5611 5614 5617 5620 5623 5626 5629 5632 5635 5638 5640 5643 5646 5649 5652 5654 5657 5660 5663 5665 5668 5671 5673 5676 5679 5682 5685 5688 5690 5693 5696 5699 5702 5705 5708 5711 5714 5717 5720 5723 5726 5729 5732 5735 5738 5741 5744 5747 5750 5752 5755 5758 5761 5764 5767 5769 5772 5775 5778 5781 5784 5787 5790 5792 5795 5798 5801 5804 5807 5810 5813 5816 5819 5822 5825 5828 5831 5833 5836 5839 5842 5845 5848 5850 5852 5855 5858 5861 5864 5866 5869 5871 5874 5877 5880 5882 5884 5887 5890 5892 5895 5898 5901 5903 5906 5909 5912 5915 5917 5920 5923 5925 5927 5930 5933 5936 5939 5942 5945 5947 5950 5953 5955 5958 5961 5964 5967 5969 5972 5975 5978 5981 5984 5987 5990 5993 5996 5999 6002 6005 6008 6011 6014 6017 6020 6023 6026 6028 6031 6033 6036 6039 6042 6044 6047 6049 6052 6054 6057 6060 6062 6065 6068 6070 6072 6074 6077 6080 6083 6085 6088 6091 6094 6097 6100 6103 6105 6108 6111 6114 6117 6120 6123 6126 6128 6131 6133 6136 6139 6142 6145 6148 6151 6154 6156 6159 6162 6165 6168 6171 6174 6177 6180 6183 6186 6189 6191 6194 6197 6199 6202 6205 6208 6211 6214 6217 6220 6223 6226 6229 6232 6235 6238 6241 6244 6247 6249 6252 6255 6258 6261 6264 6267 6270 6273 6276 6279 6282 6285 6288 6291 6294 6297 6300 6303 6306 6309 6312 6314 6317 6320 6323 6325 6328 6331 6334 6337 6340 6343 6346 6349 6352 6355 6357 6360 6363 6366 6369 6372 6375 6378 6381 6384 6387 6389 6392 6395 6398 6401 6404 6407 6409 6412 6415 6418 6420 6423 6426 6429 6432 6435 6438 6441 6444 6447 6450 6453 6456 6459 6462 6465 6468 6471 6474 6477 6480 6483 6485 6488 6491 6494 6497 6500 6502 6505 6508 6510 6513 6516 6519 6522 6525 6528 6530 6533 6536 6539 6542 6544 6547 6550 6553 6556 6559 6562 6565 6568 6571 6574 6577 6580 6583 6586 6589 6592 6595 6598 6600 6603 6606 6609 6612 6615 6617 6620 6623 6626 6628 6631 6633 6636 6639 6642 6645 6648 6651 6654 6656 6659 6662 6665 6667 6669 6672 6675 6678 6681 6684 6686 6689 6692 6695 6697 6700 6703 6706 6709 6712 6715 6718 6721 6724 6727 6730 6733 6736 6739 6742 6744 6747 6750 6753 6756 6759 6762 6764 6767 6770 6773 6776 6779 6782 6785 6788 6791 6794 6797 6799 6802 6805 6808 6811 6814 6817 6820 6823 6826 6828 6831 6834 6837 6840 6842 6844 6847 6850 6853 6856 6859 6862 6865 6868 6870 6872 6875 6877 6880 6883 6886 6889 6892 6894 6897 6900 6903 6906 6909 6912 6914 6917 6919 6922 6925 6928 6931 6934 6937 6940 6943 6946 6949 6951 6954 6957 6960 6963 6966 6969 6971 6974 6977 6980 6983 6986 6989 6992 6995 6997 7000 7003 7006 7009 7012 7014 7017 7020 7022 7025 7028 7031 7034 7037 7040 7042 7045 7048 7051 7054 7057 7060 7063 7066 7068 7071 7074 7077 7080 7082 7085 7088 7091 7094 7097 7100 7103 7106 7109 7112 7114 7117 7120 7123 7126 7129 7132 7135 7138 7141 7143 7146 7149 7152 7155 7157 7160 7163 7166 7169 7172 7175 7178 7181 7183 7186 7188 7191 7194 7197 7199 7202 7205 7208 7211 7214 7217 7220 7223 7225 7228 7231 7234 7236 7239 7242 7245 7247 7250 7253 7255 7258 7261 7264 7267 7270 7273 7276 7279 7282 7285 7288 7291 7294 7297 7300 7303 7306 7309 7312 7315 7318 7321 7324 7327 7330 7333 7336 7339 7342 7345 7348 7351 7354 7357 7360 7363 7366 7369 7372 7375 7378 7381 7384 7387 7390 7393 7396 7399 7402 7405 7408 7411 7414 7416 7419 7422 7425 7427 7430 7433 7436 7439 7442 7445 7447 7450 7452 7455 7458 7461 7464 7466 7468 7471 7474 7477 7480 7483 7486 7489 7492 7495 7498 7501 7504 7507 7510 7513 7516 7519 7522 7525 7528 7531 7534 7536 7539 7542 7544 7547 7550 7553 7555 7558 7561 7564 7567 7570 7573 7576 7579 7582 7585 7588 7591 7594 7597 7599 7602 7604 7607 7609 7612 7615 7618 7621 7624 7627 7630 7633 7636 7639 7642 7645 7648 7651 7654 7657 7660 7662 7665 7668 7671 7674 7677 7680 7683 7686 7689 7692 7695 7698 7701 7704 7707 7710 7713 7716 7719 7722 7725 7728 7731 7734 7737 7740 7743 7746 7749 7752 7755 7758 7761 7763 7766 7769 7772 7775 7778 7781 7783 7786 7789 7791 7794 7796 7799 7802 7804 7807 7810 7813 7815 7818 7821 7824 7827 7830 7833 7836 7839 7842 7845 7848 7851 7854 7857 7860 7863 7866 7869 7872 7875 7878 7881 7884 7887 7890 7892 7895 7898 7901 7904 7906 7909 7912 7914 7917 7920 7923 7926 7929 7932 7935 7938 7941 7944 7947 7950 7953 7956 7959 7962 7965 7968 7971 7974 7977 7980 7983 7986 7989 7992 7995 7998 8001 8004 8006 8009 8012 8015 8017 8020 8023 8026 8029 8031 8034 8037 8040 8043 8046 8048 8051 8054 8057 8060 8062 8065 8068 8071 8074 8077 8080 8083 8086 8089 8092 8095 8098 8101 8104 8106 8108 8111 8113 8116 8118 8121 8124 8127 8130 8133 8136 8139 8142 8145 8148 8151 8154 8157 8160 8163 8166 8169 8172 8175 8178 8181 8184 8187 8190 8193 8195 8197 8200 8203 8205 8208 8211 8213 8216 8219 8222 8225 8228 8231 8234 8237 8240 8243 8246 8248 8251 8254 8256 8259 8262 8265 8268 8271 8274 8277 8280 8283 8286 8289 8292 8295 8298 8300 8302 8305 8307 8309 8312 8315 8318 8321 8323 8326 8329 8332 8334 8336 8339 8342 8345 8348 8351 8354 8357 8359 8362 8365 8368 8371 8374 8377 8380 8383 8386 8389 8392 8395 8398 8401 8404 8407 8409 8412 8415 8418 8421 8423 8426 8429 8432 8435 8438 8441 8444 8446 8449 8452 8455 8458 8461 8464 8467 8469 8472 8475 8477 8480 8483 8486 8489 8492 8495 8498 8501 8504 8507 8510 8513 8516 8519 8522 8524 8527 8530 8533 8536 8539 8542 8545 8548 8550 8553 8556 8559 8562 8565 8568 8571 8573 8576 8579 8582 8585 8588 8590 8593 8596 8599 8602 8604 8607 8610 8613 8616 8619 8622 8625 8628 8631 8634 8637 8640 8642 8645 8648 8651 8654 8657 8660 8663 8666 8669 8672 8675 8678 8681 8684 8686 8689 8692 8695 8698 8701 8704 8707 8710 8713 8716 8719 8722 8725 8727 8729 8732 8735 8737 8740 8743 8746 8749 8751 8754 8757 8760 8762 8765 8768 8770 8773 8776 8779 8782 8784 8787 8790 8793 8796 8799 8802 8805 8808 8811 8814 8817 8820 8823 8826 8829 8832 8835 8838 8841 8844 8847 8850 8853 8856 8859 8862 8865 8868 8871 8874 8877 8880 8883 8886 8888 8891 8894 8897 8899 8902 8904 8907 8910 8913 8916 8919 8922 8925 8928 8931 8934 8937 8940 8943 8946 8948 8951 8954 8957 8960 8963 8966 8969 8972 8974 8977 8980 8983 8985 8988 8991 8994 8997 9000 9003 9006 9008 9011 9013 9016 9019 9022 9025 9028 9031 9034 9037 9040 9043 9046 9049 9052 9055 9057 9060 9063 9065 9068 9071 9074 9077 9080 9083 9086 9088 9091 9094 9097 9100 9103 9106 9109 9112 9115 9118 9121 9124 9127 9130 9133 9136 9139 9142 9145 9148 9151 9154 9157 9160 9163 9166 9169 9171 9174 9177 9179 9182 9185 9188 9190 9193 9196 9198 9201 9204 9207 9210 9213 9216 9219 9222 9225 9228 9231 9234 9237 9240 9243 9246 9249 9252 9255 9257 9260 9263 9266 9269 9272 9275 9278 9281 9284 9287 9290 9293 9296 9298 9301 9304 9307 9310 9313 9316 9319 9322 9325 9328 9331 9334 9337 9340 9343 9346 9349 9352 9355 9357 9360 9363 9366 9369 9372 9375 9378 9381 9384 9387 9390 9393 9396 9399 9402 9405 9407 9410 9413 9415 9418 9421 9424 9426 9429 9432 9434 9437 9440 9443 9446 9449 9452 9455 9458 9461 9464 9467 9470 9473 9476 9478 9481 9484 9486 9489 9492 9495 9498 9501 9504 9507 9510 9513 9516 9519 9522 9525 9528 9531 9534 9537 9540 9543 9546 9549 9552 9555 9558 9561 9564 9567 9570 9573 9576 9579 9582 9585 9588 9591 9594 9596 9599 9602 9605 9608 9610 9613 9616 9619 9622 9625 9628 9631 9634 9637 9640 9643 9646 9649 9652 9655 9657 9660 9662 9664 9667 9670 9672 9675 9677 9680 9683 9686 9689 9692 9695 9698 9701 9703 9706 9709 9711 9714 9717 9720 9723 9725 9727 9730 9732 9735 9738 9741 9744 9747 9750 9753 9756 9759 9762 9765 9768 9771 9774 9777 9780 9783 9786 9789 9792 9795 9797 9800 9803 9806 9809 9812 9815 9818 9821 9824 9827 9830 9833 9836 9839 9842 9845 9848 9851 9854 9857 9860 9863 9866 9869 9872 9874 9877 9880 9883 9886 9889 9891 9894 9897 9900 9903 9906 9909 9912 9915 9918 9920 9923 9926 9929 9932 9935 9938 9941 9944 9947 9950 9953 9956 9959 9962 9965 9968 9971 9973 9975 9978 9981 9983 9986 9989 9992 9994 9997 10000 10003 10006 10009 10012 10015 10018 10021 10024 10026 10029 10032 10034 10037 10039 10042 10045 10048 10051 10053 10056 10059 10062 10064 10067 10070 10073 10076 10079 10082 10084 10087 10090 10093 10096 10099 10102 10104 10107 10110 10113 10116 10119 10122 10125 10128 10131 10134 10137 10140 10143 10146 10148 10151 10154 10156 10159 10162 10165 10167 10169 10172 10175 10178 10181 10184 10187 10190 10193 10196 10199 10201 10204 10207 10210 10212 10215 10218 10221 10224 10226 10229 10232 10235 10238 10241 10244 10247 10250 10252 10255 10258 10261 10264 10267 10269 10271 10274 10277 10280 10282 10285 10287 10289 10292 10295 10298 10301 10304 10306 10309 10312 10315 10318 10321 10324 10326 10329 10332 10335 10338 10341 10344 10347 10349 10352 10355 10357 10360 10363 10365 10368 10371 10374 10377 10380 10383 10386 10389 10392 10395 10398 10401 10404 10407 10409 10412 10415 10418 10420 10423 10426 10428 10431 10434 10437 10440 10442 10445 10448 10451 10454 10457 10460 10463 10466 10468 10471 10474 10477 10480 10482 10485 10488 10491 10494 10497 10500 10503 10506 10508 10511 10514 10517 10520 10523 10526 10529 10532 10535 10537 10540 10543 10546 10548 10551 10554 10556 10559 10562 10564 10567 10570 10573 10576 10579 10582 10585 10588 10591 10593 10596 10599 10602 10605 10608 10611 10614 10617 10620 10623 10626 10629 10632 10635 10638 10641 10643 10646 10649 10652 10655 10658 10661 10664 10667 10670 10673 10676 10679 10682 10685 10688 10691 10694 10697 10700 10703 10706 10709 10712 10715 10718 10721 10723 10726 10728 10731 10734 10737 10740 10743 10746 10749 10752 10755 10758 10760 10763 10766 10768 10771 10774 10777 10780 10783 10786 10789 10792 10795 10798 10801 10804 10807 10810 10813 10816 10819 10822 10825 10828 10831 10833 10836 10839 10842 10845 10848 10851 10854 10857 10860 10862 10865 10867 10870 10873 10876 10879 10882 10885 10888 10890 10893 10895 10898 10901 10904 10907 10910 10913 10916 10919 10922 10925 10928 10930 10933 10936 10939 10942 10944 10947 10949 10952 10955 10958 10961 10964 10967 10969 10972 10975 10977 10980 10983 10985 10988 10991 10994 10996 10998 11000 11003 11006 11009 11012 11015 11018 11021 11024 11027 11030 11033 11036 11039 11041 11044 11047 11050 11053 11056 11059 11062 11064 11067 11069 11072 11074 11077 11080 11082 11084 11087 11090 11093 11096 11099 11102 11104 11107 11110 11113 11116 11118 11121 11123 11126 11128 11131 11133 11136 11139 11142 11145 11147 11150 11153 11156 11159 11162 11164 11167 11170 11173 11176 11179 11182 11185 11188 11191 11194 11197 11200 11203 11206 11208 11211 11214 11217 11220 11223 11225 11228 11231 11234 11236 11239 11242 11245 11248 11251 11254 11257 11260 11263 11266 11269 11272 11275 11278 11281 11284 11287 11289 11292 11295 11298 11301 11303 11306 11309 11312 11315 11318 11321 11323 11326 11329 11332 11335 11338 11341 11344 11347 11350 11353 11355 11358 11361 11363 11366 11368 11371 11374 11377 11380 11383 11386 11389 11392 11395 11398 11401 11403 11406 11409 11412 11415 11418 11421 11423 11426 11428 11430 11433 11435 11438 11441 11444 11447 11450 11453 11456 11458 11461 11464 11467 11470 11473 11476 11479 11482 11485 11488 11491 11494 11497 11500 11503 11506 11508 11511 11514 11517 11520 11523 11526 11529 11532 11535 11538 11540 11543 11546 11549 11552 11555 11558 11561 11564 11567 11570 11572 11575 11578 11581 11584 11586 11589 11592 11595 11598 11601 11603 11606 11609 11612 11615 11617 11620 11623 11626 11629 11632 11635 11638 11641 11644 11647 11650 11653 11656 11659 11662 11665 11668 11671 11673 11676 11679 11682 11685 11688 11691 11694 11697 11699 11702 11704 11706 11709 11712 11715 11718 11721 11723 11726 11729 11732 11735 11738 11741 11744 11747 11750 11753 11756 11759 11762 11765 11767 11770 11773 11775 11778 11780 11782 11785 11788 11791 11794 11797 11800 11802 11805 11808 11811 11814 11816 11819 11821 11824 11827 11829 11832 11835 11838 11841 11844 11847 11849 11851 11854 11857 11860 11863 11866 11869 11872 11875 11878 11881 11884 11887 11890 11893 11896 11898 11901 11904 11907 11910 11913 11916 11919 11921 11924 11926 11929 11932 11935 11937 11940 11942 11945 11948 11951 11954 11957 11960 11963 11966 11968 11971 11974 11977 11980 11983 11985 11988 11990 11993 11996 11999 12002 12004 12007 12010 12013 12016 12019 12021 12024 12027 12030 12033 12036 12039 12042 12045 12048 12051 12054 12057 12060 12063 12066 12069 12072 12075 12078 12081 12084 12087 12090 12093 12095 12098 12101 12104 12106 12109 12111 12114 12117 12120 12122 12125 12128 12131 12134 12137 12140 12143 12146 12149 12152 12155 12158 12161 12164 12167 12170 12173 12175 12177 12179 12181 12184 12187 12190 12193 12196 12199 12201 12204 12207 12210 12212 12215 12218 12221 12224 12227 12230 12233 12236 12239 12242 12244 12246 12248 12251 12254 12256 12258 12261 12264 12267 12270 12273 12276 12279 12282 12285 12287 12290 12293 12296 12299 12302 12305 12308 12311 12313 12315 12318 12321 12324 12326 12329 12332 12335 12338 12341 12344 12347 12350 12353 12356 12359 12361 12364 12366 12369 12372 12375 12378 12381 12383 12385 12388 12391 12393 12395 12398 12401 12404 12407 12410 12413 12416 12419 12422 12425 12428 12431 12434 12437 12440 12443 12446 12449 12452 12455 12458 12461 12464 12467 12470 12473 12476 12479 12482 12485 12488 12491 12494 12497 12500 12503 12506 12509 12512 12515 12518 12521 12523 12525 12528 12531 12534 12537 12540 12543 12546 12549 12552 12555 12558 12561 12564 12567 12570 12573 12576 12579 12582 12585 12587 12590 12593 12596 12599 12602 12605 12608 12611 12614 12617 12620 12623 12626 12629 12632 12635 12637 12640 12642 12645 12648 12651 12654 12657 12660 12663 12666 12668 12671 12674 12677 12680 12683 12686 12689 12692 12695 12698 12701 12703 12706 12709 12711 12714 12717 12719 12722 12725 12728 12731 12733 12736 12739 12742 12745 12747 12750 12753 12755 12758 12760 12763 12766 12769 12772 12775 12777 12780 12783 12786 12789 12792 12795 12798 12800 12803 12806 12809 12812 12815 12818 12821 12824 12827 12830 12833 12836 12839 12842 12845 12848 12851 12854 12857 12860 12863 12866 12869 12872 12874 12877 12880 12883 12885 12888 12891 12893 12896 12899 12902 12904 12907 12910 12913 12916 12918 12921 12923 12926 12929 12932 12935 12938 12941 12944 12947 12949 12952 12955 12958 12961 12964 12967 12970 12973 12976 12979 12981 12984 12987 12989 12992 12995 12997 13000 13003 13005 13007 13010 13013 13016 13019 13022 13025 13028 13030 13032 13035 13038 13041 13043 13046 13049 13051 13053 13056 13059 13062 13064 13066 13069 13071 13074 13077 13079 13082 13085 13088 13091 13093 13096 13098 13100 13103 13106 13109 13111 13114 13116 13118 13121 13123 13125 13127 13129 13132 13134 13137 13139 13142 13144 13147 13150 13153 13155 13158 13161 13163 13166 13168 13170 13173 13176 13179 13182 13184 13187 13189 13191 13194 13197 13200 13202 13204 13207 13210 13212 13214 13217 13220 13223 13226 13228 13231 13234 13237 13240 13242 13245 13248 13251 13254 13256 13259 13261 13264 13266 13269 13271 13274 13276 13279 13281 13284 13287 13290 13293 13296 13298 13301 13304 13306 13308 13310 13313 13316 13318 13320 13323 13325 13328 13331 13333 13336 13339 13342 13345 13348 13351 13353 13356 13359 13361 13364 13366 13369 13372 13375 13378 13380 13383 13385 13388 13390 13393 13396 13399 13401 13404 13407 13409 13412 13414 13417 13419 13422 13425 13428 13431 13434 13436 13439 13442 13445 13448 13451 13454 13457 13460 13463 13466 13468 13471 13474 13477 13480 13482 13485 13488 13490 13493 13496 13499 13502 13505 13507 13510 13513 13515 13518 13521 13524 13526 13529 13531 13534 13537 13540 13542 13545 13548 13551 13554 13556 13559 13562 13565 13568 13570 13572 13575 13578 13581 13584 13587 13590 13592 13595 13598 13600 13603 13606 13609 13612 13615 13618 13621 13624 13627 13630 13633 13636 13639 13642 13645 13648 13651 13654 13657 13660 13663 13666 13669 13672 13675 13678 13681 13684 13687 13690 13693 13696 13699 13702 13705 13708 13711 13714 13717 13720 13723 13726 13729 13732 13735 13738 13741 13744 13747 13750 13753 13756 13759 13762 13765 13768 13771 13774 13776 13779 13782 13785 13788 13791 13794 13797 13800 13803 13806 13809 13812 13814 13817 13820 13822 13825 13828 13831 13833 13836 13839 13842 13845 13848 13851 13854 13857 13860 13863 13866 13869 13872 13875 13878 13880 13883 13886 13889 13892 13895 13898 13901 13904 13907 13910 13913 13916 13919 13922 13925 13928 13930 13933 13936 13939 13942 13945 13948 13951 13954 13957 13960 13963 13966 13969 13971 13974 13977 13979 13982 13985 13987 13990 13992 13995 13998 14001 14004 14007 14010 14013 14015 14018 14021 14024 14027 14030 14033 14036 14039 14042 14045 14048 14051 14053 14056 14059 14062 14064 14067 14070 14073 14076 14079 14082 14085 14088 14091 14093 14096 14099 14102 14105 14108 14111 14113 14116 14119 14122 14125 14128 14131 14133 14136 14139 14142 14144 14147 14150 14153 14156 14159 14162 14165 14167 14170 14173 14176 14179 14182 14185 14188 14191 14194 14197 14199 14202 14205 14208 14211 14214 14217 14220 14223 14226 14229 14232 14235 14238 14241 14244 14247 14249 14252 14254 14257 14260 14263 14266 14269 14272 14275 14278 14281 14284 14286 14289 14291 14294 14297 14300 14303 14306 14309 14312 14315 14318 14321 14324 14326 14329 14332 14335 14338 14341 14344 14347 14350 14353 14356 14359 14361 14364 14367 14370 14373 14376 14379 14382 14384 14387 14390 14393 14396 14399 14402 14405 14407 14410 14413 14416 14419 14422 14425 14428 14431 14434 14437 14440 14442 14445 14448 14451 14454 14457 14460 14463 14466 14468 14471 14473 14476 14479 14482 14485 14488 14491 14494 14497 14500 14503 14505 14508 14511 14514 14516 14519 14522 14525 14528 14531 14534 14537 14540 14543 14545 14548 14551 14554 14557 14560 14563 14566 14569 14572 14575 14578 14581 14584 14587 14590 14593 14595 14598 14601 14604 14607 14610 14613 14616 14619 14622 14625 14628 14631 14634 14637 14640 14643 14646 14649 14651 14654 14657 14659 14662 14665 14667 14670 14673 14676 14679 14682 14684 14687 14690 14693 14696 14699 14702 14705 14708 14711 14714 14717 14720 14723 14726 14729 14732 14735 14738 14741 14744 14747 14750 14753 14756 14759 14762 14765 14768 14771 14774 14777 14780 14783 14786 14789 14792 14795 14798 14801 14804 14807 14810 14813 14816 14819 14822 14825 14828 14831 14834 14837 14840 14843 14846 14849 14852 14855 14858 14861 14863 14866 14869 14871 14874 14877 14880 14883 14886 14889 14892 14895 14898 14901 14904 14907 14910 14913 14916 14919 14922 14925 14928 14931 14934 14937 14940 14943 14945 14947 14950 14953 14956 14959 14962 14965 14968 14971 14974 14977 14980 14983 14986 14989 14992 14995 14997 14999 15002 15005 15008 15011 15014 15017 15020 15022 15025 15027 15030 15033 15035 15037 15040 15043 15046 15049 15052 15055 15058 15061 15064 15067 15070 15072 15075 15077 15080 15083 15086 15088 15091 15094 15097 15099 15102 15104 15107 15110 15113 15116 15119 15121 15123 15126 15129 15132 15135 15138 15141 15144 15147 15150 15153 15156 15159 15162 15165 15168 15171 15174 15177 15180 15183 15186 15189 15192 15195 15198 15201 15204 15207 15210 15213 15216 15219 15222 15225 15228 15231 15234 15237 15240 15243 15246 15249 15252 15255 15258 15261 15264 15267 15270 15273 15276 15279 15282 15285 15288 15291 15294 15297 15300 15303 15306 15309 15312 15315 15318 15321 15324 15327 15330 15333 15336 15339 15342 15345 15348 15351 15354 15357 15360 15363 15366 15369 15372 15375 15378 15381 15384 15387 15390 15393 15396 15399 15402 15405 15408 15411 15414 15417 15420 15423 15426 15429 15432 15435 15437 15439 15442 15444 15447 15449 15452 15455 15457 15460 15463 15466 15469 15471 15474 15477 15480 15483 15486 15489 15492 15494 15496 15498 15501 15504 15507 15510 15513 15515 15517 15520 15523 15526 15529 15532 15535 15538 15541 15544 15547 15550 15553 15556 15559 15562 15565 15568 15571 15574 15577 15580 15583 15586 15589 15592 15595 15598 15601 15604 15607 15610 15613 15616 15619 15621 15624 15627 15629 15632 15635 15638 15641 15644 15647 15650 15653 15656 15659 15662 15664 15667 15670 15673 15676 15679 15682 15685 15687 15690 15693 15696 15699 15702 15705 15708 15711 15714 15717 15720 15723 15726 15729 15732 15735 15737 15740 15743 15745 15748 15751 15754 15757 15760 15763 15766 15769 15772 15775 15778 15781 15784 15787 15790 15793 15796 15799 15802 15805 15808 15811 15814 15816 15819 15822 15824 15827 15830 15832 15835 15838 15841 15844 15847 15850 15853 15855 15858 15861 15864 15867 15870 15873 15875 15878 15881 15883 15886 15889 15892 15895 15897 15900 15902 15905 15908 15910 15913 15916 15919 15922 15924 15927 15929 15932 15935 15937 15940 15943 15946 15949 15952 15955 15958 15961 15964 15967 15970 15973 15975 15978 15981 15984 15986 15989 15992 15994 15997 16000 16003 16006 16008 16011 16014 16017 16020 16023 16026 16029 16032 16035 16038 16040 16043 16046 16049 16052 16055 16058 16061 16064 16067 16070 16072 16075 16078 16081 16084 16087 16090 16093 16096 16099 16102 16105 16108 16110 16113 16116 16118 16121 16124 16127 16130 16133 16136 16139 16142 16145 16148 16150 16153 16156 16159 16162 16165 16167 16170 16172 16174 16177 16180 16182 16185 16188 16191 16194 16197 16200 16203 16206 16209 16211 16213 16216 16219 16222 16225 16228 16231 16233 16236 16239 16242 16245 16248 16251 16254 16257 16260 16263 16266 16269 16272 16275 16278 16281 16284 16287 16290 16293 16296 16299 16302 16305 16308 16310 16313 16316 16319 16322 16325 16328 16331 16334 16337 16340 16343 16346 16349 16352 16355 16358 16361 16364 16367 16370 16373 16376 16379 16382 16385 16388 16391 16394 16397 16400 16403 16406 16409 16412 16415 16418 16421 16424 16427 16430 16432 16435 16438 16441 16444 16447 16450 16453 16456 16459 16462 16464 16467 16470 16473 16475 16478 16480 16483 16486 16489 16491 16494 16497 16500 16502 16505 16507 16510 16512 16515 16517 16519 16522 16525 16527 16530 16533 16536 16538 16541 16544 16547 16550 16553 16555 16558 16561 16564 16567 16569 16572 16575 16578 16580 16583 16586 16589 16592 16594 16597 16599 16602 16605 16608 16611 16614 16617 16620 16623 16626 16629 16632 16635 16638 16641 16643 16646 16649 16652 16655 16657 16660 16663 16665 16668 16671 16673 16675 16678 16681 16683 16686 16688 16691 16694 16697 16699 16701 16703 16705 16708 16711 16713 16716 16719 16722 16725 16727 16730 16732 16735 16738 16740 16742 16744 16747 16749 16752 16755 16757 16759 16761 16764 16767 16770 16773 16776 16779 16782 16785 16788 16790 16792 16795 16798 16801 16804 16806 16808 16811 16814 16817 16819 16822 16824 16827 16830 16833 16836 16839 16842 16845 16848 16851 16854 16857 16859 16862 16865 16868 16871 16874 16877 16880 16883 16886 16889 16892 16895 16898 16901 16904 16907 16910 16913 16916 16919 16922 16925 16928 16930 16933 16936 16939 16942 16945 16948 16951 16954 16957 16960 16963 16966 16969 16972 16975 16978 16980 16983 16986 16988 16991 16994 16997 17000 17003 17006 17009 17012 17015 17017 17020 17023 17026 17028 17030 17033 17036 17038 17041 17044 17047 17050 17053 17055 17058 17060 17063 17066 17069 17071 17074 17077 17080 17083 17086 17089 17092 17094 17097 17100 17102 17105 17108 17111 17114 17116 17119 17122 17125 17127 17129 17132 17135 17137 17140 17143 17146 17148 17151 17154 17157 17160 17163 17166 17169 17171 17174 17177 17179 17182 17184 17186 17188 17191 17193 17196 17198 17200 17203 17206 17209 17212 17215 17218 17220 17223 17226 17228 17231 17234 17237 17240 17243 17246 17249 17252 17255 17258 17261 17264 17267 17270 17273 17276 17279 17282 17285 17288 17291 17294 17297 17300 17303 17306 17309 17312 17315 17318 17321 17324 17327 17330 17333 17335 17337 17340 17343 17346 17349 17352 17355 17358 17361 17363 17365 17367 17369 17372 17375 17377 17380 17383 17386 17389 17392 17395 17398 17401 17403 17406 17409 17411 17414 17417 17420 17422 17425 17428 17431 17434 17436 17439 17442 17445 17448 17451 17454 17457 17460 17463 17466 17469 17472 17475 17478 17480 17483 17486 17489 17492 17495 17497 17500 17503 17506 17509 17512 17515 17518 17521 17523 17526 17529 17532 17534 17536 17539 17542 17544 17546 17549 17552 17555 17558 17561 17563 17566 17569 17572 17575 17578 17581 17583 17586 17588 17591 17594 17597 17600 17603 17606 17609 17612 17614 17616 17619 17621 17623 17625 17628 17630 17633 17636 17639 17642 17645 17648 17650 17653 17656 17659 17662 17665 17668 17671 17673 17676 17679 17682 17685 17688 17691 17694 17697 17700 17703 17706 17709 17712 17715 17718 17721 17724 17727 17730 17733 17736 17739 17742 17745 17748 17751 17754 17757 17760 17763 17766 17769 17772 17775 17778 17781 17784 17787 17790 17793 17796 17799 17802 17805 17808 17811 17814 17817 17820 17823 17826 17829 17832 17835 17838 17841 17844 17846 17849 17852 17855 17858 17861 17864 17867 17869 17872 17875 17877 17880 17883 17886 17888 17891 17893 17896 17899 17901 17904 17907 17910 17913 17916 17919 17922 17924 17927 17930 17933 17935 17938 17941 17944 17947 17950 17953 17956 17958 17961 17963 17966 17969 17972 17975 17978 17981 17984 17987 17990 17993 17996 17999 18002 18005 18008 18011 18014 18017 18020 18023 18026 18029 18032 18035 18038 18040 18042 18045 18047 18050 18053 18056 18059 18062 18065 18068 18070 18073 18075 18078 18080 18082 18084 18087 18090 18092 18095 18098 18100 18103 18106 18109 18111 18114 18117 18120 18123 18126 18129 18132 18134 18136 18139 18142 18144 18147 18150 18153 18155 18158 18161 18164 18167 18169 18172 18174 18177 18180 18183 18186 18189 18192 18194 18197 18199 18202 18205 18208 18211 18214 18216 18219 18222 18224 18227 18230 18233 18236 18239 18242 18245 18248 18251 18254 18257 18260 18263 18266 18269 18272 18274 18277 18280 18282 18284 18287 18289 18292 18295 18298 18301 18304 18307 18310 18313 18315 18318 18321 18324 18327 18330 18333 18336 18339 18342 18345 18348 18351 18354 18357 18360 18363 18365 18368 18371 18374 18376 18379 18382 18384 18387 18390 18393 18396 18399 18402 18404 18407 18410 18413 18416 18419 18422 18425 18428 18431 18434 18437 18440 18443 18446 18449 18452 18455 18458 18461 18463 18465 18468 18471 18474 18477 18480 18483 18486 18488 18491 18494 18497 18499 18502 18505 18507 18510 18512 18515 18518 18520 18523 18525 18527 18530 18532 18535 18537 18540 18542 18545 18548 18551 18554 18557 18560 18563 18566 18569 18572 18575 18578 18581 18584 18587 18589 18591 18594 18597 18600 18603 18606 18609 18612 18614 18617 18620 18623 18626 18629 18632 18635 18638 18641 18644 18647 18650 18653 18656 18659 18661 18664 18666 18669 18672 18675 18678 18681 18684 18686 18689 18692 18695 18697 18700 18703 18706 18708 18711 18714 18717 18720 18723 18726 18729 18732 18735 18738 18741 18744 18747 18750 18753 18756 18759 18762 18765 18768 18771 18773 18776 18779 18782 18785 18787 18790 18793 18796 18799 18802 18804 18807 18810 18813 18815 18818 18821 18824 18827 18830 18833 18836 18839 18842 18845 18848 18851 18853 18856 18859 18862 18865 18867 18870 18873 18876 18879 18882 18885 18888 18891 18893 18896 18899 18902 18905 18908 18911 18914 18916 18919 18922 18925 18928 18930 18933 18936 18939 18942 18945 18948 18951 18954 18956 18959 18962 18965 18968 18971 18974 18977 18980 18983 18985 18988 18991 18994 18997 19000 19003 19006 19009 19012 19015 19018 19021 19024 19027 19030 19033 19036 19039 19042 19045 19048 19051 19054 19057 19060 19063 19066 19069 19071 19074 19077 19080 19083 19086 19089 19092 19094 19097 19100 19103 19106 19109 19112 19115 19118 19121 19124 19127 19130 19133 19136 19139 19142 19145 19148 19151 19154 19157 19160 19163 19166 19169 19172 19175 19178 19181 19183 19186 19189 19192 19195 19198 19201 19204 19207 19210 19213 19216 19219 19222 19225 19228 19231 19234 19237 19240 19243 19246 19249 19252 19255 19258 19261 19264 19267 19270 19273 19276 19279 19281 19284 19287 19289 19292 19295 19298 19301 19303 19306 19309 19311 19314 19317 19320 19323 19325 19328 19331 19334 19336 19339 19342 19345 19347 19350 19353 19356 19359 19362 19365 19368 19371 19374 19377 19379 19382 19385 19387 19390 19393 19396 19399 19402 19405 19407 19410 19413 19416 19419 19422 19424 19427 19430 19433 19436 19438 19441 19444 19447 19450 19453 19456 19459 19462 19465 19468 19470 19473 19476 19479 19482 19485 19488 19491 19494 19497 19499 19502 19505 19508 19511 19514 19517 19520 19523 19526 19529 19532 19535 19538 19540 19543 19546 19549 19552 19555 19558 19561 19563 19566 19569 19572 19575 19578 19580 19583 19586 19589 19592 19595 19598 19601 19604 19607 19610 19613 19616 19619 19622 19624 19627 19630 19633 19636 19639 19642 19645 19648 19650 19653 19656 19659 19662 19665 19668 19671 19674 19677 19680 19683 19686 19689 19692 19695 19698 19701 19704 19707 19710 19713 19716 19719 19722 19725 19728 19731 19734 19737 19740 19743 19746 19749 19751 19754 19757 19760 19763 19765 19767 19770 19773 19775 19778 19781 19783 19786 19789 19791 19794 19797 19800 19803 19806 19809 19812 19815 19818 19821 19824 19827 19830 19833 19836 19839 19842 19845 19848 19850 19853 19856 19859 19862 19864 19867 19870 19873 19876 19879 19882 19885 19888 19891 19894 19897 19900 19903 19906 19909 19912 19915 19918 19921 19924 19927 19930 19933 19936 19939 19942 19945 19948 19951 19954 19957 19960 19963 19966 19969 19972 19975 19978 19981 19984 19987 19990 19993 19996 19999 20002 20005 20008 20011 20014 20017 20020 20023 20026 20029 20032 20035 20038 20041 20044 20047 20050 20053 20056 20059 20062 20065 20068 20071 20074 20077 20079 20082 20085 20088 20091 20093 20096 20098 20101 20104 20106 20109 20112 20115 20118 20120 20123 20126 20128 20131 20134 20137 20140 20143 20146 20149 20152 20155 20158 20161 20164 20167 20170 20173 20176 20179 20182 20185 20188 20191 20194 20197 20200 20203 20206 20209 20212 20215 20218 20221 20224 20227 20230 20233 20236 20239 20242 20245 20248 20251 20254 20257 20260 20263 20266 20269 20272 20275 20278 20281 20284 20287 20290 20293 20296 20299 20302 20305 20308 20310 20313 20316 20319 20322 20325 20328 20331 20334 20337 20339 20342 20345 20348 20351 20354 20357 20360 20362 20365 20368 20371 20374 20377 20380 20383 20386 20389 20392 20395 20398 20401 20404 20407 20410 20413 20416 20419 20421 20423 20426 20429 20431 20434 20436 20439 20442 20445 20448 20451 20454 20457 20460 20463 20466 20469 20472 20475 20478 20481 20484 20487 20490 20493 20496 20499 20502 20505 20508 20511 20514 20517 20520 20523 20526 20529 20532 20535 20538 20541 20544 20547 20550 20553 20556 20559 20562 20565 20568 20571 20574 20577 20580 20583 20586 20589 20592 20595 20598 20601 20603 20605 20608 20611 20614 20617 20620 20623 20626 20629 20632 20635 20638 20641 20644 20647 20650 20653 20656 20659 20662 20665 20667 20670 20673 20676 20679 20682 20685 20688 20691 20694 20697 20699 20702 20705 20708 20710 20713 20716 20719 20722 20725 20728 20730 20733 20736 20739 20742 20745 20748 20751 20754 20757 20760 20763 20766 20769 20771 20774 20777 20780 20783 20786 20789 20791 20793 20796 20798 20801 20804 20806 20809 20812 20815 20817 20820 20823 20826 20828 20831 20834 20837 20840 20843 20845 20848 20850 20853 20856 20859 20862 20864 20867 20870 20873 20876 20878 20881 20883 20886 20889 20891 20893 20896 20899 20902 20905 20908 20910 20913 20916 20919 20922 20925 20927 20929 20931 20934 20936 20939 20941 20944 20947 20950 20953 20956 20958 20961 20964 20967 20970 20973 20976 20979 20982 20984 20986 20989 20992 20994 20997 21000 21003 21006 21008 21011 21014 21016 21019 21022 21024 21027 21030 21033 21036 21039 21042 21045 21048 21051 21053 21056 21059 21062 21065 21068 21071 21074 21077 21079 21082 21085 21088 21091 21094 21097 21100 21103 21106 21108 21110 21113 21116 21119 21122 21125 21128 21131 21134 21137 21140 21143 21146 21149 21152 21155 21158 21161 21164 21167 21170 21173 21176 21179 21182 21185 21188 21191 21194 21197 21200 21203 21206 21209 21212 21215 21217 21220 21223 21226 21229 21231 21234 21237 21240 21243 21246 21249 21252 21255 21258 21261 21264 21267 21270 21273 21276 21279 21281 21283 21286 21289 21292 21295 21298 21301 21304 21307 21310 21312 21315 21318 21321 21324 21326 21329 21332 21334 21337 21340 21343 21346 21349 21352 21355 21358 21361 21364 21367 21370 21373 21375 21378 21381 21384 21387 21390 21393 21396 21399 21402 21405 21408 21411 21414 21417 21420 21423 21426 21429 21432 21435 21438 21441 21444 21447 21450 21452 21455 21458 21461 21464 21467 21469 21472 21475 21478 21480 21483 21486 21489 21491 21493 21496 21499 21502 21505 21508 21511 21514 21517 21520 21523 21526 21529 21532 21535 21537 21540 21543 21546 21548 21551 21554 21557 21560 21562 21564 21567 21570 21573 21576 21579 21582 21585 21588 21591 21594 21597 21600 21603 21606 21609 21612 21615 21618 21621 21624 21627 21630 21633 21635 21638 21641 21644 21647 21650 21653 21656 21659 21662 21664 21667 21670 21673 21676 21678 21681 21683 21686 21689 21692 21695 21697 21700 21703 21706 21709 21712 21715 21718 21721 21724 21727 21730 21733 21736 21739 21742 21744 21747 21750 21752 21755 21758 21761 21764 21767 21770 21773 21776 21779 21782 21784 21786 21789 21792 21795 21798 21800 21803 21806 21809 21811 21814 21817 21820 21823 21825 21827 21830 21832 21835 21837 21840 21842 21845 21848 21850 21853 21856 21858 21861 21864 21866 21869 21872 21875 21877 21880 21883 21885 21888 21890 21893 21895 21898 21901 21903 21906 21909 21912 21915 21918 21921 21924 21927 21930 21933 21936 21939 21942 21944 21947 21950 21953 21956 21959 21962 21965 21968 21971 21974 21977 21980 21983 21986 21989 21992 21994 21996 21999 22002 22005 22008 22011 22013 22016 22019 22022 22025 22027 22030 22033 22035 22038 22041 22044 22047 22049 22052 22055 22058 22061 22064 22067 22070 22073 22076 22079 22082 22085 22088 22091 22094 22097 22100 22103 22106 22109 22112 22115 22118 22121 22124 22127 22130 22133 22136 22139 22142 22145 22148 22151 22154 22157 22160 22163 22165 22168 22171 22174 22177 22180 22183 22186 22189 22192 22195 22198 22201 22204 22206 22209 22211 22214 22217 22220 22223 22225 22228 22231 22234 22237 22240 22243 22246 22249 22252 22255 22258 22261 22264 22267 22270 22273 22276 22279 22281 22284 22286 22289 22292 22294 22297 22300 22303 22305 22308 22311 22314 22317 22320 22323 22326 22329 22332 22335 22338 22341 22344 22347 22350 22353 22356 22359 22362 22365 22368 22371 22374 22377 22380 22383 22386 22388 22391 22394 22396 22399 22402 22405 22408 22411 22414 22417 22420 22423 22426 22429 22432 22435 22438 22441 22444 22447 22450 22453 22456 22459 22462 22465 22468 22471 22474 22477 22480 22483 22486 22489 22492 22495 22498 22501 22503 22506 22508 22511 22514 22517 22520 22523 22526 22529 22532 22535 22538 22541 22544 22547 22550 22553 22556 22559 22561 22563 22566 22569 22572 22575 22578 22580 22583 22586 22589 22592 22594 22597 22600 22603 22606 22608 22611 22614 22617 22620 22623 22626 22629 22632 22635 22638 22641 22644 22647 22650 22653 22656 22659 22662 22664 22667 22670 22673 22676 22679 22682 22684 22687 22690 22692 22695 22698 22701 22704 22707 22710 22713 22716 22719 22722 22725 22728 22730 22733 22736 22738 22741 22744 22747 22750 22753 22756 22759 22762 22764 22767 22770 22773 22776 22779 22782 22784 22787 22790 22792 22795 22798 22801 22804 22807 22810 22813 22816 22819 22822 22825 22828 22831 22834 22837 22840 22843 22846 22849 22852 22855 22858 22861 22864 22867 22870 22873 22876 22879 22882 22885 22888 22891 22894 22897 22900 22902 22905 22908 22911 22913 22916 22919 22921 22924 22927 22930 22933 22936 22939 22941 22944 22947 22950 22953 22956 22958 22961 22964 22967 22970 22973 22976 22978 22981 22984 22987 22990 22992 22995 22997 23000 23003 23005 23008 23011 23014 23016 23019 23022 23025 23028 23031 23034 23037 23040 23043 23046 23049 23052 23055 23057 23060 23063 23066 23069 23072 23075 23078 23081 23084 23087 23090 23093 23096 23099 23102 23105 23108 23111 23114 23117 23120 23123 23126 23129 23131 23134 23136 23139 23141 23144 23146 23149 23152 23155 23158 23160 23163 23166 23169 23172 23174 23177 23180 23183 23186 23189 23192 23195 23198 23201 23204 23207 23210 23213 23216 23218 23221 23224 23227 23229 23232 23235 23238 23240 23243 23246 23248 23251 23254 23257 23259 23262 23265 23268 23271 23273 23276 23279 23282 23285 23287 23290 23293 23296 23299 23302 23305 23308 23311 23314 23317 23319 23322 23325 23328 23331 23334 23336 23339 23341 23344 23347 23350 23353 23356 23358 23360 23363 23366 23368 23371 23373 23376 23379 23381 23384 23387 23390 23393 23396 23399 23402 23405 23408 23411 23414 23417 23420 23422 23425 23428 23431 23434 23437 23439 23442 23445 23448 23451 23454 23457 23460 23463 23466 23469 23471 23474 23476 23479 23482 23484 23487 23490 23492 23495 23497 23500 23502 23505 23508 23511 23514 23517 23519 23521 23524 23527 23530 23533 23536 23539 23542 23545 23548 23551 23554 23556 23559 23562 23565 23568 23571 23573 23576 23579 23582 23584 23587 23589 23592 23595 23598 23601 23604 23607 23610 23613 23616 23619 23622 23625 23628 23631 23634 23636 23639 23642 23645 23648 23650 23653 23656 23659 23662 23665 23668 23671 23674 23677 23680 23683 23686 23689 23692 23695 23698 23701 23704 23707 23710 23713 23716 23719 23721 23724 23727 23729 23732 23735 23738 23741 23744 23747 23750 23752 23755 23758 23760 23763 23765 23768 23771 23774 23777 23780 23783 23786 23789 23792 23794 23797 23800 23802 23805 23808 23811 23813 23816 23819 23822 23825 23828 23831 23834 23836 23839 23842 23845 23848 23850 23852 23855 23858 23861 23864 23867 23870 23873 23876 23879 23881 23884 23887 23890 23893 23896 23899 23902 23905 23908 23911 23914 23917 23920 23923 23926 23929 23931 23934 23936 23939 23942 23945 23947 23950 23953 23956 23959 23962 23965 23968 23971 23974 23977 23980 23983 23986 23988 23991 23994 23997 24000 24003 24005 24008 24011 24014 24016 24018 24021 24024 24027 24029 24032 24035 24037 24040 24043 24046 24049 24051 24053 24056 24059 24062 24064 24067 24070 24072 24075 24078 24081 24084 24086 24089 24091 24094 24097 24100 24102 24105 24108 24111 24114 24117 24120 24123 24126 24129 24132 24135 24138 24141 24144 24147 24150 24153 24156 24159 24162 24165 24167 24170 24173 24176 24179 24182 24185 24188 24191 24194 24196 24199 24202 24205 24207 24210 24212 24215 24218 24221 24224 24227 24230 24233 24236 24239 24242 24245 24247 24250 24253 24256 24259 24262 24264 24267 24270 24273 24276 24279 24281 24284 24287 24290 24293 24296 24299 24302 24305 24308 24311 24314 24317 24320 24323 24326 24329 24331 24334 24337 24340 24343 24346 24349 24352 24355 24358 24360 24363 24366 24369 24372 24375 24378 24381 24384 24387 24390 24393 24396 24399 24402 24405 24407 24410 24413 24416 24419 24422 24425 24428 24431 24434 24437 24440 24443 24446 24449 24452 24455 24458 24461 24464 24467 24470 24473 24476 24479 24482 24485 24488 24491 24494 24496 24499 24502 24505 24508 24510 24513 24515 24517 24520 24523 24526 24529 24532 24535 24537 24540 24542 24545 24548 24551 24553 24556 24559 24561 24564 24567 24570 24573 24576 24579 24581 24584 24587 24590 24593 24596 24599 24602 24604 24607 24610 24613 24616 24618 24621 24624 24627 24630 24633 24636 24638 24641 24644 24647 24650 24653 24656 24659 24662 24665 24668 24671 24674 24676 24679 24681 24684 24687 24690 24693 24696 24699 24702 24704 24706 24709 24712 24715 24718 24721 24724 24727 24730 24732 24735 24738 24741 24743 24746 24749 24751 24754 24757 24760 24763 24766 24769 24772 24775 24778 24781 24784 24787 24790 24793 24796 24799 24802 24805 24808 24811 24814 24817 24820 24823 24826 24828 24831 24834 24836 24839 24842 24845 24848 24851 24853 24856 24859 24861 24864 24866 24869 24872 24875 24877 24880 24883 24886 24889 24891 24894 24897 24899 24901 24904 24907 24910 24913 24916 24918 24921 24924 24926 24929 24932 24935 24938 24941 24943 24946 24949 24952 24955 24958 24961 24964 24967 24970 24972 24975 24978 24981 24984 24986 24989 24992 24995 24998 25001 25004 25006 25009 25011 25014 25017 25020 25022 25025 25027 25030 25033 25035 25038 25040 25043 25046 25049 25051 25054 25057 25060 25063 25066 25069 25072 25075 25078 25081 25084 25087 25090 25092 25095 25098 25101 25104 25106 25109 25112 25115 25118 25121 25124 25126 25129 25132 25135 25138 25141 25144 25147 25149 25152 25155 25158 25161 25164 25167 25169 25172 25175 25178 25181 25184 25187 25190 25192 25195 25198 25200 25203 25206 25209 25212 25215 25218 25221 25224 25227 25229 25231 25234 25237 25240 25243 25246 25249 25252 25255 25258 25261 25264 25267 25269 25272 25275 25278 25281 25284 25287 25290 25292 25295 25298 25301 25303 25306 25308 25311 25314 25316 25319 25322 25325 25328 25331 25333 25336 25339 25342 25344 25347 25350 25353 25356 25358 25361 25364 25367 25369 25372 25375 25378 25381 25384 25387 25390 25392 25395 25398 25400 25403 25406 25409 25411 25414 25417 25420 25422 25425 25428 25431 25434 25436 25439 25442 25445 25447 25450 25453 25456 25459 25462 25465 25468 25471 25474 25476 25479 25482 25485 25488 25491 25494 25497 25500 25503 25505 25508 25511 25514 25517 25519 25522 25525 25527 25530 25533 25536 25539 25542 25545 25548 25551 25554 25557 25560 25563 25566 25569 25572 25575 25578 25581 25584 25587 25590 25593 25596 25599 25602 25605 25607 25610 25613 25616 25619 25622 25625 25628 25631 25634 25637 25640 25642 25645 25648 25651 25653 25656 25659 25662 25665 25668 25671 25673 25676 25679 25682 25685 25688 25691 25694 25697 25700 25703 25706 25709 25712 25715 25718 25721 25724 25727 25730 25733 25736 25739 25742 25745 25748 25751 25753 25756 25758 25761 25764 25766 25768 25771 25774 25777 25780 25783 25786 25789 25792 25795 25798 25801 25804 25807 25810 25813 25816 25819 25821 25824 25827 25830 25833 25836 25839 25842 25845 25848 25851 25854 25857 25860 25863 25866 25869 25872 25875 25878 25881 25884 25887 25890 25893 25896 25899 25902 25905 25908 25911 25914 25917 25920 25923 25926 25929 25932 25935 25938 25941 25944 25947 25950 25953 25956 25959 25962 25965 25968 25971 25974 25977 25980 25983 25986 25989 25992 25995 25998 26001 26004 26006 26009 26012 26014 26017 26020 26023 26026 26028 26031 26034 26037 26040 26043 26046 26049 26052 26055 26058 26060 26063 26065 26068 26071 26074 26076 26079 26082 26085 26087 26090 26092 26095 26098 26101 26103 26106 26108 26111 26113 26116 26119 26122 26124 26127 26130 26133 26136 26138 26141 26143 26146 26149 26152 26155 26158 26160 26163 26165 26167 26170 26173 26176 26179 26182 26185 26187 26190 26193 26196 26198 26201 26204 26207 26210 26213 26216 26219 26222 26225 26228 26231 26234 26237 26240 26243 26246 26249 26252 26255 26257 26260 26263 26266 26268 26270 26273 26276 26279 26282 26285 26287 26290 26293 26296 26299 26302 26305 26308 26311 26314 26317 26320 26323 26326 26329 26331 26334 26337 26339 26342 26344 26347 26350 26353 26355 26358 26360 26363 26366 26368 26371 26374 26377 26380 26383 26386 26389 26392 26395 26398 26401 26403 26406 26409 26412 26415 26418 26421 26424 26427 26430 26433 26435 26437 26440 26443 26446 26449 26452 26455 26458 26460 26463 26466 26469 26472 26475 26478 26481 26484 26487 26490 26493 26496 26499 26502 26504 26507 26510 26513 26516 26519 26522 26525 26528 26531 26534 26536 26539 26542 26545 26547 26550 26552 26554 26557 26560 26563 26566 26569 26572 26575 26578 26580 26583 26586 26589 26592 26595 26598 26601 26604 26607 26609 26612 26614 26617 26619 26622 26625 26628 26631 26634 26637 26640 26643 26645 26648 26650 26653 26656 26659 26662 26665 26668 26670 26673 26676 26678 26681 26683 26686 26689 26692 26695 26698 26701 26704 26707 26710 26713 26716 26719 26722 26725 26727 26730 26733 26736 26739 26742 26745 26748 26751 26754 26757 26759 26762 26765 26768 26771 26774 26777 26779 26782 26785 26788 26791 26794 26797 26800 26803 26806 26809 26812 26815 26818 26821 26824 26827 26830 26833 26836 26839 26842 26845 26848 26851 26854 26856 26859 26862 26865 26868 26871 26873 26876 26879 26882 26885 26888 26891 26894 26897 26900 26903 26906 26908 26911 26914 26917 26920 26922 26925 26928 26931 26934 26937 26939 26942 26945 26948 26951 26954 26956 26959 26962 26964 26967 26970 26973 26976 26979 26982 26985 26988 26991 26994 26997 27000 27003 27006 27009 27012 27015 27018 27021 27024 27027 27030 27033 27036 27039 27042 27044 27047 27050 27052 27055 27058 27061 27064 27067 27070 27073 27076 27079 27082 27085 27088 27091 27094 27097 27099 27102 27105 27108 27111 27114 27117 27120 27123 27126 27128 27131 27134 27137 27140 27143 27146 27149 27151 27154 27157 27160 27163 27166 27168 27171 27174 27177 27180 27183 27186 27188 27191 27194 27197 27200 27202 27205 27208 27211 27214 27217 27220 27223 27225 27228 27231 27233 27236 27239 27241 27244 27247 27250 27253 27255 27258 27261 27264 27267 27270 27273 27276 27279 27281 27284 27287 27289 27292 27295 27298 27301 27304 27307 27310 27313 27316 27318 27321 27324 27327 27330 27333 27335 27338 27341 27344 27347 27349 27352 27355 27358 27360 27363 27366 27369 27372 27375 27378 27381 27384 27387 27390 27393 27395 27397 27400 27403 27406 27409 27412 27415 27418 27421 27424 27427 27430 27432 27435 27438 27441 27444 27447 27449 27452 27454 27456 27459 27461 27463 27466 27469 27471 27474 27477 27480 27483 27486 27489 27491 27494 27496 27498 27501 27504 27507 27510 27513 27515 27518 27521 27524 27527 27530 27533 27536 27539 27541 27544 27547 27550 27553 27555 27558 27561 27564 27567 27570 27572 27575 27578 27580 27583 27586 27589 27592 27595 27598 27601 27603 27606 27608 27611 27614 27617 27620 27623 27626 27629 27631 27633 27636 27639 27642 27645 27648 27651 27654 27656 27659 27662 27665 27668 27671 27674 27676 27679 27682 27685 27688 27691 27694 27697 27700 27703 27706 27709 27712 27715 27718 27720 27723 27726 27728 27731 27734 27737 27740 27742 27745 27748 27751 27754 27756 27759 27762 27765 27768 27771 27774 27776 27779 27782 27785 27788 27791 27794 27797 27799 27802 27805 27808 27810 27813 27816 27819 27822 27824 27827 27830 27832 27835 27838 27841 27844 27847 27850 27853 27855 27858 27861 27864 27867 27869 27872 27874 27877 27880 27883 27886 27889 27892 27895 27898 27901 27904 27907 27910 27913 27916 27918 27921 27924 27927 27930 27933 27936 27939 27941 27944 27947 27949 27952 27955 27957 27960 27963 27966 27969 27972 27975 27978 27981 27984 27986 27989 27992 27995 27997 28000 28003 28006 28009 28012 28015 28018 28021 28024 28026 28029 28032 28035 28038 28041 28044 28047 28050 28053 28056 28059 28061 28064 28067 28070 28072 28075 28078 28081 28084 28087 28090 28093 28096 28099 28102 28105 28107 28110 28113 28116 28119 28122 28125 28128 28131 28134 28137 28139 28142 28145 28148 28151 28154 28156 28159 28162 28165 28168 28171 28174 28177 28180 28182 28185 28188 28190 28193 28196 28198 28201 28204 28207 28210 28212 28214 28217 28220 28223 28226 28228 28231 28234 28237 28240 28242 28245 28248 28250 28253 28256 28259 28262 28264 28267 28270 28272 28275 28278 28281 28284 28287 28289 28292 28295 28298 28301 28304 28307 28310 28313 28315 28318 28320 28323 28326 28329 28332 28335 28338 28341 28344 28347 28349 28351 28354 28357 28360 28363 28366 28369 28371 28374 28377 28379 28382 28385 28387 28390 28392 28395 28398 28401 28403 28406 28409 28411 28414 28417 28420 28423 28426 28429 28432 28435 28437 28439 28442 28445 28447 28449 28452 28455 28458 28461 28463 28466 28469 28472 28474 28477 28479 28482 28484 28486 28488 28491 28493 28496 28499 28502 28504 28507 28510 28513 28516 28519 28522 28525 28528 28531 28533 28536 28539 28541 28544 28547 28550 28553 28556 28559 28561 28564 28567 28570 28573 28576 28579 28581 28583 28585 28588 28591 28594 28597 28600 28603 28606 28609 28612 28615 28618 28620 28623 28626 28629 28632 28634 28637 28640 28643 28646 28649 28652 28655 28658 28660 28663 28666 28668 28671 28674 28677 28679 28682 28685 28688 28691 28694 28697 28700 28703 28706 28708 28711 28714 28717 28720 28723 28726 28729 28732 28734 28737 28740 28743 28745 28748 28751 28753 28756 28759 28762 28764 28767 28769 28772 28775 28777 28780 28782 28785 28788 28790 28793 28796 28799 28802 28805 28808 28810 28813 28816 28818 28821 28824 28827 28830 28833 28836 28839 28842 28845 28848 28851 28854 28857 28860 28863 28866 28869 28872 28875 28878 28881 28884 28887 28890 28893 28896 28899 28902 28905 28908 28911 28914 28917 28920 28923 28926 28929 28932 28935 28938 28941 28944 28947 28950 28953 28956 28959 28962 28965 28968 28971 28974 28977 28980 28983 28986 28989 28992 28995 28998 29001 29004 29007 29010 29013 29016 29019 29022 29025 29028 29031 29034 29037 29040 29043 29046 29049 29052 29055 29058 29061 29064 29067 29070 29073 29076 29079 29082 29085 29088 29091 29094 29097 29100 29103 29106 29108 29111 29114 29117 29120 29122 29125 29128 29131 29134 29137 29140 29143 29146 29149 29152 29155 29158 29160 29162 29165 29168 29171 29174 29177 29180 29183 29186 29189 29192 29195 29198 29201 29204 29207 29209 29212 29215 29218 29220 29223 29226 29229 29232 29235 29238 29241 29244 29247 29250 29252 29255 29257 29260 29263 29266 29269 29272 29275 29278 29281 29284 29287 29290 29293 29296 29299 29302 29305 29308 29311 29314 29317 29320 29323 29326 29329 29331 29334 29337 29340 29343 29345 29348 29351 29354 29357 29360 29363 29366 29369 29371 29374 29377 29380 29383 29386 29389 29392 29395 29398 29401 29404 29407 29410 29413 29416 29419 29422 29425 29428 29431 29434 29437 29440 29443 29446 29449 29452 29455 29458 29461 29464 29467 29470 29473 29476 29479 29482 29485 29488 29491 29494 29497 29500 29503 29506 29509 29512 29515 29518 29520 29523 29526 29529 29532 29535 29538 29541 29544 29547 29550 29553 29556 29559 29562 29565 29568 29571 29574 29577 29580 29583 29586 29589 29592 29595 29598 29601 29604 29607 29610 29613 29616 29618 29621 29624 29627 29630 29633 29636 29638 29641 29644 29647 29650 29653 29656 29658 29661 29664 29666 29669 29671 29674 29676 29679 29682 29685 29688 29690 29693 29696 29699 29702 29705 29707 29710 29713 29716 29718 29720 29723 29726 29729 29731 29734 29737 29740 29743 29745 29747 29750 29753 29756 29759 29762 29765 29768 29771 29774 29777 29780 29783 29786 29789 29791 29794 29797 29799 29802 29805 29807 29809 29812 29815 29818 29821 29824 29827 29830 29833 29836 29839 29841 29844 29846 29849 29852 29855 29858 29861 29864 29867 29870 29873 29876 29879 29881 29884 29887 29890 29893 29896 29899 29902 29904 29907 29910 29913 29916 29919 29922 29925 29928 29931 29934 29937 29940 29943 29946 29949 29952 29955 29958 29960 29962 29965 29968 29971 29974 29977 29980 29983 29986 29989 29992 29995 29998 30001 30004 30007 30010 30013 30015 30018 30021 30024 30027 30030 30033 30036 30039 30042 30044 30047 30050 30053 30056 30059 30062 30065 30068 30071 30074 30077 30080 30082 30085 30088 30091 30094 30096 30099 30101 30104 30107 30110 30113 30116 30119 30122 30125 30128 30130 30133 30136 30139 30142 30144 30147 30150 30153 30156 30158 30161 30163 30166 30169 30172 30175 30178 30181 30184 30187 30190 30193 30196 30199 30201 30204 30207 30210 30213 30216 30219 30222 30225 30228 30231 30234 30237 30240 30243 30246 30248 30251 30253 30256 30259 30261 30264 30267 30270 30272 30275 30277 30280 30283 30285 30288 30291 30293 30296 30298 30301 30304 30307 30310 30313 30316 30319 30321 30323 30326 30329 30332 30335 30337 30339 30342 30345 30347 30349 30352 30354 30357 30360 30362 30364 30367 30370 30372 30375 30378 30380 30383 30386 30389 30392 30395 30398 30401 30404 30406 30409 30412 30414 30417 30419 30422 30425 30428 30430 30433 30436 30439 30442 30445 30448 30451 30454 30456 30459 30462 30465 30468 30471 30474 30477 30480 30483 30486 30489 30492 30495 30498 30501 30504 30507 30510 30513 30516 30519 30522 30524 30527 30530 30533 30536 30539 30542 30545 30548 30551 30554 30557 30560 30563 30566 30569 30572 30575 30578 
</DataArray>
<DataArray type="UInt32" Name="types" format="ascii">
5 5 5 5 5 5 3 5 5 5 3 5 5 5 3 5 5 5 5 5 5 3 3 5 5 5 5 3 3 5 3 3 5 3 5 5 5 3 5 5 3 5 5 5 5 5 5 5 3 5 5 5 5 5 5 5 5 3 5 5 3 5 3 5 3 5 3 5 5 5 5 5 5 5 5 5 5 5 5 5 5 5 5 3 5 5 5 5 5 5 5 5 3 5 5 3 3 5 5 5 5 5 5 5 5 5 5 5 5 3 5 5 5 5 5 3 5 5 3 5 5 5 5 5 5 5 5 5 5 5 5 5 5 5 5 5 5 5 3 5 5 5 5 5 3 5 5 5 5 5 5 5 5 5 5 5 5 5 5 5 5 5 5 5 5 5 5 5 5 3 5 3 5 5 5 3 5 5 5 3 5 5 5 3 3 5 5 3 5 5 5 5 3 5 5 5 5 5 3 5 5 5 5 3 5 3 5 5 3 5 5 5 3 5 5 3 5 5 5 5 5 5 5 5 5 5 3 5 5 3 5 5 5 5 5 5 5 3 5 5 5 5 5 5 5 5 5 5 5 5 5 5 5 5 5 5 5 5 5 3 5 3 5 5 5 5 5 3 5 5 5 5 5 5 5 5 3 5 5 5 3 5 5 3 5 5 5 5 3 5 5 3 5 5 5 5 5 3 5 3 5 5 5 5 5 5 5 5 5 5 5 5 5 5 5 5 5 5 3 5 5 5 5 5 3 3 5 5 5 5 5 5 5 5 5 5 3 5 5 5 5 5 5 5 5 5 3 5 5 3 3 5 5 5 3 5 5 3 5 5 5 5 5 5 5 5 5 5 5 5 5 5 5 3 5 5 5 5 5 5 5 5 3 5 5 3 5 5 5 5 3 5 5 5 5 5 5 5 5 5 5 5 5 5 5 3 3 5 5 3 3 5 3 5 3 5 3 5 5 3 5 5 5 5 5 5 5 5 5 3 3 5 5 3 5 5 5 5 5 3 5 5 3 5 5 5 5 3 5 5 5 3 5 5 5 3 5 3 5 5 3 5 5 5 5 5 5 5 5 5 5 5 3 5 5 5 5 5 5 3 5 5 5 3 5 5 5 5 5 5 5 3 5 5 5 5 5 3 5 3 5 5 5 5 5 3 3 5 5 5 3 3 5 3 5 5 5 5 5 5 5 3 5 5 5 5 5 5 5 5 5 5 5 5 5 5 3 5 5 3 5 3 5 5 5 5 5 5 5 5 5 5 5 5 5 5 3 5 5 5 5 5 5 5 5 5 5 5 5 5 5 5 5 3 5 5 5 5 5 5 5 5 5 5 5 3 3 5 5 5 5 5 5 5 5 5 5 5 5 5 5 5 5 3 5 5 5 5 5 5 5 3 5 5 5 5 5 5 5 5 3 5 5 5 3 5 5 5 5 5 5 5 5 5 5 5 5 5 5 5 5 5 5 5 5 5 5 5 5 5 5 5 5 3 5 3 5 5 5 5 5 5 5 5 5 5 5 5 5 3 5 5 5 3 5 5 5 5 5 5 5 5 5 5 5 5 5 3 3 5 5 5 5 5 5 5 3 5 5 5 5 5 5 5 5 5 5 5 3 5 5 5 5 5 5 5 3 5 5 5 5 5 5 5 5 5 5 5 5 5 5 5 5 5 3 5 5 5 5 5 5 5 5 5 5 3 5 5 5 5 5 3 5 5 5 3 5 5 5 5 3 5 5 5 5 5 5 5 3 5 3 5 5 3 5 3 5 5 5 5 5 5 5 5 5 5 5 5 5 5 5 5 5 5 5 5 5 5 5 5 5 5 5 5 5 5 5 5 5 5 5 3 5 3 3 5 5 5 5 5 5 5 5 5 5 5 3 5 5 5 5 5 5 5 3 5 3 5 3 5 5 5 5 5 5 3 5 3 3 5 5 5 5 5 5 5 5 5 5 5 5 5 5 5 5 5 3 5 5 5 5 5 5 5 5 5 5 5 5 5 5 3 5 5 5 5 5 5 5 5 5 5 5 5 5 3 5 5 5 5 5 5 5 5 5 3 5 5 5 5 5 3 3 5 5 5 5 3 3 5 5 5 5 5 5 5 5 5 5 5 3 5 5 5 5 3 5 5 5 5 5 5 3 5 5 3 5 3 5 5 5 3 5 5 5 5 5 5 5 3 5 5 5 5 3 3 5 5 3 5 5 5 3 3 3 3 5 5 3 5 5 5 5 5 5 5 5 3 3 5 5 5 5 5 5 3 5 3 5 5 5 3 5 5 5 5 5 5 5 5 5 5 5 5 5 5 5 5 5 5 5 5 5 5 5 5 5 5 5 5 3 5 5 5 5 5 5 5 5 5 5 5 5 5 5 5 5 5 5 5 5 5 3 5 5 5 5 5 5 5 5 5 3 5 5 5 5 5 5 3 5 5 5 5 5 3 5 5 5 5 5 3 5 5 5 5 5 5 5 5 5 5 3 5 5 5 5 3 3 5 5 3 5 5 5 5 3 5 5 3 5 5 5 5 5 3 3 5 5 5 5 5 5 3 5 5 5 5 5 5 5 3 3 5 5 5 3 5 5 5 3 5 5 3 5 3 5 5 5 3 5 5 3 3 5 5 5 5 5 5 3 5 3 5 3 5 5 5 3 3 5 3 5 5 5 5 5 5 5 5 5 5 5 5 5 5 5 5 3 5 5 5 5 5 5 5 3 5 5 5 5 5 3 5 5 5 3 5 5 5 5 3 5 3 5 3 5 5 5 5 3 5 5 3 5 5 5 5 5 5 5 5 5 5 5 3 5 5 5 5 3 5 5 5 5 3 5 5 5 5 5 5 3 5 5 5 3 5 3 3 5 5 5 5 5 5 5 5 5 5 5 5 5 5 5 5 5 5 5 5 5 5 5 5 5 5 5 5 3 5 5 3 3 5 3 5 5 5 5 3 5 5 3 5 5 5 5 5 5 5 5 5 5 5 5 5 5 5 5 5 5 5 5 5 5 5 5 5 5 5 5 3 5 5 5 5 5 5 5 5 3 5 5 5 5 5 5 5 3 5 3 5 5 5 3 5 5 5 5 5 5 5 3 5 3 5 5 5 5 5 3 5 5 5 5 5 5 5 5 5 5 5 5 5 5 5 5 5 5 5 5 5 5 5 5 5 5 5 5 5 5 5 5 5 5 5 5 5 5 5 3 3 5 5 3 5 5 5 3 5 5 5 3 3 5 5 3 5 5 5 5 5 5 5 5 5 5 5 5 5 5 5 5 5 5 5 5 5 3 5 3 5 5 5 5 5 5 5 5 5 5 5 5 5 5 5 5 5 5 5 5 5 5 5 5 5 5 5 5 5 5 5 5 5 5 5 5 5 5 5 5 5 5 5 5 5 3 5 3 5 3 5 5 3 5 5 5 5 5 5 5 5 5 5 5 5 5 5 5 5 5 5 5 5 5 5 5 5 5 5 5 3 5 5 5 5 5 5 5 5 5 5 5 5 5 5 5 5 5 5 5 5 5 5 5 5 5 5 5 5 5 5 5 5 5 5 5 5 5 5 5 5 5 5 5 5 5 5 5 5 5 3 5 5 5 5 3 5 5 5 5 5 5 5 5 3 5 5 5 5 5 3 3 3 5 5 5 5 3 3 5 5 3 5 5 5 5 5 5 5 5 5 5 5 5 5 5 3 3 5 3 5 5 5 5 5 5 5 5 5 5 5 5 5 5 5 5 5 5 3 5 5 5 5 5 5 3 5 5 5 5 5 5 5 5 5 5 5 5 5 5 5 5 5 5 3 5 5 5 5 5 5 5 5 5 3 5 5 3 5 5 5 5 5 5 5 5 5 5 5 5 5 5 5 5 3 5 3 5 5 5 5 3 5 3 5 5 3 3 5 5 3 5 5 5 3 5 5 5 5 5 5 3 5 5 5 3 5 5 5 5 3 5 5 5 5 5 5 5 3 5 5 5 5 5 3 5 5 3 5 5 5 5 5 5 5 3 5 5 5 3 3 5 5 5 3 5 5 5 5 5 3 3 3 5 5 5 5 5 5 5 5 5 3 3 5 3 5 5 5 5 5 3 5 5 3 5 3 5 5 5 3 5 5 3 5 5 5 5 5 5 5 3 5 5 3 3 5 5 3 5 3 5 5 3 5 5 3 5 3 5 5 5 3 5 5 3 5 3 5 5 3 5 3 5 5 5 5 3 3 5 5 5 5 5 5 5 5 5 3 5 5 5 5 5 5 5 5 5 5 5 5 5 5 5 5 5 5 3 3 5 5 5 3 5 5 5 5 3 5 5 3 5 5 5 3 5 5 3 5 5 5 5 3 5 5 5 5 5 3 5 5 5 3 3 5 5 3 5 5 5 5 5 3 3 5 5 5 5 3 5 5 5 5 3 5 5 5 5 5 5 5 5 5 5 5 5 5 5 5 5 5 5 5 5 5 5 5 5 5 5 5 5 3 5 5 5 5 5 5 5 5 5 5 5 3 5 5 5 5 3 5 5 5 3 5 5 3 5 5 5 5 5 3 5 5 5 5 5 5 5 5 5 5 5 5 5 5 5 5 5 5 5 5 3 5 5 5 5 5 3 5 5 5 5 5 5 5 3 5 5 5 5 5 5 5 5 5 5 5 5 5 3 5 5 5 5 5 3 3 5 5 5 5 3 5 3 5 5 5 3 3 5 5 3 5 5 5 3 5 5 5 5 3 5 5 3 3 5 5 5 5 5 5 3 5 5 3 5 5 5 5 3 5 5 5 5 5 5 5 5 5 5 5 5 5 5 5 5 5 5 5 3 5 3 5 5 5 3 5 3 5 3 5 5 3 5 5 3 3 3 5 5 5 3 5 5 5 5 5 5 3 5 5 5 5 5 5 5 3 5 3 5 5 5 5 5 5 5 3 5 5 5 5 5 5 5 5 5 5 5 3 5 5 3 5 5 5 5 5 5 5 5 5 5 5 5 5 5 5 5 3 5 5 5 5 5 5 5 5 5 5 5 5 5 5 5 5 5 5 5 5 5 3 5 5 5 3 5 5 5 5 5 5 5 5 5 5 3 5 5 5 5 5 5 5 5 5 5 3 5 5 5 5 5 5 3 5 5 5 3 5 5 5 5 5 5 5 5 5 5 5 5 5 5 5 5 5 5 5 5 5 3 5 5 5 5 5 3 5 5 3 5 5 5 5 5 5 3 5 5 5 5 3 5 5 5 5 5 5 5 5 5 5 5 5 5 5 5 5 5 5 3 5 5 5 5 5 3 5 5 5 3 5 3 5 5 5 5 5 5 5 3 5 5 5 3 3 5 5 5 5 5 3 5 5 5 3 5 5 5 5 5 5 5 5 5 5 5 5 5 5 5 3 5 5 5 5 5 5 3 5 5 5 5 5 5 5 5 5 5 5 3 5 5 5 5 5 5 5 5 5 3 5 5 5 5 3 3 5 5 5 5 5 5 5 5 3 3 5 3 5 5 5 5 5 3 5 5 5 5 5 5 3 5 3 5 5 5 5 5 5 5 5 5 5 3 5 5 5 5 5 5 3 5 5 5 5 5 5 5 5 3 5 5 5 5 5 3 5 5 3 5 5 5 5 5 5 3 5 5 5 5 5 5 5 5 3 5 5 5 5 3 5 5 5 5 5 5 5 5 5 5 3 5 5 5 5 5 5 5 5 5 3 5 5 5 5 3 5 5 5 5 5 5 5 5 3 5 3 5 5 5 3 5 5 5 5 5 5 5 5 3 5 5 5 3 5 5 5 3 5 5 3 5 5 5 5 5 5 5 5 5 5 5 5 5 5 5 5 5 5 5 5 5 5 5 5 5 5 5 5 5 5 5 5 5 5 5 5 5 5 5 5 5 5 5 5 5 5 5 5 5 5 5 5 5 3 5 5 5 3 5 5 5 5 5 5 3 5 3 5 5 5 5 3 3 5 5 5 5 5 5 5 5 5 5 5 5 5 5 5 5 5 5 5 5 5 5 3 5 5 3 5 5 5 3 5 5 5 5 5 5 5 5 5 5 5 5 5 5 3 5 3 5 3 5 5 5 5 5 5 5 5 5 5 5 5 5 5 5 5 5 3 5 5 5 5 5 5 5 5 5 5 5 5 5 5 5 5 5 5 5 5 5 5 5 5 5 5 5 5 5 5 5 5 5 3 5 5 5 5 5 5 3 5 5 3 5 3 5 5 3 5 5 5 3 5 5 5 5 5 5 5 5 5 5 5 5 5 5 5 5 5 5 5 5 5 5 5 5 5 3 5 5 5 5 3 5 5 3 5 5 5 5 5 5 5 5 5 5 5 5 5 5 5 5 5 5 5 5 5 5 5 5 5 5 5 5 5 5 3 5 5 5 3 5 5 5 5 3 5 5 5 5 5 3 5 5 5 5 3 5 5 5 5 5 5 5 5 5 5 5 5 5 5 3 3 5 3 5 3 5 5 5 5 5 5 5 5 5 5 5 5 5 5 5 5 5 5 5 5 5 5 5 5 5 3 3 5 5 3 5 5 3 5 5 5 5 5 5 5 5 5 5 5 3 5 5 3 5 5 5 5 5 5 5 5 5 5 5 5 5 5 3 3 5 3 3 5 5 5 5 3 5 5 5 3 3 5 5 5 5 5 5 5 3 5 5 5 5 5 5 5 5 5 5 5 5 5 5 5 5 3 5 5 5 5 3 5 5 5 5 5 5 5 3 5 5 5 5 5 5 5 3 5 5 3 5 5 5 5 5 5 5 5 5 5 5 5 5 5 5 3 5 5 5 5 5 5 5 5 3 5 5 5 5 5 5 5 3 5 5 5 5 5 3 5 5 5 5 3 5 5 5 5 5 5 5 5 5 5 5 5 3 5 5 5 5 5 5 5 5 5 5 5 5 5 5 3 5 5 5 5 5 5 5 5 5 5 5 5 5 3 3 5 5 3 5 5 5 5 3 5 5 5 3 5 5 3 5 5 5 5 3 5 5 5 5 5 5 5 5 5 5 5 5 5 5 5 5 5 5 5 5 5 5 5 5 5 5 5 5 5 5 5 5 5 5 3 5 5 5 3 5 3 5 5 5 5 5 5 5 5 5 5 5 5 5 5 3 5 5 5 5 5 5 5 5 3 5 5 5 3 5 5 5 5 5 5 5 3 5 3 5 5 5 5 5 5 5 5 5 5 5 5 5 5 3 5 5 3 5 5 5 5 5 5 5 3 5 5 5 5 5 5 5 5 5 5 5 5 5 5 5 5 5 5 5 5 5 5 5 5 5 5 5 3 5 5 3 5 5 5 3 5 5 3 5 5 5 5 5 5 5 5 5 5 5 5 5 5 5 5 5 5 5 3 5 5 5 5 5 5 5 5 5 5 5 5 5 3 5 5 5 5 5 5 5 5 5 5 5 5 5 5 5 5 5 5 5 3 5 5 5 5 5 5 5 5 5 5 5 5 5 5 5 5 3 5 5 3 5 5 5 3 5 5 3 5 5 5 5 5 5 5 5 5 5 5 5 5 5 3 5 5 3 5 5 5 5 5 5 5 5 5 5 5 5 5 5 5 5 5 5 5 5 5 5 5 5 5 5 5 5 5 5 5 5 5 5 5 5 3 5 5 5 5 3 5 5 5 5 5 5 5 5 5 5 5 5 5 5 5 3 5 3 3 5 5 3 5 3 5 5 5 5 5 5 5 5 3 5 5 3 5 5 5 5 3 3 5 3 5 5 5 5 5 5 5 5 5 5 5 5 5 5 5 5 5 5 5 5 5 3 5 5 5 5 5 5 5 5 5 5 5 5 5 5 5 5 5 5 5 5 5 5 5 5 5 3 5 5 5 5 5 3 5 5 5 5 5 5 5 5 5 3 5 5 5 5 5 5 5 5 5 5 5 5 5 5 5 5 5 3 3 5 5 3 5 5 5 3 5 5 5 5 5 5 5 5 5 5 3 5 5 3 5 3 5 5 5 5 3 5 5 5 3 5 5 5 5 5 5 3 5 5 5 5 5 5 3 5 5 5 5 5 5 5 5 5 5 5 5 5 5 3 5 5 3 5 5 5 3 3 5 5 5 5 5 5 5 5 5 5 3 5 5 5 3 5 5 5 5 3 5 5 5 5 5 5 5 5 3 5 5 5 5 5 3 3 5 5 5 3 5 3 3 5 5 5 5 5 3 5 5 5 5 5 5 3 5 5 5 5 5 5 5 3 5 5 3 5 5 3 5 5 5 5 5 5 5 5 5 5 5 5 5 5 3 5 5 5 3 5 5 3 5 5 5 5 3 5 5 5 5 5 5 5 5 3 5 5 5 5 3 5 5 5 5 5 5 5 5 3 5 5 5 5 5 5 5 5 5 3 5 5 5 3 5 5 3 5 5 3 5 5 5 5 5 5 5 5 5 3 5 5 5 5 5 5 5 5 5 5 5 5 5 5 5 5 3 5 5 5 5 5 5 5 5 5 5 5 5 5 5 5 5 5 5 5 5 5 5 5 5 5 5 3 5 3 5 5 5 5 5 5 5 5 5 5 3 5 5 3 5 5 5 5 5 5 5 5 5 5 5 5 5 5 5 5 5 5 5 5 5 3 5 5 5 5 5 5 5 5 5 3 5 3 5 5 5 5 5 5 5 3 5 3 5 5 5 5 5 5 5 5 5 5 5 3 5 5 5 5 3 5 3 5 5 5 5 5 5 3 5 5 3 5 5 3 5 5 5 3 3 3 5 5 5 5 5 5 5 5 5 5 5 5 5 3 5 5 5 5 5 5 5 3 5 3 5 3 5 5 3 3 5 5 5 5 5 5 3 5 5 5 5 3 5 3 5 3 5 3 5 5 5 5 3 5 5 5 5 5 3 5 5 5 5 5 5 5 5 5 5 5 5 5 5 3 5 5 5 5 5 3 5 5 5 3 5 5 5 5 5 5 5 5 5 5 5 5 5 5 5 5 5 3 5 5 5 5 3 5 5 5 5 5 5 3 5 5 5 5 5 5 5 5 5 5 3 5 5 3 5 3 5 5 5 5 5 5 5 5 5 5 5 3 5 5 5 5 5 5 3 5 3 3 5 3 5 5 5 5 5 5 5 3 5 5 5 5 5 5 5 5 5 5 5 5 5 5 5 5 3 5 5 5 5 5 5 5 5 5 5 3 5 5 5 5 5 5 5 5 5 5 3 5 5 5 5 3 5 5 5 5 5 3 5 5 5 5 3 5 5 5 5 5 5 5 5 5 5 5 5 5 5 5 5 5 5 3 5 5 5 5 5 5 5 5 3 5 3 3 5 5 5 5 5 3 5 5 5 5 5 5 5 5 5 5 5 5 5 5 3 5 5 3 5 3 3 5 5 5 5 5 5 3 5 5 5 5 3 5 3 5 5 3 5 5 5 5 5 5 3 3 5 5 5 5 5 5 5 5 5 5 5 5 5 5 5 3 5 5 5 5 5 5 5 3 5 3 5 5 5 3 5 3 5 5 5 5 5 5 5 5 3 5 5 5 5 5 3 5 3 5 5 5 5 3 5 5 5 5 5 3 5 5 5 5 5 5 5 5 5 5 5 5 5 5 5 5 5 5 5 5 5 5 5 5 3 5 5 5 3 5 3 5 5 5 3 5 5 5 5 5 5 5 5 5 5 5 5 5 5 5 5 5 3 3 3 3 5 5 5 5 5 5 3 5 5 5 3 5 5 5 5 5 5 5 5 5 5 3 3 3 5 5 3 3 5 5 5 5 5 5 5 5 5 3 5 5 5 5 5 5 5 5 3 3 5 5 5 3 5 5 5 5 5 5 5 5 5 5 5 3 5 3 5 5 5 5 5 3 3 5 5 3 3 5 5 5 5 5 5 5 5 5 5 5 5 5 5 5 5 5 5 5 5 5 5 5 5 5 5 5 5 5 5 5 5 5 5 5 5 5 5 5 5 5 5 3 3 5 5 5 5 5 5 5 5 5 5 5 5 5 5 5 5 5 5 5 5 3 5 5 5 5 5 5 5 5 5 5 5 5 5 5 5 5 3 5 3 5 5 5 5 5 5 5 5 3 5 5 5 5 5 5 5 5 5 5 5 3 5 5 3 5 5 3 5 5 5 5 3 5 5 5 5 3 5 5 3 5 3 5 5 5 5 5 3 5 5 5 5 5 5 5 3 5 5 5 5 5 5 5 5 5 5 5 5 5 5 5 5 5 5 5 5 5 5 5 5 3 5 5 5 3 5 5 3 5 5 5 3 5 5 5 5 3 5 3 5 5 5 5 5 5 5 5 3 5 5 5 5 5 5 5 5 5 5 3 5 5 3 5 5 3 5 5 3 3 5 5 5 5 5 5 5 3 3 5 5 5 3 5 5 3 3 5 5 5 3 3 5 3 5 5 3 5 5 5 5 3 5 3 3 5 5 5 3 5 3 3 5 3 3 3 3 5 3 5 3 5 3 5 5 5 3 5 5 3 5 3 3 5 5 5 5 3 5 3 3 5 5 5 3 3 5 5 3 3 5 5 5 5 3 5 5 5 5 3 5 5 5 5 3 5 3 5 3 5 3 5 3 5 3 5 5 5 5 5 3 5 5 3 3 3 5 5 3 3 5 3 5 5 3 5 5 5 5 5 5 3 5 5 3 5 3 5 5 5 5 3 5 3 5 3 5 5 5 3 5 5 3 5 3 5 3 5 5 5 5 5 3 5 5 5 5 5 5 5 5 5 5 3 5 5 5 5 3 5 5 3 5 5 5 5 5 3 5 5 3 5 5 5 3 5 3 5 5 5 3 5 5 5 5 3 5 5 5 5 3 3 5 5 5 5 5 5 3 5 5 3 5 5 5 5 5 5 5 5 5 5 5 5 5 5 5 5 5 5 5 5 5 5 5 5 5 5 5 5 5 5 5 5 5 5 5 5 5 5 5 5 5 5 5 5 5 5 5 5 5 5 5 5 5 5 5 5 5 5 3 5 5 5 5 5 5 5 5 5 5 5 5 3 5 5 3 5 5 5 3 5 5 5 5 5 5 5 5 5 5 5 5 5 5 5 3 5 5 5 5 5 5 5 5 5 5 5 5 5 5 5 5 3 5 5 5 5 5 5 5 5 5 5 5 5 5 3 5 5 3 5 5 3 5 3 5 5 5 5 5 5 5 3 5 5 5 5 5 5 5 5 5 5 5 5 3 5 5 5 3 5 5 5 5 5 5 5 5 5 3 5 5 5 5 5 5 3 5 5 5 5 5 5 3 5 5 5 3 5 5 5 5 5 5 5 3 5 5 5 5 5 5 5 5 5 5 3 5 5 5 5 5 5 5 5 5 5 5 5 5 5 5 5 3 5 3 5 5 5 5 5 5 5 5 5 5 3 5 3 5 5 5 5 5 5 5 5 5 5 5 3 5 5 5 5 5 5 5 5 5 5 5 3 5 5 5 5 5 5 5 3 5 5 5 5 5 5 5 3 5 5 5 5 5 5 5 5 5 5 5 3 5 5 5 5 5 5 5 5 3 5 3 5 5 5 5 5 5 5 5 5 5 3 5 5 5 3 5 5 5 5 5 5 5 5 5 3 5 5 5 5 5 5 5 5 5 5 5 5 5 5 5 5 3 5 5 5 5 5 5 5 5 5 5 5 5 5 5 5 5 5 5 3 5 5 3 5 5 3 5 5 5 5 5 3 5 5 5 5 5 5 5 5 5 5 5 5 5 5 5 5 5 5 5 5 5 5 5 5 5 5 5 5 5 5 5 5 5 5 5 5 5 5 5 5 5 5 5 5 5 5 5 5 5 5 5 5 5 5 5 5 5 5 5 3 5 5 3 5 5 5 5 5 5 5 5 5 5 5 5 5 5 5 5 5 5 5 5 5 5 5 5 3 3 5 5 5 5 5 5 5 5 5 5 5 5 5 5 5 5 3 3 5 5 5 5 5 5 5 3 5 3 5 5 3 3 5 5 5 5 5 5 5 5 5 5 5 3 5 3 5 5 5 3 5 5 5 3 5 3 5 5 5 5 5 3 3 5 5 5 5 5 5 5 5 5 5 5 5 5 5 5 5 5 5 5 5 5 5 5 5 5 5 5 5 5 5 5 5 5 5 5 5 5 5 5 5 5 5 5 5 5 5 5 5 5 5 5 5 5 5 5 5 5 5 5 5 5 5 5 5 5 5 5 5 5 5 5 5 5 5 5 5 5 5 5 5 5 5 5 5 5 5 5 5 5 5 5 5 5 5 5 5 5 5 5 5 5 5 5 5 3 3 5 3 5 3 5 5 3 5 5 5 5 3 5 5 5 5 5 5 5 3 3 3 5 5 5 5 5 3 3 5 5 5 5 5 5 5 5 5 5 5 5 5 5 5 5 5 5 5 5 5 5 5 5 5 5 5 5 5 5 5 5 5 5 3 5 5 3 5 5 5 5 5 5 5 5 5 5 5 3 5 5 5 5 5 5 5 3 5 5 5 5 5 5 5 5 5 5 5 5 5 5 5 5 3 5 5 3 5 5 5 5 5 5 5 5 5 5 5 5 5 5 5 5 5 5 5 5 5 5 5 3 5 5 3 5 5 3 5 5 5 5 5 5 5 3 5 5 5 5 5 5 3 5 5 3 5 5 5 5 3 5 3 5 5 3 5 5 5 5 3 5 3 5 5 3 5 5 5 5 5 5 5 5 5 5 5 5 3 5 5 5 3 5 5 3 5 5 5 5 3 5 5 5 5 5 5 5 5 5 5 3 5 5 5 5 5 5 5 5 5 5 3 5 5 5 5 5 5 5 5 5 5 5 5 3 5 5 3 5 5 5 5 5 5 5 5 5 5 3 5 5 5 5 5 3 5 3 3 5 5 3 5 5 5 5 5 5 5 5 5 3 3 5 5 5 5 5 5 3 5 5 5 5 5 5 5 5 5 5 5 5 5 5 5 5 5 5 5 5 5 5 5 5 5 3 5 5 5 5 5 5 5 5 5 5 5 5 5 5 5 5 5 5 5 5 5 5 5 5 5 5 5 5 5 5 5 5 5 5 5 5 5 5 5 5 3 5 5 5 5 5 5 5 5 5 5 3 5 5 5 3 5 3 5 5 5 3 5 5 5 3 5 3 5 3 5 3 3 5 5 3 5 5 5 3 5 5 5 5 5 3 5 5 5 5 3 5 5 5 3 5 5 5 5 3 5 3 5 5 5 5 5 5 5 5 5 5 5 5 5 5 3 5 5 5 5 3 5 5 3 5 5 3 3 5 5 3 5 3 5 5 5 3 3 3 3 5 5 3 5 5 5 5 3 5 3 5 5 3 3 3 5 3 5 5 3 3 3 5 5 5 5 5 5 5 5 5 3 3 5 5 5 5 3 3 5 5 5 3 5 3 5 5 5 5 5 5 5 5 5 5 5 3 5 5 5 5 5 5 5 5 5 5 5 5 5 5 5 5 5 5 5 5 5 5 5 3 5 5 5 5 5 5 5 5 5 5 5 5 5 5 5 5 3 5 5 3 5 5 5 5 5 5 5 5 5 3 5 5 5 3 3 5 5 3 5 5 5 5 5 3 5 3 5 5 5 3 5 5 5 5 5 5 5 3 5 5 3 5 5 5 5 3 5 5 5 3 3 5 5 3 5 5 5 3 5 5 5 5 5 5 5 3 5 5 3 5 3 3 3 5 3 5 3 3 5 5 5 5 5 5 3 5 5 3 5 5 5 5 5 5 5 5 5 5 5 5 5 5 5 5 5 5 5 5 5 5 5 5 5 5 5 5 5 5 5 5 5 5 5 3 3 5 5 5 5 5 5 5 5 3 3 3 3 5 5 3 5 5 5 5 5 5 5 5 3 5 5 3 5 5 5 3 5 5 5 5 3 5 5 5 5 5 5 5 5 5 5 5 5 5 5 3 5 5 5 5 5 3 5 5 5 5 5 5 5 5 3 5 5 5 3 3 5 5 3 3 5 5 5 5 5 3 5 5 5 5 5 5 3 5 3 5 5 5 5 5 5 5 5 3 3 5 3 3 3 5 3 5 5 5 5 5 5 3 5 5 5 5 5 5 5 3 5 5 5 5 5 5 5 5 5 5 5 5 5 5 5 5 5 5 5 5 5 5 5 5 5 5 5 5 5 5 5 5 5 5 5 5 5 5 5 5 5 5 5 5 5 5 5 5 5 5 5 5 5 5 5 5 5 3 5 5 5 5 5 5 5 3 5 5 3 5 5 5 3 5 3 5 5 3 5 5 5 5 5 5 5 3 5 5 5 3 5 5 5 5 5 5 5 3 5 3 5 5 5 5 5 5 5 5 5 5 5 5 5 5 5 5 5 5 5 5 5 5 5 5 5 3 3 5 3 5 5 5 5 5 5 5 3 5 3 5 3 3 3 5 5 3 5 5 3 5 5 5 3 5 5 5 5 5 5 5 3 3 5 5 3 5 5 5 3 5 5 5 5 3 5 3 5 5 5 5 5 5 3 5 3 5 5 5 5 5 3 5 5 3 5 5 5 5 5 5 5 5 5 5 5 5 5 5 5 5 3 5 5 3 3 5 3 5 5 5 5 5 5 5 5 3 5 5 5 5 5 5 5 5 5 5 5 5 5 5 5 5 3 5 5 5 3 5 5 3 5 5 5 5 5 5 3 5 5 5 5 5 5 5 5 5 5 5 5 5 5 5 5 5 5 5 3 3 5 5 5 5 5 5 5 3 5 5 5 3 5 5 3 5 3 5 5 3 5 3 3 5 3 5 3 5 3 5 5 5 5 5 5 5 5 5 5 5 5 5 5 5 3 3 5 5 5 5 5 5 5 3 5 5 5 5 5 5 5 5 5 5 5 5 5 5 5 3 5 3 5 5 5 5 5 5 3 5 5 5 3 5 5 5 3 5 5 5 5 5 5 5 5 5 5 5 5 5 5 5 5 5 5 5 5 5 3 5 5 5 5 3 5 5 5 5 5 3 5 5 5 3 5 5 5 5 5 5 5 5 5 5 5 5 3 5 5 5 5 3 5 5 5 5 5 5 5 5 3 5 5 5 5 5 5 5 3 5 5 5 5 3 5 5 5 5 5 5 5 5 3 5 5 5 5 5 5 5 5 5 3 5 5 5 5 5 5 5 5 5 5 5 5 5 5 5 5 5 5 5 5 5 5 5 5 5 5 5 5 3 5 5 5 5 5 5 5 3 5 5 5 5 5 5 5 5 5 5 5 5 5 5 5 5 5 5 5 5 5 5 5 5 5 5 5 5 5 3 5 5 5 5 5 5 5 5 5 5 5 5 5 5 5 5 5 5 5 5 5 5 5 5 5 5 5 5 5 5 5 5 3 5 5 3 5 5 5 5 3 5 5 3 5 5 5 5 3 5 5 5 3 5 5 5 3 5 5 5 5 5 5 5 5 5 5 3 5 5 3 5 5 5 5 5 5 3 5 5 5 5 5 3 5 5 5 5 3 5 5 5 5 5 5 5 5 5 5 3 5 5 5 5 5 5 5 5 5 3 5 5 5 5 5 5 5 5 5 5 5 5 5 3 5 5 5 5 5 5 5 3 5 5 5 5 5 3 5 5 5 5 5 5 5 5 5 5 5 5 5 5 3 5 5 5 5 5 5 5 5 3 5 5 5 5 5 5 5 5 5 5 5 5 5 5 5 5 5 5 5 5 5 5 5 5 5 5 5 5 5 5 5 5 5 3 5 5 5 5 3 3 5 5 3 5 5 3 5 5 3 5 5 5 5 5 5 5 5 5 5 5 5 5 5 5 5 5 5 5 3 5 5 5 5 3 5 5 5 5 5 5 5 5 5 5 5 5 5 5 5 5 5 5 5 5 5 5 5 5 5 5 5 5 5 5 5 5 5 5 5 5 5 5 5 5 5 5 5 5 5 5 5 5 5 5 5 5 5 5 5 5 5 5 5 5 5 5 5 5 5 5 5 5 5 5 5 3 5 5 5 5 3 5 3 5 5 3 5 5 5 5 3 5 5 3 5 5 5 5 5 5 5 5 5 5 5 5 5 5 5 5 5 5 5 5 5 5 5 5 5 5 5 5 5 5 5 5 5 5 5 5 5 5 5 5 5 5 5 5 5 5 5 5 5 5 5 5 5 5 5 5 5 5 5 5 3 5 5 5 5 5 5 5 5 5 3 5 5 5 5 5 5 5 3 5 5 5 5 5 5 5 5 5 5 5 5 5 5 5 5 5 5 5 3 3 5 5 3 5 3 5 5 5 5 5 5 5 5 5 5 5 5 5 5 5 5 5 5 5 5 5 5 5 5 5 5 5 5 5 5 5 5 5 5 5 5 5 5 5 5 5 5 5 5 5 5 5 5 5 5 5 5 5 5 5 3 3 5 5 5 5 5 5 5 5 5 5 5 5 5 5 5 5 5 5 5 5 3 5 5 5 5 5 5 5 5 5 5 3 5 5 5 3 5 5 5 5 5 5 3 5 5 5 5 5 5 5 5 5 5 5 5 5 3 5 5 5 5 5 5 3 3 5 3 5 5 3 5 5 5 3 5 5 5 3 5 5 5 5 5 3 5 3 5 5 5 5 3 5 5 5 5 3 5 3 5 5 3 3 5 5 5 5 5 3 5 5 5 5 5 3 3 3 5 3 5 3 5 5 5 5 5 3 5 5 5 5 5 5 5 5 3 3 5 5 3 5 5 5 5 3 5 5 3 5 5 3 5 5 5 5 5 5 5 5 5 3 5 5 5 5 5 5 5 5 3 5 5 5 5 5 5 5 5 5 3 3 5 5 5 5 5 5 5 5 5 5 5 5 5 5 5 5 5 5 5 5 5 5 5 5 5 5 5 5 5 5 5 5 5 5 5 3 5 5 5 5 3 5 5 5 5 5 5 5 5 5 5 5 5 5 5 5 5 3 3 5 5 5 5 5 5 5 5 5 3 5 5 5 5 3 5 5 3 5 5 5 5 5 5 5 5 5 5 5 5 5 3 5 5 5 5 5 5 5 5 5 5 5 5 5 5 5 5 5 5 5 5 5 5 5 5 5 3 5 5 5 5 5 3 5 5 5 3 5 5 5 3 3 5 5 5 5 5 5 5 5 5 5 5 5 5 5 3 5 5 5 3 5 5 5 5 3 3 5 5 5 5 5 5 5 5 5 5 5 5 5 5 5 5 5 5 5 5 5 5 5 3 5 5 5 5 5 5 5 5 5 3 5 5 5 5 3 5 3 5 5 5 5 3 5 5 5 5 5 5 5 5 5 5 5 5 5 5 5 3 5 5 3 5 5 5 5 5 5 5 5 5 5 3 3 5 5 5 5 3 5 5 5 3 5 5 5 5 3 3 5 3 5 3 5 3 5 5 3 5 5 3 5 5 3 5 5 5 3 5 5 3 5 3 5 3 5 5 3 5 5 5 5 5 5 5 5 5 5 5 5 5 3 5 5 5 5 5 5 5 5 5 5 5 5 5 5 5 5 3 3 5 5 5 5 5 3 5 5 5 5 3 5 5 3 5 5 5 5 3 5 5 5 5 5 5 5 5 5 5 5 5 5 5 5 5 5 5 5 5 5 5 5 5 5 5 5 5 5 5 5 5 5 5 5 5 5 5 3 5 5 5 5 5 5 5 5 5 5 5 5 5 3 5 3 5 5 5 5 3 5 5 5 5 5 5 5 5 5 5 5 5 5 5 5 5 5 5 3 5 3 5 5 3 5 5 5 3 5 5 5 5 5 5 5 5 5 5 5 5 5 5 5 5 5 5 5 5 5 5 5 5 5 5 5 3 5 5 3 5 5 5 5 5 5 5 5 5 5 5 5 5 5 5 5 5 5 5 5 5 5 5 5 5 5 5 5 5 5 5 5 5 5 5 3 5 3 5 5 5 5 5 5 5 5 5 5 5 5 5 5 5 5 5 3 3 5 5 5 5 5 3 5 5 5 5 3 5 5 5 5 3 5 5 5 5 5 5 5 5 5 5 5 5 5 5 5 5 5 5 3 5 5 5 5 5 5 3 5 5 3 5 5 5 5 5 5 5 5 5 5 5 5 3 5 5 3 5 5 5 5 5 5 5 5 3 5 5 5 5 5 5 3 5 5 3 5 5 5 5 5 5 5 5 5 5 5 5 5 5 5 5 5 5 5 5 5 5 5 5 5 5 5 5 5 5 5 5 5 5 5 5 3 5 5 5 3 5 5 3 5 5 5 5 5 5 3 5 5 5 5 5 3 5 5 5 5 5 5 3 5 5 5 5 3 5 3 5 5 3 5 5 5 3 5 5 5 5 5 5 5 5 5 5 5 5 5 3 5 5 5 5 5 5 5 5 5 5 5 5 5 5 5 5 5 5 5 5 5 5 5 5 3 5 3 5 3 5 3 5 5 5 5 3 5 5 5 5 3 5 5 5 5 5 5 5 5 5 5 5 5 5 5 3 5 5 5 3 5 5 5 3 5 5 3 5 5 5 3 5 5 5 5 3 5 5 5 5 3 5 5 5 5 5 5 5 5 5 5 3 5 5 5 5 5 3 5 3 5 5 5 5 5 3 3 5 5 3 5 3 5 5 3 5 5 5 5 5 5 5 5 5 5 5 5 5 3 5 5 5 5 5 3 5 5 5 5 5 5 5 5 5 5 3 5 3 5 5 3 5 5 3 5 3 5 3 5 5 5 5 5 3 3 5 5 5 5 5 5 5 5 5 5 5 3 5 5 5 5 5 3 5 5 5 3 5 3 5 5 5 5 5 5 5 5 5 5 5 5 5 5 5 3 5 5 5 5 3 5 5 5 5 5 5 5 5 5 5 5 5 5 5 5 5 5 5 5 5 5 5 5 3 5 5 3 5 5 5 5 5 5 5 3 5 5 3 5 3 5 5 5 5 5 5 5 5 5 3 5 5 3 5 5 5 3 5 5 5 5 5 5 5 3 5 5 5 5 3 3 5 5 5 5 5 5 5 5 5 3 5 5 5 5 5 5 5 5 5 5 5 5 5 5 5 5 3 5 3 5 5 5 3 5 5 5 5 5 5 5 5 5 5 5 5 5 3 5 5 5 5 5 3 5 5 5 3 3 5 5 5 3 5 5 3 5 5 5 5 3 3 5 5 5 3 5 5 3 5 5 5 5 3 5 3 5 5 5 3 5 5 5 5 5 5 5 5 5 5 5 5 5 5 5 5 5 5 5 5 5 3 5 5 5 5 5 5 5 5 5 3 5 5 5 3 5 3 5 5 5 5 5 5 5 5 5 5 5 3 5 5 5 5 5 3 5 5 5 5 5 3 5 5 5 5 5 5 5 5 5 5 5 5 5 5 5 5 3 5 5 5 5 5 5 5 5 5 3 5 5 5 5 5 5 5 5 5 5 5 5 5 5 5 3 5 5 5 5 5 5 5 5 5 5 5 5 5 5 5 5 5 5 5 5 5 5 5 5 5 5 5 5 5 3 5 5 5 5 3 5 3 3 5 5 5 5 5 5 3 5 3 5 5 5 3 5 5 3 5 5 5 5 5 5 3 5 5 5 5 5 5 5 3 5 5 5 5 3 5 5 5 5 5 5 3 5 5 5 5 5 5 5 5 5 5 5 5 3 5 3 5 5 5 5 5 5 5 3 3 5 5 5 5 5 5 5 5 3 5 5 5 3 5 5 3 5 5 5 5 5 5 5 5 5 5 5 5 5 5 5 5 5 5 5 5 5 5 5 5 5 3 5 5 3 5 5 5 5 5 3 5 5 3 5 3 5 5 5 3 5 5 5 5 3 5 5 3 3 5 5 5 5 5 3 5 5 3 5 5 5 5 5 3 5 5 5 5 5 5 5 5 5 3 5 5 5 5 3 5 5 5 5 5 5 3 5 3 5 5 5 3 5 3 5 5 3 5 3 5 5 5 3 5 5 5 5 5 5 5 5 5 5 5 5 5 3 5 5 5 5 3 5 5 5 5 5 5 3 5 5 5 5 5 5 5 3 5 5 5 5 5 5 3 5 5 5 5 5 5 5 3 5 5 3 5 5 5 5 5 5 5 5 5 3 3 5 5 5 5 5 5 5 5 5 5 5 5 3 5 5 5 5 5 5 5 3 5 5 5 3 5 3 5 5 3 5 5 5 5 5 3 5 5 5 3 5 5 5 5 3 5 5 5 3 5 5 5 5 5 5 5 3 5 5 3 5 5 5 3 5 5 5 3 5 5 5 5 3 5 5 5 3 5 5 5 5 5 5 5 5 5 3 5 5 5 5 5 5 5 5 5 3 5 5 5 5 3 5 5 3 5 5 5 5 5 5 5 5 5 5 5 5 5 5 5 5 5 5 5 5 5 5 5 5 5 5 3 5 5 5 5 5 5 5 5 5 5 5 3 5 5 5 3 5 5 5 5 5 5 3 5 5 5 5 5 5 5 5 5 5 5 5 5 5 5 5 5 5 5 5 5 5 5 5 5 5 3 5 3 5 5 3 3 5 5 5 5 5 5 5 5 5 5 5 5 5 5 5 5 5 3 5 5 5 5 5 5 5 5 5 5 5 5 5 5 5 5 5 5 5 5 5 5 5 5 5 5 5 5 5 5 5 5 5 5 5 5 5 5 5 5 5 5 5 5 5 5 5 5 5 5 5 5 5 5 5 5 5 5 5 5 5 3 5 5 3 5 5 5 5 3 5 5 5 5 5 5 5 5 5 5 3 5 3 5 5 5 3 5 5 5 3 5 3 5 5 5 3 5 3 5 3 5 5 5 3 5 5 5 5 3 5 3 5 5 5 5 5 3 5 3 3 5 5 5 5 5 5 3 5 5 5 3 5 5 5 5 5 5 5 5 5 5 5 5 5 5 5 5 5 5 5 3 5 5 5 3 3 5 5 5 5 5 3 5 5 5 5 5 5 5 5 5 5 5 5 5 5 3 5 5 3 5 3 5 5 5 3 5 3 5 5 3 5 5 5 5 5 5 5 5 5 5 5 3 5 5 5 5 5 5 5 5 5 5 3 3 5 5 5 5 5 5 5 3 5 5 5 5 5 5 5 5 5 5 5 5 5 5 3 5 5 5 5 5 5 5 5 5 5 3 5 5 5 3 5 3 3 5 5 5 5 5 5 5 5 3 5 5 5 5 5 5 5 5 5 3 5 3 5 3 5 5 5 5 5 5 5 5 3 5 3 5 5 5 5 5 5 3 5 5 3 5 3 5 5 5 5 5 5 5 5 5 5 5 5 5 5 3 5 5 5 5 5 5 5 5 5 5 3 5 5 5 5 5 5 3 5 5 5 5 5 5 5 5 5 5 5 5 5 5 5 5 5 5 5 5 5 5 5 5 5 3 5 5 5 5 5 3 5 5 5 5 5 5 5 5 5 5 5 3 5 5 5 5 3 5 5 5 5 5 3 5 5 5 5 5 3 5 5 3 5 5 5 5 5 5 5 5 5 5 5 5 5 5 5 5 5 5 5 5 5 5 5 5 5 5 3 5 5 3 5 5 5 5 5 5 5 5 5 5 5 5 5 5 5 3 5 5 5 5 5 5 5 5 5 3 5 5 5 5 5 5 5 3 5 5 5 5 5 3 5 5 5 5 5 5 3 5 5 5 5 3 5 5 5 5 5 5 5 3 5 5 3 5 5 3 5 5 5 5 3 5 5 5 5 5 5 5 5 3 5 5 3 5 5 5 5 5 5 5 5 5 3 5 5 5 5 5 3 5 5 5 5 3 5 5 5 3 5 5 5 5 5 5 5 5 5 5 5 3 3 5 5 5 5 5 5 5 5 5 5 5 3 5 5 5 5 5 3 5 3 3 5 3 3 5 5 3 5 5 5 5 5 5 3 5 3 3 5 5 5 5 5 3 5 5 5 5 5 5 5 5 3 5 5 5 5 3 5 5 5 5 5 3 5 5 3 5 5 5 5 5 5 5 3 5 3 5 5 5 5 5 5 5 3 3 5 5 5 5 5 5 5 3 5 5 5 5 5 5 3 5 5 5 5 5 5 5 5 5 5 5 5 5 5 3 5 5 3 5 5 5 5 3 5 5 5 5 3 5 5 5 5 5 5 3 5 5 5 5 5 5 5 3 5 5 5 3 5 5 5 5 3 5 5 3 5 5 5 5 5 5 5 3 5 5 5 5 3 5 3 5 5 5 5 5 5 5 5 5 5 5 5 5 5 3 5 5 5 5 5 5 5 3 5 5 3 5 5 3 5 5 5 5 5 5 5 5 5 3 5 5 5 3 5 5 5 5 5 5 5 5 5 3 5 5 5 5 5 5 5 5 5 5 5 3 5 5 5 3 5 5 5 5 5 5 5 5 5 5 5 3 5 5 5 5 5 5 5 5 5 5 3 5 5 5 5 5 3 5 5 5 5 5 5 5 5 3 5 5 3 5 5 3 5 5 5 5 3 3 5 5 5 5 3 5 5 5 5 3 5 5 3 5 5 5 5 3 5 5 3 5 5 5 5 5 3 5 5 5 5 5 5 5 5 3 5 3 5 5 5 5 5 5 5 5 5 3 3 5 5 5 5 5 5 3 5 5 3 5 5 3 5 3 5 5 5 3 5 5 3 5 5 5 5 5 5 5 5 3 3 5 5 3 3 5 5 5 5 3 5 5 5 3 5 3 5 3 3 3 5 3 5 5 5 3 5 5 5 5 5 5 5 5 5 3 5 5 3 5 5 5 5 5 5 3 5 5 5 5 5 5 3 3 3 5 5 5 5 5 5 5 5 5 5 5 3 5 5 5 5 3 5 5 5 5 5 5 5 5 3 5 5 3 5 5 5 3 5 5 5 5 5 5 5 5 5 3 5 5 5 5 5 5 5 5 3 5 5 5 3 5 5 3 5 5 5 3 5 3 5 5 3 5 3 5 5 3 5 5 5 5 5 5 3 5 5 3 5 5 5 5 5 5 5 5 5 5 5 5 5 5 5 5 5 5 5 5 5 5 5 5 5 5 5 5 5 5 5 5 5 5 5 5 5 5 5 5 5 5 5 5 5 5 5 5 5 5 5 5 5 5 5 5 5 5 5 5 5 5 5 5 5 5 5 5 5 5 5 5 5 5 5 5 5 5 5 5 5 5 5 5 5 5 5 5 5 5 5 5 5 5 5 5 3 5 5 5 5 3 5 5 5 5 5 5 5 5 5 5 5 5 3 3 5 5 5 5 5 5 5 5 5 5 5 5 5 5 5 3 5 5 5 3 5 5 5 5 5 5 5 5 5 5 3 5 3 5 5 5 5 5 5 5 5 5 5 5 5 5 5 5 5 5 5 5 5 5 5 5 5 3 5 5 5 5 3 5 5 5 5 5 5 5 5 3 5 5 5 5 5 5 5 5 5 5 5 5 5 5 5 5 5 5 5 5 5 5 5 5 5 5 5 5 5 5 5 5 5 5 5 5 5 5 5 5 5 5 5 5 5 5 5 5 5 3 5 5 5 5 5 5 5 5 5 5 5 5 5 5 5 5 5 5 5 5 5 5 5 5 5 5 5 5 5 5 5 5 3 5 5 5 5 5 5 3 5 5 5 5 5 5 3 5 5 3 5 3 5 3 5 5 5 5 3 5 5 5 5 5 3 5 5 5 3 3 5 5 5 3 5 5 5 5 3 3 5 5 5 5 5 5 5 5 5 5 5 5 5 5 3 5 5 3 5 5 3 3 5 5 5 5 5 5 5 5 5 5 3 5 3 5 5 5 5 5 5 5 5 5 5 5 3 5 5 5 5 5 5 5 3 5 5 5 5 5 5 5 5 5 5 5 5 5 5 5 5 5 5 3 3 5 5 5 5 5 5 5 5 5 5 5 5 5 5 5 5 5 3 5 5 5 5 5 5 5 5 5 3 5 5 5 5 5 5 5 5 5 5 5 5 3 5 5 5 5 3 5 3 5 5 5 5 5 5 5 5 5 3 5 5 5 5 3 5 5 5 5 3 5 3 5 5 5 5 5 5 5 5 5 5 5 5 3 5 5 5 5 5 5 5 5 5 5 5 5 5 5 5 3 5 3 5 5 3 5 5 5 3 5 3 5 5 3 5 5 3 5 3 5 5 5 5 5 5 5 3 3 5 5 5 5 3 3 5 5 3 3 5 3 5 5 3 3 5 5 3 5 5 3 5 5 5 5 5 5 5 5 3 5 5 3 5 3 5 5 5 3 5 5 5 5 5 5 5 5 3 5 5 5 5 5 5 5 5 5 5 5 5 5 5 5 5 5 5 5 5 5 5 3 5 5 5 5 5 5 5 5 5 5 5 5 5 5 5 5 5 5 
</DataArray>
</Cells>
<PointData Scalars="" Vectors="displacement," Tensors="">
<DataArray type="Float64" Name="displacement" NumberOfComponents="3" format="ascii">
-0.054996266470085722 -0.05499609440401447 0 -0.053828711676736474 -0.053327069492729022 0 -0.049248519376426526 -0.054996173125628982 0 -0.054996266470085722 -0.05499609440401447 0 -0.053828711676736474 -0.053327069492729022 0 -0.054995801226922852 -0.048085168752644722 0 -0.053828711676736474 -0.053327069492729022 0 -0.053826836073711616 -0.051912908303364952 0 -0.054995801226922852 -0.048085168752644722 0 -0.053828711676736474 -0.053327069492729022 0 -0.053826836073711616 -0.051912908303364952 0 -0.052368976589540144 -0.052946830302776075 0 -0.053826836073711616 -0.051912908303364952 0 -0.05348171856802833 -0.05222438978197811 0 -0.052368976589540144 -0.052946830302776075 0 -0.053826836073711616 -0.051912908303364952 0 -0.05348171856802833 -0.05222438978197811 0 -0.054995801226922852 -0.048085168752644722 0 -0.054727485849057247 -0.050441023416879657 0 -0.054999266182015956 -0.048073426811785953 0 -0.053734166982841766 -0.049706981933146037 0 -0.053360649298829284 -0.050697682186860125 0 -0.054809434497817472 -0.049930786024413976 0 -0.05348171856802833 -0.05222438978197811 0 -0.051797135985047239 -0.053052240340940048 0 -0.052368976589540144 -0.052946830302776075 0 -0.056313258803957211 -0.048899915409242094 0 -0.053734166982841766 -0.049706981933146037 0 -0.054809434497817472 -0.049930786024413976 0 -0.054727485849057247 -0.050441023416879657 0 -0.052920277960193891 -0.051382533481226032 0 -0.052368976589540144 -0.052946830302776075 0 -0.050913926033015706 -0.05425205901253561 0 -0.051642960899175562 -0.053005284916209316 0 -0.051797135985047239 -0.053052240340940048 0 -0.052368976589540144 -0.052946830302776075 0 -0.051642960899175562 -0.053005284916209316 0 -0.050913926033015706 -0.05425205901253561 0 -0.0518384056663986 -0.053224108776377566 0 -0.051642960899175562 -0.053005284916209316 0 -0.050495660402056081 -0.054287018211955189 0 -0.050049914137223567 -0.05436613453571966 0 -0.053828711676736474 -0.053327069492729022 0 -0.050913926033015706 -0.05425205901253561 0 -0.049248519376426526 -0.054996173125628982 0 -0.053828711676736474 -0.053327069492729022 0 -0.052368976589540144 -0.052946830302776075 0 -0.050913926033015706 -0.05425205901253561 0 -0.050913926033015706 -0.05425205901253561 0 -0.049248519376426526 -0.054996173125628982 0 -0.047806000097985385 -0.055635294918663779 0 -0.049248519376426526 -0.054996173125628982 0 -0.046502223515147968 -0.055247622121772692 0 -0.047806000097985385 -0.055635294918663779 0 -0.049248519376426526 -0.054996173125628982 0 -0.046502223515147968 -0.055247622121772692 0 -0.041693530914591152 -0.055001046294517922 0 -0.046502223515147968 -0.055247622121772692 0 -0.046466684970543112 -0.055669609204768468 0 -0.047806000097985385 -0.055635294918663779 0 -0.04567313064180091 -0.05605915838528993 0 -0.04801587459531706 -0.05472416433045095 0 -0.04801587459531706 -0.05472416433045095 0 -0.050049914137223567 -0.05436613453571966 0 -0.052421233950903701 -0.052927107695498826 0 -0.0518384056663986 -0.053224108776377566 0 -0.052210875975530313 -0.051812550177005409 0 -0.046502223515147968 -0.055247622121772692 0 -0.044850429097759749 -0.057002580175870149 0 -0.041693530914591152 -0.055001046294517922 0 -0.041693783174418887 -0.054999321518001146 0 -0.04206153094778927 -0.056272814204582515 0 -0.040317817333616425 -0.055882150092528567 0 -0.044850429097759749 -0.057002580175870149 0 -0.041693530914591152 -0.055001046294517922 0 -0.042370859587707886 -0.056671616888330979 0 -0.042696548109483909 -0.055574270157694394 0 -0.040192390096024565 -0.055828350104106743 0 -0.041695492903241746 -0.055000891871572172 0 -0.042696548109483909 -0.055574270157694394 0 -0.047006619213571223 -0.054380168983781396 0 -0.045704778449648771 -0.054189299084270406 0 -0.046138683971456602 -0.055273471870074704 0 -0.04801587459531706 -0.05472416433045095 0 -0.042696548109483909 -0.055574270157694394 0 -0.04801587459531706 -0.05472416433045095 0 -0.048099850698533966 -0.053657968222674809 0 -0.041184475136316602 -0.055751690438339274 0 -0.040949289923264444 -0.056318187974327305 0 -0.041910380083504221 -0.056433751700289046 0 -0.042696548109483909 -0.055574270157694394 0 -0.048099850698533966 -0.053657968222674809 0 -0.041184475136316602 -0.055751690438339274 0 -0.040949289923264444 -0.056318187974327305 0 -0.040317817333616425 -0.055882150092528567 0 -0.050369787732823725 -0.050987959437043776 0 -0.050778245695040414 -0.051600875325106432 0 -0.049605365647121175 -0.051575786884596582 0 -0.040949289923264444 -0.056318187974327305 0 -0.041910380083504221 -0.056433751700289046 0 -0.040900620645527901 -0.057363478435747704 0 -0.048099850698533966 -0.053657968222674809 0 -0.045090922735570978 -0.054696555376349515 0 -0.052421233950903701 -0.052927107695498826 0 -0.052678574192471891 -0.052159258407992334 0 -0.052210875975530313 -0.051812550177005409 0 -0.052678574192471891 -0.052159258407992334 0 -0.051961676293205555 -0.051674577373182602 0 -0.052210875975530313 -0.051812550177005409 0 -0.048099850698533966 -0.053657968222674809 0 -0.052582186604175303 -0.051232019117618779 0 -0.050369787732823725 -0.050987959437043776 0 -0.051961676293205555 -0.051674577373182602 0 -0.050778245695040414 -0.051600875325106432 0 -0.051961676293205555 -0.051674577373182602 0 -0.051602622024763907 -0.051929499651219048 0 -0.050778245695040414 -0.051600875325106432 0 -0.050180407212467658 -0.052170047837785907 0 -0.049605365647121175 -0.051575786884596582 0 -0.048130854699861544 -0.052822474780798385 0 -0.050778245695040414 -0.051600875325106432 0 -0.050180407212467658 -0.052170047837785907 0 -0.049605365647121175 -0.051575786884596582 0 -0.051602622024763907 -0.051929499651219048 0 -0.050180407212467658 -0.052170047837785907 0 -0.05066081423619407 -0.053353146142333073 0 -0.051602622024763907 -0.051929499651219048 0 -0.050778245695040414 -0.051600875325106432 0 -0.050180407212467658 -0.052170047837785907 0 -0.0518384056663986 -0.053224108776377566 0 -0.051642960899175562 -0.053005284916209316 0 -0.052210875975530313 -0.051812550177005409 0 -0.052920277960193891 -0.051382533481226032 0 -0.052398628641761091 -0.05178394611003518 0 -0.051797135985047239 -0.053052240340940048 0 -0.051642960899175562 -0.053005284916209316 0 -0.052210875975530313 -0.051812550177005409 0 -0.051961676293205555 -0.051674577373182602 0 -0.052210875975530313 -0.051812550177005409 0 -0.052605033174136992 -0.051108178407270215 0 -0.053734166982841766 -0.049706981933146037 0 -0.052210875975530313 -0.051812550177005409 0 -0.052605033174136992 -0.051108178407270215 0 -0.053734166982841766 -0.049706981933146037 0 -0.052605033174136992 -0.051108178407270215 0 -0.053360649298829284 -0.050697682186860125 0 -0.053360649298829284 -0.050697682186860125 0 -0.052381016360083917 -0.051641183891176438 0 -0.053729819781834331 -0.05119445690371878 0 -0.052605033174136992 -0.051108178407270215 0 -0.053360649298829284 -0.050697682186860125 0 -0.052381016360083917 -0.051641183891176438 0 -0.051961676293205555 -0.051674577373182602 0 -0.052605033174136992 -0.051108178407270215 0 -0.052381016360083917 -0.051641183891176438 0 -0.05584480479780958 -0.043414983821965923 0 -0.055683363106891426 -0.043493362283579022 0 -0.05591656870618792 -0.043415163699996165 0 -0.054690197695580478 -0.047548339671473136 0 -0.054599611815659845 -0.04753158037660301 0 -0.05584480479780958 -0.043414983821965923 0 -0.05591656870618792 -0.043415163699996165 0 -0.055889443405202598 -0.043465627083626092 0 -0.050180407212467658 -0.052170047837785907 0 -0.05066081423619407 -0.053353146142333073 0 -0.048130854699861544 -0.052822474780798385 0 -0.050743695293990303 -0.047775452142536728 0 -0.042000696024939679 -0.053763775845222371 0 -0.051602622024763907 -0.051929499651219048 0 -0.052381016360083917 -0.051641183891176438 0 -0.051525497020836107 -0.052025500558061842 0 -0.054690197695580478 -0.047548339671473136 0 -0.050743695293990303 -0.047775452142536728 0 -0.051961676293205555 -0.051674577373182602 0 -0.051602622024763907 -0.051929499651219048 0 -0.052381016360083917 -0.051641183891176438 0 -0.050449941165874396 -0.052325153897734893 0 -0.050743695293990303 -0.047775452142536728 0 -0.05584480479780958 -0.043414983821965923 0 -0.055505346622859143 -0.043425156549578119 0 -0.055683363106891426 -0.043493362283579022 0 -0.050743695293990303 -0.047775452142536728 0 -0.048673593539218976 -0.044740321448879308 0 -0.055505346622859143 -0.043425156549578119 0 -0.055683363106891426 -0.043493362283579022 0 -0.055303362536281535 -0.043648479499341669 0 -0.055683363106891426 -0.043493362283579022 0 -0.055523321325715899 -0.043621689945679602 0 -0.055303362536281535 -0.043648479499341669 0 -0.055683363106891426 -0.043493362283579022 0 -0.055523321325715899 -0.043621689945679602 0 -0.055766627313733733 -0.043469301208135941 0 -0.055683363106891426 -0.043493362283579022 0 -0.055766627313733733 -0.043469301208135941 0 -0.05591656870618792 -0.043415163699996165 0 -0.055766627313733733 -0.043469301208135941 0 -0.05596953555299302 -0.043301080041450404 0 -0.055790621202295464 -0.043309171938262704 0 -0.055523321325715899 -0.043621689945679602 0 -0.055489380827695153 -0.043651929075614451 0 -0.055790621202295464 -0.043309171938262704 0 -0.055523321325715899 -0.043621689945679602 0 -0.055766627313733733 -0.043469301208135941 0 -0.055790621202295464 -0.043309171938262704 0 -0.05591656870618792 -0.043415163699996165 0 -0.055921085474850661 -0.043357533890842286 0 -0.055889443405202598 -0.043465627083626092 0 -0.05591656870618792 -0.043415163699996165 0 -0.056050182097472333 -0.043231474269895556 0 -0.055921085474850661 -0.043357533890842286 0 -0.055766627313733733 -0.043469301208135941 0 -0.05591656870618792 -0.043415163699996165 0 -0.05596953555299302 -0.043301080041450404 0 -0.05591656870618792 -0.043415163699996165 0 -0.05596953555299302 -0.043301080041450404 0 -0.056050182097472333 -0.043231474269895556 0 -0.05596953555299302 -0.043301080041450404 0 -0.056050182097472333 -0.043231474269895556 0 -0.056172864597492364 -0.043106871395417162 0 -0.056050182097472333 -0.043231474269895556 0 -0.055921085474850661 -0.043357533890842286 0 -0.056017338257385828 -0.043072823175123939 0 -0.055921085474850661 -0.043357533890842286 0 -0.055738223140159124 -0.043234112852983411 0 -0.056017338257385828 -0.043072823175123939 0 -0.055820678641153788 -0.043396336287685293 0 -0.055921085474850661 -0.043357533890842286 0 -0.055738223140159124 -0.043234112852983411 0 -0.055820678641153788 -0.043396336287685293 0 -0.055921085474850661 -0.043357533890842286 0 -0.055889443405202598 -0.043465627083626092 0 -0.056324613901507302 -0.042366290859228661 0 -0.056307834838874936 -0.045737519331279237 0 -0.056795866189759771 -0.042394025819017259 0 -0.056781992819746586 -0.042947611876997679 0 -0.057089138621975843 -0.043712179929281718 0 -0.055820678641153788 -0.043396336287685293 0 -0.055738223140159124 -0.043234112852983411 0 -0.055708511478849518 -0.043478649200794216 0 -0.056795866189759771 -0.042394025819017259 0 -0.056916335172524882 -0.042329950480809397 0 -0.056781992819746586 -0.042947611876997679 0 -0.056916335172524882 -0.042329950480809397 0 -0.056093786265980924 -0.042689730363023391 0 -0.056191233261877964 -0.040406803530864809 0 -0.056916335172524882 -0.042329950480809397 0 -0.056093786265980924 -0.042689730363023391 0 -0.056781992819746586 -0.042947611876997679 0 -0.054999530919300058 -0.041251076817915656 0 -0.056093786265980924 -0.042689730363023391 0 -0.054999962414125414 -0.04415249235076462 0 -0.054999530919300058 -0.041251076817915656 0 -0.056093786265980924 -0.042689730363023391 0 -0.056191233261877964 -0.040406803530864809 0 -0.056093786265980924 -0.042689730363023391 0 -0.054999962414125414 -0.04415249235076462 0 -0.056215604489699929 -0.04384355798618849 0 -0.054999976518363199 -0.044154173358574182 0 -0.056232081925958528 -0.044542725304616615 0 -0.056215604489699929 -0.04384355798618849 0 -0.056781992819746586 -0.042947611876997679 0 -0.057089138621975843 -0.043712179929281718 0 -0.056093786265980924 -0.042689730363023391 0 -0.056215604489699929 -0.04384355798618849 0 -0.056781992819746586 -0.042947611876997679 0 -0.056232081925958528 -0.044542725304616615 0 -0.056307834838874936 -0.045737519331279237 0 -0.056492679921973432 -0.049571884145036257 0 -0.056307834838874936 -0.045737519331279237 0 -0.055871375844112871 -0.046926799137330708 0 -0.056617868496697886 -0.048635987587177111 0 -0.057788291457414973 -0.045920661538914588 0 -0.056152960696909913 -0.04524097734149695 0 -0.055871375844112871 -0.046926799137330708 0 -0.057788291457414973 -0.045920661538914588 0 -0.056152960696909913 -0.04524097734149695 0 -0.055871375844112871 -0.046926799137330708 0 -0.054999108963604076 -0.046114671702822893 0 -0.055000042610090692 -0.044154758740386692 0 -0.056152960696909913 -0.04524097734149695 0 -0.054999108963604076 -0.046114671702822893 0 -0.055871375844112871 -0.046926799137330708 0 -0.054999108963604076 -0.046114671702822893 0 -0.055000591547792792 -0.048072481381403583 0 -0.055871375844112871 -0.046926799137330708 0 -0.055000591547792792 -0.048072481381403583 0 -0.056617868496697886 -0.048635987587177111 0 -0.056313258803957211 -0.048899915409242094 0 -0.055000591547792792 -0.048072481381403583 0 -0.056617868496697886 -0.048635987587177111 0 -0.056617868496697886 -0.048635987587177111 0 -0.055202833410222439 -0.050293534922058264 0 -0.054809434497817472 -0.049930786024413976 0 -0.056313258803957211 -0.048899915409242094 0 -0.056617868496697886 -0.048635987587177111 0 -0.054809434497817472 -0.049930786024413976 0 -0.053360649298829284 -0.050697682186860125 0 -0.054809434497817472 -0.049930786024413976 0 -0.053729819781834331 -0.05119445690371878 0 -0.055202833410222439 -0.050293534922058264 0 -0.054809434497817472 -0.049930786024413976 0 -0.053729819781834331 -0.05119445690371878 0 -0.055202833410222439 -0.050293534922058264 0 -0.053729819781834331 -0.05119445690371878 0 -0.0560286597038165 -0.051367740298348931 0 -0.054599611815659845 -0.04753158037660301 0 -0.056307834838874936 -0.045737519331279237 0 -0.055820678641153788 -0.043396336287685293 0 -0.055889443405202598 -0.043465627083626092 0 -0.055708511478849518 -0.043478649200794216 0 -0.056617868496697886 -0.048635987587177111 0 -0.055202833410222439 -0.050293534922058264 0 -0.0560286597038165 -0.051367740298348931 0 -0.029991170382046552 -0.057671948985067473 0 -0.029517846350042877 -0.060272201520368079 0 -0.0280437283598759 -0.057964569590730611 0 -0.032349425887157335 -0.059735774048276867 0 -0.029991170382046552 -0.057671948985067473 0 -0.029517846350042877 -0.060272201520368079 0 -0.032235019741795067 -0.05789272425611279 0 -0.031839777013470551 -0.057608246451100804 0 -0.030114873353557309 -0.057850488563296644 0 -0.031898669528299943 -0.059012338077278362 0 -0.030070752122769034 -0.057699251426713116 0 -0.031839777013470551 -0.057608246451100804 0 -0.030213026888690295 -0.056585501074032887 0 -0.03231233738018284 -0.056968853231400385 0 -0.031839777013470551 -0.057608246451100804 0 -0.030114873353557309 -0.057850488563296644 0 -0.030213026888690295 -0.056585501074032887 0 -0.030070752122769034 -0.057699251426713116 0 -0.027681387009483419 -0.056470212226957847 0 -0.030114873353557309 -0.057850488563296644 0 -0.030213026888690295 -0.056585501074032887 0 -0.027672840318231768 -0.056847366323194343 0 -0.028579937502189758 -0.055998738804741113 0 -0.030213026888690295 -0.056585501074032887 0 -0.027672840318231768 -0.056847366323194343 0 -0.028579937502189758 -0.055998738804741113 0 -0.027507758009202878 -0.054999497935174606 0 -0.03034540884819379 -0.054999655658205887 0 -0.028579937502189758 -0.055998738804741113 0 -0.027507758009202878 -0.054999497935174606 0 -0.027299256216528525 -0.055743876021450797 0 -0.028579937502189758 -0.055998738804741113 0 -0.03034540884819379 -0.054999655658205887 0 -0.030213026888690295 -0.056585501074032887 0 -0.03034540884819379 -0.054999655658205887 0 -0.030213026888690295 -0.056585501074032887 0 -0.031919010111291606 -0.055957670413664722 0 -0.030213026888690295 -0.056585501074032887 0 -0.03231233738018284 -0.056968853231400385 0 -0.031919010111291606 -0.055957670413664722 0 -0.03231233738018284 -0.056968853231400385 0 -0.031919010111291606 -0.055957670413664722 0 -0.033584706319786523 -0.05632635001144351 0 -0.03034540884819379 -0.054999655658205887 0 -0.031919010111291606 -0.055957670413664722 0 -0.033182356595732661 -0.054999603747992225 0 -0.031919010111291606 -0.055957670413664722 0 -0.033182356595732661 -0.054999603747992225 0 -0.033584706319786523 -0.05632635001144351 0 -0.033182356595732661 -0.054999603747992225 0 -0.033584706319786523 -0.05632635001144351 0 -0.036019954803988494 -0.054999364717728212 0 -0.03231233738018284 -0.056968853231400385 0 -0.033584706319786523 -0.05632635001144351 0 -0.033403176555835391 -0.057504957988960992 0 -0.033584706319786523 -0.05632635001144351 0 -0.033403176555835391 -0.057504957988960992 0 -0.035490361953211466 -0.05669721962290946 0 -0.031839777013470551 -0.057608246451100804 0 -0.03231233738018284 -0.056968853231400385 0 -0.033403176555835391 -0.057504957988960992 0 -0.031839777013470551 -0.057608246451100804 0 -0.033403176555835391 -0.057504957988960992 0 -0.033319768828961982 -0.057422896441803491 0 -0.032235019741795067 -0.05789272425611279 0 -0.031839777013470551 -0.057608246451100804 0 -0.033319768828961982 -0.057422896441803491 0 -0.033403176555835391 -0.057504957988960992 0 -0.033319768828961982 -0.057422896441803491 0 -0.033574856499442397 -0.05730784953002261 0 -0.033574856499442397 -0.05730784953002261 0 -0.033863080619301718 -0.057650374085379028 0 -0.032175318497069436 -0.056486895767368976 0 -0.033403176555835391 -0.057504957988960992 0 -0.033574856499442397 -0.05730784953002261 0 -0.033863080619301718 -0.057650374085379028 0 -0.03550617790752543 -0.057416958897024327 0 -0.035262123029905272 -0.057524637853545793 0 -0.037274638776479123 -0.057774189995443932 0 -0.03816922671429758 -0.057932262509153697 0 -0.037718637321928157 -0.057410708871895574 0 -0.03816922671429758 -0.057932262509153697 0 -0.037718637321928157 -0.057410708871895574 0 -0.038623471377258758 -0.057646091065903862 0 -0.037274638776479123 -0.057774189995443932 0 -0.03816922671429758 -0.057932262509153697 0 -0.038178767839533993 -0.058078465380931935 0 -0.033403176555835391 -0.057504957988960992 0 -0.033863080619301718 -0.057650374085379028 0 -0.035490361953211466 -0.05669721962290946 0 -0.037274638776479123 -0.057774189995443932 0 -0.037718637321928157 -0.057410708871895574 0 -0.035490361953211466 -0.05669721962290946 0 -0.03550617790752543 -0.057416958897024327 0 -0.035506245783224887 -0.05663155516341941 0 -0.033584706319786523 -0.05632635001144351 0 -0.035490361953211466 -0.05669721962290946 0 -0.036019954803988494 -0.054999364717728212 0 -0.035490361953211466 -0.05669721962290946 0 -0.036019954803988494 -0.054999364717728212 0 -0.037715372042731551 -0.056266402032060847 0 -0.036019954803988494 -0.054999364717728212 0 -0.037715372042731551 -0.056266402032060847 0 -0.038857794892150056 -0.054999626637481605 0 -0.037718637321928157 -0.057410708871895574 0 -0.037715372042731551 -0.056266402032060847 0 -0.038791882794497058 -0.05702891721318705 0 -0.037718637321928157 -0.057410708871895574 0 -0.035490361953211466 -0.05669721962290946 0 -0.037715372042731551 -0.056266402032060847 0 -0.037715372042731551 -0.056266402032060847 0 -0.039176483773291214 -0.056247828031809992 0 -0.038791882794497058 -0.05702891721318705 0 -0.039176483773291214 -0.056247828031809992 0 -0.039989467571498002 -0.056705528466334691 0 -0.038791882794497058 -0.05702891721318705 0 -0.039176483773291214 -0.056247828031809992 0 -0.038857794892150056 -0.054999626637481605 0 -0.040317817333616425 -0.055882150092528567 0 -0.037715372042731551 -0.056266402032060847 0 -0.039176483773291214 -0.056247828031809992 0 -0.038857794892150056 -0.054999626637481605 0 -0.041693783174418887 -0.054999321518001146 0 -0.038857794892150056 -0.054999626637481605 0 -0.040317817333616425 -0.055882150092528567 0 -0.040949289923264444 -0.056318187974327305 0 -0.040317817333616425 -0.055882150092528567 0 -0.039989467571498002 -0.056705528466334691 0 -0.039176483773291214 -0.056247828031809992 0 -0.040317817333616425 -0.055882150092528567 0 -0.039989467571498002 -0.056705528466334691 0 -0.040900620645527901 -0.057363478435747704 0 -0.039989467571498002 -0.056705528466334691 0 -0.039598192256459566 -0.057466425562589442 0 -0.040949289923264444 -0.056318187974327305 0 -0.040900620645527901 -0.057363478435747704 0 -0.039989467571498002 -0.056705528466334691 0 -0.039989467571498002 -0.056705528466334691 0 -0.038791882794497058 -0.05702891721318705 0 -0.039598192256459566 -0.057466425562589442 0 -0.037718637321928157 -0.057410708871895574 0 -0.038791882794497058 -0.05702891721318705 0 -0.038623471377258758 -0.057646091065903862 0 -0.038791882794497058 -0.05702891721318705 0 -0.038623471377258758 -0.057646091065903862 0 -0.039598192256459566 -0.057466425562589442 0 -0.039076472071834074 -0.057765883293320747 0 -0.038623471377258758 -0.057646091065903862 0 -0.039598192256459566 -0.057466425562589442 0 -0.039076472071834074 -0.057765883293320747 0 -0.038623471377258758 -0.057646091065903862 0 -0.038694875966036706 -0.057885746159288314 0 -0.03816922671429758 -0.057932262509153697 0 -0.038694875966036706 -0.057885746159288314 0 -0.038615723037320776 -0.058012126507368401 0 -0.038694875966036706 -0.057885746159288314 0 -0.039125150576556599 -0.057991709674828598 0 -0.038615723037320776 -0.058012126507368401 0 -0.03816922671429758 -0.057932262509153697 0 -0.038623471377258758 -0.057646091065903862 0 -0.038694875966036706 -0.057885746159288314 0 -0.039076472071834074 -0.057765883293320747 0 -0.038694875966036706 -0.057885746159288314 0 -0.039125150576556599 -0.057991709674828598 0 -0.039076472071834074 -0.057765883293320747 0 -0.039125150576556599 -0.057991709674828598 0 -0.039631661812764021 -0.058229943426623292 0 -0.040167612165112859 -0.055300475168683451 0 -0.042000696024939679 -0.053763775845222371 0 -0.039076472071834074 -0.057765883293320747 0 -0.039598192256459566 -0.057466425562589442 0 -0.039631661812764021 -0.058229943426623292 0 -0.045090922735570978 -0.054696555376349515 0 -0.042000696024939679 -0.053763775845222371 0 -0.040900620645527901 -0.057363478435747704 0 -0.039598192256459566 -0.057466425562589442 0 -0.039631661812764021 -0.058229943426623292 0 -0.042354056426426714 -0.046292298469870798 0 -0.041731684724325167 -0.04643698782412968 0 -0.042041543668728504 -0.046562968150060238 0 -0.039125150576556599 -0.057991709674828598 0 -0.039387600430252905 -0.057924491857347112 0 -0.038675445823951188 -0.058044733368658098 0 -0.042000696024939679 -0.053763775845222371 0 -0.040308012292844697 -0.052472498042686541 0 -0.039125150576556599 -0.057991709674828598 0 -0.038615723037320776 -0.058012126507368401 0 -0.038675445823951188 -0.058044733368658098 0 -0.041451852560898547 -0.046688381758731502 0 -0.042041543668728504 -0.046562968150060238 0 -0.041737861808596441 -0.046693272466652301 0 -0.041731684724325167 -0.04643698782412968 0 -0.041451852560898547 -0.046688381758731502 0 -0.042041543668728504 -0.046562968150060238 0 -0.048673593539218976 -0.044740321448879308 0 -0.047224569272844012 -0.044464168191605771 0 -0.042041543668728504 -0.046562968150060238 0 -0.041855466314916469 -0.046702659980904941 0 -0.041737861808596441 -0.046693272466652301 0 -0.055523321325715899 -0.043621689945679602 0 -0.055303362536281535 -0.043648479499341669 0 -0.055074433157816863 -0.043883546933459736 0 -0.055523321325715899 -0.043621689945679602 0 -0.055489380827695153 -0.043651929075614451 0 -0.055074433157816863 -0.043883546933459736 0 -0.056351386709370059 -0.044135031828593754 0 -0.047224569272844012 -0.044464168191605771 0 -0.047224569272844012 -0.044464168191605771 0 -0.044799514944547619 -0.04418393156753974 0 -0.036069465175893968 -0.043476414376330909 0 -0.03554276087310957 -0.044072746642329297 0 -0.035149630755809812 -0.044301553099078045 0 -0.036069465175893968 -0.043476414376330909 0 -0.035149630755809812 -0.044301553099078045 0 -0.035440002985840942 -0.04362074498881835 0 -0.047224569272844012 -0.044464168191605771 0 -0.037654734128459356 -0.044832387317822506 0 -0.041451852560898547 -0.046688381758731502 0 -0.041737861808596441 -0.046693272466652301 0 -0.0415308680429234 -0.046819474391850587 0 -0.041855466314916469 -0.046702659980904941 0 -0.041737861808596441 -0.046693272466652301 0 -0.0415308680429234 -0.046819474391850587 0 -0.041451852560898547 -0.046688381758731502 0 -0.041245524309471177 -0.046866524360243425 0 -0.0415308680429234 -0.046819474391850587 0 -0.035054151553606971 -0.044082037472775011 0 -0.035061555857633681 -0.044664130637261455 0 -0.03554276087310957 -0.044072746642329297 0 -0.036495254229397006 -0.049387703693720378 0 -0.037654734128459356 -0.044832387317822506 0 -0.035061555857633681 -0.044664130637261455 0 -0.03554276087310957 -0.044072746642329297 0 -0.035149630755809812 -0.044301553099078045 0 -0.035149630755809812 -0.044301553099078045 0 -0.034517466142334377 -0.04566921277283436 0 -0.035222194634571304 -0.044045721253906635 0 -0.034517466142334377 -0.04566921277283436 0 -0.036704540898080722 -0.045690405523223801 0 -0.035222194634571304 -0.044045721253906635 0 -0.035061555857633681 -0.044664130637261455 0 -0.035149630755809812 -0.044301553099078045 0 -0.034517466142334377 -0.04566921277283436 0 -0.034517466142334377 -0.04566921277283436 0 -0.033423030015752891 -0.049452149224963958 0 -0.035597793196808239 -0.047750135877286701 0 -0.036495254229397006 -0.049387703693720378 0 -0.034032539806698181 -0.04599437155031106 0 -0.029813579095239264 -0.049447263432610224 0 -0.034517466142334377 -0.04566921277283436 0 -0.03145309655209752 -0.048930023041801496 0 -0.034517466142334377 -0.04566921277283436 0 -0.03145309655209752 -0.048930023041801496 0 -0.033423030015752891 -0.049452149224963958 0 -0.035054151553606971 -0.044082037472775011 0 -0.035061555857633681 -0.044664130637261455 0 -0.034517466142334377 -0.04566921277283436 0 -0.029813579095239264 -0.049447263432610224 0 -0.03145309655209752 -0.048930023041801496 0 -0.031510344491276626 -0.050517675545917073 0 -0.033852197993402076 -0.050864844653494057 0 -0.034373657097911806 -0.052377257632306683 0 -0.03145309655209752 -0.048930023041801496 0 -0.031444901259715143 -0.050152750396773062 0 -0.033423030015752891 -0.049452149224963958 0 -0.036495254229397006 -0.049387703693720378 0 -0.034373657097911806 -0.052377257632306683 0 -0.033423030015752891 -0.049452149224963958 0 -0.03335824107145445 -0.051704659839507568 0 -0.035377175857098236 -0.050462377601899158 0 -0.031444901259715143 -0.050152750396773062 0 -0.033423030015752891 -0.049452149224963958 0 -0.03335824107145445 -0.051704659839507568 0 -0.034373657097911806 -0.052377257632306683 0 -0.035262123029905272 -0.057524637853545793 0 -0.03335824107145445 -0.051704659839507568 0 -0.032175318497069436 -0.056486895767368976 0 -0.034328910559738891 -0.053326811711893178 0 -0.031374067150392496 -0.050537317619498888 0 -0.03335824107145445 -0.051704659839507568 0 -0.032175318497069436 -0.056486895767368976 0 -0.038478892905585489 -0.057959482258444141 0 -0.038430602464461949 -0.058025722702738577 0 -0.038178767839533993 -0.058078465380931935 0 -0.034373657097911806 -0.052377257632306683 0 -0.03260788495889734 -0.051251701980452313 0 -0.03846359296866405 -0.057931934000567613 0 -0.038478892905585489 -0.057959482258444141 0 -0.038430602464461949 -0.058025722702738577 0 -0.038675445823951188 -0.058044733368658098 0 -0.03846359296866405 -0.057931934000567613 0 -0.038430602464461949 -0.058025722702738577 0 -0.040308012292844697 -0.052472498042686541 0 -0.036495254229397006 -0.049387703693720378 0 -0.038675445823951188 -0.058044733368658098 0 -0.038430602464461949 -0.058025722702738577 0 -0.03841342125623276 -0.058049120005855978 0 -0.038430602464461949 -0.058025722702738577 0 -0.03841342125623276 -0.058049120005855978 0 -0.038178767839533993 -0.058078465380931935 0 -0.038615723037320776 -0.058012126507368401 0 -0.038675445823951188 -0.058044733368658098 0 -0.03841342125623276 -0.058049120005855978 0 -0.03816922671429758 -0.057932262509153697 0 -0.038615723037320776 -0.058012126507368401 0 -0.03841342125623276 -0.058049120005855978 0 -0.03816922671429758 -0.057932262509153697 0 -0.03841342125623276 -0.058049120005855978 0 -0.038178767839533993 -0.058078465380931935 0 -0.033574856499442397 -0.05730784953002261 0 -0.032175318497069436 -0.056486895767368976 0 -0.034182075753761407 -0.055832345239873356 0 -0.032175318497069436 -0.056486895767368976 0 -0.034182075753761407 -0.055832345239873356 0 -0.034328910559738891 -0.053326811711893178 0 -0.033319768828961982 -0.057422896441803491 0 -0.034182075753761407 -0.055832345239873356 0 -0.033389217012021959 -0.057292082478236972 0 -0.033319768828961982 -0.057422896441803491 0 -0.033574856499442397 -0.05730784953002261 0 -0.034182075753761407 -0.055832345239873356 0 -0.032235019741795067 -0.05789272425611279 0 -0.033319768828961982 -0.057422896441803491 0 -0.033389217012021959 -0.057292082478236972 0 -0.031898669528299943 -0.059012338077278362 0 -0.037258658300801398 -0.057386218488031139 0 -0.038789432627246101 -0.052786568201723456 0 -0.039030748243942717 -0.052366943380326839 0 -0.03875810350424954 -0.051686472672918454 0 -0.038858274648970466 -0.052961978763560465 0 -0.038789432627246101 -0.052786568201723456 0 -0.039030748243942717 -0.052366943380326839 0 -0.037258658300801398 -0.057386218488031139 0 -0.037071887445012705 -0.056528882840206733 0 -0.038858274648970466 -0.052961978763560465 0 -0.039030748243942717 -0.052366943380326839 0 -0.039701326143896848 -0.051876751435505006 0 -0.039701326143896848 -0.051876751435505006 0 -0.039336715481179972 -0.050539901650101152 0 -0.040671408336378022 -0.050127736086538005 0 -0.039030748243942717 -0.052366943380326839 0 -0.039701326143896848 -0.051876751435505006 0 -0.03875810350424954 -0.051686472672918454 0 -0.039701326143896848 -0.051876751435505006 0 -0.039336715481179972 -0.050539901650101152 0 -0.03875810350424954 -0.051686472672918454 0 -0.038789432627246101 -0.052786568201723456 0 -0.03875810350424954 -0.051686472672918454 0 -0.037227042441894176 -0.052174207882757284 0 -0.039336715481179972 -0.050539901650101152 0 -0.03875810350424954 -0.051686472672918454 0 -0.038250580532041382 -0.050303156848226969 0 -0.03875810350424954 -0.051686472672918454 0 -0.037227042441894176 -0.052174207882757284 0 -0.038250580532041382 -0.050303156848226969 0 -0.033927945654019562 -0.055637082774700385 0 -0.037258658300801398 -0.057386218488031139 0 -0.034182075753761407 -0.055832345239873356 0 -0.038789432627246101 -0.052786568201723456 0 -0.037227042441894176 -0.052174207882757284 0 -0.034182075753761407 -0.055832345239873356 0 -0.039286990096274926 -0.053424285700059637 0 -0.038789432627246101 -0.052786568201723456 0 -0.036885822299359182 -0.050817196480051237 0 -0.037227042441894176 -0.052174207882757284 0 -0.038250580532041382 -0.050303156848226969 0 -0.036885822299359182 -0.050817196480051237 0 -0.037227042441894176 -0.052174207882757284 0 -0.035720058242970622 -0.052389970468545558 0 -0.034182075753761407 -0.055832345239873356 0 -0.037227042441894176 -0.052174207882757284 0 -0.035720058242970622 -0.052389970468545558 0 -0.034182075753761407 -0.055832345239873356 0 -0.034328910559738891 -0.053326811711893178 0 -0.035720058242970622 -0.052389970468545558 0 -0.03335824107145445 -0.051704659839507568 0 -0.034328910559738891 -0.053326811711893178 0 -0.035377175857098236 -0.050462377601899158 0 -0.034328910559738891 -0.053326811711893178 0 -0.035720058242970622 -0.052389970468545558 0 -0.035377175857098236 -0.050462377601899158 0 -0.036885822299359182 -0.050817196480051237 0 -0.035720058242970622 -0.052389970468545558 0 -0.035377175857098236 -0.050462377601899158 0 -0.033423030015752891 -0.049452149224963958 0 -0.035377175857098236 -0.050462377601899158 0 -0.035597793196808239 -0.047750135877286701 0 -0.035377175857098236 -0.050462377601899158 0 -0.037166402173525646 -0.048585917643266183 0 -0.035597793196808239 -0.047750135877286701 0 -0.036885822299359182 -0.050817196480051237 0 -0.035377175857098236 -0.050462377601899158 0 -0.037166402173525646 -0.048585917643266183 0 -0.036885822299359182 -0.050817196480051237 0 -0.037166402173525646 -0.048585917643266183 0 -0.038250580532041382 -0.050303156848226969 0 -0.037166402173525646 -0.048585917643266183 0 -0.035597793196808239 -0.047750135877286701 0 -0.036704540898080722 -0.045690405523223801 0 -0.034517466142334377 -0.04566921277283436 0 -0.035597793196808239 -0.047750135877286701 0 -0.036704540898080722 -0.045690405523223801 0 -0.036704540898080722 -0.045690405523223801 0 -0.039133210129517211 -0.048191929425250191 0 -0.039929068695538347 -0.044519315301013933 0 -0.037166402173525646 -0.048585917643266183 0 -0.036704540898080722 -0.045690405523223801 0 -0.039133210129517211 -0.048191929425250191 0 -0.037166402173525646 -0.048585917643266183 0 -0.039133210129517211 -0.048191929425250191 0 -0.038250580532041382 -0.050303156848226969 0 -0.039336715481179972 -0.050539901650101152 0 -0.039133210129517211 -0.048191929425250191 0 -0.038250580532041382 -0.050303156848226969 0 -0.039336715481179972 -0.050539901650101152 0 -0.039133210129517211 -0.048191929425250191 0 -0.040671408336378022 -0.050127736086538005 0 -0.040671408336378022 -0.050127736086538005 0 -0.041744742466502775 -0.048107517827443894 0 -0.04293720782770407 -0.05168954655835669 0 -0.027515290732377046 -0.043694539223635045 0 -0.027515223365550522 -0.052478318078139151 0 -0.039133210129517211 -0.048191929425250191 0 -0.040671408336378022 -0.050127736086538005 0 -0.041744742466502775 -0.048107517827443894 0 -0.027515290732377046 -0.043694539223635045 0 -0.028162953429844286 -0.040037074210614837 0 -0.039133210129517211 -0.048191929425250191 0 -0.041744742466502775 -0.048107517827443894 0 -0.039929068695538347 -0.044519315301013933 0 -0.013770636413488652 -0.040609916232496976 0 -0.014099771192524341 -0.041189730397912287 0 -0.014298843428520423 -0.041259465910540069 0 -0.013770636413488652 -0.040609916232496976 0 -0.013554053224089806 -0.041233852100372288 0 -0.013205247354835629 -0.040977033388302796 0 -0.013770636413488652 -0.040609916232496976 0 -0.013554053224089806 -0.041233852100372288 0 -0.014099771192524341 -0.041189730397912287 0 -0.013554053224089806 -0.041233852100372288 0 -0.014099771192524341 -0.041189730397912287 0 -0.013929258111127656 -0.041345914729190483 0 -0.022165250171632993 -0.038300745850666444 0 -0.028162953429844286 -0.040037074210614837 0 -0.013205247354835629 -0.040977033388302796 0 -0.012862177093405024 -0.041342529524274835 0 -0.012618605508510367 -0.041049990757641645 0 -0.013554053224089806 -0.041233852100372288 0 -0.013205247354835629 -0.040977033388302796 0 -0.012862177093405024 -0.041342529524274835 0 -0.013205247354835629 -0.040977033388302796 0 -0.013100116023418786 -0.040607435005156345 0 -0.012618605508510367 -0.041049990757641645 0 -0.013100116023418786 -0.040607435005156345 0 -0.012436789533512476 -0.040708150787494977 0 -0.012618605508510367 -0.041049990757641645 0 -0.013770636413488652 -0.040609916232496976 0 -0.013100116023418786 -0.040607435005156345 0 -0.013412966148587915 -0.03992258336669266 0 -0.013100116023418786 -0.040607435005156345 0 -0.013412966148587915 -0.03992258336669266 0 -0.012385562724792637 -0.040129010911849054 0 -0.013770636413488652 -0.040609916232496976 0 -0.013205247354835629 -0.040977033388302796 0 -0.013100116023418786 -0.040607435005156345 0 -0.02355983523195692 -0.057732529603688423 0 -0.023247021947848747 -0.057352574066896138 0 -0.022821768113312772 -0.057888186049622849 0 -0.027515223365550522 -0.052478318078139151 0 -0.015978612401106082 -0.049012408436753099 0 -0.038858274648970466 -0.052961978763560465 0 -0.039701326143896848 -0.051876751435505006 0 -0.04293720782770407 -0.05168954655835669 0 -0.039701326143896848 -0.051876751435505006 0 -0.040671408336378022 -0.050127736086538005 0 -0.04293720782770407 -0.05168954655835669 0 -0.034770604952353713 -0.062170754040930892 0 -0.031083191759661118 -0.062975690980770452 0 -0.032102297077311458 -0.061387806169689453 0 -0.037258658300801398 -0.057386218488031139 0 -0.027515223365550522 -0.052478318078139151 0 -0.032349425887157335 -0.059735774048276867 0 -0.032102297077311458 -0.061387806169689453 0 -0.029517846350042877 -0.060272201520368079 0 -0.032349425887157335 -0.059735774048276867 0 -0.034770604952353713 -0.062170754040930892 0 -0.032102297077311458 -0.061387806169689453 0 -0.027515223365550522 -0.052478318078139151 0 -0.026757875326565386 -0.060247277534441646 0 -0.031083191759661118 -0.062975690980770452 0 -0.032102297077311458 -0.061387806169689453 0 -0.029517846350042877 -0.060272201520368079 0 -0.02355983523195692 -0.057732529603688423 0 -0.023349091994717942 -0.057252590122791366 0 -0.023247021947848747 -0.057352574066896138 0 -0.012913270862967369 -0.038304456552480111 0 -0.013391589594960942 -0.038050030099406364 0 -0.013053708438960532 -0.038870347010032967 0 -0.012913270862967369 -0.038304456552480111 0 -0.013391589594960942 -0.038050030099406364 0 -0.012642336790442419 -0.037935260572282505 0 -0.015572351550625608 -0.040166670201689389 0 -0.015312041280401076 -0.034752764688439776 0 -0.012913270862967369 -0.038304456552480111 0 -0.012642336790442419 -0.037935260572282505 0 -0.012468104394484163 -0.03836236885258746 0 -0.012913270862967369 -0.038304456552480111 0 -0.013053708438960532 -0.038870347010032967 0 -0.012468104394484163 -0.03836236885258746 0 -0.015312041280401076 -0.034752764688439776 0 -0.0086417158719496387 -0.037498328888175482 0 -0.00582440849299276 -0.035523492674095394 0 -0.0031337179940835506 -0.034840794879122436 0 -0.0059311273065049235 -0.037790403693556233 0 -0.020614510710608238 -0.03604944599666083 0 -0.020681994326096905 -0.036273055045657011 0 -0.020801158666905364 -0.035979765774354015 0 -0.020614510710608238 -0.03604944599666083 0 -0.020681994326096905 -0.036273055045657011 0 -0.020350122276304065 -0.036211193863846906 0 -0.013655142335955281 -0.043604255723130647 0 -0.01326799571537798 -0.043092577809807443 0 -0.014005298894027665 -0.042779008350749118 0 -0.013945210225426209 -0.043698111966638011 0 -0.014329021559457344 -0.042757635961465361 0 -0.01477525395694077 -0.043470055755696062 0 -0.015572351550625608 -0.040166670201689389 0 -0.013931958993133696 -0.043365530381691088 0 -0.014329021559457344 -0.042757635961465361 0 -0.014860085801014035 -0.04276316088367154 0 -0.01477525395694077 -0.043470055755696062 0 -0.015572351550625608 -0.040166670201689389 0 -0.012562437347149756 -0.040669851126852459 0 -0.013655142335955281 -0.043604255723130647 0 -0.01326799571537798 -0.043092577809807443 0 -0.012727908673408133 -0.04348220061431609 0 -0.01326799571537798 -0.043092577809807443 0 -0.013113448818622845 -0.042486666557512195 0 -0.012428387868143868 -0.042798660764646571 0 -0.01326799571537798 -0.043092577809807443 0 -0.012727908673408133 -0.04348220061431609 0 -0.012428387868143868 -0.042798660764646571 0 -0.013113448818622845 -0.042486666557512195 0 -0.012400153168772987 -0.042212721476652719 0 -0.012428387868143868 -0.042798660764646571 0 -0.013113448818622845 -0.042486666557512195 0 -0.012881838460576054 -0.04203327054023618 0 -0.013563021160622968 -0.042091291621266305 0 -0.013113448818622845 -0.042486666557512195 0 -0.012881838460576054 -0.04203327054023618 0 -0.012400153168772987 -0.042212721476652719 0 -0.012881838460576054 -0.04203327054023618 0 -0.012464767482357794 -0.041734501349662792 0 -0.012400153168772987 -0.042212721476652719 0 -0.012881838460576054 -0.04203327054023618 0 -0.013192853670936365 -0.041677424197028363 0 -0.012464767482357794 -0.041734501349662792 0 -0.012881838460576054 -0.04203327054023618 0 -0.013192853670936365 -0.041677424197028363 0 -0.013563021160622968 -0.042091291621266305 0 -0.013554053224089806 -0.041233852100372288 0 -0.013192853670936365 -0.041677424197028363 0 -0.012862177093405024 -0.041342529524274835 0 -0.013192853670936365 -0.041677424197028363 0 -0.012862177093405024 -0.041342529524274835 0 -0.012464767482357794 -0.041734501349662792 0 -0.013929258111127656 -0.041345914729190483 0 -0.013837715495582326 -0.041627436548768881 0 -0.014355333577436803 -0.041233491754959481 0 -0.014099771192524341 -0.041189730397912287 0 -0.013929258111127656 -0.041345914729190483 0 -0.014355333577436803 -0.041233491754959481 0 -0.013554053224089806 -0.041233852100372288 0 -0.013929258111127656 -0.041345914729190483 0 -0.013837715495582326 -0.041627436548768881 0 -0.013554053224089806 -0.041233852100372288 0 -0.013192853670936365 -0.041677424197028363 0 -0.013837715495582326 -0.041627436548768881 0 -0.013192853670936365 -0.041677424197028363 0 -0.013837715495582326 -0.041627436548768881 0 -0.013563021160622968 -0.042091291621266305 0 -0.013837715495582326 -0.041627436548768881 0 -0.013563021160622968 -0.042091291621266305 0 -0.014486347168598764 -0.041944440496811716 0 -0.013837715495582326 -0.041627436548768881 0 -0.014486347168598764 -0.041944440496811716 0 -0.014355333577436803 -0.041233491754959481 0 -0.013931958993133696 -0.043365530381691088 0 -0.014536732450917772 -0.041820776790371668 0 -0.013563021160622968 -0.042091291621266305 0 -0.014005298894027665 -0.042779008350749118 0 -0.014486347168598764 -0.041944440496811716 0 -0.014329021559457344 -0.042757635961465361 0 -0.014860085801014035 -0.04276316088367154 0 -0.014486347168598764 -0.041944440496811716 0 -0.013113448818622845 -0.042486666557512195 0 -0.013563021160622968 -0.042091291621266305 0 -0.014005298894027665 -0.042779008350749118 0 -0.01326799571537798 -0.043092577809807443 0 -0.013113448818622845 -0.042486666557512195 0 -0.014005298894027665 -0.042779008350749118 0 -0.014860085801014035 -0.04276316088367154 0 -0.015361976066193696 -0.042485635629143856 0 -0.014486347168598764 -0.041944440496811716 0 -0.028162953429844286 -0.040037074210614837 0 -0.037082850705785222 -0.03880903427161414 0 -0.023771092428564424 -0.03881710352029618 0 -0.028162953429844286 -0.040037074210614837 0 -0.015361976066193696 -0.042485635629143856 0 -0.014486347168598764 -0.041944440496811716 0 -0.014355333577436803 -0.041233491754959481 0 -0.036704540898080722 -0.045690405523223801 0 -0.039929068695538347 -0.044519315301013933 0 -0.036430713526786535 -0.043199498553734991 0 -0.034232530046383658 -0.036596569317547324 0 -0.032453462374738444 -0.032916345344124576 0 -0.036152592316754537 -0.03477463268606127 0 -0.036704540898080722 -0.045690405523223801 0 -0.036430713526786535 -0.043199498553734991 0 -0.035222194634571304 -0.044045721253906635 0 -0.036152592316754537 -0.03477463268606127 0 -0.03599527392318063 -0.03647259212161906 0 -0.037611974817281228 -0.037020894554556566 0 -0.034232530046383658 -0.036596569317547324 0 -0.036152592316754537 -0.03477463268606127 0 -0.03599527392318063 -0.03647259212161906 0 -0.034232530046383658 -0.036596569317547324 0 -0.03599527392318063 -0.03647259212161906 0 -0.036475876306186719 -0.037994505366441784 0 -0.03599527392318063 -0.03647259212161906 0 -0.036475876306186719 -0.037994505366441784 0 -0.037611974817281228 -0.037020894554556566 0 -0.034232530046383658 -0.036596569317547324 0 -0.036475876306186719 -0.037994505366441784 0 -0.035999040597388517 -0.040452077456694019 0 -0.036475876306186719 -0.037994505366441784 0 -0.037062989539903328 -0.039430959776422296 0 -0.035999040597388517 -0.040452077456694019 0 -0.023771092428564424 -0.03881710352029618 0 -0.027985169807070741 -0.041957225185918982 0 -0.036475876306186719 -0.037994505366441784 0 -0.037062989539903328 -0.039430959776422296 0 -0.037931180605082854 -0.038397602159833226 0 -0.015361976066193696 -0.042485635629143856 0 -0.015361133464659001 -0.043275396344388692 0 -0.016385848816851518 -0.044056870446376309 0 -0.013945210225426209 -0.043698111966638011 0 -0.01477525395694077 -0.043470055755696062 0 -0.015584261770648372 -0.043980612516176423 0 -0.014860085801014035 -0.04276316088367154 0 -0.015361976066193696 -0.042485635629143856 0 -0.015361133464659001 -0.043275396344388692 0 -0.014860085801014035 -0.04276316088367154 0 -0.015361133464659001 -0.043275396344388692 0 -0.01477525395694077 -0.043470055755696062 0 -0.01477525395694077 -0.043470055755696062 0 -0.01530542900676333 -0.043613760822593772 0 -0.015584261770648372 -0.043980612516176423 0 -0.015361133464659001 -0.043275396344388692 0 -0.01477525395694077 -0.043470055755696062 0 -0.01530542900676333 -0.043613760822593772 0 -0.015361133464659001 -0.043275396344388692 0 -0.015637326440356467 -0.043823988181135941 0 -0.016385848816851518 -0.044056870446376309 0 -0.015361133464659001 -0.043275396344388692 0 -0.01530542900676333 -0.043613760822593772 0 -0.015637326440356467 -0.043823988181135941 0 -0.020377874119236063 -0.039045238387902442 0 -0.025747408182290009 -0.030905583639463736 0 -0.027228013618581355 -0.035137649772060145 0 -0.027702238637232708 -0.035205826584976029 0 -0.027042045870028713 -0.036087126480875788 0 -0.020614510710608238 -0.03604944599666083 0 -0.020350122276304065 -0.036211193863846906 0 -0.020453363222244884 -0.035847328451080844 0 -0.015572351550625608 -0.040166670201689389 0 -0.020377874119236063 -0.039045238387902442 0 -0.020377874119236063 -0.039045238387902442 0 -0.019932270261988374 -0.040125749239978366 0 -0.01530542900676333 -0.043613760822593772 0 -0.015584261770648372 -0.043980612516176423 0 -0.015637326440356467 -0.043823988181135941 0 -0.036485991320020408 -0.040528333781023385 0 -0.03597985936868453 -0.040451232745756099 0 -0.037711116913323919 -0.044173008907808738 0 -0.037062989539903328 -0.039430959776422296 0 -0.036485991320020408 -0.040528333781023385 0 -0.037790914262391638 -0.040349790426413366 0 -0.030510485477239231 -0.042088876286412572 0 -0.027985169807070741 -0.041957225185918982 0 -0.037062989539903328 -0.039430959776422296 0 -0.036485991320020408 -0.040528333781023385 0 -0.035999040597388517 -0.040452077456694019 0 -0.015613502091957344 -0.04398540942299603 0 -0.015637326440356467 -0.043823988181135941 0 -0.016385848816851518 -0.044056870446376309 0 -0.020377874119236063 -0.039045238387902442 0 -0.027985169807070741 -0.041957225185918982 0 -0.036485991320020408 -0.040528333781023385 0 -0.038263570455058495 -0.041558179598619828 0 -0.037711116913323919 -0.044173008907808738 0 -0.038827239191551531 -0.040600098144221414 0 -0.040142289485247167 -0.039236340571338714 0 -0.038325769100963872 -0.039644495687701953 0 -0.038827239191551531 -0.040600098144221414 0 -0.039857908243072747 -0.041192837044826111 0 -0.040142289485247167 -0.039236340571338714 0 -0.038827239191551531 -0.040600098144221414 0 -0.037790914262391638 -0.040349790426413366 0 -0.038325769100963872 -0.039644495687701953 0 -0.036485991320020408 -0.040528333781023385 0 -0.037790914262391638 -0.040349790426413366 0 -0.038263570455058495 -0.041558179598619828 0 -0.037062989539903328 -0.039430959776422296 0 -0.037790914262391638 -0.040349790426413366 0 -0.038325769100963872 -0.039644495687701953 0 -0.038827239191551531 -0.040600098144221414 0 -0.037790914262391638 -0.040349790426413366 0 -0.038263570455058495 -0.041558179598619828 0 -0.038827239191551531 -0.040600098144221414 0 -0.038263570455058495 -0.041558179598619828 0 -0.039857908243072747 -0.041192837044826111 0 -0.038263570455058495 -0.041558179598619828 0 -0.039857908243072747 -0.041192837044826111 0 -0.039521866884462999 -0.04270508699494649 0 -0.039857908243072747 -0.041192837044826111 0 -0.041167849887920716 -0.042290177581332265 0 -0.039521866884462999 -0.04270508699494649 0 -0.039857908243072747 -0.041192837044826111 0 -0.041726070584166754 -0.040734315594219542 0 -0.041167849887920716 -0.042290177581332265 0 -0.041726070584166754 -0.040734315594219542 0 -0.043061741923121795 -0.042273730138399822 0 -0.041167849887920716 -0.042290177581332265 0 -0.039857908243072747 -0.041192837044826111 0 -0.041726070584166754 -0.040734315594219542 0 -0.040142289485247167 -0.039236340571338714 0 -0.040142289485247167 -0.039236340571338714 0 -0.040053495446503558 -0.036570582014987599 0 -0.044218312606749931 -0.038707398435427136 0 -0.041726070584166754 -0.040734315594219542 0 -0.040142289485247167 -0.039236340571338714 0 -0.044218312606749931 -0.038707398435427136 0 -0.041445373678478857 -0.040967165187460478 0 -0.050312693617421911 -0.041380851085494649 0 -0.040142289485247167 -0.039236340571338714 0 -0.039155652893741115 -0.037807981511801446 0 -0.040053495446503558 -0.036570582014987599 0 -0.039155652893741115 -0.037807981511801446 0 -0.038884619466855001 -0.038770149871231653 0 -0.037931180605082854 -0.038397602159833226 0 -0.040142289485247167 -0.039236340571338714 0 -0.039155652893741115 -0.037807981511801446 0 -0.038884619466855001 -0.038770149871231653 0 -0.040142289485247167 -0.039236340571338714 0 -0.038884619466855001 -0.038770149871231653 0 -0.038325769100963872 -0.039644495687701953 0 -0.038884619466855001 -0.038770149871231653 0 -0.038325769100963872 -0.039644495687701953 0 -0.037931180605082854 -0.038397602159833226 0 -0.037062989539903328 -0.039430959776422296 0 -0.038325769100963872 -0.039644495687701953 0 -0.037931180605082854 -0.038397602159833226 0 -0.036475876306186719 -0.037994505366441784 0 -0.037931180605082854 -0.038397602159833226 0 -0.037611974817281228 -0.037020894554556566 0 -0.039155652893741115 -0.037807981511801446 0 -0.037931180605082854 -0.038397602159833226 0 -0.037611974817281228 -0.037020894554556566 0 -0.037082850705785222 -0.03880903427161414 0 -0.041445373678478857 -0.040967165187460478 0 -0.036152592316754537 -0.03477463268606127 0 -0.037611974817281228 -0.037020894554556566 0 -0.039948354115697415 -0.03670804109305776 0 -0.039155652893741115 -0.037807981511801446 0 -0.037611974817281228 -0.037020894554556566 0 -0.039948354115697415 -0.03670804109305776 0 -0.040871975327548271 -0.038366879937672918 0 -0.041445373678478857 -0.040967165187460478 0 -0.036430713526786535 -0.043199498553734991 0 -0.035222194634571304 -0.044045721253906635 0 -0.035330547383393057 -0.042933564379812168 0 -0.035149630755809812 -0.044301553099078045 0 -0.035222194634571304 -0.044045721253906635 0 -0.035440002985840942 -0.04362074498881835 0 -0.035222194634571304 -0.044045721253906635 0 -0.035440002985840942 -0.04362074498881835 0 -0.035330547383393057 -0.042933564379812168 0 -0.054013847331256672 -0.044203864792955912 0 -0.054341420825526877 -0.044039140415870613 0 -0.054691874831200145 -0.043918565641868079 0 -0.044799514944547619 -0.04418393156753974 0 -0.041445373678478857 -0.040967165187460478 0 -0.054069071727275514 -0.044302448467318067 0 -0.054013847331256672 -0.044203864792955912 0 -0.054341420825526877 -0.044039140415870613 0 -0.054069071727275514 -0.044302448467318067 0 -0.054341420825526877 -0.044039140415870613 0 -0.054698321431189689 -0.043795156378153337 0 -0.054341420825526877 -0.044039140415870613 0 -0.054698321431189689 -0.043795156378153337 0 -0.054691874831200145 -0.043918565641868079 0 -0.054073232622837357 -0.044264555224064278 0 -0.054069071727275514 -0.044302448467318067 0 -0.054698321431189689 -0.043795156378153337 0 -0.054895483821472427 -0.043620023783150538 0 -0.054073232622837357 -0.044264555224064278 0 -0.054698321431189689 -0.043795156378153337 0 -0.054895483821472427 -0.043620023783150538 0 -0.054698321431189689 -0.043795156378153337 0 -0.055585471379964793 -0.043393266503995907 0 -0.054698321431189689 -0.043795156378153337 0 -0.055223517327948148 -0.043579393212466969 0 -0.055585471379964793 -0.043393266503995907 0 -0.054698321431189689 -0.043795156378153337 0 -0.055223517327948148 -0.043579393212466969 0 -0.054691874831200145 -0.043918565641868079 0 -0.055223517327948148 -0.043579393212466969 0 -0.054691874831200145 -0.043918565641868079 0 -0.055687743395820916 -0.043301957595128143 0 -0.054691874831200145 -0.043918565641868079 0 -0.055687743395820916 -0.043301957595128143 0 -0.05577116372953371 -0.043352015859157357 0 -0.041726070584166754 -0.040734315594219542 0 -0.044218312606749931 -0.038707398435427136 0 -0.043061741923121795 -0.042273730138399822 0 -0.044218312606749931 -0.038707398435427136 0 -0.045623136259302331 -0.041559359472564797 0 -0.043061741923121795 -0.042273730138399822 0 -0.045623136259302331 -0.041559359472564797 0 -0.046762280645652125 -0.04436904319901902 0 -0.048472490791257331 -0.040939325953672299 0 -0.044218312606749931 -0.038707398435427136 0 -0.045623136259302331 -0.041559359472564797 0 -0.048472490791257331 -0.040939325953672299 0 -0.050312693617421911 -0.041380851085494649 0 -0.053141296625828921 -0.041980468711052897 0 -0.048957045337786304 -0.042415369468233183 0 -0.053141296625828921 -0.041980468711052897 0 -0.04650992746667839 -0.044101094828041996 0 -0.043061741923121795 -0.042273730138399822 0 -0.046115790695317273 -0.044889541342718393 0 -0.045623136259302331 -0.041559359472564797 0 -0.046762280645652125 -0.04436904319901902 0 -0.043061741923121795 -0.042273730138399822 0 -0.048957045337786304 -0.042415369468233183 0 -0.048538210585872391 -0.034750940708869034 0 -0.048957045337786304 -0.042415369468233183 0 -0.055126178944006184 -0.039388623412780981 0 -0.043061741923121795 -0.042273730138399822 0 -0.046115790695317273 -0.044889541342718393 0 -0.04195622041527302 -0.044584326770146572 0 -0.048957045337786304 -0.042415369468233183 0 -0.042599978498338305 -0.042640227853768399 0 -0.043301670283406937 -0.028920246170387534 0 -0.042963051872157307 -0.029396123787291468 0 -0.042671749000505951 -0.029175953594240005 0 -0.048538210585872391 -0.034750940708869034 0 -0.042476517516449035 -0.037388106972087165 0 -0.043301670283406937 -0.028920246170387534 0 -0.042671749000505951 -0.029175953594240005 0 -0.042670244158021731 -0.028821855665982991 0 -0.048538210585872391 -0.034750940708869034 0 -0.051421254919061757 -0.03019873187389752 0 -0.056761980503133629 -0.033836959977369997 0 -0.05700936707726495 -0.032486137331264972 0 -0.057616957855835656 -0.031548188472716558 0 -0.056761980503133629 -0.033836959977369997 0 -0.056164743174678115 -0.03300880690035702 0 -0.055419705208969876 -0.033829337118621974 0 -0.048538210585872391 -0.034750940708869034 0 -0.055126178944006184 -0.039388623412780981 0 -0.049353461785547031 -0.036616771059317724 0 -0.048305073180951903 -0.038719886822889772 0 -0.054069212002384709 -0.039251436692835352 0 -0.056761980503133629 -0.033836959977369997 0 -0.056164743174678115 -0.03300880690035702 0 -0.05700936707726495 -0.032486137331264972 0 -0.056164743174678115 -0.03300880690035702 0 -0.05700936707726495 -0.032486137331264972 0 -0.055536959047119853 -0.031857680423983459 0 -0.05700936707726495 -0.032486137331264972 0 -0.056825704597652994 -0.030972309547153628 0 -0.055536959047119853 -0.031857680423983459 0 -0.05700936707726495 -0.032486137331264972 0 -0.056825704597652994 -0.030972309547153628 0 -0.058404776878600267 -0.03038763822752397 0 -0.056825704597652994 -0.030972309547153628 0 -0.056005543753847219 -0.030247048283697592 0 -0.055536959047119853 -0.031857680423983459 0 -0.056825704597652994 -0.030972309547153628 0 -0.056005543753847219 -0.030247048283697592 0 -0.057307993662310736 -0.029806125680363751 0 -0.056825704597652994 -0.030972309547153628 0 -0.057307993662310736 -0.029806125680363751 0 -0.058404776878600267 -0.03038763822752397 0 -0.056005543753847219 -0.030247048283697592 0 -0.057307993662310736 -0.029806125680363751 0 -0.056346083678702974 -0.028967167913140107 0 -0.058719782022417753 -0.030427420160136005 0 -0.051332957381964021 -0.027306051434187874 0 -0.051421254919061757 -0.03019873187389752 0 -0.044460607082426593 -0.026462088124266071 0 -0.057581120098561471 -0.030803539411404783 0 -0.057616957855835656 -0.031548188472716558 0 -0.058149502152741693 -0.02941132141151483 0 -0.057307993662310736 -0.029806125680363751 0 -0.058404776878600267 -0.03038763822752397 0 -0.058353648159035452 -0.029073887127266707 0 -0.056925775219785868 -0.032446837908989869 0 -0.058719782022417753 -0.030427420160136005 0 -0.05700936707726495 -0.032486137331264972 0 -0.057581120098561471 -0.030803539411404783 0 -0.057616957855835656 -0.031548188472716558 0 -0.042671749000505951 -0.029175953594240005 0 -0.042503371007565016 -0.029496976341445279 0 -0.042251570459169663 -0.02915625117220965 0 -0.042963051872157307 -0.029396123787291468 0 -0.042671749000505951 -0.029175953594240005 0 -0.042503371007565016 -0.029496976341445279 0 -0.031923542142557312 -0.022908352961604546 0 -0.031780656458460531 -0.022776277663513863 0 -0.03198463415712418 -0.022792187709635307 0 -0.031923542142557312 -0.022908352961604546 0 -0.031587887177310203 -0.022765828388280306 0 -0.031780656458460531 -0.022776277663513863 0 -0.036673138464693465 -0.025968499246421108 0 -0.044460607082426593 -0.026462088124266071 0 -0.042963051872157307 -0.029396123787291468 0 -0.042503371007565016 -0.029496976341445279 0 -0.042693515727963184 -0.029798928262505631 0 -0.031923542142557312 -0.022908352961604546 0 -0.031785207143300624 -0.022908120690678928 0 -0.03198463415712418 -0.022792187709635307 0 -0.036673138464693465 -0.025968499246421108 0 -0.036849878163562118 -0.024720043867785556 0 -0.031785207143300624 -0.022908120690678928 0 -0.031887516652674419 -0.022470711140412641 0 -0.03132775632960004 -0.022614996378615033 0 -0.031923542142557312 -0.022908352961604546 0 -0.031785207143300624 -0.022908120690678928 0 -0.031887516652674419 -0.022470711140412641 0 -0.031887516652674419 -0.022470711140412641 0 -0.03163580753825438 -0.021923204339354886 0 -0.031445339589400496 -0.022310839240843816 0 -0.042251570459169663 -0.02915625117220965 0 -0.042670244158021731 -0.028821855665982991 0 -0.041989486176565192 -0.028755761747727086 0 -0.036849878163562118 -0.024720043867785556 0 -0.035471027100813179 -0.032605909852638983 0 -0.042671749000505951 -0.029175953594240005 0 -0.042251570459169663 -0.02915625117220965 0 -0.042670244158021731 -0.028821855665982991 0 -0.043061741923121795 -0.042273730138399822 0 -0.04195622041527302 -0.044584326770146572 0 -0.041167849887920716 -0.042290177581332265 0 -0.04195622041527302 -0.044584326770146572 0 -0.041167849887920716 -0.042290177581332265 0 -0.039521866884462999 -0.04270508699494649 0 -0.042476517516449035 -0.037388106972087165 0 -0.035471027100813179 -0.032605909852638983 0 -0.04195622041527302 -0.044584326770146572 0 -0.039521866884462999 -0.04270508699494649 0 -0.037711116913323919 -0.044173008907808738 0 -0.038263570455058495 -0.041558179598619828 0 -0.039521866884462999 -0.04270508699494649 0 -0.037711116913323919 -0.044173008907808738 0 -0.027702238637232708 -0.035205826584976029 0 -0.028248409715113072 -0.036197141220576864 0 -0.027042045870028713 -0.036087126480875788 0 -0.035471027100813179 -0.032605909852638983 0 -0.025747408182290009 -0.030905583639463736 0 -0.03163580753825438 -0.021923204339354886 0 -0.030819211903958699 -0.021836766645676461 0 -0.031201568886553153 -0.022088839654902423 0 -0.027985169807070741 -0.041957225185918982 0 -0.035471027100813179 -0.032605909852638983 0 -0.030819211903958699 -0.021836766645676461 0 -0.030903878853609387 -0.022124653502890647 0 -0.031201568886553153 -0.022088839654902423 0 -0.030819211903958699 -0.021836766645676461 0 -0.030903878853609387 -0.022124653502890647 0 -0.030698733176639736 -0.022178953531128028 0 -0.025747408182290009 -0.030905583639463736 0 -0.028281430659797897 -0.026637874870373248 0 -0.030903878853609387 -0.022124653502890647 0 -0.030698733176639736 -0.022178953531128028 0 -0.03106396891726201 -0.022315130654917175 0 -0.030903878853609387 -0.022124653502890647 0 -0.03106396891726201 -0.022315130654917175 0 -0.031201568886553153 -0.022088839654902423 0 -0.03106396891726201 -0.022315130654917175 0 -0.031201568886553153 -0.022088839654902423 0 -0.031445339589400496 -0.022310839240843816 0 -0.03163580753825438 -0.021923204339354886 0 -0.031201568886553153 -0.022088839654902423 0 -0.031445339589400496 -0.022310839240843816 0 -0.031887516652674419 -0.022470711140412641 0 -0.031445339589400496 -0.022310839240843816 0 -0.03132775632960004 -0.022614996378615033 0 -0.03106396891726201 -0.022315130654917175 0 -0.031445339589400496 -0.022310839240843816 0 -0.03132775632960004 -0.022614996378615033 0 -0.031785207143300624 -0.022908120690678928 0 -0.031199689703045985 -0.023070045518346571 0 -0.03213906425403746 -0.022839752123733712 0 -0.031785207143300624 -0.022908120690678928 0 -0.03132775632960004 -0.022614996378615033 0 -0.031199689703045985 -0.023070045518346571 0 -0.031199689703045985 -0.023070045518346571 0 -0.030550561271735058 -0.023608343747535933 0 -0.03027728177968049 -0.022611961795575029 0 -0.030550561271735058 -0.023608343747535933 0 -0.03027728177968049 -0.022611961795575029 0 -0.029357402174913429 -0.02444316211971248 0 -0.03132775632960004 -0.022614996378615033 0 -0.031199689703045985 -0.023070045518346571 0 -0.03027728177968049 -0.022611961795575029 0 -0.028281430659797897 -0.026637874870373248 0 -0.029024328157722039 -0.02468650072523355 0 -0.03106396891726201 -0.022315130654917175 0 -0.03132775632960004 -0.022614996378615033 0 -0.03027728177968049 -0.022611961795575029 0 -0.030698733176639736 -0.022178953531128028 0 -0.03106396891726201 -0.022315130654917175 0 -0.03027728177968049 -0.022611961795575029 0 -0.027618135020471331 -0.026886423799343209 0 -0.028115407369400058 -0.028420264131587523 0 -0.02936833907905978 -0.027816332330054476 0 -0.026731698608890089 -0.029432732451090283 0 -0.027618135020471331 -0.026886423799343209 0 -0.028115407369400058 -0.028420264131587523 0 -0.027618135020471331 -0.026886423799343209 0 -0.029285314620098701 -0.026120697875374622 0 -0.02936833907905978 -0.027816332330054476 0 -0.028115407369400058 -0.028420264131587523 0 -0.02936833907905978 -0.027816332330054476 0 -0.028736968637275765 -0.029605771074955722 0 -0.029024328157722039 -0.02468650072523355 0 -0.029218481789769494 -0.024622629133469052 0 -0.027618135020471331 -0.026886423799343209 0 -0.029285314620098701 -0.026120697875374622 0 -0.029357402174913429 -0.02444316211971248 0 -0.029285314620098701 -0.026120697875374622 0 -0.029686107330563583 -0.025388659632422986 0 -0.029357402174913429 -0.02444316211971248 0 -0.030234140951267915 -0.025957048985607668 0 -0.030028745733363327 -0.026648703519581853 0 -0.031322636613672045 -0.027645937933542263 0 -0.031229807874439984 -0.027686596897545449 0 -0.017835306715394229 -0.027923620387692149 0 -0.030234140951267915 -0.025957048985607668 0 -0.029686107330563583 -0.025388659632422986 0 -0.029668961109609683 -0.024767157531581513 0 -0.030234140951267915 -0.025957048985607668 0 -0.029686107330563583 -0.025388659632422986 0 -0.030028745733363327 -0.026648703519581853 0 -0.029285314620098701 -0.026120697875374622 0 -0.029686107330563583 -0.025388659632422986 0 -0.030028745733363327 -0.026648703519581853 0 -0.02936833907905978 -0.027816332330054476 0 -0.0306812588971603 -0.029818451851393035 0 -0.031322636613672045 -0.027645937933542263 0 -0.030028745733363327 -0.026648703519581853 0 -0.02936833907905978 -0.027816332330054476 0 -0.031322636613672045 -0.027645937933542263 0 -0.029285314620098701 -0.026120697875374622 0 -0.030028745733363327 -0.026648703519581853 0 -0.02936833907905978 -0.027816332330054476 0 -0.0306812588971603 -0.029818451851393035 0 -0.029471567102779407 -0.03067136734365122 0 -0.028736968637275765 -0.029605771074955722 0 -0.01801777743320912 -0.029518382010199917 0 -0.017835306715394229 -0.027923620387692149 0 -0.02936833907905978 -0.027816332330054476 0 -0.0306812588971603 -0.029818451851393035 0 -0.028736968637275765 -0.029605771074955722 0 -0.0306812588971603 -0.029818451851393035 0 -0.029471567102779407 -0.03067136734365122 0 -0.029849865049038839 -0.032051484837830387 0 -0.029471567102779407 -0.03067136734365122 0 -0.028736968637275765 -0.029605771074955722 0 -0.028795262296663387 -0.031819665705220754 0 -0.026731698608890089 -0.029432732451090283 0 -0.028115407369400058 -0.028420264131587523 0 -0.028736968637275765 -0.029605771074955722 0 -0.026731698608890089 -0.029432732451090283 0 -0.028736968637275765 -0.029605771074955722 0 -0.028795262296663387 -0.031819665705220754 0 -0.028281430659797897 -0.026637874870373248 0 -0.023518913223511691 -0.033628400716256522 0 -0.020614510710608238 -0.03604944599666083 0 -0.020453363222244884 -0.035847328451080844 0 -0.02072885060703053 -0.035889050318134171 0 -0.025747408182290009 -0.030905583639463736 0 -0.023518913223511691 -0.033628400716256522 0 -0.025560242017213967 -0.030460067979457727 0 -0.025645568474188259 -0.030102660329101499 0 -0.02602220610804834 -0.030524473395962769 0 -0.020614510710608238 -0.03604944599666083 0 -0.02072885060703053 -0.035889050318134171 0 -0.020801158666905364 -0.035979765774354015 0 -0.020769192226407513 -0.034142189182017599 0 -0.018240044624560092 -0.031745129113030165 0 -0.017418502997688972 -0.03383780348022928 0 -0.0052414251025415179 -0.02964569222247353 0 -0.0046171329205272399 -0.03358135055201588 0 -0.0063845348395084166 -0.032176650473992707 0 -0.0052414251025415179 -0.02964569222247353 0 -0.0037106754389351847 -0.033421649896153066 0 -0.0046171329205272399 -0.03358135055201588 0 -0.023518913223511691 -0.033628400716256522 0 -0.015312041280401076 -0.034752764688439776 0 -0.015312041280401076 -0.034752764688439776 0 -0.016042442050426643 -0.032455980489119886 0 -0.0031337179940835506 -0.034840794879122436 0 -0.0036519748255071614 -0.033502575199933667 0 -0.0046171329205272399 -0.03358135055201588 0 -0.00582440849299276 -0.035523492674095394 0 -0.0031337179940835506 -0.034840794879122436 0 -0.0046171329205272399 -0.03358135055201588 0 -0.00582440849299276 -0.035523492674095394 0 -0.0046171329205272399 -0.03358135055201588 0 -0.0060978294447217056 -0.033867001038815195 0 -0.016042442050426643 -0.032455980489119886 0 -0.010856158039067155 -0.032294286024144012 0 -0.01801777743320912 -0.029518382010199917 0 -0.016042442050426643 -0.032455980489119886 0 -0.0046171329205272399 -0.03358135055201588 0 -0.0063845348395084166 -0.032176650473992707 0 -0.0060978294447217056 -0.033867001038815195 0 -0.023518913223511691 -0.033628400716256522 0 -0.016042442050426643 -0.032455980489119886 0 -0.029471567102779407 -0.03067136734365122 0 -0.028795262296663387 -0.031819665705220754 0 -0.029849865049038839 -0.032051484837830387 0 -0.055745792619683772 -0.041632000806703033 0 -0.054928740100979957 -0.04175593311052736 0 -0.055712223557944647 -0.042275943526309631 0 -0.056060595617023111 -0.042215516838394272 0 -0.05634494127079781 -0.041308383105063996 0 -0.056543788404033721 -0.042263850186870268 0 -0.055745792619683772 -0.041632000806703033 0 -0.056060595617023111 -0.042215516838394272 0 -0.05634494127079781 -0.041308383105063996 0 -0.055745792619683772 -0.041632000806703033 0 -0.055712223557944647 -0.042275943526309631 0 -0.056060595617023111 -0.042215516838394272 0 -0.055745792619683772 -0.041632000806703033 0 -0.05634494127079781 -0.041308383105063996 0 -0.055662738361440714 -0.040482206143124408 0 -0.05634494127079781 -0.041308383105063996 0 -0.055662738361440714 -0.040482206143124408 0 -0.056152395270388164 -0.039811444516966027 0 -0.056102549174736019 -0.039102421060361367 0 -0.055231859736254454 -0.038618542147676821 0 -0.054928740100979957 -0.04175593311052736 0 -0.055662738361440714 -0.040482206143124408 0 -0.055021003891545316 -0.038476804166466753 0 -0.057364715507981431 -0.036319881775935002 0 -0.056901014817336351 -0.036917640175462535 0 -0.055021003891545316 -0.038476804166466753 0 -0.055745792619683772 -0.041632000806703033 0 -0.054928740100979957 -0.04175593311052736 0 -0.055662738361440714 -0.040482206143124408 0 -0.057364715507981431 -0.036319881775935002 0 -0.056901014817336351 -0.036917640175462535 0 -0.056416114110426553 -0.036464068393905189 0 -0.056901014817336351 -0.036917640175462535 0 -0.056416114110426553 -0.036464068393905189 0 -0.056222413950054062 -0.034957003362121014 0 -0.054999867408972711 -0.0354442001353477 0 -0.056416114110426553 -0.036464068393905189 0 -0.056222413950054062 -0.034957003362121014 0 -0.054999867408972711 -0.0354442001353477 0 -0.056416114110426553 -0.036464068393905189 0 -0.054999634020406252 -0.038346672990822797 0 -0.056416114110426553 -0.036464068393905189 0 -0.05660018326445098 -0.038119834789774237 0 -0.054999634020406252 -0.038346672990822797 0 -0.057364715507981431 -0.036319881775935002 0 -0.056416114110426553 -0.036464068393905189 0 -0.05660018326445098 -0.038119834789774237 0 -0.057364715507981431 -0.036319881775935002 0 -0.057760164613385581 -0.03927712809760333 0 -0.05660018326445098 -0.038119834789774237 0 -0.057760164613385581 -0.03927712809760333 0 -0.05660018326445098 -0.038119834789774237 0 -0.056191233261877964 -0.040406803530864809 0 -0.05660018326445098 -0.038119834789774237 0 -0.054999634020406252 -0.038346672990822797 0 -0.056191233261877964 -0.040406803530864809 0 -0.054999530919300058 -0.041251076817915656 0 -0.054999634020406252 -0.038346672990822797 0 -0.056191233261877964 -0.040406803530864809 0 -0.056916335172524882 -0.042329950480809397 0 -0.057760164613385581 -0.03927712809760333 0 -0.056191233261877964 -0.040406803530864809 0 -0.056916593134498081 -0.042190565107986196 0 -0.05684726361456223 -0.040877409062344633 0 -0.056795866189759771 -0.042394025819017259 0 -0.056916335172524882 -0.042329950480809397 0 -0.056057119162931837 -0.042609069869733202 0 -0.056795866189759771 -0.042394025819017259 0 -0.056057119162931837 -0.042609069869733202 0 -0.055955761222652056 -0.042651292428494442 0 -0.056324613901507302 -0.042366290859228661 0 -0.055951864962874805 -0.042903893546024571 0 -0.055712223557944647 -0.042275943526309631 0 -0.056057119162931837 -0.042609069869733202 0 -0.055955761222652056 -0.042651292428494442 0 -0.056102549174736019 -0.039102421060361367 0 -0.05684726361456223 -0.040877409062344633 0 -0.054928740100979957 -0.04175593311052736 0 -0.055712223557944647 -0.042275943526309631 0 -0.056057119162931837 -0.042609069869733202 0 -0.056060595617023111 -0.042215516838394272 0 -0.055955761222652056 -0.042651292428494442 0 -0.056216428232735177 -0.042713865167874183 0 -0.055712223557944647 -0.042275943526309631 0 -0.056060595617023111 -0.042215516838394272 0 -0.055955761222652056 -0.042651292428494442 0 -0.055955761222652056 -0.042651292428494442 0 -0.056017338257385828 -0.043072823175123939 0 -0.056216428232735177 -0.042713865167874183 0 -0.055738223140159124 -0.043234112852983411 0 -0.055955761222652056 -0.042651292428494442 0 -0.056017338257385828 -0.043072823175123939 0 -0.056050182097472333 -0.043231474269895556 0 -0.056017338257385828 -0.043072823175123939 0 -0.056198124812093374 -0.042992668986401833 0 -0.056017338257385828 -0.043072823175123939 0 -0.056198124812093374 -0.042992668986401833 0 -0.056216428232735177 -0.042713865167874183 0 -0.056050182097472333 -0.043231474269895556 0 -0.056198124812093374 -0.042992668986401833 0 -0.056172864597492364 -0.043106871395417162 0 -0.056198124812093374 -0.042992668986401833 0 -0.056172864597492364 -0.043106871395417162 0 -0.056422036732331163 -0.042789597676981109 0 -0.056172864597492364 -0.043106871395417162 0 -0.056422036732331163 -0.042789597676981109 0 -0.056268580624069295 -0.042982837326233703 0 -0.056422036732331163 -0.042789597676981109 0 -0.056268580624069295 -0.042982837326233703 0 -0.056779696452550411 -0.042544273010053847 0 -0.056422036732331163 -0.042789597676981109 0 -0.056216428232735177 -0.042713865167874183 0 -0.056543788404033721 -0.042263850186870268 0 -0.056060595617023111 -0.042215516838394272 0 -0.056216428232735177 -0.042713865167874183 0 -0.056543788404033721 -0.042263850186870268 0 -0.056198124812093374 -0.042992668986401833 0 -0.056422036732331163 -0.042789597676981109 0 -0.056216428232735177 -0.042713865167874183 0 -0.056351386709370059 -0.044135031828593754 0 -0.055298509664731571 -0.043222838256280288 0 -0.054895483821472427 -0.043620023783150538 0 -0.055790621202295464 -0.043309171938262704 0 -0.055585471379964793 -0.043393266503995907 0 -0.056172864597492364 -0.043106871395417162 0 -0.055790621202295464 -0.043309171938262704 0 -0.056268580624069295 -0.042982837326233703 0 -0.05596953555299302 -0.043301080041450404 0 -0.056172864597492364 -0.043106871395417162 0 -0.055790621202295464 -0.043309171938262704 0 -0.056268580624069295 -0.042982837326233703 0 -0.055585471379964793 -0.043393266503995907 0 -0.056179227093773321 -0.042981824826025805 0 -0.055790621202295464 -0.043309171938262704 0 -0.056268580624069295 -0.042982837326233703 0 -0.055585471379964793 -0.043393266503995907 0 -0.055223517327948148 -0.043579393212466969 0 -0.055585471379964793 -0.043393266503995907 0 -0.055687743395820916 -0.043301957595128143 0 -0.055585471379964793 -0.043393266503995907 0 -0.055687743395820916 -0.043301957595128143 0 -0.056179227093773321 -0.042981824826025805 0 -0.055687743395820916 -0.043301957595128143 0 -0.056254753628972469 -0.042891072083334141 0 -0.055974451366565738 -0.043142228514655122 0 -0.055687743395820916 -0.043301957595128143 0 -0.056179227093773321 -0.042981824826025805 0 -0.056254753628972469 -0.042891072083334141 0 -0.056179227093773321 -0.042981824826025805 0 -0.056254753628972469 -0.042891072083334141 0 -0.056779696452550411 -0.042544273010053847 0 -0.056254753628972469 -0.042891072083334141 0 -0.056779696452550411 -0.042544273010053847 0 -0.057373750123951746 -0.042186405645341561 0 -0.056268580624069295 -0.042982837326233703 0 -0.056179227093773321 -0.042981824826025805 0 -0.056779696452550411 -0.042544273010053847 0 -0.056254753628972469 -0.042891072083334141 0 -0.056167842786013861 -0.043049862650146688 0 -0.057373750123951746 -0.042186405645341561 0 -0.056254753628972469 -0.042891072083334141 0 -0.055974451366565738 -0.043142228514655122 0 -0.056167842786013861 -0.043049862650146688 0 -0.056167842786013861 -0.043049862650146688 0 -0.055668108699998796 -0.042754243329548365 0 -0.055794897156332512 -0.043385194340988274 0 -0.055974451366565738 -0.043142228514655122 0 -0.056167842786013861 -0.043049862650146688 0 -0.05577116372953371 -0.043352015859157357 0 -0.056489024551197815 -0.043426878365585599 0 -0.053141296625828921 -0.041980468711052897 0 -0.055687743395820916 -0.043301957595128143 0 -0.055974451366565738 -0.043142228514655122 0 -0.05577116372953371 -0.043352015859157357 0 -0.05634494127079781 -0.041308383105063996 0 -0.056543788404033721 -0.042263850186870268 0 -0.056945424271478827 -0.041907681803088563 0 -0.056422036732331163 -0.042789597676981109 0 -0.056543788404033721 -0.042263850186870268 0 -0.056779696452550411 -0.042544273010053847 0 -0.056543788404033721 -0.042263850186870268 0 -0.056779696452550411 -0.042544273010053847 0 -0.056945424271478827 -0.041907681803088563 0 -0.056779696452550411 -0.042544273010053847 0 -0.057373750123951746 -0.042186405645341561 0 -0.056945424271478827 -0.041907681803088563 0 -0.057373750123951746 -0.042186405645341561 0 -0.057152471678202706 -0.040786300016091029 0 -0.056945424271478827 -0.041907681803088563 0 -0.05634494127079781 -0.041308383105063996 0 -0.057152471678202706 -0.040786300016091029 0 -0.056152395270388164 -0.039811444516966027 0 -0.05634494127079781 -0.041308383105063996 0 -0.057152471678202706 -0.040786300016091029 0 -0.056945424271478827 -0.041907681803088563 0 -0.057152471678202706 -0.040786300016091029 0 -0.056959381364504229 -0.039040349341259932 0 -0.058966570709947527 -0.039200036189159314 0 -0.057152471678202706 -0.040786300016091029 0 -0.056959381364504229 -0.039040349341259932 0 -0.056152395270388164 -0.039811444516966027 0 -0.057373750123951746 -0.042186405645341561 0 -0.057152471678202706 -0.040786300016091029 0 -0.058966570709947527 -0.039200036189159314 0 -0.057534044279695273 -0.041700616185757232 0 -0.058195797840145232 -0.042157761872207732 0 -0.058195797840145232 -0.042157761872207732 0 -0.056785434477361264 -0.036942967319657939 0 -0.057294633714078502 -0.043673405182528172 0 -0.056491942876175649 -0.044284960383689051 0 -0.057249100575163379 -0.0446301163843114 0 -0.058966570709947527 -0.039200036189159314 0 -0.0580525922741158 -0.037576893868730518 0 -0.059541462756026182 -0.036598568380818604 0 -0.056959381364504229 -0.039040349341259932 0 -0.058966570709947527 -0.039200036189159314 0 -0.0580525922741158 -0.037576893868730518 0 -0.0580525922741158 -0.037576893868730518 0 -0.057158218355548088 -0.036723000961122125 0 -0.056635494375942348 -0.037870179926838707 0 -0.056959381364504229 -0.039040349341259932 0 -0.0580525922741158 -0.037576893868730518 0 -0.056635494375942348 -0.037870179926838707 0 -0.055205582651316358 -0.043619513169281442 0 -0.055668108699998796 -0.042754243329548365 0 -0.055794897156332512 -0.043385194340988274 0 -0.055205582651316358 -0.043619513169281442 0 -0.055709155576685786 -0.043713922520677351 0 -0.055794897156332512 -0.043385194340988274 0 -0.055205582651316358 -0.043619513169281442 0 -0.055709155576685786 -0.043713922520677351 0 -0.055720613902105927 -0.04389655299829473 0 -0.056167842786013861 -0.043049862650146688 0 -0.055794897156332512 -0.043385194340988274 0 -0.056435925311835708 -0.043525075082408354 0 -0.055709155576685786 -0.043713922520677351 0 -0.055794897156332512 -0.043385194340988274 0 -0.056069456434021843 -0.043770260139607768 0 -0.055794897156332512 -0.043385194340988274 0 -0.056435925311835708 -0.043525075082408354 0 -0.056069456434021843 -0.043770260139607768 0 -0.056167842786013861 -0.043049862650146688 0 -0.057373750123951746 -0.042186405645341561 0 -0.056435925311835708 -0.043525075082408354 0 -0.057373750123951746 -0.042186405645341561 0 -0.057294633714078502 -0.043673405182528172 0 -0.056435925311835708 -0.043525075082408354 0 -0.056435925311835708 -0.043525075082408354 0 -0.056491942876175649 -0.044284960383689051 0 -0.056069456434021843 -0.043770260139607768 0 -0.057294633714078502 -0.043673405182528172 0 -0.056435925311835708 -0.043525075082408354 0 -0.056491942876175649 -0.044284960383689051 0 -0.053816663663666602 -0.032999193012236805 0 -0.055239052817169905 -0.032925121992821084 0 -0.055419705208969876 -0.033829337118621974 0 -0.054985531472328063 -0.038566467850034744 0 -0.055126178944006184 -0.039388623412780981 0 -0.056491942876175649 -0.044284960383689051 0 -0.056069456434021843 -0.043770260139607768 0 -0.055720613902105927 -0.04389655299829473 0 -0.053816663663666602 -0.032999193012236805 0 -0.055239052817169905 -0.032925121992821084 0 -0.055536959047119853 -0.031857680423983459 0 -0.056164743174678115 -0.03300880690035702 0 -0.055239052817169905 -0.032925121992821084 0 -0.055536959047119853 -0.031857680423983459 0 -0.056164743174678115 -0.03300880690035702 0 -0.055239052817169905 -0.032925121992821084 0 -0.055419705208969876 -0.033829337118621974 0 -0.055709155576685786 -0.043713922520677351 0 -0.056069456434021843 -0.043770260139607768 0 -0.055720613902105927 -0.04389655299829473 0 -0.053816663663666602 -0.032999193012236805 0 -0.055536959047119853 -0.031857680423983459 0 -0.053814371241244413 -0.03113966920233259 0 -0.055536959047119853 -0.031857680423983459 0 -0.053814371241244413 -0.03113966920233259 0 -0.054921066728436829 -0.030630448854254685 0 -0.054985531472328063 -0.038566467850034744 0 -0.056785434477361264 -0.036942967319657939 0 -0.053816663663666602 -0.032999193012236805 0 -0.053814371241244413 -0.03113966920233259 0 -0.05214714558152176 -0.03210000246826749 0 -0.053814371241244413 -0.03113966920233259 0 -0.054316189234866447 -0.029254210672821607 0 -0.05202207697517218 -0.029754415233232252 0 -0.053814371241244413 -0.03113966920233259 0 -0.054316189234866447 -0.029254210672821607 0 -0.054921066728436829 -0.030630448854254685 0 -0.056005543753847219 -0.030247048283697592 0 -0.054316189234866447 -0.029254210672821607 0 -0.054921066728436829 -0.030630448854254685 0 -0.056005543753847219 -0.030247048283697592 0 -0.054316189234866447 -0.029254210672821607 0 -0.056346083678702974 -0.028967167913140107 0 -0.056005543753847219 -0.030247048283697592 0 -0.055536959047119853 -0.031857680423983459 0 -0.054921066728436829 -0.030630448854254685 0 -0.058607969993354499 -0.035638576267564608 0 -0.057158218355548088 -0.036723000961122125 0 -0.056771002476134161 -0.035262815773732949 0 -0.0580525922741158 -0.037576893868730518 0 -0.058607969993354499 -0.035638576267564608 0 -0.057158218355548088 -0.036723000961122125 0 -0.056785434477361264 -0.036942967319657939 0 -0.056229223296596569 -0.031088182740328277 0 -0.0580525922741158 -0.037576893868730518 0 -0.058607969993354499 -0.035638576267564608 0 -0.059541462756026182 -0.036598568380818604 0 -0.058607969993354499 -0.035638576267564608 0 -0.060503283088845651 -0.036709818789001057 0 -0.060490038113059703 -0.033574934005324152 0 -0.053814371241244413 -0.03113966920233259 0 -0.05214714558152176 -0.03210000246826749 0 -0.05202207697517218 -0.029754415233232252 0 -0.059318197974934643 -0.036351201717065011 0 -0.056785434477361264 -0.036942967319657939 0 -0.058607969993354499 -0.035638576267564608 0 -0.05812991367781075 -0.034224795976007812 0 -0.056771002476134161 -0.035262815773732949 0 -0.060490038113059703 -0.033574934005324152 0 -0.05812991367781075 -0.034224795976007812 0 -0.058358496864944952 -0.032531528249614521 0 -0.058607969993354499 -0.035638576267564608 0 -0.060490038113059703 -0.033574934005324152 0 -0.05812991367781075 -0.034224795976007812 0 -0.05812991367781075 -0.034224795976007812 0 -0.057122714051438712 -0.033612491485184207 0 -0.058358496864944952 -0.032531528249614521 0 -0.057122714051438712 -0.033612491485184207 0 -0.055713583318213786 -0.033571734183702115 0 -0.056837896266127584 -0.032240455770492678 0 -0.057122714051438712 -0.033612491485184207 0 -0.055713583318213786 -0.033571734183702115 0 -0.056771002476134161 -0.035262815773732949 0 -0.055713583318213786 -0.033571734183702115 0 -0.055370909322947019 -0.035441955293983238 0 -0.056771002476134161 -0.035262815773732949 0 -0.05812991367781075 -0.034224795976007812 0 -0.057122714051438712 -0.033612491485184207 0 -0.056771002476134161 -0.035262815773732949 0 -0.054542939539139065 -0.033048086020720006 0 -0.055713583318213786 -0.033571734183702115 0 -0.053934082298530646 -0.034409443713182025 0 -0.055713583318213786 -0.033571734183702115 0 -0.055370909322947019 -0.035441955293983238 0 -0.053934082298530646 -0.034409443713182025 0 -0.054444563004028584 -0.036654551860708637 0 -0.055370909322947019 -0.035441955293983238 0 -0.053934082298530646 -0.034409443713182025 0 -0.054444563004028584 -0.036654551860708637 0 -0.055370909322947019 -0.035441955293983238 0 -0.055896866581235861 -0.037053496400832775 0 -0.055370909322947019 -0.035441955293983238 0 -0.056771002476134161 -0.035262815773732949 0 -0.055896866581235861 -0.037053496400832775 0 -0.057158218355548088 -0.036723000961122125 0 -0.056771002476134161 -0.035262815773732949 0 -0.055896866581235861 -0.037053496400832775 0 -0.056959381364504229 -0.039040349341259932 0 -0.056635494375942348 -0.037870179926838707 0 -0.055814601454062647 -0.038505551257078753 0 -0.057158218355548088 -0.036723000961122125 0 -0.056635494375942348 -0.037870179926838707 0 -0.055896866581235861 -0.037053496400832775 0 -0.056635494375942348 -0.037870179926838707 0 -0.055896866581235861 -0.037053496400832775 0 -0.055814601454062647 -0.038505551257078753 0 -0.054444563004028584 -0.036654551860708637 0 -0.055037835645708515 -0.038013665896427289 0 -0.05417752163092996 -0.038559686512663782 0 -0.054444563004028584 -0.036654551860708637 0 -0.055896866581235861 -0.037053496400832775 0 -0.055037835645708515 -0.038013665896427289 0 -0.055896866581235861 -0.037053496400832775 0 -0.055037835645708515 -0.038013665896427289 0 -0.055814601454062647 -0.038505551257078753 0 -0.055037835645708515 -0.038013665896427289 0 -0.055021003891545316 -0.038476804166466753 0 -0.055814601454062647 -0.038505551257078753 0 -0.055662738361440714 -0.040482206143124408 0 -0.055021003891545316 -0.038476804166466753 0 -0.056152395270388164 -0.039811444516966027 0 -0.055037835645708515 -0.038013665896427289 0 -0.055021003891545316 -0.038476804166466753 0 -0.05417752163092996 -0.038559686512663782 0 -0.056959381364504229 -0.039040349341259932 0 -0.056152395270388164 -0.039811444516966027 0 -0.055814601454062647 -0.038505551257078753 0 -0.055021003891545316 -0.038476804166466753 0 -0.056152395270388164 -0.039811444516966027 0 -0.055814601454062647 -0.038505551257078753 0 -0.056222413950054062 -0.034957003362121014 0 -0.057379730143350162 -0.032772106417846968 0 -0.054999504432908339 -0.032540439373983189 0 -0.054999867408972711 -0.0354442001353477 0 -0.056222413950054062 -0.034957003362121014 0 -0.054999504432908339 -0.032540439373983189 0 -0.056901014817336351 -0.036917640175462535 0 -0.055021003891545316 -0.038476804166466753 0 -0.05417752163092996 -0.038559686512663782 0 -0.056685030380519079 -0.036673921323319855 0 -0.055780767251554092 -0.035448085869657468 0 -0.056901014817336351 -0.036917640175462535 0 -0.056222413950054062 -0.034957003362121014 0 -0.057379730143350162 -0.032772106417846968 0 -0.055780767251554092 -0.035448085869657468 0 -0.054284466311616424 -0.03273604987395444 0 -0.057379730143350162 -0.032772106417846968 0 -0.056165373752652348 -0.031409875708510254 0 -0.056715572266873807 -0.029610513491506944 0 -0.057379730143350162 -0.032772106417846968 0 -0.056165373752652348 -0.031409875708510254 0 -0.054999504432908339 -0.032540439373983189 0 -0.056165373752652348 -0.031409875708510254 0 -0.054999504432908339 -0.032540439373983189 0 -0.055000022687250821 -0.029636139072662489 0 -0.056165373752652348 -0.031409875708510254 0 -0.055000022687250821 -0.029636139072662489 0 -0.056715572266873807 -0.029610513491506944 0 -0.054444563004028584 -0.036654551860708637 0 -0.05417752163092996 -0.038559686512663782 0 -0.052125269776971302 -0.035521398527526823 0 -0.054444563004028584 -0.036654551860708637 0 -0.052125269776971302 -0.035521398527526823 0 -0.053934082298530646 -0.034409443713182025 0 -0.052125269776971302 -0.035521398527526823 0 -0.053934082298530646 -0.034409443713182025 0 -0.05218696962743806 -0.033409038242747748 0 -0.053934082298530646 -0.034409443713182025 0 -0.05218696962743806 -0.033409038242747748 0 -0.053291227133699492 -0.03299461668543225 0 -0.054542939539139065 -0.033048086020720006 0 -0.053934082298530646 -0.034409443713182025 0 -0.053291227133699492 -0.03299461668543225 0 -0.055000022687250821 -0.029636139072662489 0 -0.056715572266873807 -0.029610513491506944 0 -0.055637713478841402 -0.027995004917609884 0 -0.055000022687250821 -0.029636139072662489 0 -0.055637713478841402 -0.027995004917609884 0 -0.054999973023715037 -0.02673257284956972 0 -0.056715572266873807 -0.029610513491506944 0 -0.055637713478841402 -0.027995004917609884 0 -0.055862639006552417 -0.026725580249259639 0 -0.052125269776971302 -0.035521398527526823 0 -0.05218696962743806 -0.033409038242747748 0 -0.050532311502214364 -0.031849761004240501 0 -0.054284466311616424 -0.03273604987395444 0 -0.054451788346816625 -0.028210986057602999 0 -0.055637713478841402 -0.027995004917609884 0 -0.054999973023715037 -0.02673257284956972 0 -0.05561345940046681 -0.027269399521516659 0 -0.055637713478841402 -0.027995004917609884 0 -0.05561345940046681 -0.027269399521516659 0 -0.055862639006552417 -0.026725580249259639 0 -0.054999973023715037 -0.02673257284956972 0 -0.05561345940046681 -0.027269399521516659 0 -0.055866040531754452 -0.026721792428501243 0 -0.055029060574152883 -0.02735081926049782 0 -0.054451788346816625 -0.028210986057602999 0 -0.050532311502214364 -0.031849761004240501 0 -0.05208389206964615 -0.032026360059382301 0 -0.05252725746135882 -0.030464076361589622 0 -0.05218696962743806 -0.033409038242747748 0 -0.050532311502214364 -0.031849761004240501 0 -0.05208389206964615 -0.032026360059382301 0 -0.05218696962743806 -0.033409038242747748 0 -0.053291227133699492 -0.03299461668543225 0 -0.05208389206964615 -0.032026360059382301 0 -0.05208389206964615 -0.032026360059382301 0 -0.053573783424284496 -0.032030784107806472 0 -0.052987582983551294 -0.031280593691208954 0 -0.054542939539139065 -0.033048086020720006 0 -0.053291227133699492 -0.03299461668543225 0 -0.053573783424284496 -0.032030784107806472 0 -0.053291227133699492 -0.03299461668543225 0 -0.05208389206964615 -0.032026360059382301 0 -0.053573783424284496 -0.032030784107806472 0 -0.053573783424284496 -0.032030784107806472 0 -0.052987582983551294 -0.031280593691208954 0 -0.053773740381478981 -0.030571201248623461 0 -0.052987582983551294 -0.031280593691208954 0 -0.053773740381478981 -0.030571201248623461 0 -0.05252725746135882 -0.030464076361589622 0 -0.05208389206964615 -0.032026360059382301 0 -0.052987582983551294 -0.031280593691208954 0 -0.05252725746135882 -0.030464076361589622 0 -0.05252725746135882 -0.030464076361589622 0 -0.054152965400794152 -0.028908975185349996 0 -0.051907013663100736 -0.027892703805133409 0 -0.050532311502214364 -0.031849761004240501 0 -0.05252725746135882 -0.030464076361589622 0 -0.051907013663100736 -0.027892703805133409 0 -0.053773740381478981 -0.030571201248623461 0 -0.05252725746135882 -0.030464076361589622 0 -0.054152965400794152 -0.028908975185349996 0 -0.054999973023715037 -0.02673257284956972 0 -0.055866040531754452 -0.026721792428501243 0 -0.055000004535432447 -0.023828926702614259 0 -0.054451788346816625 -0.028210986057602999 0 -0.055000484563000857 -0.023827186276094984 0 -0.054451788346816625 -0.028210986057602999 0 -0.054132083788371109 -0.026205966044943067 0 -0.055718537847111643 -0.026289423401060972 0 -0.056712378507313574 -0.024098752749223479 0 -0.05499959857599164 -0.02382813172264427 0 -0.056837896266127584 -0.032240455770492678 0 -0.05556533114907302 -0.031022173000042109 0 -0.058016431314853754 -0.030705379043086695 0 -0.055713583318213786 -0.033571734183702115 0 -0.056837896266127584 -0.032240455770492678 0 -0.05556533114907302 -0.031022173000042109 0 -0.057122714051438712 -0.033612491485184207 0 -0.056837896266127584 -0.032240455770492678 0 -0.058358496864944952 -0.032531528249614521 0 -0.054542939539139065 -0.033048086020720006 0 -0.055713583318213786 -0.033571734183702115 0 -0.05556533114907302 -0.031022173000042109 0 -0.054542939539139065 -0.033048086020720006 0 -0.053573783424284496 -0.032030784107806472 0 -0.05556533114907302 -0.031022173000042109 0 -0.053573783424284496 -0.032030784107806472 0 -0.053773740381478981 -0.030571201248623461 0 -0.05556533114907302 -0.031022173000042109 0 -0.054057486407099703 -0.028818183039374747 0 -0.058722710196350808 -0.027896491054489429 0 -0.054152965400794152 -0.028908975185349996 0 -0.05556533114907302 -0.031022173000042109 0 -0.057133515239067477 -0.028953953488699068 0 -0.053773740381478981 -0.030571201248623461 0 -0.054152965400794152 -0.028908975185349996 0 -0.05556533114907302 -0.031022173000042109 0 -0.05556533114907302 -0.031022173000042109 0 -0.057133515239067477 -0.028953953488699068 0 -0.058016431314853754 -0.030705379043086695 0 -0.05954276065286513 -0.026437555084068674 0 -0.056085800016861996 -0.025415649142564643 0 -0.059532667475901399 -0.021605452288210193 0 -0.054152965400794152 -0.028908975185349996 0 -0.05954276065286513 -0.026437555084068674 0 -0.056085800016861996 -0.025415649142564643 0 -0.056085800016861996 -0.025415649142564643 0 -0.059532667475901399 -0.021605452288210193 0 -0.054530600928123577 -0.02298380320075771 0 -0.059532667475901399 -0.021605452288210193 0 -0.054530600928123577 -0.02298380320075771 0 -0.057449254341368529 -0.019240773196011543 0 -0.056060249049138415 -0.022291353343491627 0 -0.05499959857599164 -0.02382813172264427 0 -0.054999721784906128 -0.021030247854464671 0 -0.056712378507313574 -0.024098752749223479 0 -0.056060249049138415 -0.022291353343491627 0 -0.05499959857599164 -0.02382813172264427 0 -0.054152965400794152 -0.028908975185349996 0 -0.051907013663100736 -0.027892703805133409 0 -0.056085800016861996 -0.025415649142564643 0 -0.056712378507313574 -0.024098752749223479 0 -0.056060249049138415 -0.022291353343491627 0 -0.057446762496826433 -0.021469382045894419 0 -0.054132083788371109 -0.026205966044943067 0 -0.056009806796477844 -0.022233929334451234 0 -0.051907013663100736 -0.027892703805133409 0 -0.056085800016861996 -0.025415649142564643 0 -0.054530600928123577 -0.02298380320075771 0 -0.056060249049138415 -0.022291353343491627 0 -0.057446762496826433 -0.021469382045894419 0 -0.056375669118262667 -0.019874453075591696 0 -0.056060249049138415 -0.022291353343491627 0 -0.054999721784906128 -0.021030247854464671 0 -0.056375669118262667 -0.019874453075591696 0 -0.054999721784906128 -0.021030247854464671 0 -0.054999631940320495 -0.018231776381464421 0 -0.056375669118262667 -0.019874453075591696 0 -0.054999631940320495 -0.018231776381464421 0 -0.056375669118262667 -0.019874453075591696 0 -0.056762848378764302 -0.017275072384755712 0 -0.056375669118262667 -0.019874453075591696 0 -0.057449254341368529 -0.019240773196011543 0 -0.056762848378764302 -0.017275072384755712 0 -0.057446762496826433 -0.021469382045894419 0 -0.056375669118262667 -0.019874453075591696 0 -0.057449254341368529 -0.019240773196011543 0 -0.056009806796477844 -0.022233929334451234 0 -0.057290670533597168 -0.019538281482933451 0 -0.059532667475901399 -0.021605452288210193 0 -0.057449254341368529 -0.019240773196011543 0 -0.059972787238685335 -0.017957297142939338 0 -0.057449254341368529 -0.019240773196011543 0 -0.058386241529997912 -0.017445499797126385 0 -0.059972787238685335 -0.017957297142939338 0 -0.057449254341368529 -0.019240773196011543 0 -0.058386241529997912 -0.017445499797126385 0 -0.056762848378764302 -0.017275072384755712 0 -0.058386241529997912 -0.017445499797126385 0 -0.057989739970449268 -0.016029382593083709 0 -0.056762848378764302 -0.017275072384755712 0 -0.058386241529997912 -0.017445499797126385 0 -0.057989739970449268 -0.016029382593083709 0 -0.059642313195963699 -0.016211064895451429 0 -0.058386241529997912 -0.017445499797126385 0 -0.059642313195963699 -0.016211064895451429 0 -0.059972787238685335 -0.017957297142939338 0 -0.057989739970449268 -0.016029382593083709 0 -0.05882244505331493 -0.015061847898643231 0 -0.059642313195963699 -0.016211064895451429 0 -0.05882244505331493 -0.015061847898643231 0 -0.059642313195963699 -0.016211064895451429 0 -0.059554322618321977 -0.014641353965794959 0 -0.057989739970449268 -0.016029382593083709 0 -0.05882244505331493 -0.015061847898643231 0 -0.057929774947315778 -0.014570682252306693 0 -0.057989739970449268 -0.016029382593083709 0 -0.057929774947315778 -0.014570682252306693 0 -0.056621993918656841 -0.01462290490525099 0 -0.056621993918656841 -0.01462290490525099 0 -0.054999660051229977 -0.01543377644931433 0 -0.054999740281348526 -0.012634972562240145 0 -0.054999631940320495 -0.018231776381464421 0 -0.054999660051229977 -0.01543377644931433 0 -0.056762848378764302 -0.017275072384755712 0 -0.056621993918656841 -0.01462290490525099 0 -0.054999660051229977 -0.01543377644931433 0 -0.056762848378764302 -0.017275072384755712 0 -0.057989739970449268 -0.016029382593083709 0 -0.056621993918656841 -0.01462290490525099 0 -0.056762848378764302 -0.017275072384755712 0 -0.061791918254827327 -0.016459818449234033 0 -0.061031969281711548 -0.016115440150397772 0 -0.061003420588667825 -0.017278904874287539 0 -0.061031969281711548 -0.016115440150397772 0 -0.060523549304243307 -0.016432895813672941 0 -0.061003420588667825 -0.017278904874287539 0 -0.061791918254827327 -0.016459818449234033 0 -0.061003420588667825 -0.017278904874287539 0 -0.061561888601345281 -0.018010593742410569 0 -0.06131235062573024 -0.015927059169191661 0 -0.060836570561158765 -0.014787702480374389 0 -0.061791918254827327 -0.016459818449234033 0 -0.061031969281711548 -0.016115440150397772 0 -0.060862500161402121 -0.014675724042101804 0 -0.061031969281711548 -0.016115440150397772 0 -0.060314230330414602 -0.015066646263389775 0 -0.060523549304243307 -0.016432895813672941 0 -0.061031969281711548 -0.016115440150397772 0 -0.060314230330414602 -0.015066646263389775 0 -0.060862500161402121 -0.014675724042101804 0 -0.060314230330414602 -0.015066646263389775 0 -0.059642313195963699 -0.016211064895451429 0 -0.059554322618321977 -0.014641353965794959 0 -0.060314230330414602 -0.015066646263389775 0 -0.059642313195963699 -0.016211064895451429 0 -0.060523549304243307 -0.016432895813672941 0 -0.059642313195963699 -0.016211064895451429 0 -0.059972787238685335 -0.017957297142939338 0 -0.060386116152985024 -0.017321834780171352 0 -0.059642313195963699 -0.016211064895451429 0 -0.060523549304243307 -0.016432895813672941 0 -0.060386116152985024 -0.017321834780171352 0 -0.060523549304243307 -0.016432895813672941 0 -0.060386116152985024 -0.017321834780171352 0 -0.061003420588667825 -0.017278904874287539 0 -0.060579499118455747 -0.017837654786354452 0 -0.060386116152985024 -0.017321834780171352 0 -0.061003420588667825 -0.017278904874287539 0 -0.060579499118455747 -0.017837654786354452 0 -0.059972787238685335 -0.017957297142939338 0 -0.060386116152985024 -0.017321834780171352 0 -0.061558584696692696 -0.018730288902303247 0 -0.060048895903324316 -0.01802978626838659 0 -0.059532667475901399 -0.021605452288210193 0 -0.059972787238685335 -0.017957297142939338 0 -0.061334219814693398 -0.02020768950618404 0 -0.062794509459285913 -0.01963988176224693 0 -0.059972787238685335 -0.017957297142939338 0 -0.061334219814693398 -0.02020768950618404 0 -0.062794509459285913 -0.01963988176224693 0 -0.062912584199616609 -0.020710425524068182 0 -0.062823441935994512 -0.020480391728002173 0 -0.062794509459285913 -0.01963988176224693 0 -0.061334219814693398 -0.02020768950618404 0 -0.062912584199616609 -0.020710425524068182 0 -0.062912584199616609 -0.020710425524068182 0 -0.062823441935994512 -0.020480391728002173 0 -0.06273681179623955 -0.02041549367643378 0 -0.061558584696692696 -0.018730288902303247 0 -0.06198881453684521 -0.019334264937133191 0 -0.060579499118455747 -0.017837654786354452 0 -0.061152989142574256 -0.018261599400549066 0 -0.061003420588667825 -0.017278904874287539 0 -0.061152989142574256 -0.018261599400549066 0 -0.061003420588667825 -0.017278904874287539 0 -0.061561888601345281 -0.018010593742410569 0 -0.061152989142574256 -0.018261599400549066 0 -0.061561888601345281 -0.018010593742410569 0 -0.061515934165975068 -0.018842562426164625 0 -0.06198881453684521 -0.019334264937133191 0 -0.061909126616327782 -0.019619176923206288 0 -0.062823441935994512 -0.020480391728002173 0 -0.062484113209650249 -0.020155981805255383 0 -0.062202354480297879 -0.020314508150529698 0 -0.062823441935994512 -0.020480391728002173 0 -0.06273681179623955 -0.02041549367643378 0 -0.062484113209650249 -0.020155981805255383 0 -0.054823486105429774 -0.024198420084019803 0 -0.051989851386641889 -0.024982616573225966 0 -0.053959598919119153 -0.026750629647214079 0 -0.06273681179623955 -0.02041549367643378 0 -0.062484113209650249 -0.020155981805255383 0 -0.0628099591084261 -0.020256197280070935 0 -0.058150151235608849 -0.021873794854775832 0 -0.059737182072496328 -0.024940299718381444 0 -0.054823486105429774 -0.024198420084019803 0 -0.056003908120828026 -0.026016951202429906 0 -0.056803739222260702 -0.024741394625756627 0 -0.054823486105429774 -0.024198420084019803 0 -0.053959598919119153 -0.026750629647214079 0 -0.056003908120828026 -0.026016951202429906 0 -0.061334219814693398 -0.02020768950618404 0 -0.062912584199616609 -0.020710425524068182 0 -0.061624959795365739 -0.022809096066733307 0 -0.059532667475901399 -0.021605452288210193 0 -0.061334219814693398 -0.02020768950618404 0 -0.061624959795365739 -0.022809096066733307 0 -0.05954276065286513 -0.026437555084068674 0 -0.059532667475901399 -0.021605452288210193 0 -0.061624959795365739 -0.022809096066733307 0 -0.062912584199616609 -0.020710425524068182 0 -0.06273681179623955 -0.02041549367643378 0 -0.0628099591084261 -0.020256197280070935 0 -0.062912584199616609 -0.020710425524068182 0 -0.061624959795365739 -0.022809096066733307 0 -0.06362952958034733 -0.024844052816034357 0 -0.063681444028329856 -0.019892393150810456 0 -0.059737182072496328 -0.024940299718381444 0 -0.05954276065286513 -0.026437555084068674 0 -0.061624959795365739 -0.022809096066733307 0 -0.06362952958034733 -0.024844052816034357 0 -0.058722710196350808 -0.027896491054489429 0 -0.059737182072496328 -0.024940299718381444 0 -0.057133515239067477 -0.028953953488699068 0 -0.060379663746941183 -0.028174954144859612 0 -0.058016431314853754 -0.030705379043086695 0 -0.051989851386641889 -0.024982616573225966 0 -0.051957506878302105 -0.027346133644120529 0 -0.053959598919119153 -0.026750629647214079 0 -0.059737182072496328 -0.024940299718381444 0 -0.055988964687879547 -0.029486307415065149 0 -0.060379663746941183 -0.028174954144859612 0 -0.058016431314853754 -0.030705379043086695 0 -0.060467734199551551 -0.030787952154546244 0 -0.056229223296596569 -0.031088182740328277 0 -0.055988964687879547 -0.029486307415065149 0 -0.05202207697517218 -0.029754415233232252 0 -0.051957506878302105 -0.027346133644120529 0 -0.053062072717170533 -0.028276721813688111 0 -0.060490038113059703 -0.033574934005324152 0 -0.060467734199551551 -0.030787952154546244 0 -0.058358496864944952 -0.032531528249614521 0 -0.058016431314853754 -0.030705379043086695 0 -0.060467734199551551 -0.030787952154546244 0 -0.058358496864944952 -0.032531528249614521 0 -0.056837896266127584 -0.032240455770492678 0 -0.058016431314853754 -0.030705379043086695 0 -0.058358496864944952 -0.032531528249614521 0 -0.053959598919119153 -0.026750629647214079 0 -0.055781934991329475 -0.027647968453302727 0 -0.056003908120828026 -0.026016951202429906 0 -0.054316189234866447 -0.029254210672821607 0 -0.053959598919119153 -0.026750629647214079 0 -0.053062072717170533 -0.028276721813688111 0 -0.054316189234866447 -0.029254210672821607 0 -0.05202207697517218 -0.029754415233232252 0 -0.053062072717170533 -0.028276721813688111 0 -0.051957506878302105 -0.027346133644120529 0 -0.053959598919119153 -0.026750629647214079 0 -0.053062072717170533 -0.028276721813688111 0 -0.054316189234866447 -0.029254210672821607 0 -0.055781934991329475 -0.027647968453302727 0 -0.056346083678702974 -0.028967167913140107 0 -0.054316189234866447 -0.029254210672821607 0 -0.053959598919119153 -0.026750629647214079 0 -0.055781934991329475 -0.027647968453302727 0 -0.057307993662310736 -0.029806125680363751 0 -0.056346083678702974 -0.028967167913140107 0 -0.057702202299187488 -0.028744050934665224 0 -0.056346083678702974 -0.028967167913140107 0 -0.057702202299187488 -0.028744050934665224 0 -0.057032042004455274 -0.02807412410982732 0 -0.057032042004455274 -0.02807412410982732 0 -0.057222357798976824 -0.027028586131284574 0 -0.057837261430780822 -0.027903231119127896 0 -0.057702202299187488 -0.028744050934665224 0 -0.057032042004455274 -0.02807412410982732 0 -0.057837261430780822 -0.027903231119127896 0 -0.055781934991329475 -0.027647968453302727 0 -0.057032042004455274 -0.02807412410982732 0 -0.057222357798976824 -0.027028586131284574 0 -0.055781934991329475 -0.027647968453302727 0 -0.056346083678702974 -0.028967167913140107 0 -0.057032042004455274 -0.02807412410982732 0 -0.055781934991329475 -0.027647968453302727 0 -0.057222357798976824 -0.027028586131284574 0 -0.056003908120828026 -0.026016951202429906 0 -0.057222357798976824 -0.027028586131284574 0 -0.057602751339168354 -0.025973106484177211 0 -0.05832337867131504 -0.027189520908848942 0 -0.057222357798976824 -0.027028586131284574 0 -0.057602751339168354 -0.025973106484177211 0 -0.056003908120828026 -0.026016951202429906 0 -0.057602751339168354 -0.025973106484177211 0 -0.059463333636774585 -0.026367897829896621 0 -0.05832337867131504 -0.027189520908848942 0 -0.057222357798976824 -0.027028586131284574 0 -0.05832337867131504 -0.027189520908848942 0 -0.057837261430780822 -0.027903231119127896 0 -0.059463333636774585 -0.026367897829896621 0 -0.058945847329985854 -0.02751740092084624 0 -0.059544695320405162 -0.027925758317927707 0 -0.059463333636774585 -0.026367897829896621 0 -0.05832337867131504 -0.027189520908848942 0 -0.058945847329985854 -0.02751740092084624 0 -0.058404776878600267 -0.03038763822752397 0 -0.058353648159035452 -0.029073887127266707 0 -0.05968075037252641 -0.028264609667147899 0 -0.05832337867131504 -0.027189520908848942 0 -0.058945847329985854 -0.02751740092084624 0 -0.058670751081642637 -0.028167751005799772 0 -0.057581120098561471 -0.030803539411404783 0 -0.058149502152741693 -0.02941132141151483 0 -0.058031184234435651 -0.029191936694576402 0 -0.058670751081642637 -0.028167751005799772 0 -0.059544695320405162 -0.027925758317927707 0 -0.05968075037252641 -0.028264609667147899 0 -0.058945847329985854 -0.02751740092084624 0 -0.058670751081642637 -0.028167751005799772 0 -0.059544695320405162 -0.027925758317927707 0 -0.05832337867131504 -0.027189520908848942 0 -0.058670751081642637 -0.028167751005799772 0 -0.057837261430780822 -0.027903231119127896 0 -0.057702202299187488 -0.028744050934665224 0 -0.058670751081642637 -0.028167751005799772 0 -0.057837261430780822 -0.027903231119127896 0 -0.057702202299187488 -0.028744050934665224 0 -0.058670751081642637 -0.028167751005799772 0 -0.058353648159035452 -0.029073887127266707 0 -0.057307993662310736 -0.029806125680363751 0 -0.057702202299187488 -0.028744050934665224 0 -0.058353648159035452 -0.029073887127266707 0 -0.058670751081642637 -0.028167751005799772 0 -0.058353648159035452 -0.029073887127266707 0 -0.05968075037252641 -0.028264609667147899 0 -0.031587887177310203 -0.022765828388280306 0 -0.031780656458460531 -0.022776277663513863 0 -0.031532805839537319 -0.022679002424365956 0 -0.031780656458460531 -0.022776277663513863 0 -0.03184020431894638 -0.022465646809186467 0 -0.031532805839537319 -0.022679002424365956 0 -0.052805602829927335 -0.028407707656387074 0 -0.051332957381964021 -0.027306051434187874 0 -0.031486391939094686 -0.02289348525801423 0 -0.031408825400476272 -0.022751129298205296 0 -0.031532805839537319 -0.022679002424365956 0 -0.044460607082426593 -0.026462088124266071 0 -0.051332957381964021 -0.027306051434187874 0 -0.044460607082426593 -0.026462088124266071 0 -0.042185305278990844 -0.026567691218291351 0 -0.031785207143300624 -0.022908120690678928 0 -0.03198463415712418 -0.022792187709635307 0 -0.03213906425403746 -0.022839752123733712 0 -0.031780656458460531 -0.022776277663513863 0 -0.03184020431894638 -0.022465646809186467 0 -0.03198463415712418 -0.022792187709635307 0 -0.03184020431894638 -0.022465646809186467 0 -0.03198463415712418 -0.022792187709635307 0 -0.032220910470675442 -0.022202864658712983 0 -0.03198463415712418 -0.022792187709635307 0 -0.032220910470675442 -0.022202864658712983 0 -0.032404463869658284 -0.022384928740205645 0 -0.03198463415712418 -0.022792187709635307 0 -0.03213906425403746 -0.022839752123733712 0 -0.032404463869658284 -0.022384928740205645 0 -0.032220910470675442 -0.022202864658712983 0 -0.032404463869658284 -0.022384928740205645 0 -0.032943997060809666 -0.022026268095819573 0 -0.03184020431894638 -0.022465646809186467 0 -0.032220910470675442 -0.022202864658712983 0 -0.031487994834185518 -0.021307568999313645 0 -0.032220910470675442 -0.022202864658712983 0 -0.031487994834185518 -0.021307568999313645 0 -0.032891238510633955 -0.02125628147787895 0 -0.032220910470675442 -0.022202864658712983 0 -0.032891238510633955 -0.02125628147787895 0 -0.032943997060809666 -0.022026268095819573 0 -0.059463333636774585 -0.026367897829896621 0 -0.059544695320405162 -0.027925758317927707 0 -0.061287622298439162 -0.026300663407577553 0 -0.03184020431894638 -0.022465646809186467 0 -0.031532805839537319 -0.022679002424365956 0 -0.031487994834185518 -0.021307568999313645 0 -0.051332957381964021 -0.027306051434187874 0 -0.045835109550344096 -0.023778939143456877 0 -0.031408825400476272 -0.022751129298205296 0 -0.031532805839537319 -0.022679002424365956 0 -0.031487994834185518 -0.021307568999313645 0 -0.059544695320405162 -0.027925758317927707 0 -0.059671792623838323 -0.02828386738528902 0 -0.061287622298439162 -0.026300663407577553 0 -0.059463333636774585 -0.026367897829896621 0 -0.061287622298439162 -0.026300663407577553 0 -0.06016555178255472 -0.024080142102594581 0 -0.061287622298439162 -0.026300663407577553 0 -0.06176005069529638 -0.023135262287112518 0 -0.06016555178255472 -0.024080142102594581 0 -0.032891238510633955 -0.02125628147787895 0 -0.034127054412388821 -0.017775444013093354 0 -0.032709702667800003 -0.018016635109525968 0 -0.031487994834185518 -0.021307568999313645 0 -0.032891238510633955 -0.02125628147787895 0 -0.032709702667800003 -0.018016635109525968 0 -0.061287622298439162 -0.026300663407577553 0 -0.06176005069529638 -0.023135262287112518 0 -0.063456537191469556 -0.022673304943436206 0 -0.045835109550344096 -0.023778939143456877 0 -0.04889040750091752 -0.019920666319989171 0 -0.032891238510633955 -0.02125628147787895 0 -0.033120632193859002 -0.01947044666447497 0 -0.033459887743391446 -0.020425391291230572 0 -0.033051929399663373 -0.020925129829078491 0 -0.033415736247620717 -0.018636397020856281 0 -0.034127054412388821 -0.017775444013093354 0 -0.032709702667800003 -0.018016635109525968 0 -0.034799165698688614 -0.014480648410141654 0 -0.04889040750091752 -0.019920666319989171 0 -0.04242756562237536 -0.017188530244519336 0 -0.063456537191469556 -0.022673304943436206 0 -0.062185235941091911 -0.020770032163221739 0 -0.064581447692863725 -0.019464499060905305 0 -0.06176005069529638 -0.023135262287112518 0 -0.063456537191469556 -0.022673304943436206 0 -0.062185235941091911 -0.020770032163221739 0 -0.06176005069529638 -0.023135262287112518 0 -0.06016555178255472 -0.024080142102594581 0 -0.062185235941091911 -0.020770032163221739 0 -0.06016555178255472 -0.024080142102594581 0 -0.062185235941091911 -0.020770032163221739 0 -0.05951463704273359 -0.023183328593296422 0 -0.062185235941091911 -0.020770032163221739 0 -0.061904674587422479 -0.019971313951346749 0 -0.062045910720371231 -0.019854362081147582 0 -0.062185235941091911 -0.020770032163221739 0 -0.061904674587422479 -0.019971313951346749 0 -0.061896408225403807 -0.019904441520985087 0 -0.062111686285768235 -0.020778248189572631 0 -0.059971723505482237 -0.021472750420698447 0 -0.062185235941091911 -0.020770032163221739 0 -0.05951463704273359 -0.023183328593296422 0 -0.057611764588195558 -0.022968060873782628 0 -0.061984242525635495 -0.019907961554460958 0 -0.061909126616327782 -0.019619176923206288 0 -0.058150151235608849 -0.021873794854775832 0 -0.059971723505482237 -0.021472750420698447 0 -0.062484113209650249 -0.020155981805255383 0 -0.061896408225403807 -0.019904441520985087 0 -0.062202354480297879 -0.020314508150529698 0 -0.061904674587422479 -0.019971313951346749 0 -0.061896408225403807 -0.019904441520985087 0 -0.062202354480297879 -0.020314508150529698 0 -0.054823486105429774 -0.024198420084019803 0 -0.057611764588195558 -0.022968060873782628 0 -0.056803739222260702 -0.024741394625756627 0 -0.057611764588195558 -0.022968060873782628 0 -0.056803739222260702 -0.024741394625756627 0 -0.058341235353866358 -0.024548968634642024 0 -0.057602751339168354 -0.025973106484177211 0 -0.056003908120828026 -0.026016951202429906 0 -0.056803739222260702 -0.024741394625756627 0 -0.057602751339168354 -0.025973106484177211 0 -0.056803739222260702 -0.024741394625756627 0 -0.058341235353866358 -0.024548968634642024 0 -0.057602751339168354 -0.025973106484177211 0 -0.059463333636774585 -0.026367897829896621 0 -0.058341235353866358 -0.024548968634642024 0 -0.059463333636774585 -0.026367897829896621 0 -0.06016555178255472 -0.024080142102594581 0 -0.058341235353866358 -0.024548968634642024 0 -0.06016555178255472 -0.024080142102594581 0 -0.05951463704273359 -0.023183328593296422 0 -0.058341235353866358 -0.024548968634642024 0 -0.05951463704273359 -0.023183328593296422 0 -0.057611764588195558 -0.022968060873782628 0 -0.058341235353866358 -0.024548968634642024 0 -0.028611197101352522 -0.022322709351917124 0 -0.028852949251407724 -0.023276537560723818 0 -0.027365508719430838 -0.023116176283463363 0 -0.028611197101352522 -0.022322709351917124 0 -0.029761517554250119 -0.022723356285320913 0 -0.028852949251407724 -0.023276537560723818 0 -0.028611197101352522 -0.022322709351917124 0 -0.027274940999909951 -0.021766535117467893 0 -0.027365508719430838 -0.023116176283463363 0 -0.028611197101352522 -0.022322709351917124 0 -0.028636776950334539 -0.020976843248848086 0 -0.027274940999909951 -0.021766535117467893 0 -0.030234140951267915 -0.025957048985607668 0 -0.029668961109609683 -0.024767157531581513 0 -0.03074593285958125 -0.025492884153325141 0 -0.028611197101352522 -0.022322709351917124 0 -0.028636776950334539 -0.020976843248848086 0 -0.029787707893320071 -0.02194022295977929 0 -0.028636776950334539 -0.020976843248848086 0 -0.029787707893320071 -0.02194022295977929 0 -0.031079171196666887 -0.02142881531486859 0 -0.031671867103809093 -0.022801531690409538 0 -0.029804137034529627 -0.022920986320946499 0 -0.029668961109609683 -0.024767157531581513 0 -0.029357402174913429 -0.02444316211971248 0 -0.029775076402415602 -0.02447967765994976 0 -0.029686107330563583 -0.025388659632422986 0 -0.029668961109609683 -0.024767157531581513 0 -0.029357402174913429 -0.02444316211971248 0 -0.029787707893320071 -0.02194022295977929 0 -0.030772431586441225 -0.022258003082047957 0 -0.031079171196666887 -0.02142881531486859 0 -0.029787707893320071 -0.02194022295977929 0 -0.029761517554250119 -0.022723356285320913 0 -0.030772431586441225 -0.022258003082047957 0 -0.028611197101352522 -0.022322709351917124 0 -0.029787707893320071 -0.02194022295977929 0 -0.029761517554250119 -0.022723356285320913 0 -0.029761517554250119 -0.022723356285320913 0 -0.03067164781530473 -0.023036312074333605 0 -0.030772431586441225 -0.022258003082047957 0 -0.03067164781530473 -0.023036312074333605 0 -0.031454117457987582 -0.022523262681118594 0 -0.030772431586441225 -0.022258003082047957 0 -0.03067164781530473 -0.023036312074333605 0 -0.031454117457987582 -0.022523262681118594 0 -0.031546179155381777 -0.023188258215545741 0 -0.031454117457987582 -0.022523262681118594 0 -0.03198828381405535 -0.022492853858376127 0 -0.031546179155381777 -0.023188258215545741 0 -0.031454117457987582 -0.022523262681118594 0 -0.031454061888738831 -0.022038014230547274 0 -0.031931657790061116 -0.022310958906491315 0 -0.031454117457987582 -0.022523262681118594 0 -0.031931657790061116 -0.022310958906491315 0 -0.03198828381405535 -0.022492853858376127 0 -0.031454117457987582 -0.022523262681118594 0 -0.031454061888738831 -0.022038014230547274 0 -0.030772431586441225 -0.022258003082047957 0 -0.030550561271735058 -0.023608343747535933 0 -0.029775076402415602 -0.02447967765994976 0 -0.03213906425403746 -0.022839752123733712 0 -0.031454061888738831 -0.022038014230547274 0 -0.031079171196666887 -0.02142881531486859 0 -0.03213906425403746 -0.022839752123733712 0 -0.029804137034529627 -0.022920986320946499 0 -0.032065069173998588 -0.022875481698638907 0 -0.031454061888738831 -0.022038014230547274 0 -0.030772431586441225 -0.022258003082047957 0 -0.031079171196666887 -0.02142881531486859 0 -0.030550561271735058 -0.023608343747535933 0 -0.029357402174913429 -0.02444316211971248 0 -0.029775076402415602 -0.02447967765994976 0 -0.031199689703045985 -0.023070045518346571 0 -0.030550561271735058 -0.023608343747535933 0 -0.03213906425403746 -0.022839752123733712 0 -0.031454061888738831 -0.022038014230547274 0 -0.03213906425403746 -0.022839752123733712 0 -0.031931657790061116 -0.022310958906491315 0 -0.03213906425403746 -0.022839752123733712 0 -0.032404463869658284 -0.022384928740205645 0 -0.03223851002056783 -0.022358341803904936 0 -0.032404463869658284 -0.022384928740205645 0 -0.03223851002056783 -0.022358341803904936 0 -0.032456823099404779 -0.022283789655360143 0 -0.03213906425403746 -0.022839752123733712 0 -0.031931657790061116 -0.022310958906491315 0 -0.03223851002056783 -0.022358341803904936 0 -0.031931657790061116 -0.022310958906491315 0 -0.03223851002056783 -0.022358341803904936 0 -0.03198828381405535 -0.022492853858376127 0 -0.03223851002056783 -0.022358341803904936 0 -0.03198828381405535 -0.022492853858376127 0 -0.032456823099404779 -0.022283789655360143 0 -0.03198828381405535 -0.022492853858376127 0 -0.032456823099404779 -0.022283789655360143 0 -0.032197474219264555 -0.022786016933887748 0 -0.03198828381405535 -0.022492853858376127 0 -0.032197474219264555 -0.022786016933887748 0 -0.031546179155381777 -0.023188258215545741 0 -0.032943997060809666 -0.022026268095819573 0 -0.032456823099404779 -0.022283789655360143 0 -0.032197474219264555 -0.022786016933887748 0 -0.032404463869658284 -0.022384928740205645 0 -0.032943997060809666 -0.022026268095819573 0 -0.032456823099404779 -0.022283789655360143 0 -0.033089575147565074 -0.022031633980143364 0 -0.033172522805027478 -0.02226897752779369 0 -0.032891238510633955 -0.02125628147787895 0 -0.03338793775912223 -0.021010626433490383 0 -0.033459887743391446 -0.020425391291230572 0 -0.032943997060809666 -0.022026268095819573 0 -0.03338793775912223 -0.021010626433490383 0 -0.034572461154983941 -0.020290452146270621 0 -0.032891238510633955 -0.02125628147787895 0 -0.032943997060809666 -0.022026268095819573 0 -0.03338793775912223 -0.021010626433490383 0 -0.032197474219264555 -0.022786016933887748 0 -0.032166945700996069 -0.0238819500184143 0 -0.031546179155381777 -0.023188258215545741 0 -0.032943997060809666 -0.022026268095819573 0 -0.032197474219264555 -0.022786016933887748 0 -0.032166945700996069 -0.0238819500184143 0 -0.034572461154983941 -0.020290452146270621 0 -0.033806362175282205 -0.019767764176623411 0 -0.034487623577240036 -0.019496094353337903 0 -0.033120632193859002 -0.01947044666447497 0 -0.033459887743391446 -0.020425391291230572 0 -0.033806362175282205 -0.019767764176623411 0 -0.03338793775912223 -0.021010626433490383 0 -0.034572461154983941 -0.020290452146270621 0 -0.033459887743391446 -0.020425391291230572 0 -0.034572461154983941 -0.020290452146270621 0 -0.033459887743391446 -0.020425391291230572 0 -0.033806362175282205 -0.019767764176623411 0 -0.033415736247620717 -0.018636397020856281 0 -0.04242756562237536 -0.017188530244519336 0 -0.033120632193859002 -0.01947044666447497 0 -0.033806362175282205 -0.019767764176623411 0 -0.034029711046207146 -0.018751036730828095 0 -0.033120632193859002 -0.01947044666447497 0 -0.034029711046207146 -0.018751036730828095 0 -0.033587132010320278 -0.01755855269298659 0 -0.034029711046207146 -0.018751036730828095 0 -0.034748018687665139 -0.018422064369453244 0 -0.034382978895647003 -0.017599551233662469 0 -0.034029711046207146 -0.018751036730828095 0 -0.034748018687665139 -0.018422064369453244 0 -0.034487623577240036 -0.019496094353337903 0 -0.033806362175282205 -0.019767764176623411 0 -0.034029711046207146 -0.018751036730828095 0 -0.034487623577240036 -0.019496094353337903 0 -0.033172522805027478 -0.02226897752779369 0 -0.033002920318141872 -0.020063989252499401 0 -0.035265036881906305 -0.019012332356854979 0 -0.033002920318141872 -0.020063989252499401 0 -0.034572461154983941 -0.020290452146270621 0 -0.034487623577240036 -0.019496094353337903 0 -0.035584138809010409 -0.018869891030689867 0 -0.032166945700996069 -0.0238819500184143 0 -0.031188032187298018 -0.025150657888486593 0 -0.031251722993293415 -0.024195426374002269 0 -0.034748018687665139 -0.018422064369453244 0 -0.035643673683216352 -0.018794168669593624 0 -0.035154110587787946 -0.01750678079130388 0 -0.034748018687665139 -0.018422064369453244 0 -0.034487623577240036 -0.019496094353337903 0 -0.035643673683216352 -0.018794168669593624 0 -0.033002920318141872 -0.020063989252499401 0 -0.021252108149750894 -0.021737035426819557 0 -0.033002920318141872 -0.020063989252499401 0 -0.027271837613599994 -0.017415814524137173 0 -0.031188032187298018 -0.025150657888486593 0 -0.031251722993293415 -0.024195426374002269 0 -0.03025427171759848 -0.024521644521249525 0 -0.030722644987657088 -0.023795956016576695 0 -0.031251722993293415 -0.024195426374002269 0 -0.03025427171759848 -0.024521644521249525 0 -0.030722644987657088 -0.023795956016576695 0 -0.031251722993293415 -0.024195426374002269 0 -0.031546179155381777 -0.023188258215545741 0 -0.032166945700996069 -0.0238819500184143 0 -0.031251722993293415 -0.024195426374002269 0 -0.031546179155381777 -0.023188258215545741 0 -0.03067164781530473 -0.023036312074333605 0 -0.030722644987657088 -0.023795956016576695 0 -0.031546179155381777 -0.023188258215545741 0 -0.029702896744926204 -0.023719876453791026 0 -0.03025427171759848 -0.024521644521249525 0 -0.028773434203118776 -0.024442967811671774 0 -0.029761517554250119 -0.022723356285320913 0 -0.03067164781530473 -0.023036312074333605 0 -0.029702896744926204 -0.023719876453791026 0 -0.03067164781530473 -0.023036312074333605 0 -0.030722644987657088 -0.023795956016576695 0 -0.029702896744926204 -0.023719876453791026 0 -0.029761517554250119 -0.022723356285320913 0 -0.029702896744926204 -0.023719876453791026 0 -0.028852949251407724 -0.023276537560723818 0 -0.030722644987657088 -0.023795956016576695 0 -0.029702896744926204 -0.023719876453791026 0 -0.03025427171759848 -0.024521644521249525 0 -0.03025427171759848 -0.024521644521249525 0 -0.028773434203118776 -0.024442967811671774 0 -0.029970258299174379 -0.025781643581473553 0 -0.017950562816315161 -0.02363216134072223 0 -0.021252108149750894 -0.021737035426819557 0 -0.0075053700340361254 -0.022673123801085895 0 -0.0075045617363903323 -0.022410844597796884 0 -0.008013730399132701 -0.022721149762631794 0 -0.031188032187298018 -0.025150657888486593 0 -0.03025427171759848 -0.024521644521249525 0 -0.029970258299174379 -0.025781643581473553 0 -0.0075053700340361254 -0.022673123801085895 0 -0.0075045617363903323 -0.022410844597796884 0 -0.0071549637974843939 -0.022569610903882441 0 -0.028773434203118776 -0.024442967811671774 0 -0.028852949251407724 -0.023276537560723818 0 -0.027365508719430838 -0.023116176283463363 0 -0.017950562816315161 -0.02363216134072223 0 -0.017751887912075846 -0.022635872731366528 0 -0.0075045617363903323 -0.022410844597796884 0 -0.0071549637974843939 -0.022569610903882441 0 -0.0071734063232878394 -0.022179411978647479 0 -0.029702896744926204 -0.023719876453791026 0 -0.028773434203118776 -0.024442967811671774 0 -0.028852949251407724 -0.023276537560723818 0 -0.015763003699079393 -0.020042667059671986 0 -0.015009554359737162 -0.018095794642430257 0 -0.017778738137556937 -0.017439910279824916 0 -0.015763003699079393 -0.020042667059671986 0 -0.015009554359737162 -0.018095794642430257 0 -0.013803142041094908 -0.020367027165794017 0 -0.0075053700340361254 -0.022673123801085895 0 -0.0073091126861226478 -0.022902531631523299 0 -0.0071549637974843939 -0.022569610903882441 0 -0.0075053700340361254 -0.022673123801085895 0 -0.0073091126861226478 -0.022902531631523299 0 -0.008013730399132701 -0.022721149762631794 0 -0.009709303515982504 -0.020711739266740862 0 -0.021252108149750894 -0.021737035426819557 0 -0.015009554359737162 -0.018095794642430257 0 -0.017305988041068351 -0.016918924625260078 0 -0.017778738137556937 -0.017439910279824916 0 -0.030257246531506618 -0.018405352405016711 0 -0.026042890638796438 -0.02067876233063427 0 -0.027287664972739056 -0.022158427666610556 0 -0.021252108149750894 -0.021737035426819557 0 -0.027271837613599994 -0.017415814524137173 0 -0.025037377381281724 -0.016136562733029707 0 -0.028604972752175249 -0.011648924742447178 0 -0.028152379445855615 -0.015686293931769436 0 -0.019508603382193256 -0.018393898994046608 0 -0.027271837613599994 -0.017415814524137173 0 -0.028152379445855615 -0.015686293931769436 0 -0.031072229738288208 -0.014496234856863972 0 -0.029512921364150076 -0.018494276573014577 0 -0.028604972752175249 -0.011648924742447178 0 -0.028152379445855615 -0.015686293931769436 0 -0.031072229738288208 -0.014496234856863972 0 -0.035373666249795127 -0.016215617514633088 0 -0.035154110587787946 -0.01750678079130388 0 -0.034578094263376595 -0.016341708839336198 0 -0.027271837613599994 -0.017415814524137173 0 -0.032875885944120539 -0.015022326923494559 0 -0.036490827373460849 -0.017601246324895001 0 -0.035373666249795127 -0.016215617514633088 0 -0.035154110587787946 -0.01750678079130388 0 -0.035643673683216352 -0.018794168669593624 0 -0.036490827373460849 -0.017601246324895001 0 -0.035154110587787946 -0.01750678079130388 0 -0.035154110587787946 -0.01750678079130388 0 -0.034382978895647003 -0.017599551233662469 0 -0.034578094263376595 -0.016341708839336198 0 -0.034382978895647003 -0.017599551233662469 0 -0.033991162184269307 -0.016990479017857114 0 -0.034578094263376595 -0.016341708839336198 0 -0.034748018687665139 -0.018422064369453244 0 -0.035154110587787946 -0.01750678079130388 0 -0.034382978895647003 -0.017599551233662469 0 -0.034029711046207146 -0.018751036730828095 0 -0.034382978895647003 -0.017599551233662469 0 -0.033587132010320278 -0.01755855269298659 0 -0.034382978895647003 -0.017599551233662469 0 -0.033587132010320278 -0.01755855269298659 0 -0.033991162184269307 -0.016990479017857114 0 -0.04242756562237536 -0.017188530244519336 0 -0.038437530396707151 -0.018884664209713985 0 -0.033691237830374483 -0.017526276188616029 0 -0.033991162184269307 -0.016990479017857114 0 -0.034224007915704797 -0.01493703343365131 0 -0.035373666249795127 -0.016215617514633088 0 -0.034578094263376595 -0.016341708839336198 0 -0.034379982106040458 -0.014894226679736654 0 -0.033991162184269307 -0.016990479017857114 0 -0.034578094263376595 -0.016341708839336198 0 -0.034224007915704797 -0.01493703343365131 0 -0.034578094263376595 -0.016341708839336198 0 -0.034224007915704797 -0.01493703343365131 0 -0.034379982106040458 -0.014894226679736654 0 -0.04242756562237536 -0.017188530244519336 0 -0.050269502858099939 -0.015163873364922279 0 -0.032875885944120539 -0.015022326923494559 0 -0.042123015134633172 -0.014426246027027358 0 -0.063946993621920967 -0.016515859800291483 0 -0.063850480108751329 -0.016388428571144077 0 -0.06398065515373827 -0.015562543362312508 0 -0.038125671889578459 -0.0045967454984016214 0 -0.037367900485004532 -0.0094147844800532999 0 -0.035461138978026184 -0.0066460640226041166 0 -0.050269502858099939 -0.015163873364922279 0 -0.065871870370055777 -0.014905734308392832 0 -0.063934929052535977 -0.01661379289492337 0 -0.063850480108751329 -0.016388428571144077 0 -0.063594675657506441 -0.016467958768586071 0 -0.063934929052535977 -0.01661379289492337 0 -0.063944208843645975 -0.016507719535919181 0 -0.063850480108751329 -0.016388428571144077 0 -0.042973890346942996 -0.021394062282113775 0 -0.044198759644653765 -0.013341989738152722 0 -0.049429666330097197 -0.019624912579383692 0 -0.050269502858099939 -0.015163873364922279 0 -0.048837032886728582 -0.014366121259102868 0 -0.050269502858099939 -0.015163873364922279 0 -0.042123015134633172 -0.014426246027027358 0 -0.048837032886728582 -0.014366121259102868 0 -0.042123015134633172 -0.014426246027027358 0 -0.048837032886728582 -0.014366121259102868 0 -0.052232440530506886 -0.016714987313619582 0 -0.038125671889578459 -0.0045967454984016214 0 -0.037732657570373945 -0.0041264025400661085 0 -0.035461138978026184 -0.0066460640226041166 0 -0.063850480108751329 -0.016388428571144077 0 -0.063634309910482523 -0.015842750868007429 0 -0.063594675657506441 -0.016467958768586071 0 -0.048837032886728582 -0.014366121259102868 0 -0.05083874532556229 -0.011697707503917857 0 -0.063850480108751329 -0.016388428571144077 0 -0.063634309910482523 -0.015842750868007429 0 -0.06398065515373827 -0.015562543362312508 0 -0.037367900485004532 -0.0094147844800532999 0 -0.035461138978026184 -0.0066460640226041166 0 -0.034498849063597133 -0.011458340756632483 0 -0.063634309910482523 -0.015842750868007429 0 -0.06398065515373827 -0.015562543362312508 0 -0.063650984936232016 -0.015111225194172276 0 -0.032220594363374454 -0.0055257814904667362 0 -0.035461138978026184 -0.0066460640226041166 0 -0.031217171893778883 -0.008912487882987501 0 -0.035461138978026184 -0.0066460640226041166 0 -0.031217171893778883 -0.008912487882987501 0 -0.034498849063597133 -0.011458340756632483 0 -0.031217171893778883 -0.008912487882987501 0 -0.030763771140528022 -0.012062265381572592 0 -0.034498849063597133 -0.011458340756632483 0 -0.031072229738288208 -0.014496234856863972 0 -0.033599230750693335 -0.01739845863592162 0 -0.029512921364150076 -0.018494276573014577 0 -0.037732657570373945 -0.0041264025400661085 0 -0.032220594363374454 -0.0055257814904667362 0 -0.035461138978026184 -0.0066460640226041166 0 -0.042123015134633172 -0.014426246027027358 0 -0.029629650858889967 -0.012022226704611019 0 -0.029629650858889967 -0.012022226704611019 0 -0.026949451786421948 -0.012873990067503126 0 -0.028152379445855615 -0.015686293931769436 0 -0.029512921364150076 -0.018494276573014577 0 -0.02547738449956934 -0.019566567596911048 0 -0.025037377381281724 -0.016136562733029707 0 -0.028152379445855615 -0.015686293931769436 0 -0.02547738449956934 -0.019566567596911048 0 -0.031217171893778883 -0.008912487882987501 0 -0.027657466750441225 -0.01080050409615432 0 -0.026692938125577138 -0.0069911860052335739 0 -0.032220594363374454 -0.0055257814904667362 0 -0.031217171893778883 -0.008912487882987501 0 -0.026692938125577138 -0.0069911860052335739 0 -0.031217171893778883 -0.008912487882987501 0 -0.027657466750441225 -0.01080050409615432 0 -0.030763771140528022 -0.012062265381572592 0 -0.026692938125577138 -0.0069911860052335739 0 -0.023521335279100799 -0.01019299435752293 0 -0.021229628069440783 -0.0085583566994087337 0 -0.026949451786421948 -0.012873990067503126 0 -0.018592053681407043 -0.018467256222055441 0 -0.027657466750441225 -0.01080050409615432 0 -0.026692938125577138 -0.0069911860052335739 0 -0.023521335279100799 -0.01019299435752293 0 -0.019508603382193256 -0.018393898994046608 0 -0.018592053681407043 -0.018467256222055441 0 -0.025037377381281724 -0.016136562733029707 0 -0.02547738449956934 -0.019566567596911048 0 -0.021442034456452284 -0.020630024582761416 0 -0.061832145254977079 -0.018803172099991876 0 -0.062184516644593443 -0.018841591237834947 0 -0.062026477542850775 -0.017780215399957829 0 -0.062184516644593443 -0.018841591237834947 0 -0.06231461832530099 -0.016774771500080332 0 -0.061240512379582071 -0.016747411736086487 0 -0.062225783064672878 -0.018702397615257955 0 -0.061643611582190061 -0.017301189244989971 0 -0.061561888601345281 -0.018010593742410569 0 -0.061832145254977079 -0.018803172099991876 0 -0.062026477542850775 -0.017780215399957829 0 -0.061561888601345281 -0.018010593742410569 0 -0.061515934165975068 -0.018842562426164625 0 -0.061832145254977079 -0.018803172099991876 0 -0.061904674587422479 -0.019971313951346749 0 -0.061515934165975068 -0.018842562426164625 0 -0.061832145254977079 -0.018803172099991876 0 -0.061832145254977079 -0.018803172099991876 0 -0.062184516644593443 -0.018841591237834947 0 -0.062045910720371231 -0.019854362081147582 0 -0.061904674587422479 -0.019971313951346749 0 -0.061832145254977079 -0.018803172099991876 0 -0.062045910720371231 -0.019854362081147582 0 -0.062185235941091911 -0.020770032163221739 0 -0.062184516644593443 -0.018841591237834947 0 -0.062045910720371231 -0.019854362081147582 0 -0.062185235941091911 -0.020770032163221739 0 -0.062184516644593443 -0.018841591237834947 0 -0.063327614255816983 -0.018352291295020508 0 -0.062185235941091911 -0.020770032163221739 0 -0.064581447692863725 -0.019464499060905305 0 -0.063327614255816983 -0.018352291295020508 0 -0.064581447692863725 -0.019464499060905305 0 -0.064620020576390491 -0.016604637055780341 0 -0.063327614255816983 -0.018352291295020508 0 -0.064620020576390491 -0.016604637055780341 0 -0.063327614255816983 -0.018352291295020508 0 -0.063596558446770354 -0.016933045164750402 0 -0.063327614255816983 -0.018352291295020508 0 -0.063596558446770354 -0.016933045164750402 0 -0.062991307035563701 -0.016595501999637878 0 -0.062184516644593443 -0.018841591237834947 0 -0.063327614255816983 -0.018352291295020508 0 -0.06231461832530099 -0.016774771500080332 0 -0.063327614255816983 -0.018352291295020508 0 -0.06231461832530099 -0.016774771500080332 0 -0.062991307035563701 -0.016595501999637878 0 -0.06231461832530099 -0.016774771500080332 0 -0.062991307035563701 -0.016595501999637878 0 -0.062736334351500486 -0.015649283821678628 0 -0.062991307035563701 -0.016595501999637878 0 -0.063263621893440397 -0.016016440059321527 0 -0.062736334351500486 -0.015649283821678628 0 -0.063596558446770354 -0.016933045164750402 0 -0.062991307035563701 -0.016595501999637878 0 -0.063594675657506441 -0.016467958768586071 0 -0.063934929052535977 -0.01661379289492337 0 -0.063596558446770354 -0.016933045164750402 0 -0.063594675657506441 -0.016467958768586071 0 -0.062991307035563701 -0.016595501999637878 0 -0.063594675657506441 -0.016467958768586071 0 -0.063263621893440397 -0.016016440059321527 0 -0.063634309910482523 -0.015842750868007429 0 -0.063594675657506441 -0.016467958768586071 0 -0.063263621893440397 -0.016016440059321527 0 -0.063634309910482523 -0.015842750868007429 0 -0.063263621893440397 -0.016016440059321527 0 -0.06321778942918653 -0.015401543440802933 0 -0.063263621893440397 -0.016016440059321527 0 -0.06321778942918653 -0.015401543440802933 0 -0.062736334351500486 -0.015649283821678628 0 -0.06321778942918653 -0.015401543440802933 0 -0.062736334351500486 -0.015649283821678628 0 -0.062880900556490496 -0.01512865580300307 0 -0.063634309910482523 -0.015842750868007429 0 -0.06321778942918653 -0.015401543440802933 0 -0.063650984936232016 -0.015111225194172276 0 -0.062736334351500486 -0.015649283821678628 0 -0.061754789178699025 -0.015497261669954134 0 -0.062457722034221869 -0.014794202794197474 0 -0.06231461832530099 -0.016774771500080332 0 -0.062736334351500486 -0.015649283821678628 0 -0.061754789178699025 -0.015497261669954134 0 -0.06231461832530099 -0.016774771500080332 0 -0.061754789178699025 -0.015497261669954134 0 -0.061240512379582071 -0.016747411736086487 0 -0.060868353058416522 -0.015441836058780523 0 -0.061754789178699025 -0.015497261669954134 0 -0.061240512379582071 -0.016747411736086487 0 -0.061791918254827327 -0.016459818449234033 0 -0.061561888601345281 -0.018010593742410569 0 -0.062026477542850775 -0.017780215399957829 0 -0.06131235062573024 -0.015927059169191661 0 -0.061643611582190061 -0.017301189244989971 0 -0.060868353058416522 -0.015441836058780523 0 -0.061754789178699025 -0.015497261669954134 0 -0.061408279339943007 -0.014835413710312783 0 -0.061408279339943007 -0.014835413710312783 0 -0.061472257380889767 -0.014176795536003433 0 -0.06111303373112241 -0.014513843692836042 0 -0.061408279339943007 -0.014835413710312783 0 -0.061472257380889767 -0.014176795536003433 0 -0.061871269592913392 -0.014502117884990565 0 -0.061472257380889767 -0.014176795536003433 0 -0.061414501357572523 -0.013839490063490641 0 -0.06155919115239851 -0.013900556965158347 0 -0.061472257380889767 -0.014176795536003433 0 -0.061862390035473593 -0.013940820931023964 0 -0.06155919115239851 -0.013900556965158347 0 -0.061472257380889767 -0.014176795536003433 0 -0.061414501357572523 -0.013839490063490641 0 -0.061186190445938426 -0.013847863447496013 0 -0.061862390035473593 -0.013940820931023964 0 -0.061871269592913392 -0.014502117884990565 0 -0.062322682581128365 -0.013969315150315763 0 -0.061472257380889767 -0.014176795536003433 0 -0.061862390035473593 -0.013940820931023964 0 -0.061871269592913392 -0.014502117884990565 0 -0.061754789178699025 -0.015497261669954134 0 -0.061871269592913392 -0.014502117884990565 0 -0.062457722034221869 -0.014794202794197474 0 -0.061754789178699025 -0.015497261669954134 0 -0.061408279339943007 -0.014835413710312783 0 -0.061871269592913392 -0.014502117884990565 0 -0.062736334351500486 -0.015649283821678628 0 -0.062457722034221869 -0.014794202794197474 0 -0.062880900556490496 -0.01512865580300307 0 -0.062457722034221869 -0.014794202794197474 0 -0.063152644108136688 -0.01477926563074662 0 -0.062736498573312344 -0.014024952992898165 0 -0.062457722034221869 -0.014794202794197474 0 -0.062880900556490496 -0.01512865580300307 0 -0.063152644108136688 -0.01477926563074662 0 -0.06321778942918653 -0.015401543440802933 0 -0.063152644108136688 -0.01477926563074662 0 -0.063650984936232016 -0.015111225194172276 0 -0.06321778942918653 -0.015401543440802933 0 -0.062880900556490496 -0.01512865580300307 0 -0.063152644108136688 -0.01477926563074662 0 -0.063152644108136688 -0.01477926563074662 0 -0.063650693974625708 -0.014732505955460303 0 -0.063528764357917378 -0.014469155012011754 0 -0.063152644108136688 -0.01477926563074662 0 -0.063650984936232016 -0.015111225194172276 0 -0.063650693974625708 -0.014732505955460303 0 -0.063152644108136688 -0.01477926563074662 0 -0.062736498573312344 -0.014024952992898165 0 -0.063528764357917378 -0.014469155012011754 0 -0.062457722034221869 -0.014794202794197474 0 -0.062736498573312344 -0.014024952992898165 0 -0.062322682581128365 -0.013969315150315763 0 -0.061871269592913392 -0.014502117884990565 0 -0.062457722034221869 -0.014794202794197474 0 -0.062322682581128365 -0.013969315150315763 0 -0.053996099938814206 0.0019428105444843147 0 -0.054148037074644967 0.0018073611032881549 0 -0.054255325429879361 0.001928069298612888 0 -0.058934865223035975 -0.0053847029500994105 0 -0.058004842195114814 -0.0057207809067330142 0 -0.062322682581128365 -0.013969315150315763 0 -0.062743543623840159 -0.013685085042274761 0 -0.062143624815351642 -0.01358452293670633 0 -0.062736498573312344 -0.014024952992898165 0 -0.062322682581128365 -0.013969315150315763 0 -0.062743543623840159 -0.013685085042274761 0 -0.062736498573312344 -0.014024952992898165 0 -0.062743543623840159 -0.013685085042274761 0 -0.062783062879738866 -0.013794778892359713 0 -0.053996099938814206 0.0019428105444843147 0 -0.053977196869865365 0.0017140675678840691 0 -0.054148037074644967 0.0018073611032881549 0 -0.053996099938814206 0.0019428105444843147 0 -0.053977196869865365 0.0017140675678840691 0 -0.053628842909069593 0.0017338855576795383 0 -0.053977196869865365 0.0017140675678840691 0 -0.054148037074644967 0.0018073611032881549 0 -0.054204744782185475 0.0017047469719724327 0 -0.054148037074644967 0.0018073611032881549 0 -0.054348016633618969 0.0017362544535459519 0 -0.054255325429879361 0.001928069298612888 0 -0.054148037074644967 0.0018073611032881549 0 -0.054204744782185475 0.0017047469719724327 0 -0.054348016633618969 0.0017362544535459519 0 -0.054204744782185475 0.0017047469719724327 0 -0.054348016633618969 0.0017362544535459519 0 -0.054351547892675864 0.0016529663880367827 0 -0.054767105467034068 0.0017466880655154001 0 -0.054733465648396075 0.00097512534666219534 0 -0.055450318509748603 0.0011080563588708721 0 -0.054806564953738639 0.001815451241530087 0 -0.055098276937365548 7.7970628367263564e-05 0 -0.054348016633618969 0.0017362544535459519 0 -0.054806564953738639 0.001815451241530087 0 -0.054351547892675864 0.0016529663880367827 0 -0.056127114109345948 0.00064428035277384226 0 -0.055450318509748603 0.0011080563588708721 0 -0.055098276937365548 7.7970628367263564e-05 0 -0.056127114109345948 0.00064428035277384226 0 -0.055450318509748603 0.0011080563588708721 0 -0.055739220570946241 0.0018584225055956736 0 -0.055450318509748603 0.0011080563588708721 0 -0.055739220570946241 0.0018584225055956736 0 -0.054806564953738639 0.001815451241530087 0 -0.061496003034853954 -0.013661551248627387 0 -0.061370115530281169 -0.013594158519101873 0 -0.062143624815351642 -0.01358452293670633 0 -0.060836018937247403 -0.0092066663714869025 0 -0.058978158261458934 -0.0075407765643360075 0 -0.061407404748108123 -0.013632265591145377 0 -0.061414501357572523 -0.013839490063490641 0 -0.061186190445938426 -0.013847863447496013 0 -0.061496003034853954 -0.013661551248627387 0 -0.061407404748108123 -0.013632265591145377 0 -0.061414501357572523 -0.013839490063490641 0 -0.061862390035473593 -0.013940820931023964 0 -0.061496003034853954 -0.013661551248627387 0 -0.06155919115239851 -0.013900556965158347 0 -0.061496003034853954 -0.013661551248627387 0 -0.061414501357572523 -0.013839490063490641 0 -0.06155919115239851 -0.013900556965158347 0 -0.061862390035473593 -0.013940820931023964 0 -0.061496003034853954 -0.013661551248627387 0 -0.062143624815351642 -0.01358452293670633 0 -0.058978158261458934 -0.0075407765643360075 0 -0.058004842195114814 -0.0057207809067330142 0 -0.055739220570946241 0.0018584225055956736 0 -0.054255325429879361 0.001928069298612888 0 -0.054806564953738639 0.001815451241530087 0 -0.061862390035473593 -0.013940820931023964 0 -0.062322682581128365 -0.013969315150315763 0 -0.062143624815351642 -0.01358452293670633 0 -0.054348016633618969 0.0017362544535459519 0 -0.054255325429879361 0.001928069298612888 0 -0.054806564953738639 0.001815451241530087 0 -0.030600044336658572 -0.015128301292481543 0 -0.025861096791089822 -0.017678889937687847 0 -0.023065894868640354 -0.015142635921718882 0 -0.025005521733033054 -0.014966954469410886 0 -0.027985309920314057 -0.017258845289227664 0 -0.021522331856438946 -0.016649542322509224 0 -0.028294466664305257 -0.016153647060501746 0 -0.02251895322596369 -0.015916864906592509 0 -0.030600044336658572 -0.015128301292481543 0 -0.029181239304412569 -0.017899451656941304 0 -0.025861096791089822 -0.017678889937687847 0 -0.025005521733033054 -0.014966954469410886 0 -0.028035083003285156 -0.013880994968182439 0 -0.027985309920314057 -0.017258845289227664 0 -0.025005521733033054 -0.014966954469410886 0 -0.024820893557182026 -0.012739691328506103 0 -0.022737395584011208 -0.014286294272394726 0 -0.023521335279100799 -0.01019299435752293 0 -0.024820893557182026 -0.012739691328506103 0 -0.021303936147986775 -0.012323083425862382 0 -0.027657466750441225 -0.01080050409615432 0 -0.024820893557182026 -0.012739691328506103 0 -0.028035083003285156 -0.013880994968182439 0 -0.027657466750441225 -0.01080050409615432 0 -0.023521335279100799 -0.01019299435752293 0 -0.024820893557182026 -0.012739691328506103 0 -0.025005521733033054 -0.014966954469410886 0 -0.024820893557182026 -0.012739691328506103 0 -0.028035083003285156 -0.013880994968182439 0 -0.027657466750441225 -0.01080050409615432 0 -0.028035083003285156 -0.013880994968182439 0 -0.030763771140528022 -0.012062265381572592 0 -0.028035083003285156 -0.013880994968182439 0 -0.030763771140528022 -0.012062265381572592 0 -0.032083269511021299 -0.014420155388782841 0 -0.030600044336658572 -0.015128301292481543 0 -0.038026628579262992 -0.015395592005951962 0 -0.031536780701656074 -0.018648807056567802 0 -0.028294466664305257 -0.016153647060501746 0 -0.041079957147571906 -0.016669040266236151 0 -0.028035083003285156 -0.013880994968182439 0 -0.027985309920314057 -0.017258845289227664 0 -0.032083269511021299 -0.014420155388782841 0 -0.030600044336658572 -0.015128301292481543 0 -0.031536780701656074 -0.018648807056567802 0 -0.029181239304412569 -0.017899451656941304 0 -0.034555241526152018 -0.017607947641186665 0 -0.032083269511021299 -0.014420155388782841 0 -0.03664336258459551 -0.014272597201900234 0 -0.027985309920314057 -0.017258845289227664 0 -0.034555241526152018 -0.017607947641186665 0 -0.032083269511021299 -0.014420155388782841 0 -0.041079957147571906 -0.016669040266236151 0 -0.056597047730793472 -0.014963700077879165 0 -0.041079957147571906 -0.016669040266236151 0 -0.050183962763557056 -0.014983537598051355 0 -0.032083269511021299 -0.014420155388782841 0 -0.034498849063597133 -0.011458340756632483 0 -0.03664336258459551 -0.014272597201900234 0 -0.030763771140528022 -0.012062265381572592 0 -0.032083269511021299 -0.014420155388782841 0 -0.034498849063597133 -0.011458340756632483 0 -0.05083874532556229 -0.011697707503917857 0 -0.050183962763557056 -0.014983537598051355 0 -0.06398065515373827 -0.015562543362312508 0 -0.064001521711279069 -0.014685172806126207 0 -0.063650984936232016 -0.015111225194172276 0 -0.037367900485004532 -0.0094147844800532999 0 -0.034498849063597133 -0.011458340756632483 0 -0.03664336258459551 -0.014272597201900234 0 -0.064001521711279069 -0.014685172806126207 0 -0.063650693974625708 -0.014732505955460303 0 -0.063528764357917378 -0.014469155012011754 0 -0.064001521711279069 -0.014685172806126207 0 -0.063650984936232016 -0.015111225194172276 0 -0.063650693974625708 -0.014732505955460303 0 -0.065696947175397383 -0.013802508311291399 0 -0.056597047730793472 -0.014963700077879165 0 -0.062736498573312344 -0.014024952992898165 0 -0.062786078838700868 -0.013832394142889923 0 -0.062783062879738866 -0.013794778892359713 0 -0.062736498573312344 -0.014024952992898165 0 -0.063528764357917378 -0.014469155012011754 0 -0.064083216399057535 -0.014088641854735918 0 -0.050183962763557056 -0.014983537598051355 0 -0.056597047730793472 -0.014963700077879165 0 -0.04940618945679795 -0.01472166182015079 0 -0.049476248274399649 -0.014668935121416222 0 -0.04945339908577475 -0.014722855427628604 0 -0.064001521711279069 -0.014685172806126207 0 -0.063528764357917378 -0.014469155012011754 0 -0.064083216399057535 -0.014088641854735918 0 -0.053996099938814206 0.0019428105444843147 0 -0.053318437221625686 0.0018350379832652237 0 -0.053004229968991401 0.002049270095743357 0 -0.062743543623840159 -0.013685085042274761 0 -0.062783062879738866 -0.013794778892359713 0 -0.06277275874610426 -0.013765632749448904 0 -0.062786078838700868 -0.013832394142889923 0 -0.062783062879738866 -0.013794778892359713 0 -0.06277275874610426 -0.013765632749448904 0 -0.058934865223035975 -0.0053847029500994105 0 -0.05530408162025683 -0.010448421408201482 0 -0.053409791662685405 0.001795511690463793 0 -0.054686335267982555 0.0016563742946353066 0 -0.053977196869865365 0.0017140675678840691 0 -0.05386655218077168 0.0021460657288507679 0 -0.053890518016676214 0.001837474169436804 0 -0.053996099938814206 0.0019428105444843147 0 -0.053628842909069593 0.0017338855576795383 0 -0.053318437221625686 0.0018350379832652237 0 -0.053977196869865365 0.0017140675678840691 0 -0.053628842909069593 0.0017338855576795383 0 -0.053139394001988811 0.0013833069064850079 0 -0.053139394001988811 0.0013833069064850079 0 -0.053318437221625686 0.0018350379832652237 0 -0.053053350970453349 0.0017634310912554288 0 -0.053628842909069593 0.0017338855576795383 0 -0.053139394001988811 0.0013833069064850079 0 -0.053318437221625686 0.0018350379832652237 0 -0.053318437221625686 0.0018350379832652237 0 -0.053053350970453349 0.0017634310912554288 0 -0.053004229968991401 0.002049270095743357 0 -0.054686335267982555 0.0016563742946353066 0 -0.046008578330658918 0.0022415753905394836 0 -0.053053350970453349 0.0017634310912554288 0 -0.052721209186360106 0.0018046145127263618 0 -0.053004229968991401 0.002049270095743357 0 -0.05386655218077168 0.0021460657288507679 0 -0.053376417109895435 0.0021258496155791818 0 -0.052639943832303672 0.0030583274107967911 0 -0.053139394001988811 0.0013833069064850079 0 -0.052345884625711818 0.001729507162416636 0 -0.05134654772699019 0.0014161971408960354 0 -0.052721209186360106 0.0018046145127263618 0 -0.052345884625711818 0.001729507162416636 0 -0.053004229968991401 0.002049270095743357 0 -0.053139394001988811 0.0013833069064850079 0 -0.052721209186360106 0.0018046145127263618 0 -0.052345884625711818 0.001729507162416636 0 -0.053139394001988811 0.0013833069064850079 0 -0.053053350970453349 0.0017634310912554288 0 -0.052721209186360106 0.0018046145127263618 0 -0.05386655218077168 0.0021460657288507679 0 -0.053376417109895435 0.0021258496155791818 0 -0.053701841278779014 0.0018551531540419793 0 -0.041079957147571906 -0.016669040266236151 0 -0.042882381348071229 -0.010733536064581531 0 -0.056597047730793472 -0.014963700077879165 0 -0.05530408162025683 -0.010448421408201482 0 -0.052345884625711818 0.001729507162416636 0 -0.053004229968991401 0.002049270095743357 0 -0.051675782600910838 0.0019941265075716914 0 -0.047661920175686379 -0.01422658776772634 0 -0.047655559942414667 -0.014019172677168358 0 -0.047737170185648839 -0.014008816836101052 0 -0.047661920175686379 -0.01422658776772634 0 -0.047630816339401041 -0.014223970055689643 0 -0.047655559942414667 -0.014019172677168358 0 -0.05530408162025683 -0.010448421408201482 0 -0.042882381348071229 -0.010733536064581531 0 -0.038026628579262992 -0.015395592005951962 0 -0.031536780701656074 -0.018648807056567802 0 -0.033965508793005666 -0.021793312212822397 0 -0.031536780701656074 -0.018648807056567802 0 -0.028725874972167612 -0.020092586446475644 0 -0.029181239304412569 -0.017899451656941304 0 -0.031536780701656074 -0.018648807056567802 0 -0.029217298464056757 -0.021983379191811599 0 -0.028725874972167612 -0.020092586446475644 0 -0.042882381348071229 -0.010733536064581531 0 -0.031993408291077774 -0.012606355232771021 0 -0.031536780701656074 -0.018648807056567802 0 -0.033965508793005666 -0.021793312212822397 0 -0.029217298464056757 -0.021983379191811599 0 -0.052345884625711818 0.001729507162416636 0 -0.051675782600910838 0.0019941265075716914 0 -0.05134654772699019 0.0014161971408960354 0 -0.046008578330658918 0.0022415753905394836 0 -0.043455104592481808 0.00014083765757019347 0 -0.052639943832303672 0.0030583274107967911 0 -0.052290194417696466 0.0022467877067694326 0 -0.050471095728763939 0.00053901724508658843 0 -0.042882381348071229 -0.010733536064581531 0 -0.046008578330658918 0.0022415753905394836 0 -0.052639943832303672 0.0030583274107967911 0 -0.052290194417696466 0.0022467877067694326 0 -0.052985984885324577 0.0020418353630410509 0 -0.053376417109895435 0.0021258496155791818 0 -0.052639943832303672 0.0030583274107967911 0 -0.052985984885324577 0.0020418353630410509 0 -0.045149751180182746 -0.0033943195780721646 0 -0.042701160009214041 -0.007297423518154063 0 -0.036217937749225888 -0.0038548183643401278 0 -0.046008578330658918 0.0022415753905394836 0 -0.027127010780093063 -0.0057578806979751143 0 -0.042701160009214041 -0.007297423518154063 0 -0.036217937749225888 -0.0038548183643401278 0 -0.027281183163282718 -0.00433093971014309 0 -0.039245366919289502 0.0058827209398991881 0 -0.035472409535047586 -2.80075276986321e-05 0 -0.031037716107185611 0.007488903619329277 0 -0.031993408291077774 -0.012606355232771021 0 -0.027127010780093063 -0.0057578806979751143 0 -0.02816227878708509 -0.020014616109381132 0 -0.022605133884949186 -0.019157127794714648 0 -0.028725874972167612 -0.020092586446475644 0 -0.025861096791089822 -0.017678889937687847 0 -0.022354325493789233 -0.019528232163593583 0 -0.028725874972167612 -0.020092586446475644 0 -0.022853506447126207 -0.018829036467896562 0 -0.02473004558782331 -0.021973503533996346 0 -0.029217298464056757 -0.021983379191811599 0 -0.028725874972167612 -0.020092586446475644 0 -0.02473004558782331 -0.021973503533996346 0 -0.028725874972167612 -0.020092586446475644 0 -0.029181239304412569 -0.017899451656941304 0 -0.025861096791089822 -0.017678889937687847 0 -0.031729661791139778 -0.0059348417838080616 0 -0.035472409535047586 -2.80075276986321e-05 0 -0.029638407008624367 -0.00054611826223470829 0 -0.048246378417673 -0.0026174607707224688 0 -0.050471095728763939 0.00053901724508658843 0 -0.049357757508121582 -0.0029666136757640366 0 -0.035001401126964572 -8.8997254302715742e-05 0 -0.043455104592481808 0.00014083765757019347 0 -0.050471095728763939 0.00053901724508658843 0 -0.052675904314216968 -7.3890923524717894e-05 0 -0.049357757508121582 -0.0029666136757640366 0 -0.035001401126964572 -8.8997254302715742e-05 0 -0.041417025887466027 0.0039624546121446074 0 -0.035472409535047586 -2.80075276986321e-05 0 -0.029638407008624367 -0.00054611826223470829 0 -0.031037716107185611 0.007488903619329277 0 -0.052445312977304766 0.0017164041499252232 0 -0.051644946906920688 0.0015873792646004974 0 -0.052290194417696466 0.0022467877067694326 0 -0.050471095728763939 0.00053901724508658843 0 -0.052675904314216968 -7.3890923524717894e-05 0 -0.052290194417696466 0.0022467877067694326 0 -0.052985984885324577 0.0020418353630410509 0 -0.052908889029885317 0.0012324901990684134 0 -0.052985984885324577 0.0020418353630410509 0 -0.052908889029885317 0.0012324901990684134 0 -0.053370379540133267 0.0016708342089476315 0 -0.051644946906920688 0.0015873792646004974 0 -0.052921599131674227 0.0020257332864078901 0 -0.051644946906920688 0.0015873792646004974 0 -0.041417025887466027 0.0039624546121446074 0 -0.047405112227145767 0.0045721972743053814 0 -0.047851415258769348 0.0023313778703168133 0 -0.045651153242984736 0.003039359924782731 0 -0.051644946906920688 0.0015873792646004974 0 -0.048471202752927281 0.0045660105202382584 0 -0.053570527277934432 0.0017011199136426913 0 -0.053676340639211118 0.0017675078289131313 0 -0.053930540523155483 0.0020166048636877476 0 -0.053676340639211118 0.0017675078289131313 0 -0.053758603899793929 0.001783117746304154 0 -0.053807126094214362 0.0018988306033369683 0 -0.053676340639211118 0.0017675078289131313 0 -0.053577860461448149 0.0017193611936888451 0 -0.053794077900388357 0.0017558751162291982 0 -0.053570527277934432 0.0017011199136426913 0 -0.053676340639211118 0.0017675078289131313 0 -0.053577860461448149 0.0017193611936888451 0 -0.053570527277934432 0.0017011199136426913 0 -0.053577860461448149 0.0017193611936888451 0 -0.053370379540133267 0.0016708342089476315 0 -0.053577860461448149 0.0017193611936888451 0 -0.053370379540133267 0.0016708342089476315 0 -0.053701841278779014 0.0018551531540419793 0 -0.053376417109895435 0.0021258496155791818 0 -0.053370379540133267 0.0016708342089476315 0 -0.053701841278779014 0.0018551531540419793 0 -0.053376417109895435 0.0021258496155791818 0 -0.052985984885324577 0.0020418353630410509 0 -0.053370379540133267 0.0016708342089476315 0 -0.053577860461448149 0.0017193611936888451 0 -0.053701841278779014 0.0018551531540419793 0 -0.053794077900388357 0.0017558751162291982 0 -0.053701841278779014 0.0018551531540419793 0 -0.053794077900388357 0.0017558751162291982 0 -0.053890518016676214 0.001837474169436804 0 -0.05386655218077168 0.0021460657288507679 0 -0.053701841278779014 0.0018551531540419793 0 -0.053890518016676214 0.001837474169436804 0 -0.053794077900388357 0.0017558751162291982 0 -0.053890518016676214 0.001837474169436804 0 -0.053938496855858407 0.0017440208362078016 0 -0.053794077900388357 0.0017558751162291982 0 -0.053938496855858407 0.0017440208362078016 0 -0.053866872883633225 0.0017283330408554808 0 -0.053794077900388357 0.0017558751162291982 0 -0.053758603899793929 0.001783117746304154 0 -0.053866872883633225 0.0017283330408554808 0 -0.053676340639211118 0.0017675078289131313 0 -0.053794077900388357 0.0017558751162291982 0 -0.053758603899793929 0.001783117746304154 0 -0.053758603899793929 0.001783117746304154 0 -0.053718227267720811 0.0019060473887939722 0 -0.053866872883633225 0.0017283330408554808 0 -0.053725251593577272 0.0019125282408344888 0 -0.053577858147703862 0.0019702390677017716 0 -0.053718227267720811 0.0019060473887939722 0 -0.053866872883633225 0.0017283330408554808 0 -0.053955112800678551 0.0015699521310975162 0 -0.053718227267720811 0.0019060473887939722 0 -0.053610196758887362 0.0024151139754237847 0 -0.053073124064452207 0.0024116579326782179 0 -0.053758603899793929 0.001783117746304154 0 -0.053718227267720811 0.0019060473887939722 0 -0.053807126094214362 0.0018988306033369683 0 -0.053718227267720811 0.0019060473887939722 0 -0.053610196758887362 0.0024151139754237847 0 -0.053934593923621751 0.0021894835070907863 0 -0.053413903518710955 0.0028559705325478133 0 -0.053881627615668885 0.0027417206245649462 0 -0.053510481523141376 0.0035495882427438769 0 -0.053610196758887362 0.0024151139754237847 0 -0.053413903518710955 0.0028559705325478133 0 -0.053073124064452207 0.0024116579326782179 0 -0.053610196758887362 0.0024151139754237847 0 -0.053413903518710955 0.0028559705325478133 0 -0.053881627615668885 0.0027417206245649462 0 -0.048471202752927281 0.0045660105202382584 0 -0.049882487063964476 0.0062867255315947161 0 -0.04317420605555701 0.0074177886440980525 0 -0.043268254653219873 0.0098816633560383609 0 -0.044385237001703409 0.0045858178140536993 0 -0.053881627615668885 0.0027417206245649462 0 -0.054282458495366268 0.0021022048666231035 0 -0.054149785550363636 0.0031447638094203511 0 -0.053610196758887362 0.0024151139754237847 0 -0.053881627615668885 0.0027417206245649462 0 -0.053934593923621751 0.0021894835070907863 0 -0.04317420605555701 0.0074177886440980525 0 -0.04244156479478399 0.0055481263237769094 0 -0.044385237001703409 0.0045858178140536993 0 -0.053676340639211118 0.0017675078289131313 0 -0.053930540523155483 0.0020166048636877476 0 -0.053807126094214362 0.0018988306033369683 0 -0.048471202752927281 0.0045660105202382584 0 -0.054315966632952989 0.0023116465372607126 0 -0.053881627615668885 0.0027417206245649462 0 -0.054282458495366268 0.0021022048666231035 0 -0.053934593923621751 0.0021894835070907863 0 -0.053718227267720811 0.0019060473887939722 0 -0.053934593923621751 0.0021894835070907863 0 -0.053807126094214362 0.0018988306033369683 0 -0.053930540523155483 0.0020166048636877476 0 -0.053934593923621751 0.0021894835070907863 0 -0.053807126094214362 0.0018988306033369683 0 -0.048471202752927281 0.0045660105202382584 0 -0.041417025887466027 0.0039624546121446074 0 -0.043268254653219873 0.0098816633560383609 0 -0.041045797666009312 0.0083476945629757261 0 -0.037776035311964669 0.011681003496769036 0 -0.04317420605555701 0.0074177886440980525 0 -0.043268254653219873 0.0098816633560383609 0 -0.041045797666009312 0.0083476945629757261 0 -0.030853178121392148 0.017293985762670563 0 -0.027717700749586127 0.018808751301948937 0 -0.027969670842873211 0.016004920989705625 0 -0.042382062921406546 0.0054888878001624229 0 -0.041045797666009312 0.0083476945629757261 0 -0.038614470978666146 0.0072777237775137208 0 -0.041290575668469477 0.011666267111864454 0 -0.032392918777605542 0.013561246736093565 0 -0.04317420605555701 0.0074177886440980525 0 -0.042382062921406546 0.0054888878001624229 0 -0.041045797666009312 0.0083476945629757261 0 -0.041515028076088069 0.0070431427927774119 0 -0.041290575668469477 0.011666267111864454 0 -0.027717700749586127 0.018808751301948937 0 -0.027969670842873211 0.016004920989705625 0 -0.025682120602180822 0.016584036262700389 0 -0.032392918777605542 0.013561246736093565 0 -0.027941222566344431 0.0087823754271398758 0 -0.027717700749586127 0.018808751301948937 0 -0.024578217397365154 0.02026159266557355 0 -0.025682120602180822 0.016584036262700389 0 -0.038614470978666146 0.0072777237775137208 0 -0.037776035311964669 0.011681003496769036 0 -0.03482368293146032 0.0090839321397808634 0 -0.041045797666009312 0.0083476945629757261 0 -0.038614470978666146 0.0072777237775137208 0 -0.037776035311964669 0.011681003496769036 0 -0.032707262634856085 0.0048905999264154155 0 -0.03514116300693871 0.0040933102722403806 0 -0.031274475000881458 0.0026421003632245755 0 -0.041417025887466027 0.0039624546121446074 0 -0.027941222566344431 0.0087823754271398758 0 -0.05431023931664121 0.0015703388553002945 0 -0.054351547892675864 0.0016529663880367827 0 -0.054112197810298059 0.0016664602003761189 0 -0.05431023931664121 0.0015703388553002945 0 -0.054112197810298059 0.0016664602003761189 0 -0.054171348752957531 0.0015664395401647942 0 -0.055054444559457405 -0.00014520434913113669 0 -0.054733465648396075 0.00097512534666219534 0 -0.055493431107259454 -0.0013025248174409624 0 -0.056282355122119175 -0.0014092946877490018 0 -0.056443558113324882 -0.00066672646633189852 0 -0.055493431107259454 -0.0013025248174409624 0 -0.055098276937365548 7.7970628367263564e-05 0 -0.056443558113324882 -0.00066672646633189852 0 -0.056127114109345948 0.00064428035277384226 0 -0.055098276937365548 7.7970628367263564e-05 0 -0.056443558113324882 -0.00066672646633189852 0 -0.054204744782185475 0.0017047469719724327 0 -0.054351547892675864 0.0016529663880367827 0 -0.054112197810298059 0.0016664602003761189 0 -0.053977196869865365 0.0017140675678840691 0 -0.054204744782185475 0.0017047469719724327 0 -0.054112197810298059 0.0016664602003761189 0 -0.053977196869865365 0.0017140675678840691 0 -0.053938496855858407 0.0017440208362078016 0 -0.054112197810298059 0.0016664602003761189 0 -0.053977196869865365 0.0017140675678840691 0 -0.053890518016676214 0.001837474169436804 0 -0.053938496855858407 0.0017440208362078016 0 -0.053938496855858407 0.0017440208362078016 0 -0.053866872883633225 0.0017283330408554808 0 -0.054112197810298059 0.0016664602003761189 0 -0.053866872883633225 0.0017283330408554808 0 -0.054112197810298059 0.0016664602003761189 0 -0.053955112800678551 0.0015699521310975162 0 -0.054112197810298059 0.0016664602003761189 0 -0.053955112800678551 0.0015699521310975162 0 -0.054171348752957531 0.0015664395401647942 0 -0.054161050417479095 0.0014566290164614822 0 -0.053955112800678551 0.0015699521310975162 0 -0.054171348752957531 0.0015664395401647942 0 -0.053198866370029879 0.0022117656448503793 0 -0.053577858147703862 0.0019702390677017716 0 -0.053413903518710955 0.0028559705325478133 0 -0.053073124064452207 0.0024116579326782179 0 -0.052961069134467124 0.0031756096570886229 0 -0.052534215737886775 0.0027195306933015277 0 -0.052345646455057737 0.0032625807875495171 0 -0.052961069134467124 0.0031756096570886229 0 -0.052534215737886775 0.0027195306933015277 0 -0.053073124064452207 0.0024116579326782179 0 -0.052961069134467124 0.0031756096570886229 0 -0.052534215737886775 0.0027195306933015277 0 -0.052345646455057737 0.0032625807875495171 0 -0.051903679738258997 0.0029298760305116276 0 -0.053198866370029879 0.0022117656448503793 0 -0.053660008530200067 0.00080486283509601094 0 -0.054161050417479095 0.0014566290164614822 0 -0.054244206832059147 0.0015014725683778888 0 -0.054171348752957531 0.0015664395401647942 0 -0.054161050417479095 0.0014566290164614822 0 -0.054244206832059147 0.0015014725683778888 0 -0.054321720829899542 0.0014073500214612513 0 -0.05431023931664121 0.0015703388553002945 0 -0.054244206832059147 0.0015014725683778888 0 -0.054171348752957531 0.0015664395401647942 0 -0.055493431107259454 -0.0013025248174409624 0 -0.056051678957412768 -0.0018271703580377853 0 -0.055801753439826698 -0.0023314519407918442 0 -0.055054444559457405 -0.00014520434913113669 0 -0.053660008530200067 0.00080486283509601094 0 -0.05431023931664121 0.0015703388553002945 0 -0.054244206832059147 0.0015014725683778888 0 -0.054321720829899542 0.0014073500214612513 0 -0.055493431107259454 -0.0013025248174409624 0 -0.056051678957412768 -0.0018271703580377853 0 -0.056282355122119175 -0.0014092946877490018 0 -0.056051678957412768 -0.0018271703580377853 0 -0.056222367053280507 -0.0020511126489650942 0 -0.056094874895290796 -0.0021677396303025442 0 -0.056094874895290796 -0.0021677396303025442 0 -0.056232542970613981 -0.0023564559058163095 0 -0.056343865368195759 -0.002190376972195267 0 -0.056278610133259153 -0.0024276162656674135 0 -0.056232542970613981 -0.0023564559058163095 0 -0.055801753439826698 -0.0023314519407918442 0 -0.056051678957412768 -0.0018271703580377853 0 -0.056094874895290796 -0.0021677396303025442 0 -0.055801753439826698 -0.0023314519407918442 0 -0.053660008530200067 0.00080486283509601094 0 -0.052024882034097442 0.0034550016026385299 0 -0.056222367053280507 -0.0020511126489650942 0 -0.056094874895290796 -0.0021677396303025442 0 -0.056343865368195759 -0.002190376972195267 0 -0.052345646455057737 0.0032625807875495171 0 -0.051903679738258997 0.0029298760305116276 0 -0.051840977462920636 0.0035126567715826288 0 -0.051637466201584929 0.0017190255518190053 0 -0.05245124743890775 0.0015059566261686312 0 -0.052238805716643195 0.0028399431108789485 0 -0.055214008166307248 -0.00073167830837209146 0 -0.053660008530200067 0.00080486283509601094 0 -0.056094874895290796 -0.0021677396303025442 0 -0.056232542970613981 -0.0023564559058163095 0 -0.055801753439826698 -0.0023314519407918442 0 -0.055214008166307248 -0.00073167830837209146 0 -0.05534404453824085 -0.0009424390576697044 0 -0.055214008166307248 -0.00073167830837209146 0 -0.057873594649270672 -0.002633400389522087 0 -0.056311171877079902 -0.0024244537057243544 0 -0.056598696078241528 -0.0022360963711324901 0 -0.057170940042841213 -0.0022335993169830455 0 -0.056598696078241528 -0.0022360963711324901 0 -0.057170940042841213 -0.0022335993169830455 0 -0.056815011320916105 -0.0021050543428630425 0 -0.056598696078241528 -0.0022360963711324901 0 -0.056501103649243899 -0.0020777185893486672 0 -0.056815011320916105 -0.0021050543428630425 0 -0.056343865368195759 -0.002190376972195267 0 -0.056598696078241528 -0.0022360963711324901 0 -0.056501103649243899 -0.0020777185893486672 0 -0.056222367053280507 -0.0020511126489650942 0 -0.056343865368195759 -0.002190376972195267 0 -0.056501103649243899 -0.0020777185893486672 0 -0.056343865368195759 -0.002190376972195267 0 -0.056376351917984339 -0.0023022192893401875 0 -0.056598696078241528 -0.0022360963711324901 0 -0.056311171877079902 -0.0024244537057243544 0 -0.056376351917984339 -0.0023022192893401875 0 -0.056598696078241528 -0.0022360963711324901 0 -0.056232542970613981 -0.0023564559058163095 0 -0.056343865368195759 -0.002190376972195267 0 -0.056376351917984339 -0.0023022192893401875 0 -0.056311171877079902 -0.0024244537057243544 0 -0.056232542970613981 -0.0023564559058163095 0 -0.056376351917984339 -0.0023022192893401875 0 -0.057170940042841213 -0.0022335993169830455 0 -0.057163345446915689 -0.0021630861499501554 0 -0.056815011320916105 -0.0021050543428630425 0 -0.057170940042841213 -0.0022335993169830455 0 -0.057163345446915689 -0.0021630861499501554 0 -0.057030066620022996 -0.0022124645928557427 0 -0.057163345446915689 -0.0021630861499501554 0 -0.056922294497510149 -0.0018227339645733565 0 -0.057355065026014396 -0.0015636283467873686 0 -0.057163345446915689 -0.0021630861499501554 0 -0.056922294497510149 -0.0018227339645733565 0 -0.056815011320916105 -0.0021050543428630425 0 -0.056922294497510149 -0.0018227339645733565 0 -0.057355065026014396 -0.0015636283467873686 0 -0.0568629592141289 -0.0014103073889594046 0 -0.056051678957412768 -0.0018271703580377853 0 -0.056222367053280507 -0.0020511126489650942 0 -0.056501779486002518 -0.0017814655276144555 0 -0.056222367053280507 -0.0020511126489650942 0 -0.056501103649243899 -0.0020777185893486672 0 -0.056501779486002518 -0.0017814655276144555 0 -0.056501103649243899 -0.0020777185893486672 0 -0.056815011320916105 -0.0021050543428630425 0 -0.056501779486002518 -0.0017814655276144555 0 -0.056922294497510149 -0.0018227339645733565 0 -0.056815011320916105 -0.0021050543428630425 0 -0.056501779486002518 -0.0017814655276144555 0 -0.056922294497510149 -0.0018227339645733565 0 -0.056501779486002518 -0.0017814655276144555 0 -0.0568629592141289 -0.0014103073889594046 0 -0.056501779486002518 -0.0017814655276144555 0 -0.056282355122119175 -0.0014092946877490018 0 -0.0568629592141289 -0.0014103073889594046 0 -0.056051678957412768 -0.0018271703580377853 0 -0.056501779486002518 -0.0017814655276144555 0 -0.056282355122119175 -0.0014092946877490018 0 -0.056282355122119175 -0.0014092946877490018 0 -0.056443558113324882 -0.00066672646633189852 0 -0.0568629592141289 -0.0014103073889594046 0 -0.056443558113324882 -0.00066672646633189852 0 -0.0568629592141289 -0.0014103073889594046 0 -0.056982698321605234 -0.00083850296187317039 0 -0.0568629592141289 -0.0014103073889594046 0 -0.05758439202634718 -0.001010781174786713 0 -0.056982698321605234 -0.00083850296187317039 0 -0.057355065026014396 -0.0015636283467873686 0 -0.0568629592141289 -0.0014103073889594046 0 -0.05758439202634718 -0.001010781174786713 0 -0.057125716785826529 -0.0003320429800943342 0 -0.057959427030150591 -0.00056758154264045086 0 -0.057823074510494198 6.0126327690426057e-05 0 -0.05758439202634718 -0.001010781174786713 0 -0.057125716785826529 -0.0003320429800943342 0 -0.057959427030150591 -0.00056758154264045086 0 -0.05758439202634718 -0.001010781174786713 0 -0.056982698321605234 -0.00083850296187317039 0 -0.057125716785826529 -0.0003320429800943342 0 -0.05738649658376168 -8.5599017382152499e-05 0 -0.059876638886634942 -0.0038090626477706156 0 -0.056127114109345948 0.00064428035277384226 0 -0.056443558113324882 -0.00066672646633189852 0 -0.057498349854210762 -4.9335745639836551e-05 0 -0.056443558113324882 -0.00066672646633189852 0 -0.056982698321605234 -0.00083850296187317039 0 -0.057125716785826529 -0.0003320429800943342 0 -0.056504344671413444 -0.00065211424136646075 0 -0.05738649658376168 -8.5599017382152499e-05 0 -0.06099435525560596 -0.0036280118228161004 0 -0.059066115399085857 -0.0036233081747747212 0 -0.058627773192532907 -0.00031526319560185598 0 -0.057959427030150591 -0.00056758154264045086 0 -0.057823074510494198 6.0126327690426057e-05 0 -0.06099435525560596 -0.0036280118228161004 0 -0.059876638886634942 -0.0038090626477706156 0 -0.058627773192532907 -0.00031526319560185598 0 -0.057959427030150591 -0.00056758154264045086 0 -0.058349325107755597 -0.0013934417862099958 0 -0.057355065026014396 -0.0015636283467873686 0 -0.05758439202634718 -0.001010781174786713 0 -0.058349325107755597 -0.0013934417862099958 0 -0.05758439202634718 -0.001010781174786713 0 -0.057959427030150591 -0.00056758154264045086 0 -0.058349325107755597 -0.0013934417862099958 0 -0.056946986764832619 -0.0026216054087468701 0 -0.056760594598119669 -0.0025407133183585921 0 -0.056653251006552829 -0.0029737535168014493 0 -0.057499087863290395 -0.00174664194879141 0 -0.059066115399085857 -0.0036233081747747212 0 -0.058627773192532907 -0.00031526319560185598 0 -0.058349325107755597 -0.0013934417862099958 0 -0.059416741907254746 -0.00069594393961882911 0 -0.056946986764832619 -0.0026216054087468701 0 -0.056760594598119669 -0.0025407133183585921 0 -0.056843710211943795 -0.0022887663593986916 0 -0.057219158043277041 -0.0022505273048458708 0 -0.057499087863290395 -0.00174664194879141 0 -0.056946986764832619 -0.0026216054087468701 0 -0.057030066620022996 -0.0022124645928557427 0 -0.056843710211943795 -0.0022887663593986916 0 -0.057163345446915689 -0.0021630861499501554 0 -0.057355065026014396 -0.0015636283467873686 0 -0.058349325107755597 -0.0013934417862099958 0 -0.057163345446915689 -0.0021630861499501554 0 -0.056946986764832619 -0.0026216054087468701 0 -0.057030066620022996 -0.0022124645928557427 0 -0.057030066620022996 -0.0022124645928557427 0 -0.056843710211943795 -0.0022887663593986916 0 -0.0568683496103514 -0.002058816485304882 0 -0.056760594598119669 -0.0025407133183585921 0 -0.056843710211943795 -0.0022887663593986916 0 -0.056622372169790776 -0.0023314997561498865 0 -0.056843710211943795 -0.0022887663593986916 0 -0.056622372169790776 -0.0023314997561498865 0 -0.056728217155638416 -0.0020413958480623444 0 -0.056843710211943795 -0.0022887663593986916 0 -0.0568683496103514 -0.002058816485304882 0 -0.056728217155638416 -0.0020413958480623444 0 -0.056622372169790776 -0.0023314997561498865 0 -0.056391571787590078 -0.00240950499321248 0 -0.056434780075432824 -0.0020848281274728985 0 -0.056622372169790776 -0.0023314997561498865 0 -0.056391571787590078 -0.00240950499321248 0 -0.056458045056014698 -0.0026560262121391679 0 -0.056391571787590078 -0.00240950499321248 0 -0.056201470244247494 -0.0021697935746061285 0 -0.056434780075432824 -0.0020848281274728985 0 -0.056458045056014698 -0.0026560262121391679 0 -0.056582457690973746 -0.0026956301147039153 0 -0.056391212416331306 -0.0029438056661529981 0 -0.056458045056014698 -0.0026560262121391679 0 -0.056304686901569471 -0.0028070435393240641 0 -0.056391212416331306 -0.0029438056661529981 0 -0.056391571787590078 -0.00240950499321248 0 -0.056458045056014698 -0.0026560262121391679 0 -0.056304686901569471 -0.0028070435393240641 0 -0.056760594598119669 -0.0025407133183585921 0 -0.056622372169790776 -0.0023314997561498865 0 -0.056582457690973746 -0.0026956301147039153 0 -0.056622372169790776 -0.0023314997561498865 0 -0.056458045056014698 -0.0026560262121391679 0 -0.056582457690973746 -0.0026956301147039153 0 -0.055000027826597055 -0.00025646249477802183 0 -0.055911068871085615 -0.00048490867302956311 0 -0.055152407365226697 -0.003109119089885128 0 -0.055739736753142352 -0.0021721728245972095 0 -0.056009833833171284 -0.0022310864045014746 0 -0.055974447336305432 -0.0020019586264189617 0 -0.055739736753142352 -0.0021721728245972095 0 -0.055947718113403717 -0.0024062364496165193 0 -0.056009833833171284 -0.0022310864045014746 0 -0.055739736753142352 -0.0021721728245972095 0 -0.055947718113403717 -0.0024062364496165193 0 -0.055765951894308038 -0.0026749018091600713 0 -0.055947718113403717 -0.0024062364496165193 0 -0.056160928900415095 -0.0024294904104615305 0 -0.0560471097824203 -0.0027423009155795718 0 -0.055947718113403717 -0.0024062364496165193 0 -0.056009833833171284 -0.0022310864045014746 0 -0.056160928900415095 -0.0024294904104615305 0 -0.056391571787590078 -0.00240950499321248 0 -0.056201470244247494 -0.0021697935746061285 0 -0.056160928900415095 -0.0024294904104615305 0 -0.056009833833171284 -0.0022310864045014746 0 -0.056201470244247494 -0.0021697935746061285 0 -0.056160928900415095 -0.0024294904104615305 0 -0.056391571787590078 -0.00240950499321248 0 -0.056160928900415095 -0.0024294904104615305 0 -0.056304686901569471 -0.0028070435393240641 0 -0.056304686901569471 -0.0028070435393240641 0 -0.0560471097824203 -0.0027423009155795718 0 -0.056180100753878318 -0.003314848689495897 0 -0.056160928900415095 -0.0024294904104615305 0 -0.056304686901569471 -0.0028070435393240641 0 -0.0560471097824203 -0.0027423009155795718 0 -0.055000027826597055 -0.00025646249477802183 0 -0.055152407365226697 -0.003109119089885128 0 -0.054999873939831578 -0.0034495933015808193 0 -0.055739736753142352 -0.0021721728245972095 0 -0.055765951894308038 -0.0026749018091600713 0 -0.055152407365226697 -0.003109119089885128 0 -0.055788507065681212 -0.001286448968615417 0 -0.055210766525694607 -0.0030479190665558343 0 -0.055947718113403717 -0.0024062364496165193 0 -0.0560471097824203 -0.0027423009155795718 0 -0.055765951894308038 -0.0026749018091600713 0 -0.0560471097824203 -0.0027423009155795718 0 -0.055765951894308038 -0.0026749018091600713 0 -0.055701626838441279 -0.002993267844668334 0 -0.0560471097824203 -0.0027423009155795718 0 -0.056180100753878318 -0.003314848689495897 0 -0.055701626838441279 -0.002993267844668334 0 -0.055701626838441279 -0.002993267844668334 0 -0.055152407365226697 -0.003109119089885128 0 -0.054999873939831578 -0.0034495933015808193 0 -0.056180100753878318 -0.003314848689495897 0 -0.055701626838441279 -0.002993267844668334 0 -0.054999873939831578 -0.0034495933015808193 0 -0.055765951894308038 -0.0026749018091600713 0 -0.055701626838441279 -0.002993267844668334 0 -0.055152407365226697 -0.003109119089885128 0 -0.054999873939831578 -0.0034495933015808193 0 -0.056707256272279918 -0.0053407091231700739 0 -0.054999764671995924 -0.0066430932655507967 0 -0.056180100753878318 -0.003314848689495897 0 -0.054999873939831578 -0.0034495933015808193 0 -0.056707256272279918 -0.0053407091231700739 0 -0.056262697283938588 -0.0032970104598654421 0 -0.057385718918076783 -0.0037580891580428696 0 -0.056180100753878318 -0.003314848689495897 0 -0.056707256272279918 -0.0053407091231700739 0 -0.058511796230124195 -0.0044690152278911658 0 -0.056304686901569471 -0.0028070435393240641 0 -0.056180100753878318 -0.003314848689495897 0 -0.056391212416331306 -0.0029438056661529981 0 -0.056707256272279918 -0.0053407091231700739 0 -0.058511796230124195 -0.0044690152278911658 0 -0.058719636384085512 -0.0070350119565079751 0 -0.056707256272279918 -0.0053407091231700739 0 -0.058719636384085512 -0.0070350119565079751 0 -0.056657889664970311 -0.0074863675021040873 0 -0.056707256272279918 -0.0053407091231700739 0 -0.054999764671995924 -0.0066430932655507967 0 -0.056657889664970311 -0.0074863675021040873 0 -0.056760594598119669 -0.0025407133183585921 0 -0.056582457690973746 -0.0026956301147039153 0 -0.056653251006552829 -0.0029737535168014493 0 -0.056582457690973746 -0.0026956301147039153 0 -0.056391212416331306 -0.0029438056661529981 0 -0.056653251006552829 -0.0029737535168014493 0 -0.057385718918076783 -0.0037580891580428696 0 -0.059066115399085857 -0.0036233081747747212 0 -0.058511796230124195 -0.0044690152278911658 0 -0.058719636384085512 -0.0070350119565079751 0 -0.060849576368873955 -0.0055567959737401872 0 -0.059113341903047525 -0.0071963548836705919 0 -0.059066115399085857 -0.0036233081747747212 0 -0.062655071052640385 -0.0067156703054942739 0 -0.060485702738897418 -0.0058196730033386289 0 -0.060534694934615503 -0.0079152462126261501 0 -0.058719636384085512 -0.0070350119565079751 0 -0.060485702738897418 -0.0058196730033386289 0 -0.060534694934615503 -0.0079152462126261501 0 -0.060534694934615503 -0.0079152462126261501 0 -0.060576488776799955 -0.010816072206367506 0 -0.062789725939011401 -0.0091242412509202342 0 -0.060448254347648368 -0.0079763881618564996 0 -0.057444387035176306 -0.0092006972687600688 0 -0.060534694934615503 -0.0079152462126261501 0 -0.059152176114988457 -0.009899696581614938 0 -0.05702715371791469 -0.0098651109975764067 0 -0.058719636384085512 -0.0070350119565079751 0 -0.060534694934615503 -0.0079152462126261501 0 -0.057810735055456204 -0.0086317005781309519 0 -0.058653909480355634 -0.011115722433912435 0 -0.05702715371791469 -0.0098651109975764067 0 -0.057588758384206296 -0.011542314782365662 0 -0.059152176114988457 -0.009899696581614938 0 -0.058653909480355634 -0.011115722433912435 0 -0.05702715371791469 -0.0098651109975764067 0 -0.058653909480355634 -0.011115722433912435 0 -0.059091321883236077 -0.011907809647498629 0 -0.058472271362898877 -0.012023180412492011 0 -0.058653909480355634 -0.011115722433912435 0 -0.058472271362898877 -0.012023180412492011 0 -0.057588758384206296 -0.011542314782365662 0 -0.060534694934615503 -0.0079152462126261501 0 -0.059152176114988457 -0.009899696581614938 0 -0.060576488776799955 -0.010816072206367506 0 -0.058952670176438834 -0.010957598519728067 0 -0.059681476345669053 -0.010215376055765274 0 -0.058653909480355634 -0.011115722433912435 0 -0.059091321883236077 -0.011907809647498629 0 -0.059817514505393327 -0.011540565501280005 0 -0.058905261705075214 -0.011385561984652692 0 -0.059681476345669053 -0.010215376055765274 0 -0.059152176114988457 -0.009899696581614938 0 -0.058653909480355634 -0.011115722433912435 0 -0.060576488776799955 -0.010816072206367506 0 -0.054999764671995924 -0.0066430932655507967 0 -0.056657889664970311 -0.0074863675021040873 0 -0.054999994542143812 -0.0098360092018609339 0 -0.058719636384085512 -0.0070350119565079751 0 -0.056657889664970311 -0.0074863675021040873 0 -0.057810735055456204 -0.0086317005781309519 0 -0.05702715371791469 -0.0098651109975764067 0 -0.056368135279215317 -0.011336041739107376 0 -0.057588758384206296 -0.011542314782365662 0 -0.056657889664970311 -0.0074863675021040873 0 -0.057810735055456204 -0.0086317005781309519 0 -0.054999994542143812 -0.0098360092018609339 0 -0.057444387035176306 -0.0092006972687600688 0 -0.055000160513623164 -0.0098363264010469572 0 -0.05702715371791469 -0.0098651109975764067 0 -0.054999596986788149 -0.0098385974549556002 0 -0.056368135279215317 -0.011336041739107376 0 -0.056368135279215317 -0.011336041739107376 0 -0.056531995224846247 -0.01284820810498157 0 -0.054999740281348526 -0.012634972562240145 0 -0.054999596986788149 -0.0098385974549556002 0 -0.056368135279215317 -0.011336041739107376 0 -0.054999740281348526 -0.012634972562240145 0 -0.056368135279215317 -0.011336041739107376 0 -0.05720688795408168 -0.012353073492208235 0 -0.056531995224846247 -0.01284820810498157 0 -0.056368135279215317 -0.011336041739107376 0 -0.05720688795408168 -0.012353073492208235 0 -0.057588758384206296 -0.011542314782365662 0 -0.057929774947315778 -0.014570682252306693 0 -0.056621993918656841 -0.01462290490525099 0 -0.057441304826938447 -0.013414070513681308 0 -0.056621993918656841 -0.01462290490525099 0 -0.057441304826938447 -0.013414070513681308 0 -0.056531995224846247 -0.01284820810498157 0 -0.05720688795408168 -0.012353073492208235 0 -0.057441304826938447 -0.013414070513681308 0 -0.056531995224846247 -0.01284820810498157 0 -0.056621993918656841 -0.01462290490525099 0 -0.056531995224846247 -0.01284820810498157 0 -0.054999740281348526 -0.012634972562240145 0 -0.058842375376768889 -0.012743593999875926 0 -0.05953092882307439 -0.013090792184335941 0 -0.05867526018724812 -0.013757480266284997 0 -0.059091321883236077 -0.011907809647498629 0 -0.05932311072842162 -0.012191675004400895 0 -0.05953092882307439 -0.013090792184335941 0 -0.059091321883236077 -0.011907809647498629 0 -0.058842375376768889 -0.012743593999875926 0 -0.05953092882307439 -0.013090792184335941 0 -0.058842375376768889 -0.012743593999875926 0 -0.058472271362898877 -0.012023180412492011 0 -0.058060602019929512 -0.012619689167680751 0 -0.059091321883236077 -0.011907809647498629 0 -0.058842375376768889 -0.012743593999875926 0 -0.058472271362898877 -0.012023180412492011 0 -0.05720688795408168 -0.012353073492208235 0 -0.057588758384206296 -0.011542314782365662 0 -0.058060602019929512 -0.012619689167680751 0 -0.058472271362898877 -0.012023180412492011 0 -0.057588758384206296 -0.011542314782365662 0 -0.058060602019929512 -0.012619689167680751 0 -0.05720688795408168 -0.012353073492208235 0 -0.057441304826938447 -0.013414070513681308 0 -0.058060602019929512 -0.012619689167680751 0 -0.058842375376768889 -0.012743593999875926 0 -0.058060602019929512 -0.012619689167680751 0 -0.05867526018724812 -0.013757480266284997 0 -0.057929774947315778 -0.014570682252306693 0 -0.057441304826938447 -0.013414070513681308 0 -0.05867526018724812 -0.013757480266284997 0 -0.057441304826938447 -0.013414070513681308 0 -0.058060602019929512 -0.012619689167680751 0 -0.05867526018724812 -0.013757480266284997 0 -0.05882244505331493 -0.015061847898643231 0 -0.057929774947315778 -0.014570682252306693 0 -0.05867526018724812 -0.013757480266284997 0 -0.05882244505331493 -0.015061847898643231 0 -0.05867526018724812 -0.013757480266284997 0 -0.059554322618321977 -0.014641353965794959 0 -0.05953092882307439 -0.013090792184335941 0 -0.05867526018724812 -0.013757480266284997 0 -0.059554322618321977 -0.014641353965794959 0 -0.05953092882307439 -0.013090792184335941 0 -0.059554322618321977 -0.014641353965794959 0 -0.060343035765652572 -0.013884176087897 0 -0.060314230330414602 -0.015066646263389775 0 -0.059554322618321977 -0.014641353965794959 0 -0.060343035765652572 -0.013884176087897 0 -0.05953092882307439 -0.013090792184335941 0 -0.060343035765652572 -0.013884176087897 0 -0.06030696603988174 -0.012980148997875394 0 -0.060343035765652572 -0.013884176087897 0 -0.060854912003802469 -0.013907554014810407 0 -0.06030696603988174 -0.012980148997875394 0 -0.060343035765652572 -0.013884176087897 0 -0.060862500161402121 -0.014675724042101804 0 -0.060854912003802469 -0.013907554014810407 0 -0.060314230330414602 -0.015066646263389775 0 -0.060343035765652572 -0.013884176087897 0 -0.060862500161402121 -0.014675724042101804 0 -0.060862500161402121 -0.014675724042101804 0 -0.06111303373112241 -0.014513843692836042 0 -0.060854912003802469 -0.013907554014810407 0 -0.060868353058416522 -0.015441836058780523 0 -0.061408279339943007 -0.014835413710312783 0 -0.06111303373112241 -0.014513843692836042 0 -0.060868353058416522 -0.015441836058780523 0 -0.060862500161402121 -0.014675724042101804 0 -0.06111303373112241 -0.014513843692836042 0 -0.06111303373112241 -0.014513843692836042 0 -0.061186190445938426 -0.013847863447496013 0 -0.060854912003802469 -0.013907554014810407 0 -0.061472257380889767 -0.014176795536003433 0 -0.06111303373112241 -0.014513843692836042 0 -0.061186190445938426 -0.013847863447496013 0 -0.061186190445938426 -0.013847863447496013 0 -0.060854912003802469 -0.013907554014810407 0 -0.060944862113361448 -0.013501208209444424 0 -0.059414685187120564 -0.0075205270886820816 0 -0.059376918295783003 -0.0075731249227011408 0 -0.059497011546042859 -0.0075714055573126229 0 -0.060854912003802469 -0.013907554014810407 0 -0.060944862113361448 -0.013501208209444424 0 -0.06030696603988174 -0.012980148997875394 0 -0.061407404748108123 -0.013632265591145377 0 -0.061186190445938426 -0.013847863447496013 0 -0.060944862113361448 -0.013501208209444424 0 -0.059235441985860081 -0.0075163882959548246 0 -0.059414685187120564 -0.0075205270886820816 0 -0.059376918295783003 -0.0075731249227011408 0 -0.058978158261458934 -0.0075407765643360075 0 -0.060441529904959039 -0.010807763689570813 0 -0.058978158261458934 -0.0075407765643360075 0 -0.05763490275931183 -0.002613952933727444 0 -0.056127114109345948 0.00064428035277384226 0 -0.055739220570946241 0.0018584225055956736 0 -0.057184260602223952 0.0012092521427831103 0 -0.056127114109345948 0.00064428035277384226 0 -0.057498349854210762 -4.9335745639836551e-05 0 -0.057184260602223952 0.0012092521427831103 0 -0.05763490275931183 -0.002613952933727444 0 -0.059876638886634942 -0.0038090626477706156 0 -0.057498349854210762 -4.9335745639836551e-05 0 -0.057184260602223952 0.0012092521427831103 0 -0.058543926777640191 0.00056436856356936022 0 -0.059376918295783003 -0.0075731249227011408 0 -0.059497011546042859 -0.0075714055573126229 0 -0.059505855074651288 -0.007619197901077103 0 -0.062655071052640385 -0.0067156703054942739 0 -0.064850966328091675 -0.0077127276204905894 0 -0.062789725939011401 -0.0091242412509202342 0 -0.059876638886634942 -0.0038090626477706156 0 -0.06141819205344199 -0.008469162016489418 0 -0.059497011546042859 -0.0075714055573126229 0 -0.059505855074651288 -0.007619197901077103 0 -0.059596612444303122 -0.0075952141709340684 0 -0.062655071052640385 -0.0067156703054942739 0 -0.060534694934615503 -0.0079152462126261501 0 -0.062789725939011401 -0.0091242412509202342 0 -0.05932311072842162 -0.012191675004400895 0 -0.05953092882307439 -0.013090792184335941 0 -0.06030696603988174 -0.012980148997875394 0 -0.059681476345669053 -0.010215376055765274 0 -0.06141819205344199 -0.008469162016489418 0 -0.059681476345669053 -0.010215376055765274 0 -0.05978614825868598 -0.010194613123418036 0 -0.059659338555230208 -0.0076014426258797793 0 -0.059596612444303122 -0.0075952141709340684 0 -0.059563585173725474 -0.0075523110463032233 0 -0.059497011546042859 -0.0075714055573126229 0 -0.059596612444303122 -0.0075952141709340684 0 -0.059563585173725474 -0.0075523110463032233 0 -0.060441529904959039 -0.010807763689570813 0 -0.05978614825868598 -0.010194613123418036 0 -0.059414685187120564 -0.0075205270886820816 0 -0.059497011546042859 -0.0075714055573126229 0 -0.059563585173725474 -0.0075523110463032233 0 0.021943082350874346 -0.0060103420678938131 0 0.022382268569938569 -0.0041926959036662674 0 0.023066348595012123 -0.0071624643222675012 0 0.021943082350874346 -0.0060103420678938131 0 0.020651972149019111 -0.0044033809332350753 0 0.022382268569938569 -0.0041926959036662674 0 0.020651972149019111 -0.0044033809332350753 0 0.021473500290506729 -0.0078506939339908592 0 0.016814918910857225 -0.0048875712305416407 0 0.021943082350874346 -0.0060103420678938131 0 0.020651972149019111 -0.0044033809332350753 0 0.021473500290506729 -0.0078506939339908592 0 0.020651972149019111 -0.0044033809332350753 0 0.019026860194514824 -0.0025385853380472711 0 0.020627379792447637 -0.0021932765826529013 0 0.019026860194514824 -0.0025385853380472711 0 0.020627379792447637 -0.0021932765826529013 0 0.019220854161278479 -0.00055648621366630061 0 0.020627379792447637 -0.0021932765826529013 0 0.021555365059905129 -0.0026439644689257415 0 0.02150734890394326 -0.0034711104310552045 0 0.020651972149019111 -0.0044033809332350753 0 0.020627379792447637 -0.0021932765826529013 0 0.02150734890394326 -0.0034711104310552045 0 0.020651972149019111 -0.0044033809332350753 0 0.02150734890394326 -0.0034711104310552045 0 0.022382268569938569 -0.0041926959036662674 0 0.022382268569938569 -0.0041926959036662674 0 0.022311014692735127 -0.0036804174437185663 0 0.021665026989215422 -0.0037763547037261156 0 0.02150734890394326 -0.0034711104310552045 0 0.022382268569938569 -0.0041926959036662674 0 0.022311014692735127 -0.0036804174437185663 0 0.021555365059905129 -0.0026439644689257415 0 0.022311014692735127 -0.0036804174437185663 0 0.021876097004233239 -0.0010192284052551188 0 0.021555365059905129 -0.0026439644689257415 0 0.02150734890394326 -0.0034711104310552045 0 0.022311014692735127 -0.0036804174437185663 0 0.021665026989215422 -0.0037763547037261156 0 0.020915601996690271 -0.0042834060103786355 0 0.020982858578523715 -0.0029728180102368044 0 0.022382268569938569 -0.0041926959036662674 0 0.021665026989215422 -0.0037763547037261156 0 0.020982858578523715 -0.0029728180102368044 0 0.022311014692735127 -0.0036804174437185663 0 0.021774456758439097 -0.0042107524338027271 0 0.021665026989215422 -0.0037763547037261156 0 0.021774456758439097 -0.0042107524338027271 0 0.021665026989215422 -0.0037763547037261156 0 0.020915601996690271 -0.0042834060103786355 0 0.020915601996690271 -0.0042834060103786355 0 0.020982858578523715 -0.0029728180102368044 0 0.019732057261107983 -0.003692360297769304 0 0.020915601996690271 -0.0042834060103786355 0 0.019947842181009728 -0.0045565982546257253 0 0.019732057261107983 -0.003692360297769304 0 0.020982858578523715 -0.0029728180102368044 0 0.019115476326122212 -0.002453627995001637 0 0.019732057261107983 -0.003692360297769304 0 0.023141287837228752 -0.0039608004460342117 0 0.020093437739206736 -0.0083282702022746298 0 0.024572897787686992 -0.0055954895047607874 0 0.024477500008873727 -0.0072211662344570174 0 0.026336844752676742 -0.0062759364420508917 0 0.022168343347777595 -0.0042091081240986459 0 0.023141287837228752 -0.0039608004460342117 0 0.022382268569938569 -0.0041926959036662674 0 0.024572897787686992 -0.0055954895047607874 0 0.023066348595012123 -0.0071624643222675012 0 0.024572897787686992 -0.0055954895047607874 0 0.023066348595012123 -0.0071624643222675012 0 0.024477500008873727 -0.0072211662344570174 0 0.023066348595012123 -0.0071624643222675012 0 0.024477500008873727 -0.0072211662344570174 0 0.023460142607896538 -0.0085562952206973512 0 0.024477500008873727 -0.0072211662344570174 0 0.024959368699469842 -0.0084047456364001738 0 0.026336844752676742 -0.0062759364420508917 0 0.024959368699469842 -0.0084047456364001738 0 0.023460142607896538 -0.0085562952206973512 0 0.023055226536239093 -0.0099458750978530346 0 0.024477500008873727 -0.0072211662344570174 0 0.024959368699469842 -0.0084047456364001738 0 0.023460142607896538 -0.0085562952206973512 0 0.023066348595012123 -0.0071624643222675012 0 0.023460142607896538 -0.0085562952206973512 0 0.022671260300837191 -0.0089897594826559967 0 0.023066348595012123 -0.0071624643222675012 0 0.022671260300837191 -0.0089897594826559967 0 0.021473500290506729 -0.0078506939339908592 0 0.021943082350874346 -0.0060103420678938131 0 0.023066348595012123 -0.0071624643222675012 0 0.021473500290506729 -0.0078506939339908592 0 0.022671260300837191 -0.0089897594826559967 0 0.021473500290506729 -0.0078506939339908592 0 0.022567207502151541 -0.0089174009660716955 0 0.021473500290506729 -0.0078506939339908592 0 0.022567207502151541 -0.0089174009660716955 0 0.022842247396244117 -0.0087563826975559853 0 0.022567207502151541 -0.0089174009660716955 0 0.022842247396244117 -0.0087563826975559853 0 0.023449187028581148 -0.0091716058910855901 0 0.023441533141973225 -0.0089965166813309686 0 0.023879512925781173 -0.0091245963507869295 0 0.023449187028581148 -0.0091716058910855901 0 0.022842247396244117 -0.0087563826975559853 0 0.023441533141973225 -0.0089965166813309686 0 0.023449187028581148 -0.0091716058910855901 0 0.023441533141973225 -0.0089965166813309686 0 0.023415793170570076 -0.0091258592296256883 0 0.023717798409204339 -0.0091044473012820721 0 0.022842247396244117 -0.0087563826975559853 0 0.023441533141973225 -0.0089965166813309686 0 0.023415793170570076 -0.0091258592296256883 0 0.022842247396244117 -0.0087563826975559853 0 0.023415793170570076 -0.0091258592296256883 0 0.023057768748631441 -0.0094259477847101793 0 0.023415793170570076 -0.0091258592296256883 0 0.023576499034168252 -0.0093436372808471356 0 0.023057768748631441 -0.0094259477847101793 0 0.021473500290506729 -0.0078506939339908592 0 0.022842247396244117 -0.0087563826975559853 0 0.023057768748631441 -0.0094259477847101793 0 0.024300530053661906 -0.0091091303957415333 0 0.024254041182264638 -0.0091575531019242699 0 0.024510981345945745 -0.0091105591842660753 0 0.024300530053661906 -0.0091091303957415333 0 0.024012820691534865 -0.0091292988682417538 0 0.024254041182264638 -0.0091575531019242699 0 0.024300530053661906 -0.0091091303957415333 0 0.024012820691534865 -0.0091292988682417538 0 0.024119757007666921 -0.009197552914514337 0 0.024012820691534865 -0.0091292988682417538 0 0.023879512925781173 -0.0091245963507869295 0 0.024254041182264638 -0.0091575531019242699 0 0.023441533141973225 -0.0089965166813309686 0 0.023879512925781173 -0.0091245963507869295 0 0.023717798409204339 -0.0091044473012820721 0 0.024012820691534865 -0.0091292988682417538 0 0.023879512925781173 -0.0091245963507869295 0 0.023717798409204339 -0.0091044473012820721 0 0.023415793170570076 -0.0091258592296256883 0 0.023717798409204339 -0.0091044473012820721 0 0.023799029043819579 -0.0092159006942954917 0 0.023415793170570076 -0.0091258592296256883 0 0.023799029043819579 -0.0092159006942954917 0 0.023576499034168252 -0.0093436372808471356 0 0.023799029043819579 -0.0092159006942954917 0 0.023879185979820323 -0.0093686267850988398 0 0.023576499034168252 -0.0093436372808471356 0 0.024012820691534865 -0.0091292988682417538 0 0.023799029043819579 -0.0092159006942954917 0 0.024119757007666921 -0.009197552914514337 0 0.024012820691534865 -0.0091292988682417538 0 0.023717798409204339 -0.0091044473012820721 0 0.023799029043819579 -0.0092159006942954917 0 0.023799029043819579 -0.0092159006942954917 0 0.024119757007666921 -0.009197552914514337 0 0.023879185979820323 -0.0093686267850988398 0 0.024119757007666921 -0.009197552914514337 0 0.024130850812014361 -0.009344033523623535 0 0.024363649280626072 -0.009193786578671188 0 0.024119757007666921 -0.009197552914514337 0 0.024363649280626072 -0.009193786578671188 0 0.02433874487622362 -0.0091287039452161069 0 0.024300530053661906 -0.0091091303957415333 0 0.024119757007666921 -0.009197552914514337 0 0.02433874487622362 -0.0091287039452161069 0 0.024133970394040014 -0.0094927703992649642 0 0.024130850812014361 -0.009344033523623535 0 0.023947143590211193 -0.0095014561568395068 0 0.024130850812014361 -0.009344033523623535 0 0.023879185979820323 -0.0093686267850988398 0 0.023947143590211193 -0.0095014561568395068 0 0.024119757007666921 -0.009197552914514337 0 0.024130850812014361 -0.009344033523623535 0 0.023879185979820323 -0.0093686267850988398 0 0.023879185979820323 -0.0093686267850988398 0 0.023947143590211193 -0.0095014561568395068 0 0.023712805892168554 -0.0095752571315223592 0 0.023879185979820323 -0.0093686267850988398 0 0.023576499034168252 -0.0093436372808471356 0 0.023712805892168554 -0.0095752571315223592 0 0.015494500636685811 -0.0020570168869574589 0 0.014841193379991935 -0.0024790584962291508 0 0.016057794605382491 -0.0027971742526867486 0 0.015494500636685811 -0.0020570168869574589 0 0.014932667001651778 -0.0024974998259548998 0 0.015449336375862687 -0.00068971136015075814 0 0.015494500636685811 -0.0020570168869574589 0 0.014932667001651778 -0.0024974998259548998 0 0.014841193379991935 -0.0024790584962291508 0 0.023947143590211193 -0.0095014561568395068 0 0.023712805892168554 -0.0095752571315223592 0 0.024221148836165652 -0.0097331463422659428 0 0.024133970394040014 -0.0094927703992649642 0 0.023947143590211193 -0.0095014561568395068 0 0.024221148836165652 -0.0097331463422659428 0 0.014841193379991935 -0.0024790584962291508 0 0.016179303462688838 -0.0033066177335484889 0 0.017212972943939694 -0.0027935298406857249 0 0.014903829012289871 -0.0024865106107740684 0 0.014323555069185687 -0.0022170562148544925 0 0.014932667001651778 -0.0024974998259548998 0 0.014841193379991935 -0.0024790584962291508 0 0.016179303462688838 -0.0033066177335484889 0 0.019300766133605648 -0.0060719301642230966 0 0.020903154615596675 -0.0064375928356265278 0 0.020651972149019111 -0.0044033809332350753 0 0.019026860194514824 -0.0025385853380472711 0 0.016814918910857225 -0.0048875712305416407 0 0.021466692040311108 -0.0078553920391031904 0 0.020059211081882303 -0.0071399837010257079 0 0.014841193379991935 -0.0024790584962291508 0 0.016814918910857225 -0.0048875712305416407 0 0.016057794605382491 -0.0027971742526867486 0 0.023576499034168252 -0.0093436372808471356 0 0.023712805892168554 -0.0095752571315223592 0 0.023057768748631441 -0.0094259477847101793 0 0.019300766133605648 -0.0060719301642230966 0 0.020059211081882303 -0.0071399837010257079 0 0.016057794605382491 -0.0027971742526867486 0 0.017656675595331302 -0.0015024676104502847 0 0.016549777034861608 -0.00079486179630840843 0 0.016814918910857225 -0.0048875712305416407 0 0.016057794605382491 -0.0027971742526867486 0 0.017656675595331302 -0.0015024676104502847 0 0.015494500636685811 -0.0020570168869574589 0 0.016057794605382491 -0.0027971742526867486 0 0.016549777034861608 -0.00079486179630840843 0 0.019026860194514824 -0.0025385853380472711 0 0.016814918910857225 -0.0048875712305416407 0 0.017656675595331302 -0.0015024676104502847 0 0.017813547501718735 -9.3939101847026428e-05 0 0.017656675595331302 -0.0015024676104502847 0 0.019220854161278479 -0.00055648621366630061 0 0.019026860194514824 -0.0025385853380472711 0 0.017656675595331302 -0.0015024676104502847 0 0.019220854161278479 -0.00055648621366630061 0 0.017813547501718735 -9.3939101847026428e-05 0 0.018119988373245105 0.0010120090490401664 0 0.019220854161278479 -0.00055648621366630061 0 0.017813547501718735 -9.3939101847026428e-05 0 0.016549777034861608 -0.00079486179630840843 0 0.017020008911572411 0.00080693601655777649 0 0.017813547501718735 -9.3939101847026428e-05 0 0.017656675595331302 -0.0015024676104502847 0 0.016549777034861608 -0.00079486179630840843 0 0.015494500636685811 -0.0020570168869574589 0 0.016549777034861608 -0.00079486179630840843 0 0.015449336375862687 -0.00068971136015075814 0 0.016549777034861608 -0.00079486179630840843 0 0.016043149224543137 0.00036493335055334423 0 0.015449336375862687 -0.00068971136015075814 0 0.016549777034861608 -0.00079486179630840843 0 0.016043149224543137 0.00036493335055334423 0 0.017020008911572411 0.00080693601655777649 0 0.016169123737032796 0.0017193350021479749 0 0.017373305017268664 0.0018833100429483159 0 0.017020008911572411 0.00080693601655777649 0 0.016043149224543137 0.00036493335055334423 0 0.016169123737032796 0.0017193350021479749 0 0.017020008911572411 0.00080693601655777649 0 0.017373305017268664 0.0018833100429483159 0 0.018119988373245105 0.0010120090490401664 0 0.018400123565720548 0.0022938105084930882 0 0.017373305017268664 0.0018833100429483159 0 0.018119988373245105 0.0010120090490401664 0 0.017020008911572411 0.00080693601655777649 0 0.017813547501718735 -9.3939101847026428e-05 0 0.018119988373245105 0.0010120090490401664 0 0.017020008911572411 0.00080693601655777649 0 0.014932667001651778 -0.0024974998259548998 0 0.012588284636462039 -0.0011166449855672419 0 0.01424801818475461 -0.00085000704477086351 0 0.012517824253217458 0.00061355260751507412 0 0.012588284636462039 -0.0011166449855672419 0 0.01424801818475461 -0.00085000704477086351 0 0.012517824253217458 0.00061355260751507412 0 0.01424801818475461 -0.00085000704477086351 0 0.014862435137214677 0.0011818970358778145 0 0.01424801818475461 -0.00085000704477086351 0 0.015449336375862687 -0.00068971136015075814 0 0.014862435137214677 0.0011818970358778145 0 0.014932667001651778 -0.0024974998259548998 0 0.01424801818475461 -0.00085000704477086351 0 0.015449336375862687 -0.00068971136015075814 0 0.016043149224543137 0.00036493335055334423 0 0.015449336375862687 -0.00068971136015075814 0 0.014862435137214677 0.0011818970358778145 0 0.016043149224543137 0.00036493335055334423 0 0.016169123737032796 0.0017193350021479749 0 0.014862435137214677 0.0011818970358778145 0 0.016169123737032796 0.0017193350021479749 0 0.014862435137214677 0.0011818970358778145 0 0.015239181233322316 0.0023092815166635616 0 0.014862435137214677 0.0011818970358778145 0 0.014783346791158355 0.0019805235561402529 0 0.015239181233322316 0.0023092815166635616 0 0.014720567750250766 0.0019552832281133211 0 0.014862435137214677 0.0011818970358778145 0 0.014783346791158355 0.0019805235561402529 0 0.0133021744354363 0.0010997203319005155 0 0.014872579673885382 0.0013123547374494656 0 0.014783346791158355 0.0019805235561402529 0 0.014837308969596379 0.0026240942863827478 0 0.014649565968582306 0.0023137275828898542 0 0.014720567750250766 0.0019552832281133211 0 0.014783346791158355 0.0019805235561402529 0 0.014649565968582306 0.0023137275828898542 0 0.014837308969596379 0.0026240942863827478 0 0.015239181233322316 0.0023092815166635616 0 0.015167152166225687 0.0033034474632724149 0 0.014837308969596379 0.0026240942863827478 0 0.015167152166225687 0.0033034474632724149 0 0.014811942390562964 0.0033823898717035839 0 0.014783346791158355 0.0019805235561402529 0 0.014837308969596379 0.0026240942863827478 0 0.015239181233322316 0.0023092815166635616 0 0.016169123737032796 0.0017193350021479749 0 0.015239181233322316 0.0023092815166635616 0 0.015842148066580557 0.0030879163765592495 0 0.015239181233322316 0.0023092815166635616 0 0.015842148066580557 0.0030879163765592495 0 0.015167152166225687 0.0033034474632724149 0 0.015842148066580557 0.0030879163765592495 0 0.015495682929234039 0.0040819887723563212 0 0.016057466768141852 0.0040654965363505127 0 0.015842148066580557 0.0030879163765592495 0 0.015167152166225687 0.0033034474632724149 0 0.015495682929234039 0.0040819887723563212 0 0.015167152166225687 0.0033034474632724149 0 0.014982912839332601 0.0040738878494937462 0 0.015495682929234039 0.0040819887723563212 0 0.015167152166225687 0.0033034474632724149 0 0.014811942390562964 0.0033823898717035839 0 0.014982912839332601 0.0040738878494937462 0 0.017373305017268664 0.0018833100429483159 0 0.017486316499169003 0.0031257479700941768 0 0.016678976584172958 0.0027113524709941883 0 0.017373305017268664 0.0018833100429483159 0 0.017486316499169003 0.0031257479700941768 0 0.018400123565720548 0.0022938105084930882 0 0.016169123737032796 0.0017193350021479749 0 0.015842148066580557 0.0030879163765592495 0 0.016678976584172958 0.0027113524709941883 0 0.016169123737032796 0.0017193350021479749 0 0.017373305017268664 0.0018833100429483159 0 0.016678976584172958 0.0027113524709941883 0 0.015842148066580557 0.0030879163765592495 0 0.016588630898895333 0.0035090747293978599 0 0.016057466768141852 0.0040654965363505127 0 0.016588630898895333 0.0035090747293978599 0 0.016057466768141852 0.0040654965363505127 0 0.016969447558766837 0.0042824986183327904 0 0.015842148066580557 0.0030879163765592495 0 0.016678976584172958 0.0027113524709941883 0 0.016588630898895333 0.0035090747293978599 0 0.017486316499169003 0.0031257479700941768 0 0.016588630898895333 0.0035090747293978599 0 0.016969447558766837 0.0042824986183327904 0 0.017486316499169003 0.0031257479700941768 0 0.017875183316792966 0.0036866352870484455 0 0.016969447558766837 0.0042824986183327904 0 0.017486316499169003 0.0031257479700941768 0 0.016678976584172958 0.0027113524709941883 0 0.016588630898895333 0.0035090747293978599 0 0.017875183316792966 0.0036866352870484455 0 0.018487370450074276 0.0038258628458651316 0 0.017826388095565755 0.0044658774647230335 0 0.017875183316792966 0.0036866352870484455 0 0.018085888387684452 0.0030652044699115972 0 0.018564695165259906 0.0031233483718385493 0 0.017875183316792966 0.0036866352870484455 0 0.018487370450074276 0.0038258628458651316 0 0.018564695165259906 0.0031233483718385493 0 0.017486316499169003 0.0031257479700941768 0 0.017875183316792966 0.0036866352870484455 0 0.018085888387684452 0.0030652044699115972 0 0.019027484501023706 0.0037340749727912547 0 0.018487370450074276 0.0038258628458651316 0 0.018529392155544042 0.0046818344214882542 0 0.018487370450074276 0.0038258628458651316 0 0.01908273635671312 0.0031653789180182369 0 0.018564695165259906 0.0031233483718385493 0 0.019027484501023706 0.0037340749727912547 0 0.018487370450074276 0.0038258628458651316 0 0.01908273635671312 0.0031653789180182369 0 0.019027484501023706 0.0037340749727912547 0 0.01908273635671312 0.0031653789180182369 0 0.019500872491422572 0.0031862723745866568 0 0.01908273635671312 0.0031653789180182369 0 0.019119066572076196 0.0026210274024958641 0 0.01957410729038821 0.0025269549761489369 0 0.01908273635671312 0.0031653789180182369 0 0.01957410729038821 0.0025269549761489369 0 0.019500872491422572 0.0031862723745866568 0 0.01908273635671312 0.0031653789180182369 0 0.019119066572076196 0.0026210274024958641 0 0.018564695165259906 0.0031233483718385493 0 0.019119066572076196 0.0026210274024958641 0 0.01957410729038821 0.0025269549761489369 0 0.019363459850569448 0.0019645676003357069 0 0.01957410729038821 0.0025269549761489369 0 0.019363459850569448 0.0019645676003357069 0 0.019906792291333096 0.0018736297268797881 0 0.017486316499169003 0.0031257479700941768 0 0.018085888387684452 0.0030652044699115972 0 0.018400123565720548 0.0022938105084930882 0 0.018085888387684452 0.0030652044699115972 0 0.018564695165259906 0.0031233483718385493 0 0.018400123565720548 0.0022938105084930882 0 0.019119066572076196 0.0026210274024958641 0 0.018564695165259906 0.0031233483718385493 0 0.018400123565720548 0.0022938105084930882 0 0.019119066572076196 0.0026210274024958641 0 0.018400123565720548 0.0022938105084930882 0 0.019363459850569448 0.0019645676003357069 0 0.018119988373245105 0.0010120090490401664 0 0.018400123565720548 0.0022938105084930882 0 0.018976539070638478 0.0011362942120081432 0 0.018119988373245105 0.0010120090490401664 0 0.018976539070638478 0.0011362942120081432 0 0.019220854161278479 -0.00055648621366630061 0 0.018976539070638478 0.0011362942120081432 0 0.019830761257303185 0.00096036306605970674 0 0.019220854161278479 -0.00055648621366630061 0 0.018400123565720548 0.0022938105084930882 0 0.018976539070638478 0.0011362942120081432 0 0.019363459850569448 0.0019645676003357069 0 0.018976539070638478 0.0011362942120081432 0 0.019363459850569448 0.0019645676003357069 0 0.019830761257303185 0.00096036306605970674 0 0.019363459850569448 0.0019645676003357069 0 0.019938113595324575 0.0015059671948081564 0 0.019830761257303185 0.00096036306605970674 0 0.019363459850569448 0.0019645676003357069 0 0.019906792291333096 0.0018736297268797881 0 0.019938113595324575 0.0015059671948081564 0 0.019906792291333096 0.0018736297268797881 0 0.019938113595324575 0.0015059671948081564 0 0.020129854672668396 0.0014748305611773384 0 0.020386119055946748 0.0010827685984045848 0 0.020789300542226313 -0.00013390211731510748 0 0.020844195676862267 0.0011040464959843363 0 0.020129854672668396 0.0014748305611773384 0 0.020386119055946748 0.0010827685984045848 0 0.020186082697587815 0.0013836250791203577 0 0.019938113595324575 0.0015059671948081564 0 0.020129854672668396 0.0014748305611773384 0 0.020386119055946748 0.0010827685984045848 0 0.020420151752586345 0.001760109070067813 0 0.020338753618344245 0.002091610286947623 0 0.019938113595324575 0.0015059671948081564 0 0.020386119055946748 0.0010827685984045848 0 0.019830761257303185 0.00096036306605970674 0 0.020386119055946748 0.0010827685984045848 0 0.019830761257303185 0.00096036306605970674 0 0.020789300542226313 -0.00013390211731510748 0 0.019830761257303185 0.00096036306605970674 0 0.020789300542226313 -0.00013390211731510748 0 0.019220854161278479 -0.00055648621366630061 0 0.022311014692735127 -0.0036804174437185663 0 0.021876097004233239 -0.0010192284052551188 0 0.023999709669061047 0.00152906006396665 0 0.020808919476899692 0.00048167085674410439 0 0.020338753618344245 0.002091610286947623 0 0.020789300542226313 -0.00013390211731510748 0 0.021876097004233239 -0.0010192284052551188 0 0.023046099688244257 0.0016163935402881558 0 0.020627379792447637 -0.0021932765826529013 0 0.021555365059905129 -0.0026439644689257415 0 0.021876097004233239 -0.0010192284052551188 0 0.020627379792447637 -0.0021932765826529013 0 0.020789300542226313 -0.00013390211731510748 0 0.021876097004233239 -0.0010192284052551188 0 0.020627379792447637 -0.0021932765826529013 0 0.020789300542226313 -0.00013390211731510748 0 0.019220854161278479 -0.00055648621366630061 0 0.020915601996690271 -0.0042834060103786355 0 0.021230905106353462 -0.0049347098284881043 0 0.020078154786346256 -0.0055871186194230826 0 0.020915601996690271 -0.0042834060103786355 0 0.019947842181009728 -0.0045565982546257253 0 0.020078154786346256 -0.0055871186194230826 0 0.021774456758439097 -0.0042107524338027271 0 0.021230905106353462 -0.0049347098284881043 0 0.021709340303617951 -0.0056837027075093962 0 0.021230905106353462 -0.0049347098284881043 0 0.021709340303617951 -0.0056837027075093962 0 0.020078154786346256 -0.0055871186194230826 0 0.023120953731005246 -0.0049812287775729399 0 0.019024743029935454 0.0018427648413789524 0 0.022311014692735127 -0.0036804174437185663 0 0.021774456758439097 -0.0042107524338027271 0 0.021709340303617951 -0.0056837027075093962 0 0.021774456758439097 -0.0042107524338027271 0 0.020915601996690271 -0.0042834060103786355 0 0.021230905106353462 -0.0049347098284881043 0 0.021876097004233239 -0.0010192284052551188 0 0.023046099688244257 0.0016163935402881558 0 0.023999709669061047 0.00152906006396665 0 0.015825885510474712 0.0092974184737432547 0 0.015403734628130973 0.0082704711156078772 0 0.012245517618421069 0.0096363034172958165 0 0.020129854672668396 0.0014748305611773384 0 0.020186082697587815 0.0013836250791203577 0 0.020290353760477265 0.0016586940219062566 0 0.020338753618344245 0.002091610286947623 0 0.019024743029935454 0.0018427648413789524 0 0.020338753618344245 0.002091610286947623 0 0.018066987931230096 0.0052298853101016606 0 0.019024743029935454 0.0018427648413789524 0 0.018066987931230096 0.0052298853101016606 0 0.018722993194032263 0.0031811531357207987 0 0.018913362076225407 0.0031661733273664668 0 0.019006581104663241 0.0034231796060573273 0 0.019906792291333096 0.0018736297268797881 0 0.020129854672668396 0.0014748305611773384 0 0.020290353760477265 0.0016586940219062566 0 0.019906792291333096 0.0018736297268797881 0 0.020290353760477265 0.0016586940219062566 0 0.019940306681587177 0.0021540109383765133 0 0.015403734628130973 0.0082704711156078772 0 0.012245517618421069 0.0096363034172958165 0 0.010758783196616412 0.0075089172433044872 0 0.019024743029935454 0.0018427648413789524 0 0.016534210461586159 0.0019047292180678626 0 0.018066987931230096 0.0052298853101016606 0 0.011664095845840576 0.0059173993365542396 0 0.015403734628130973 0.0082704711156078772 0 0.011676763413395755 0.0053734728850939406 0 0.010758783196616412 0.0075089172433044872 0 0.016767653943593419 0.0090464830694764915 0 0.012214439646401247 0.0055554227268392329 0 0.014757751241789376 0.0040239174933709796 0 0.018066987931230096 0.0052298853101016606 0 0.017759166022801646 0.0044962494098140402 0 0.020290353760477265 0.0016586940219062566 0 0.019950029896287684 0.0026198750622903537 0 0.020126500694044321 0.003423301080120011 0 0.020290353760477265 0.0016586940219062566 0 0.019940306681587177 0.0021540109383765133 0 0.019950029896287684 0.0026198750622903537 0 0.01957410729038821 0.0025269549761489369 0 0.019940306681587177 0.0021540109383765133 0 0.019950029896287684 0.0026198750622903537 0 0.01957410729038821 0.0025269549761489369 0 0.019906792291333096 0.0018736297268797881 0 0.019940306681587177 0.0021540109383765133 0 0.019950029896287684 0.0026198750622903537 0 0.019950274988113754 0.0032352132574506583 0 0.020126500694044321 0.003423301080120011 0 0.019950029896287684 0.0026198750622903537 0 0.019950274988113754 0.0032352132574506583 0 0.019500872491422572 0.0031862723745866568 0 0.01957410729038821 0.0025269549761489369 0 0.019950029896287684 0.0026198750622903537 0 0.019500872491422572 0.0031862723745866568 0 0.019440220153652474 0.0038304477413141184 0 0.019989777372193668 0.0034692276375143803 0 0.019227898897977998 0.0046230839988042772 0 0.019027484501023706 0.0037340749727912547 0 0.019500872491422572 0.0031862723745866568 0 0.019440220153652474 0.0038304477413141184 0 0.019950274988113754 0.0032352132574506583 0 0.019500872491422572 0.0031862723745866568 0 0.019440220153652474 0.0038304477413141184 0 0.019950274988113754 0.0032352132574506583 0 0.019440220153652474 0.0038304477413141184 0 0.019989777372193668 0.0034692276375143803 0 0.019027484501023706 0.0037340749727912547 0 0.019440220153652474 0.0038304477413141184 0 0.018529392155544042 0.0046818344214882542 0 0.012214439646401247 0.0055554227268392329 0 0.014757751241789376 0.0040239174933709796 0 0.010860337330726532 0.0017322934702921951 0 0.017663001777029744 0.0069461740976737504 0 0.018040163231470223 0.0072055545132512439 0 0.017951495169454015 0.0075176824558540198 0 0.017759166022801646 0.0044962494098140402 0 0.014275474357299086 0.0045305115506538958 0 0.018722487642785435 0.0044780863668336867 0 0.017759166022801646 0.0044962494098140402 0 0.011676763413395755 0.0053734728850939406 0 0.0076836402894708104 0.0039706369532276917 0 0.007499273166374036 0.0019437428670250928 0 0.011664095845840576 0.0059173993365542396 0 0.0077544861636874721 0.0019677423846776137 0 0.012214439646401247 0.0055554227268392329 0 0.010860337330726532 0.0017322934702921951 0 0.007499273166374036 0.0019437428670250928 0 0.011676763413395755 0.0053734728850939406 0 0.0099837207427886949 0.0063969474782167657 0 0.0086959449687322912 0.0054455447615660083 0 0.011676763413395755 0.0053734728850939406 0 0.0086959449687322912 0.0054455447615660083 0 0.0076836402894708104 0.0039706369532276917 0 0.0099837207427886949 0.0063969474782167657 0 0.010758783196616412 0.0075089172433044872 0 0.008747666112212794 0.0073011367592278782 0 0.0099837207427886949 0.0063969474782167657 0 0.0086959449687322912 0.0054455447615660083 0 0.008747666112212794 0.0073011367592278782 0 0.011676763413395755 0.0053734728850939406 0 0.0099837207427886949 0.0063969474782167657 0 0.010758783196616412 0.0075089172433044872 0 0.007160699785293748 0.0065376280673516514 0 0.0055591840127914285 0.0059002415246791843 0 0.0058853365931118432 0.0074554534727968823 0 0.007160699785293748 0.0065376280673516514 0 0.0070728847061428263 0.0079334930606985953 0 0.0058853365931118432 0.0074554534727968823 0 0.007160699785293748 0.0065376280673516514 0 0.0086959449687322912 0.0054455447615660083 0 0.008747666112212794 0.0073011367592278782 0 0.007160699785293748 0.0065376280673516514 0 0.008747666112212794 0.0073011367592278782 0 0.0070728847061428263 0.0079334930606985953 0 0.0086959449687322912 0.0054455447615660083 0 0.0068806927854566709 0.0051422561531788815 0 0.0076836402894708104 0.0039706369532276917 0 0.007160699785293748 0.0065376280673516514 0 0.0086959449687322912 0.0054455447615660083 0 0.0068806927854566709 0.0051422561531788815 0 0.0068806927854566709 0.0051422561531788815 0 0.0058493346809233727 0.0041880336954697476 0 0.0076836402894708104 0.0039706369532276917 0 0.007160699785293748 0.0065376280673516514 0 0.0068806927854566709 0.0051422561531788815 0 0.0055591840127914285 0.0059002415246791843 0 0.0068806927854566709 0.0051422561531788815 0 0.0055591840127914285 0.0059002415246791843 0 0.0058493346809233727 0.0041880336954697476 0 0.0076836402894708104 0.0039706369532276917 0 0.007499273166374036 0.0019437428670250928 0 0.0059677551972365543 0.0026991665869180552 0 0.0058493346809233727 0.0041880336954697476 0 0.0076836402894708104 0.0039706369532276917 0 0.0059677551972365543 0.0026991665869180552 0 0.007499273166374036 0.0019437428670250928 0 0.0059677551972365543 0.0026991665869180552 0 0.0045919297117734412 0.0018504947576799969 0 0.0052797969407925626 0.0039995447412762538 0 0.00095332648394381081 0.002162366519960024 0 0.0058493346809233727 0.0041880336954697476 0 0.0045919297117734412 0.0018504947576799969 0 0.0019136310995113886 0.0031425852915397509 0 0.0058493346809233727 0.0041880336954697476 0 -0.00057231367040271573 0.0014461097142272211 0 0.0027438328922201028 0.0049642660375979041 0 0.0045919297117734412 0.0018504947576799969 0 0.0019136310995113886 0.0031425852915397509 0 0.0031959855187629138 -1.5919142410363854e-05 0 -0.00057231367040271573 0.0014461097142272211 0 6.7331449014026504e-05 0.0052268979980402376 0 0.0027438328922201028 0.0049642660375979041 0 0.0058493346809233727 0.0041880336954697476 0 0.0059677551972365543 0.0026991665869180552 0 0.0045919297117734412 0.0018504947576799969 0 -0.00057231367040271573 0.0014461097142272211 0 -0.0073746147053486569 -0.0011089044157756524 0 -0.00560625564366923 0.0035418741580428917 0 0.00095332648394381081 0.002162366519960024 0 -0.007204535037768695 0.0042046550628943103 0 0.0019136310995113886 0.0031425852915397509 0 -0.0023723917541898084 0.0018308418434498401 0 0.00041371915274749613 -0.0005112187253041527 0 -0.00057231367040271573 0.0014461097142272211 0 -0.0024214684107081385 0.0053573979738758947 0 -0.00560625564366923 0.0035418741580428917 0 -0.0024214684107081385 0.0053573979738758947 0 -0.00560625564366923 0.0035418741580428917 0 -0.0056109766476818475 0.0070594460982957704 0 -0.00057231367040271573 0.0014461097142272211 0 -0.0024214684107081385 0.0053573979738758947 0 6.7331449014026504e-05 0.0052268979980402376 0 -0.0024214684107081385 0.0053573979738758947 0 6.7331449014026504e-05 0.0052268979980402376 0 -0.00088709031831216796 0.0074106122210375689 0 -0.0024214684107081385 0.0053573979738758947 0 -0.00088709031831216796 0.0074106122210375689 0 -0.003195938911157836 0.0084285248136049037 0 -0.00088709031831216796 0.0074106122210375689 0 0.00069558234996368871 0.0095475236837977272 0 -0.0014848559368509876 0.009656541113344231 0 -0.00088709031831216796 0.0074106122210375689 0 -0.003195938911157836 0.0084285248136049037 0 -0.0014848559368509876 0.009656541113344231 0 -0.003195938911157836 0.0084285248136049037 0 -0.0050690311210451078 0.0098589436949504377 0 -0.0056109766476818475 0.0070594460982957704 0 -0.0024214684107081385 0.0053573979738758947 0 -0.003195938911157836 0.0084285248136049037 0 -0.0056109766476818475 0.0070594460982957704 0 0.0055591840127914285 0.0059002415246791843 0 0.0031563843731745645 0.0064632921005659391 0 0.0027438328922201028 0.0049642660375979041 0 0.0055591840127914285 0.0059002415246791843 0 0.0058493346809233727 0.0041880336954697476 0 0.0027438328922201028 0.0049642660375979041 0 6.7331449014026504e-05 0.0052268979980402376 0 0.0027438328922201028 0.0049642660375979041 0 0.0014352792917432368 0.0068920010722206852 0 6.7331449014026504e-05 0.0052268979980402376 0 -0.00088709031831216796 0.0074106122210375689 0 0.0014352792917432368 0.0068920010722206852 0 0.0031563843731745645 0.0064632921005659391 0 0.0027438328922201028 0.0049642660375979041 0 0.0014352792917432368 0.0068920010722206852 0 0.0031563843731745645 0.0064632921005659391 0 0.0014352792917432368 0.0068920010722206852 0 0.0028981102987682451 0.0081135439744192527 0 -0.00088709031831216796 0.0074106122210375689 0 0.0014352792917432368 0.0068920010722206852 0 0.00069558234996368871 0.0095475236837977272 0 0.0014352792917432368 0.0068920010722206852 0 0.0028981102987682451 0.0081135439744192527 0 0.00069558234996368871 0.0095475236837977272 0 0.0054863829624622155 0.0061090015398268362 0 0.0032771353806640385 0.01047723523108816 0 0.0055591840127914285 0.0059002415246791843 0 0.0028981102987682451 0.0081135439744192527 0 0.003134528609307572 0.011041954067519524 0 0.0055591840127914285 0.0059002415246791843 0 0.0045597829579679021 0.00834138163746697 0 0.0058853365931118432 0.0074554534727968823 0 0.0055591840127914285 0.0059002415246791843 0 0.0031563843731745645 0.0064632921005659391 0 0.0028981102987682451 0.0081135439744192527 0 0.0045597829579679021 0.00834138163746697 0 0.0058853365931118432 0.0074554534727968823 0 0.005737770312440907 0.0084879570875950605 0 0.0045597829579679021 0.00834138163746697 0 0.0049386598929549832 0.0093232467786463075 0 0.005737770312440907 0.0084879570875950605 0 0.003134528609307572 0.011041954067519524 0 0.00069558234996368871 0.0095475236837977272 0 0.00049060054570418149 0.012509751575831077 0 0.0028981102987682451 0.0081135439744192527 0 0.003134528609307572 0.011041954067519524 0 0.00069558234996368871 0.0095475236837977272 0 0.003134528609307572 0.011041954067519524 0 0.00049060054570418149 0.012509751575831077 0 0.00072680808239242015 0.015897255243438446 0 0.0045597829579679021 0.00834138163746697 0 0.0049386598929549832 0.0093232467786463075 0 0.0034755079612988002 0.010593023281329739 0 0.0032771353806640385 0.01047723523108816 0 -0.00040306966783406104 0.0048100160423910372 0 0.0049386598929549832 0.0093232467786463075 0 0.005737770312440907 0.0084879570875950605 0 0.0063670567812814842 0.0093805029935782012 0 0.0049386598929549832 0.0093232467786463075 0 0.005658363790812436 0.010679375830390537 0 0.0063670567812814842 0.0093805029935782012 0 0.0065909167710637923 0.0087175874223516317 0 0.0054242539814886087 0.0035413238678900969 0 -0.0050690311210451078 0.0098589436949504377 0 -0.0029558546239899989 0.010745650727152606 0 -0.004254789693364726 0.012088300226740406 0 -0.003195938911157836 0.0084285248136049037 0 -0.0050690311210451078 0.0098589436949504377 0 -0.0029558546239899989 0.010745650727152606 0 0.00069558234996368871 0.0095475236837977272 0 0.00049060054570418149 0.012509751575831077 0 -0.0010664933545816296 0.011620753296782867 0 -0.0029558546239899989 0.010745650727152606 0 -0.0010664933545816296 0.011620753296782867 0 -0.0024885546133368588 0.012898509660078791 0 -0.0029558546239899989 0.010745650727152606 0 -0.0014848559368509876 0.009656541113344231 0 -0.0010664933545816296 0.011620753296782867 0 -0.003195938911157836 0.0084285248136049037 0 -0.0029558546239899989 0.010745650727152606 0 -0.0014848559368509876 0.009656541113344231 0 0.00069558234996368871 0.0095475236837977272 0 -0.0014848559368509876 0.009656541113344231 0 -0.0010664933545816296 0.011620753296782867 0 0.00049060054570418149 0.012509751575831077 0 -0.0010741468507816218 0.014015010247841259 0 0.00072680808239242015 0.015897255243438446 0 0.00049060054570418149 0.012509751575831077 0 -0.0010664933545816296 0.011620753296782867 0 -0.0010741468507816218 0.014015010247841259 0 -0.0010741468507816218 0.014015010247841259 0 -0.0024885546133368588 0.012898509660078791 0 -0.0031981951144980942 0.015241440312317315 0 -0.0010664933545816296 0.011620753296782867 0 -0.0010741468507816218 0.014015010247841259 0 -0.0024885546133368588 0.012898509660078791 0 -0.0024885546133368588 0.012898509660078791 0 -0.004254789693364726 0.012088300226740406 0 -0.0031981951144980942 0.015241440312317315 0 -0.004254789693364726 0.012088300226740406 0 -0.0031981951144980942 0.015241440312317315 0 -0.0066634801590755239 0.011406379670617592 0 -0.0029558546239899989 0.010745650727152606 0 -0.0024885546133368588 0.012898509660078791 0 -0.004254789693364726 0.012088300226740406 0 -0.0064641763468392859 0.00064895035952614044 0 -0.0061949948998583316 -0.00014405530375754248 0 -0.0068743900324535973 -0.00052084562839865682 0 -0.0064641763468392859 0.00064895035952614044 0 -0.0073930719110453071 0.00075103036144281987 0 -0.0068743900324535973 -0.00052084562839865682 0 -0.00040306966783406104 0.0048100160423910372 0 -0.0025205112126083303 -0.0033401340707369682 0 -0.0046499531782495359 0.016372510683168712 0 -0.0031981951144980942 0.015241440312317315 0 0.00072680808239242015 0.015897255243438446 0 -0.0056331237605476711 0.0081986661822174619 0 -0.00040306966783406104 0.0048100160423910372 0 -0.0010741468507816218 0.014015010247841259 0 -0.0031981951144980942 0.015241440312317315 0 0.00072680808239242015 0.015897255243438446 0 0.0017494436702943851 -0.004736316532110884 0 0.0017935194569202435 -0.0046923362310649077 0 0.0016259293547316756 -0.0046484055535230776 0 0.0018866387032197764 -0.0047549240429267071 0 0.0017494436702943851 -0.004736316532110884 0 0.0017935194569202435 -0.0046923362310649077 0 0.0049386598929549832 0.0093232467786463075 0 0.0055412092477409441 0.01038427875707877 0 0.0034755079612988002 0.010593023281329739 0 0.0054242539814886087 0.0035413238678900969 0 -0.00040306966783406104 0.0048100160423910372 0 0.0018866387032197764 -0.0047549240429267071 0 0.0017935194569202435 -0.0046923362310649077 0 0.0019451914724536766 -0.0047125014108926255 0 0.0054242539814886087 0.0035413238678900969 0 0.0090797431143444674 -0.0063775165139254358 0 0.005658363790812436 0.010679375830390537 0 0.0082843030125003825 0.010508703418909504 0 0.0063670567812814842 0.0093805029935782012 0 0.0091248927160415376 0.00052548572874051413 0 0.0090052196692096964 0.00027533348116437608 0 0.0088117589001137277 0.00056150558675134858 0 0.0054242539814886087 0.0035413238678900969 0 0.011603543302492138 0.0035823801206615971 0 0.0090797431143444674 -0.0063775165139254358 0 0.011603543302492138 0.0035823801206615971 0 0.017742185694196444 -0.004676288134027845 0 0.01840038164427164 -0.005470911792209634 0 0.018919361349187275 -0.0045525633877082682 0 0.020078154786346256 -0.0055871186194230826 0 0.01840038164427164 -0.005470911792209634 0 0.018919361349187275 -0.0045525633877082682 0 0.016534210461586159 0.0019047292180678626 0 0.011603543302492138 0.0035823801206615971 0 0.019947842181009728 -0.0045565982546257253 0 0.020078154786346256 -0.0055871186194230826 0 0.018919361349187275 -0.0045525633877082682 0 0.012245517618421069 0.0096363034172958165 0 0.0089832782156406641 0.0098470041875360244 0 0.010758783196616412 0.0075089172433044872 0 0.0082843030125003825 0.010508703418909504 0 0.010758783196616412 0.0075089172433044872 0 0.008747666112212794 0.0073011367592278782 0 0.011603543302492138 0.0035823801206615971 0 0.0090897332455553582 0.0098662007109104645 0 0.0082843030125003825 0.010508703418909504 0 0.008747666112212794 0.0073011367592278782 0 0.0070728847061428263 0.0079334930606985953 0 0.0070728847061428263 0.0079334930606985953 0 0.005737770312440907 0.0084879570875950605 0 0.0063670567812814842 0.0093805029935782012 0 0.0070728847061428263 0.0079334930606985953 0 0.0058853365931118432 0.0074554534727968823 0 0.005737770312440907 0.0084879570875950605 0 0.0082843030125003825 0.010508703418909504 0 0.0070728847061428263 0.0079334930606985953 0 0.0063670567812814842 0.0093805029935782012 0 -0.03514116300693871 0.0040933102722403806 0 -0.031274475000881458 0.0026421003632245755 0 -0.030139869796236739 -0.00035661993293871253 0 -0.032680384287839238 0.004867661841018802 0 -0.031274475000881458 0.0026421003632245755 0 -0.027438971032372764 0.004102921475016794 0 -0.035001401126964572 -8.8997254302715742e-05 0 -0.034072101555147484 0.0017393604023768251 0 -0.031274475000881458 0.0026421003632245755 0 -0.027438971032372764 0.004102921475016794 0 -0.030139869796236739 -0.00035661993293871253 0 -0.024578217397365154 0.02026159266557355 0 -0.023589739104213931 0.016851515175951334 0 -0.025682120602180822 0.016584036262700389 0 -0.024578217397365154 0.02026159266557355 0 -0.022068137192401468 0.018076481861517918 0 -0.023589739104213931 0.016851515175951334 0 -0.027941222566344431 0.0087823754271398758 0 -0.021003504761257372 0.011747220030483823 0 -0.022666411055131792 0.0074778145321196541 0 -0.02011568144409142 0.0053463890765359737 0 -0.018519005927984823 0.0068438928936041324 0 -0.02011568144409142 0.0053463890765359737 0 -0.017452332538215556 0.0052388722991816728 0 -0.01766093658711345 0.0032249799104408206 0 -0.02011568144409142 0.0053463890765359737 0 -0.018519005927984823 0.0068438928936041324 0 -0.017452332538215556 0.0052388722991816728 0 -0.022666411055131792 0.0074778145321196541 0 -0.018656619498195554 0.0093436665923229602 0 -0.018894070709831384 0.0088898950511597536 0 -0.027941222566344431 0.0087823754271398758 0 -0.020482456789911098 0.0058384925428410896 0 -0.022666411055131792 0.0074778145321196541 0 -0.018519005927984823 0.0068438928936041324 0 -0.018894070709831384 0.0088898950511597536 0 -0.027438971032372764 0.004102921475016794 0 -0.030139869796236739 -0.00035661993293871253 0 -0.022233555715470078 0.0034905044417816284 0 -0.018656619498195554 0.0093436665923229602 0 -0.018894070709831384 0.0088898950511597536 0 -0.015145874291254037 0.0071026811511327162 0 -0.01303138568846577 0.0092296752872863246 0 -0.0099718956453616423 0.0059386869932700134 0 -0.010009855654024921 0.01362624275907073 0 -0.018656619498195554 0.0093436665923229602 0 -0.01303138568846577 0.0092296752872863246 0 -0.015145874291254037 0.0071026811511327162 0 -0.01303138568846577 0.0092296752872863246 0 -0.015145874291254037 0.0071026811511327162 0 -0.0099718956453616423 0.0059386869932700134 0 -0.015145874291254037 0.0071026811511327162 0 -0.013006594703525781 0.0034324568385393876 0 -0.0099718956453616423 0.0059386869932700134 0 -0.018428770306840092 0.0084511591103486293 0 -0.014999377013088004 0.0051992496982125368 0 -0.018519005927984823 0.0068438928936041324 0 -0.018894070709831384 0.0088898950511597536 0 -0.016387067334242059 0.0067618233109898876 0 -0.018894070709831384 0.0088898950511597536 0 -0.015145874291254037 0.0071026811511327162 0 -0.013006594703525781 0.0034324568385393876 0 -0.018519005927984823 0.0068438928936041324 0 -0.017452332538215556 0.0052388722991816728 0 -0.016387067334242059 0.0067618233109898876 0 -0.017452332538215556 0.0052388722991816728 0 -0.016387067334242059 0.0067618233109898876 0 -0.013749438515702201 0.0045694433075870794 0 -0.017452332538215556 0.0052388722991816728 0 -0.013749438515702201 0.0045694433075870794 0 -0.01766093658711345 0.0032249799104408206 0 -0.014999377013088004 0.0051992496982125368 0 -0.007204535037768695 0.0042046550628943103 0 -0.013006594703525781 0.0034324568385393876 0 -0.0086718912916632276 0.0027300404977272531 0 -0.0073746147053486569 -0.0011089044157756524 0 -0.0086718912916632276 0.0027300404977272531 0 -0.0073746147053486569 -0.0011089044157756524 0 -0.00560625564366923 0.0035418741580428917 0 -0.0098646177510972807 0.0072443663841609942 0 -0.011445704243300138 0.011027832253801641 0 -0.00560625564366923 0.0035418741580428917 0 -0.0099718956453616423 0.0059386869932700134 0 -0.0056109766476818475 0.0070594460982957704 0 -0.0099718956453616423 0.0059386869932700134 0 -0.0074475211374127716 0.0091387969274063993 0 -0.0097751657589650754 0.012137285847350847 0 -0.013006594703525781 0.0034324568385393876 0 -0.0086718912916632276 0.0027300404977272531 0 -0.0099718956453616423 0.0059386869932700134 0 -0.0086718912916632276 0.0027300404977272531 0 -0.00560625564366923 0.0035418741580428917 0 -0.0099718956453616423 0.0059386869932700134 0 -0.0099718956453616423 0.0059386869932700134 0 -0.0074475211374127716 0.0091387969274063993 0 -0.0056109766476818475 0.0070594460982957704 0 -0.0050690311210451078 0.0098589436949504377 0 -0.0074475211374127716 0.0091387969274063993 0 -0.0056109766476818475 0.0070594460982957704 0 -0.0031981951144980942 0.015241440312317315 0 -0.0066634801590755239 0.011406379670617592 0 -0.0097751657589650754 0.012137285847350847 0 -0.003146966850987348 0.015282251847335693 0 -0.011445704243300138 0.011027832253801641 0 -0.0050690311210451078 0.0098589436949504377 0 -0.004254789693364726 0.012088300226740406 0 -0.0066634801590755239 0.011406379670617592 0 -0.0050690311210451078 0.0098589436949504377 0 -0.0074475211374127716 0.0091387969274063993 0 -0.0066634801590755239 0.011406379670617592 0 -0.0074475211374127716 0.0091387969274063993 0 -0.0066634801590755239 0.011406379670617592 0 -0.0097751657589650754 0.012137285847350847 0 -0.011445704243300138 0.011027832253801641 0 -0.014543603648434676 0.0067379556867861292 0 -0.0056331237605476711 0.0081986661822174619 0 -0.011289844359802277 0.0039131108907543314 0 -0.0046499531782495359 0.016372510683168712 0 -0.0031981951144980942 0.015241440312317315 0 -0.010255446759175514 0.011611273446545781 0 -0.0064641763468392859 0.00064895035952614044 0 -0.0055108769239506448 0.00056824160459694004 0 -0.0061949948998583316 -0.00014405530375754248 0 -0.0046499531782495359 0.016372510683168712 0 -0.010255446759175514 0.011611273446545781 0 -0.010275331721601427 0.015070425148499284 0 -0.011289844359802277 0.0039131108907543314 0 -0.014543603648434676 0.0067379556867861292 0 -0.0046499531782495359 0.016372510683168712 0 -0.01028309724807761 0.016791890239556816 0 -0.010275331721601427 0.015070425148499284 0 -0.016622353351768503 -0.0010370232197846002 0 -0.019008319316559615 0.00061910873460782568 0 -0.024184747006776055 -0.0035127050229014131 0 -0.016667406616066856 0.00040359072371879047 0 -0.019008319316559615 0.00061910873460782568 0 -0.016698854097738271 0.0067671162588626536 0 -0.019008319316559615 0.00061910873460782568 0 -0.024278542453637489 0.0018320044143486768 0 -0.020952814581013033 0.0040943474249846706 0 -0.016622607406179029 0.00042576680671478205 0 -0.016622353351768503 -0.0010370232197846002 0 -0.019008319316559615 0.00061910873460782568 0 -0.011289844359802277 0.0039131108907543314 0 -0.01752473557142083 0.0027634882877346609 0 -0.014543603648434676 0.0067379556867861292 0 -0.023538783242093929 0.001944091191847208 0 -0.020482456789911098 0.0058384925428410896 0 -0.011445704243300138 0.011027832253801641 0 -0.018656619498195554 0.0093436665923229602 0 -0.01303138568846577 0.0092296752872863246 0 -0.010009855654024921 0.01362624275907073 0 -0.014347158085985185 0.0073384669114562656 0 -0.014364015159667402 0.010829408535912651 0 -0.023502787567046747 0.0078528413717021371 0 -0.022233555715470078 0.0034905044417816284 0 -0.014347158085985185 0.0073384669114562656 0 -0.023502787567046747 0.0078528413717021371 0 -0.027438971032372764 0.004102921475016794 0 -0.022233555715470078 0.0034905044417816284 0 -0.023502787567046747 0.0078528413717021371 0 -0.024184747006776055 -0.0035127050229014131 0 -0.024278542453637489 0.0018320044143486768 0 -0.029638407008624367 -0.00054611826223470829 0 -0.019008319316559615 0.00061910873460782568 0 -0.024184747006776055 -0.0035127050229014131 0 -0.024278542453637489 0.0018320044143486768 0 -0.024278542453637489 0.0018320044143486768 0 -0.029638407008624367 -0.00054611826223470829 0 -0.031037716107185611 0.007488903619329277 0 -0.031729661791139778 -0.0059348417838080616 0 -0.024184747006776055 -0.0035127050229014131 0 -0.029638407008624367 -0.00054611826223470829 0 -0.032680384287839238 0.004867661841018802 0 -0.027438971032372764 0.004102921475016794 0 -0.023502787567046747 0.0078528413717021371 0 -0.035001401126964572 -8.8997254302715742e-05 0 -0.023538783242093929 0.001944091191847208 0 -0.027127010780093063 -0.0057578806979751143 0 -0.019252119436211832 -0.013639170940801906 0 -0.022853506447126207 -0.018829036467896562 0 -0.02473004558782331 -0.021973503533996346 0 -0.017741956398758928 -0.020408860356030938 0 -0.027127010780093063 -0.0057578806979751143 0 -0.022765739531975093 0.0010584938466501651 0 -0.024278542453637489 0.0018320044143486768 0 -0.031037716107185611 0.007488903619329277 0 -0.023844526724383957 0.0071490226397585045 0 -0.024278542453637489 0.0018320044143486768 0 -0.023844526724383957 0.0071490226397585045 0 -0.020952814581013033 0.0040943474249846706 0 -0.02682692883234351 -0.0059290500702390914 0 -0.020324804542465359 -0.0062363458652057637 0 -0.020328255020306801 -0.0046482452747459296 0 -0.022354325493789233 -0.019528232163593583 0 -0.016482158131703697 -0.018699039801707232 0 -0.019427894093280888 -0.017258079824241448 0 -0.022853506447126207 -0.018829036467896562 0 -0.017741956398758928 -0.020408860356030938 0 -0.01677473562499273 -0.017678795009019942 0 -0.022605133884949186 -0.019157127794714648 0 -0.016975413376253044 -0.018399304019250075 0 -0.020328255020306801 -0.0046482452747459296 0 -0.01383356417897475 -0.0065366432213507424 0 -0.01384008708815971 -0.0033722795624781662 0 -0.017741956398758928 -0.020408860356030938 0 -0.01677473562499273 -0.017678795009019942 0 -0.010539588147586895 -0.018876284079381439 0 -0.016975413376253044 -0.018399304019250075 0 -0.0097396575066739741 -0.013896944807324231 0 -0.01677473562499273 -0.017678795009019942 0 -0.010539588147586895 -0.018876284079381439 0 -0.010546231620776721 -0.016612310272598161 0 -0.019252119436211832 -0.013639170940801906 0 -0.010955718906927432 -0.0080980847118355265 0 -0.023844526724383957 0.0071490226397585045 0 -0.020952814581013033 0.0040943474249846706 0 -0.016698854097738271 0.0067671162588626536 0 -0.019008319316559615 0.00061910873460782568 0 -0.020952814581013033 0.0040943474249846706 0 -0.016698854097738271 0.0067671162588626536 0 -0.020324804542465359 -0.0062363458652057637 0 -0.020328255020306801 -0.0046482452747459296 0 -0.01383356417897475 -0.0065366432213507424 0 -0.022765739531975093 0.0010584938466501651 0 -0.0138976276119296 0.00019555175893108079 0 -0.0055108769239506448 0.00056824160459694004 0 -0.005485430509101108 -0.00086507917567304712 0 -0.0057942969711357803 -0.0005166790427847789 0 -0.0055108769239506448 0.00056824160459694004 0 -0.0057942969711357803 -0.0005166790427847789 0 -0.0061949948998583316 -0.00014405530375754248 0 -0.011289844359802277 0.0039131108907543314 0 -0.0138976276119296 0.00019555175893108079 0 -0.005485430509101108 -0.00086507917567304712 0 -0.0058315562489452541 -0.00085762903445808824 0 -0.0058116526747816651 -0.0011773072124779775 0 -0.005485430509101108 -0.00086507917567304712 0 -0.0058315562489452541 -0.00085762903445808824 0 -0.0057942969711357803 -0.0005166790427847789 0 -0.0057942969711357803 -0.0005166790427847789 0 -0.0061949948998583316 -0.00014405530375754248 0 -0.0061910926385066057 -0.00087558401947008797 0 -0.0058315562489452541 -0.00085762903445808824 0 -0.0057942969711357803 -0.0005166790427847789 0 -0.0061910926385066057 -0.00087558401947008797 0 -0.0058315562489452541 -0.00085762903445808824 0 -0.0061910926385066057 -0.00087558401947008797 0 -0.0058116526747816651 -0.0011773072124779775 0 -0.0061910926385066057 -0.00087558401947008797 0 -0.0058116526747816651 -0.0011773072124779775 0 -0.0063123584579712778 -0.0018442431501040607 0 -0.0058116526747816651 -0.0011773072124779775 0 -0.0054842585315686239 -0.0016822129289740125 0 -0.0063123584579712778 -0.0018442431501040607 0 -0.0138976276119296 0.00019555175893108079 0 -0.010955718906927432 -0.0080980847118355265 0 -0.005485430509101108 -0.00086507917567304712 0 -0.0058116526747816651 -0.0011773072124779775 0 -0.0054842585315686239 -0.0016822129289740125 0 -0.0087075062381923429 -0.0098676580135512032 0 -0.0059822535905823312 -0.0073832348637528694 0 -0.008713006668378067 -0.0078104247691127742 0 -0.010955718906927432 -0.0080980847118355265 0 -0.0097396575066739741 -0.013896944807324231 0 -0.010955718906927432 -0.0080980847118355265 0 -0.0031323867667379462 -0.0049745415278109814 0 -0.0087075062381923429 -0.0098676580135512032 0 -0.0051283843715632235 -0.0091537838266850437 0 -0.0059822535905823312 -0.0073832348637528694 0 0.0014202226270490128 -0.0045272225688206625 0 0.0013678323442286133 -0.0044358915928479443 0 0.0015264820230220398 -0.00449408452547793 0 -0.0031323867667379462 -0.0049745415278109814 0 -0.0032654255290727736 -0.0082219589412882918 0 -0.0007637080731366044 -0.0075763325206757402 0 -0.0018569358688069961 -0.0053605952825928702 0 0.0012800702674278597 -0.0067915143407490742 0 -0.0032654255290727736 -0.0082219589412882918 0 -0.0043161030305827932 -0.014015847373776596 0 -0.0067787128531638331 -0.01219124700919008 0 -0.0064968004892079195 -0.0124024720455942 0 -0.0065485805082262259 -0.012707953539936916 0 -0.0062978977960448882 -0.012126660596649439 0 -0.0064968004892079195 -0.0124024720455942 0 -0.0062927957396785314 -0.012781326962165281 0 -0.0032654255290727736 -0.0082219589412882918 0 -0.0097396575066739741 -0.013896944807324231 0 -0.0067787128531638331 -0.01219124700919008 0 -0.0062978977960448882 -0.012126660596649439 0 -0.0064968004892079195 -0.0124024720455942 0 -0.011807461639524345 -0.017813699980145731 0 -0.011934808181826432 -0.014980424555042542 0 -0.012829987120028542 -0.016406157442991523 0 -0.0097396575066739741 -0.013896944807324231 0 -0.0092056544607773683 -0.014297739264535356 0 -0.0064968004892079195 -0.0124024720455942 0 -0.0062927957396785314 -0.012781326962165281 0 -0.0065485805082262259 -0.012707953539936916 0 -0.0092056544607773683 -0.014297739264535356 0 -0.0043161030305827932 -0.014015847373776596 0 -0.0060607646208000292 -0.022534604325061644 0 -0.006134974466096719 -0.022448555049660483 0 -0.0060057485926597745 -0.022535220263969299 0 -0.0070240154092580265 -0.02307103232993216 0 -0.0064154744096658091 -0.022882602070084027 0 -0.0068247121667977528 -0.022818105630590776 0 -0.0060760564730487328 -0.022560338149178401 0 -0.0060607646208000292 -0.022534604325061644 0 -0.0059930571753253553 -0.022590410575803847 0 -0.0076536190238114116 -0.021745006550190231 0 -0.0060123965610980514 -0.02278953889961002 0 -0.008358433438550552 -0.020247528873963909 0 -0.0083579503165591984 -0.018973987662590227 0 -0.007672361997088515 -0.020436856882172259 0 -0.0060607646208000292 -0.022534604325061644 0 -0.006134974466096719 -0.022448555049660483 0 -0.0061314306779786084 -0.02250083632126481 0 -0.0076536190238114116 -0.021745006550190231 0 -0.0078889682957485642 -0.017946332387056441 0 -0.0060760564730487328 -0.022560338149178401 0 -0.0060607646208000292 -0.022534604325061644 0 -0.0061314306779786084 -0.02250083632126481 0 -0.0043161030305827932 -0.014015847373776596 0 -0.0078889682957485642 -0.017946332387056441 0 -0.010585933072606475 -0.015763460420653377 0 -0.010604402482328945 -0.013294405820725049 0 -0.01188934516066154 -0.013248002685153441 0 -0.0065933524231008862 -0.014506708336755702 0 -0.0077412362665865257 -0.014194929413489266 0 -0.0065932823933423082 -0.016646410491566288 0 -0.0092056544607773683 -0.014297739264535356 0 -0.0078889682957485642 -0.017946332387056441 0 -0.010585933072606475 -0.015763460420653377 0 -0.014724930336435316 -0.01275729947111421 0 -0.018123262825778478 -0.013607778729711202 0 -0.0092056544607773683 -0.014297739264535356 0 -0.018656626357376367 -0.013913284894613636 0 -0.011641667154659139 -0.011199616950739429 0 -0.014724930336435316 -0.01275729947111421 0 -0.016490246539970454 -0.0098935847826067073 0 -0.010585933072606475 -0.015763460420653377 0 -0.01188934516066154 -0.013248002685153441 0 -0.014724930336435316 -0.01275729947111421 0 -0.01188934516066154 -0.013248002685153441 0 -0.011641667154659139 -0.011199616950739429 0 -0.014724930336435316 -0.01275729947111421 0 -0.010604402482328945 -0.013294405820725049 0 -0.01188934516066154 -0.013248002685153441 0 -0.011641667154659139 -0.011199616950739429 0 -0.0078889682957485642 -0.017946332387056441 0 -0.0097299488940303346 -0.019609956768138176 0 -0.0076536190238114116 -0.021745006550190231 0 -0.0097299488940303346 -0.019609956768138176 0 -0.011934808181826432 -0.014980424555042542 0 -0.014354863651146899 -0.015672055489544937 0 -0.018123262825778478 -0.013607778729711202 0 -0.016482158131703697 -0.018699039801707232 0 -0.011807461639524345 -0.017813699980145731 0 -0.01429968129258634 -0.016851429459938099 0 -0.014354863651146899 -0.015672055489544937 0 -0.01429968129258634 -0.016851429459938099 0 -0.016000193468649386 -0.015718050149752132 0 -0.011934808181826432 -0.014980424555042542 0 -0.014354863651146899 -0.015672055489544937 0 -0.012829987120028542 -0.016406157442991523 0 -0.014354863651146899 -0.015672055489544937 0 -0.012829987120028542 -0.016406157442991523 0 -0.01429968129258634 -0.016851429459938099 0 -0.011807461639524345 -0.017813699980145731 0 -0.012829987120028542 -0.016406157442991523 0 -0.01429968129258634 -0.016851429459938099 0 -0.016482158131703697 -0.018699039801707232 0 -0.01429968129258634 -0.016851429459938099 0 -0.016000193468649386 -0.015718050149752132 0 -0.019427894093280888 -0.017258079824241448 0 -0.016000193468649386 -0.015718050149752132 0 -0.023065894868640354 -0.015142635921718882 0 -0.014354863651146899 -0.015672055489544937 0 -0.016000193468649386 -0.015718050149752132 0 -0.018123262825778478 -0.013607778729711202 0 -0.016402038938555307 -0.015713025564245597 0 -0.02251895322596369 -0.015916864906592509 0 -0.016000193468649386 -0.015718050149752132 0 -0.019845478399013322 -0.014598951994418326 0 -0.021522331856438946 -0.016649542322509224 0 -0.016482158131703697 -0.018699039801707232 0 -0.019427894093280888 -0.017258079824241448 0 -0.016000193468649386 -0.015718050149752132 0 -0.016000193468649386 -0.015718050149752132 0 -0.018123262825778478 -0.013607778729711202 0 -0.019845478399013322 -0.014598951994418326 0 -0.014724930336435316 -0.01275729947111421 0 -0.018123262825778478 -0.013607778729711202 0 -0.016490246539970454 -0.0098935847826067073 0 -0.018123262825778478 -0.013607778729711202 0 -0.019368882726045176 -0.010813011619803102 0 -0.016490246539970454 -0.0098935847826067073 0 -0.018123262825778478 -0.013607778729711202 0 -0.019845478399013322 -0.014598951994418326 0 -0.021303936147986775 -0.012323083425862382 0 -0.018123262825778478 -0.013607778729711202 0 -0.021303936147986775 -0.012323083425862382 0 -0.019368882726045176 -0.010813011619803102 0 -0.021303936147986775 -0.012323083425862382 0 -0.019368882726045176 -0.010813011619803102 0 -0.020926468328243516 -0.010520642817881287 0 -0.019845478399013322 -0.014598951994418326 0 -0.021303936147986775 -0.012323083425862382 0 -0.022737395584011208 -0.014286294272394726 0 -0.024820893557182026 -0.012739691328506103 0 -0.021303936147986775 -0.012323083425862382 0 -0.022737395584011208 -0.014286294272394726 0 -0.025005521733033054 -0.014966954469410886 0 -0.022737395584011208 -0.014286294272394726 0 -0.021522331856438946 -0.016649542322509224 0 -0.019845478399013322 -0.014598951994418326 0 -0.022737395584011208 -0.014286294272394726 0 -0.021522331856438946 -0.016649542322509224 0 -0.022354325493789233 -0.019528232163593583 0 -0.019427894093280888 -0.017258079824241448 0 -0.023065894868640354 -0.015142635921718882 0 -0.025861096791089822 -0.017678889937687847 0 -0.022354325493789233 -0.019528232163593583 0 -0.023065894868640354 -0.015142635921718882 0 0.010703012743960509 -0.0084488882284806787 0 0.0073603947481409313 -0.0093542706449471109 0 0.0044165871252228551 -0.0068738067839351534 0 0.0091775183490775056 -0.010715666512870656 0 0.010866153913761816 -0.0094026111888044477 0 0.010520115185513332 -0.012259661138377819 0 0.0091775183490775056 -0.010715666512870656 0 0.010703012743960509 -0.0084488882284806787 0 0.0073603947481409313 -0.0093542706449471109 0 0.0091775183490775056 -0.010715666512870656 0 0.010866153913761816 -0.0094026111888044477 0 0.010703012743960509 -0.0084488882284806787 0 0.0072210985178995423 -0.012561262124284761 0 0.0068387723404675109 -0.015237951627918139 0 0.0068387723404675109 -0.015237951627918139 0 0.020093437739206736 -0.0083282702022746298 0 0.019115476326122212 -0.002453627995001637 0 0.019732057261107983 -0.003692360297769304 0 0.018430368679569695 -0.0035868875637379608 0 0.010866153913761816 -0.0094026111888044477 0 0.010797766721636718 -0.0084946965834614939 0 0.012605780777944543 -0.0089628017633428484 0 0.010866153913761816 -0.0094026111888044477 0 0.012605780777944543 -0.0089628017633428484 0 0.010520115185513332 -0.012259661138377819 0 0.020093437739206736 -0.0083282702022746298 0 0.014405547242998829 -0.0080600408867684756 0 0.018919361349187275 -0.0045525633877082682 0 0.019732057261107983 -0.003692360297769304 0 0.018430368679569695 -0.0035868875637379608 0 0.019947842181009728 -0.0045565982546257253 0 0.018919361349187275 -0.0045525633877082682 0 0.019732057261107983 -0.003692360297769304 0 0.0086145899288904842 -0.015497369951204289 0 0.0091775183490775056 -0.010715666512870656 0 0.010520115185513332 -0.012259661138377819 0 0.0086145899288904842 -0.015497369951204289 0 0.0091775183490775056 -0.010715666512870656 0 0.0051665623724415737 -0.011354337952386323 0 0.0090797431143444674 -0.0063775165139254358 0 0.014405547242998829 -0.0080600408867684756 0 0.017742185694196444 -0.004676288134027845 0 0.018919361349187275 -0.0045525633877082682 0 0.018430368679569695 -0.0035868875637379608 0 0.0017935194569202435 -0.0046923362310649077 0 0.0016259293547316756 -0.0046484055535230776 0 0.0017625638314726891 -0.0045985151597502131 0 0.0090797431143444674 -0.0063775165139254358 0 0.0031068931212988472 -0.0082887359898767502 0 0.0017935194569202435 -0.0046923362310649077 0 0.0019451914724536766 -0.0047125014108926255 0 0.0017625638314726891 -0.0045985151597502131 0 -0.0061949948998583316 -0.00014405530375754248 0 -0.0061910926385066057 -0.00087558401947008797 0 -0.0068743900324535973 -0.00052084562839865682 0 0.0016259293547316756 -0.0046484055535230776 0 0.0015939365850570581 -0.0045478592602356139 0 0.0017625638314726891 -0.0045985151597502131 0 -0.0031323867667379462 -0.0049745415278109814 0 -0.0025205112126083303 -0.0033401340707369682 0 -0.0061910926385066057 -0.00087558401947008797 0 -0.0063123584579712778 -0.0018442431501040607 0 -0.0068743900324535973 -0.00052084562839865682 0 0.0051665623724415737 -0.011354337952386323 0 0.0044165871252228551 -0.0068738067839351534 0 0.0015990378975734439 -0.0071564485310636489 0 0.0031068931212988472 -0.0082887359898767502 0 0.0014871320443874782 -0.0063677850642104355 0 0.0015939365850570581 -0.0045478592602356139 0 0.0017625638314726891 -0.0045985151597502131 0 0.0015416343043929632 -0.0044187654394440626 0 0.0014655243571992372 -0.0045068661838554794 0 0.0016259293547316756 -0.0046484055535230776 0 0.0015939365850570581 -0.0045478592602356139 0 0.0014655243571992372 -0.0045068661838554794 0 0.0015939365850570581 -0.0045478592602356139 0 0.0015264820230220398 -0.00449408452547793 0 0.0015939365850570581 -0.0045478592602356139 0 0.0015264820230220398 -0.00449408452547793 0 0.0015416343043929632 -0.0044187654394440626 0 -0.0031323867667379462 -0.0049745415278109814 0 -2.6398406634202581e-05 -0.0044753683040602669 0 0.0091775183490775056 -0.010715666512870656 0 0.0051665623724415737 -0.011354337952386323 0 0.0073603947481409313 -0.0093542706449471109 0 0.0051665623724415737 -0.011354337952386323 0 0.0073603947481409313 -0.0093542706449471109 0 0.0044165871252228551 -0.0068738067839351534 0 -0.0059363998171668387 -0.022643131932494859 0 -0.0059930571753253553 -0.022590410575803847 0 -0.005984834592520652 -0.022670826762303663 0 -0.0059363998171668387 -0.022643131932494859 0 -0.005984834592520652 -0.022670826762303663 0 -0.0058705091398033498 -0.022641655135625716 0 -0.0018569358688069961 -0.0053605952825928702 0 0.0044165871252228551 -0.0068738067839351534 0 0.0012800702674278597 -0.0067915143407490742 0 -0.0043161030305827932 -0.014015847373776596 0 -0.0015804150324880413 -0.014707363851950449 0 -0.0060760564730487328 -0.022560338149178401 0 -0.0059363998171668387 -0.022643131932494859 0 -0.0059930571753253553 -0.022590410575803847 0 -0.0007637080731366044 -0.0075763325206757402 0 0.0015918935408079822 -0.0071820838005201898 0 0.0012800702674278597 -0.0067915143407490742 0 0.0013678323442286133 -0.0044358915928479443 0 0.0015264820230220398 -0.00449408452547793 0 0.0015416343043929632 -0.0044187654394440626 0 -0.0032654255290727736 -0.0082219589412882918 0 0.0014871320443874782 -0.0063677850642104355 0 0.0014871320443874782 -0.0063677850642104355 0 0.001508595691284254 -0.0064251656790480583 0 0.0044165871252228551 -0.0068738067839351534 0 0.0015990378975734439 -0.0071564485310636489 0 0.0012800702674278597 -0.0067915143407490742 0 -0.0064154744096658091 -0.022882602070084027 0 -0.005984834592520652 -0.022670826762303663 0 -0.0063278720056013076 -0.02265115122239961 0 -0.0060123965610980514 -0.02278953889961002 0 -0.0061227713969548136 -0.022661359164408871 0 -0.0059930571753253553 -0.022590410575803847 0 -0.0060057485926597745 -0.022535220263969299 0 -0.005984834592520652 -0.022670826762303663 0 -0.0060607646208000292 -0.022534604325061644 0 -0.0059930571753253553 -0.022590410575803847 0 -0.0060057485926597745 -0.022535220263969299 0 -0.005984834592520652 -0.022670826762303663 0 -0.0058289059347852923 -0.02258215024540932 0 -0.0059944261844710137 -0.022551737469303987 0 -0.005984834592520652 -0.022670826762303663 0 -0.0058289059347852923 -0.02258215024540932 0 -0.0058705091398033498 -0.022641655135625716 0 0.020834612823009226 -0.012486596793267987 0 0.020907746349759816 -0.01113723894716496 0 0.02138470122213857 -0.011809188116094707 0 0.0068387723404675109 -0.015237951627918139 0 0.0076858585476164013 -0.0173677693205374 0 0.0068387723404675109 -0.015237951627918139 0 -0.0015804150324880413 -0.014707363851950449 0 -0.005698485746546177 -0.022653390972268862 0 -0.0058289059347852923 -0.02258215024540932 0 -0.0058705091398033498 -0.022641655135625716 0 -0.005698485746546177 -0.022653390972268862 0 -0.0059363998171668387 -0.022643131932494859 0 -0.0058705091398033498 -0.022641655135625716 0 0.022167566286099435 -0.011409411675226607 0 0.021238653735957271 -0.012573868771912069 0 0.02138470122213857 -0.011809188116094707 0 0.020834612823009226 -0.012486596793267987 0 0.021238653735957271 -0.012573868771912069 0 0.02138470122213857 -0.011809188116094707 0 0.024100775227018222 -0.0099329328521521858 0 0.020093437739206736 -0.0083282702022746298 0 0.022167566286099435 -0.011409411675226607 0 0.020907746349759816 -0.01113723894716496 0 0.021792920448517331 -0.010431229601094877 0 0.022167566286099435 -0.011409411675226607 0 0.020907746349759816 -0.01113723894716496 0 0.02138470122213857 -0.011809188116094707 0 0.021073687368897816 -0.010039771392819558 0 0.021569020312048492 -0.0096749921022905531 0 0.022107419967584571 -0.0097911219185084792 0 0.021792920448517331 -0.010431229601094877 0 0.021073687368897816 -0.010039771392819558 0 0.022107419967584571 -0.0097911219185084792 0 0.0076858585476164013 -0.0173677693205374 0 0.0074140776055683349 -0.016365837953015227 0 0.020907746349759816 -0.01113723894716496 0 0.021792920448517331 -0.010431229601094877 0 0.021073687368897816 -0.010039771392819558 0 -0.0058289059347852923 -0.02258215024540932 0 -0.0059834355364511774 -0.022400096411342951 0 -0.0059944261844710137 -0.022551737469303987 0 -0.005984834592520652 -0.022670826762303663 0 -0.0061700698515010461 -0.022537174030779081 0 -0.0063278720056013076 -0.02265115122239961 0 -0.005984834592520652 -0.022670826762303663 0 -0.0059944261844710137 -0.022551737469303987 0 -0.0061700698515010461 -0.022537174030779081 0 -0.0059834355364511774 -0.022400096411342951 0 -0.0059944261844710137 -0.022551737469303987 0 -0.0061700698515010461 -0.022537174030779081 0 -0.0063278720056013076 -0.02265115122239961 0 -0.0065424786339754485 -0.022503726725006171 0 -0.0065912354405696979 -0.022701719746464025 0 -0.0064154744096658091 -0.022882602070084027 0 -0.0063278720056013076 -0.02265115122239961 0 -0.0065912354405696979 -0.022701719746464025 0 -0.0061700698515010461 -0.022537174030779081 0 -0.0063278720056013076 -0.02265115122239961 0 -0.0063759910384947414 -0.022478330085424606 0 -0.0063759910384947414 -0.022478330085424606 0 -0.0065424786339754485 -0.022503726725006171 0 -0.0065299265407711953 -0.022386356430389772 0 -0.0063278720056013076 -0.02265115122239961 0 -0.0063759910384947414 -0.022478330085424606 0 -0.0065424786339754485 -0.022503726725006171 0 -0.0061700698515010461 -0.022537174030779081 0 -0.0063759910384947414 -0.022478330085424606 0 -0.0063153258091960549 -0.022413155908712526 0 -0.0063759910384947414 -0.022478330085424606 0 -0.0065299265407711953 -0.022386356430389772 0 -0.0063153258091960549 -0.022413155908712526 0 -0.0065299265407711953 -0.022386356430389772 0 -0.0063153258091960549 -0.022413155908712526 0 -0.006542082695947549 -0.022415572208188548 0 -0.0059834355364511774 -0.022400096411342951 0 -0.0061700698515010461 -0.022537174030779081 0 -0.0063153258091960549 -0.022413155908712526 0 -0.0059834355364511774 -0.022400096411342951 0 -0.0063153258091960549 -0.022413155908712526 0 -0.0061016978109923502 -0.022292799408930353 0 -0.0063153258091960549 -0.022413155908712526 0 -0.0064514448477629004 -0.022406385764084671 0 -0.0061016978109923502 -0.022292799408930353 0 -0.0064514448477629004 -0.022406385764084671 0 -0.006542082695947549 -0.022415572208188548 0 -0.0065613510236122458 -0.022467359220639638 0 -0.0063153258091960549 -0.022413155908712526 0 -0.0064514448477629004 -0.022406385764084671 0 -0.006542082695947549 -0.022415572208188548 0 -0.0064514448477629004 -0.022406385764084671 0 -0.0064548521085653759 -0.022382919654170202 0 -0.0065613510236122458 -0.022467359220639638 0 -0.0064514448477629004 -0.022406385764084671 0 -0.0064548521085653759 -0.022382919654170202 0 -0.0061016978109923502 -0.022292799408930353 0 -0.0064548521085653759 -0.022382919654170202 0 -0.0061016978109923502 -0.022292799408930353 0 -0.0063920331337086146 -0.022169872401284464 0 0.021177962205813871 -0.0095770743083036253 0 0.021603177911380018 -0.0095208624712067747 0 0.021569020312048492 -0.0096749921022905531 0 0.021177962205813871 -0.0095770743083036253 0 0.021603177911380018 -0.0095208624712067747 0 0.021388974038564629 -0.0094332625165700675 0 0.021603177911380018 -0.0095208624712067747 0 0.021669345643835412 -0.0094180344373068544 0 0.021388974038564629 -0.0094332625165700675 0 0.021603177911380018 -0.0095208624712067747 0 0.021669345643835412 -0.0094180344373068544 0 0.021848049043733192 -0.0094927626314038113 0 0.021603177911380018 -0.0095208624712067747 0 0.021848049043733192 -0.0094927626314038113 0 0.021960475414415766 -0.009565061137842135 0 0.021569020312048492 -0.0096749921022905531 0 0.021960475414415766 -0.009565061137842135 0 0.022107419967584571 -0.0097911219185084792 0 0.021603177911380018 -0.0095208624712067747 0 0.021569020312048492 -0.0096749921022905531 0 0.021960475414415766 -0.009565061137842135 0 0.0074140776055683349 -0.016365837953015227 0 0.0083923770165632312 -0.014840324505190836 0 0.021073687368897816 -0.010039771392819558 0 0.021177962205813871 -0.0095770743083036253 0 0.021569020312048492 -0.0096749921022905531 0 -0.013803142041094908 -0.020367027165794017 0 -0.013695634807474991 -0.023040080658263677 0 -0.011858430484953492 -0.021665158885693848 0 -0.013803142041094908 -0.020367027165794017 0 -0.011858430484953492 -0.021665158885693848 0 -0.012537042629912086 -0.019262956814604503 0 -0.015763003699079393 -0.020042667059671986 0 -0.013803142041094908 -0.020367027165794017 0 -0.013695634807474991 -0.023040080658263677 0 -0.023521335279100799 -0.01019299435752293 0 -0.021229628069440783 -0.0085583566994087337 0 -0.021693547538581121 -0.0095005279074102354 0 -0.023521335279100799 -0.01019299435752293 0 -0.021693547538581121 -0.0095005279074102354 0 -0.020926468328243516 -0.010520642817881287 0 -0.023521335279100799 -0.01019299435752293 0 -0.021303936147986775 -0.012323083425862382 0 -0.020926468328243516 -0.010520642817881287 0 -0.021229628069440783 -0.0085583566994087337 0 -0.021693547538581121 -0.0095005279074102354 0 -0.020926468328243516 -0.010520642817881287 0 -0.021229628069440783 -0.0085583566994087337 0 -0.019368882726045176 -0.010813011619803102 0 -0.020926468328243516 -0.010520642817881287 0 -0.013695634807474991 -0.023040080658263677 0 -0.011085470201256335 -0.023888839402847577 0 -0.011858430484953492 -0.021665158885693848 0 -0.021229628069440783 -0.0085583566994087337 0 -0.019368882726045176 -0.010813011619803102 0 -0.016490246539970454 -0.0098935847826067073 0 -0.018592053681407043 -0.018467256222055441 0 -0.013773022822987124 -0.016702238198718598 0 -0.011085470201256335 -0.023888839402847577 0 -0.011858430484953492 -0.021665158885693848 0 -0.0095927666652070101 -0.022614414883917095 0 -0.011858430484953492 -0.021665158885693848 0 -0.0096392677352129408 -0.020608295815267779 0 -0.012537042629912086 -0.019262956814604503 0 -0.011858430484953492 -0.021665158885693848 0 -0.0096392677352129408 -0.020608295815267779 0 -0.0095927666652070101 -0.022614414883917095 0 -0.0096392677352129408 -0.020608295815267779 0 -0.0066701379669166722 -0.022286182065185844 0 -0.0076302133763962764 -0.022060078405661612 0 -0.0080627173104827095 -0.021638070554811713 0 -0.0068165557768377462 -0.022225238875174164 0 -0.0096392677352129408 -0.020608295815267779 0 -0.0095927666652070101 -0.022614414883917095 0 -0.0076302133763962764 -0.022060078405661612 0 -0.011085470201256335 -0.023888839402847577 0 -0.0095927666652070101 -0.022614414883917095 0 -0.0084869683759445577 -0.024211362623149432 0 -0.0082544480188863397 -0.024695751271783056 0 -0.011085470201256335 -0.023888839402847577 0 -0.0084869683759445577 -0.024211362623149432 0 -0.0097299488940303346 -0.019609956768138176 0 -0.013773022822987124 -0.016702238198718598 0 -0.0077619823770466688 -0.024797833875995493 0 -0.0084869683759445577 -0.024211362623149432 0 -0.0083606731117419949 -0.023314794126901319 0 -0.0077619823770466688 -0.024797833875995493 0 -0.0082775238346185515 -0.024651025734695169 0 -0.0084869683759445577 -0.024211362623149432 0 -0.0097299488940303346 -0.019609956768138176 0 -0.0090031207325915429 -0.021374263693660869 0 -0.0095927666652070101 -0.022614414883917095 0 -0.0084869683759445577 -0.024211362623149432 0 -0.0083606731117419949 -0.023314794126901319 0 -0.0095927666652070101 -0.022614414883917095 0 -0.0083606731117419949 -0.023314794126901319 0 -0.0076302133763962764 -0.022060078405661612 0 -0.0069968553268159508 -0.022574142842360645 0 -0.0066701379669166722 -0.022286182065185844 0 -0.0076302133763962764 -0.022060078405661612 0 -0.0077619823770466688 -0.024797833875995493 0 -0.0083606731117419949 -0.023314794126901319 0 -0.0076302133763962764 -0.022060078405661612 0 -0.0070240154092580265 -0.02307103232993216 0 -0.0069968553268159508 -0.022574142842360645 0 -0.0076302133763962764 -0.022060078405661612 0 -0.0076536190238114116 -0.021745006550190231 0 -0.0075408229223801618 -0.022970551288480474 0 -0.0070240154092580265 -0.02307103232993216 0 -0.0069968553268159508 -0.022574142842360645 0 -0.0068247121667977528 -0.022818105630590776 0 -0.0064154744096658091 -0.022882602070084027 0 -0.0068247121667977528 -0.022818105630590776 0 -0.0065912354405696979 -0.022701719746464025 0 -0.0068247121667977528 -0.022818105630590776 0 -0.0065912354405696979 -0.022701719746464025 0 -0.0067392409155618803 -0.022547745174109457 0 -0.0069968553268159508 -0.022574142842360645 0 -0.0068247121667977528 -0.022818105630590776 0 -0.0067392409155618803 -0.022547745174109457 0 -0.0065424786339754485 -0.022503726725006171 0 -0.0065912354405696979 -0.022701719746464025 0 -0.0067392409155618803 -0.022547745174109457 0 -0.0069968553268159508 -0.022574142842360645 0 -0.0067392409155618803 -0.022547745174109457 0 -0.0066701379669166722 -0.022286182065185844 0 -0.0065424786339754485 -0.022503726725006171 0 -0.0067392409155618803 -0.022547745174109457 0 -0.0066701379669166722 -0.022286182065185844 0 -0.0066105225162008752 -0.02256900932103317 0 -0.0066701379669166722 -0.022286182065185844 0 -0.0066032491960036554 -0.02247641993146306 0 -0.0065424786339754485 -0.022503726725006171 0 -0.0065299265407711953 -0.022386356430389772 0 -0.0066701379669166722 -0.022286182065185844 0 -0.0065299265407711953 -0.022386356430389772 0 -0.0066701379669166722 -0.022286182065185844 0 -0.006542082695947549 -0.022415572208188548 0 -0.0066701379669166722 -0.022286182065185844 0 -0.006542082695947549 -0.022415572208188548 0 -0.0066032491960036554 -0.02247641993146306 0 -0.006542082695947549 -0.022415572208188548 0 -0.0066032491960036554 -0.02247641993146306 0 -0.0065613510236122458 -0.022467359220639638 0 -0.0066032491960036554 -0.02247641993146306 0 -0.0065613510236122458 -0.022467359220639638 0 -0.00659968403851823 -0.022558331488144609 0 -0.0065613510236122458 -0.022467359220639638 0 -0.0066130684988349783 -0.022505951304781158 0 -0.00659968403851823 -0.022558331488144609 0 -0.0064548521085653759 -0.022382919654170202 0 -0.0066130684988349783 -0.022505951304781158 0 -0.0066951840392221037 -0.022486524066605274 0 -0.0064548521085653759 -0.022382919654170202 0 -0.0065613510236122458 -0.022467359220639638 0 -0.0066130684988349783 -0.022505951304781158 0 -0.0066130684988349783 -0.022505951304781158 0 -0.0066104147166234535 -0.022636854053478223 0 -0.006550182899228825 -0.022617051190775804 0 -0.0066130684988349783 -0.022505951304781158 0 -0.0066104147166234535 -0.022636854053478223 0 -0.00659968403851823 -0.022558331488144609 0 -0.0066105225162008752 -0.02256900932103317 0 -0.0066032491960036554 -0.02247641993146306 0 -0.00659968403851823 -0.022558331488144609 0 -0.0066105225162008752 -0.02256900932103317 0 -0.00659968403851823 -0.022558331488144609 0 -0.0067896810182130314 -0.022809242902460922 0 -0.0080627173104827095 -0.021638070554811713 0 -0.0099457903202856742 -0.020928632531351275 0 -0.0066104147166234535 -0.022636854053478223 0 -0.00659968403851823 -0.022558331488144609 0 -0.0067896810182130314 -0.022809242902460922 0 -0.0066104147166234535 -0.022636854053478223 0 -0.0068379665640070962 -0.022701796643885688 0 -0.0067896810182130314 -0.022809242902460922 0 -0.0066104147166234535 -0.022636854053478223 0 -0.0068379665640070962 -0.022701796643885688 0 -0.006577580236666678 -0.022664031406026058 0 -0.0073091126861226478 -0.022902531631523299 0 -0.0068379665640070962 -0.022701796643885688 0 -0.0071549637974843939 -0.022569610903882441 0 -0.0073091126861226478 -0.022902531631523299 0 -0.0068379665640070962 -0.022701796643885688 0 -0.0067896810182130314 -0.022809242902460922 0 -0.009709303515982504 -0.020711739266740862 0 -0.0099457903202856742 -0.020928632531351275 0 -0.015009554359737162 -0.018095794642430257 0 -0.013803142041094908 -0.020367027165794017 0 -0.012537042629912086 -0.019262956814604503 0 -0.0067846122407228156 -0.022576779171229161 0 -0.0066410100233781268 -0.022164173329115171 0 -0.0071734063232878394 -0.022179411978647479 0 -0.0071549637974843939 -0.022569610903882441 0 -0.0067846122407228156 -0.022576779171229161 0 -0.0071734063232878394 -0.022179411978647479 0 -0.0068379665640070962 -0.022701796643885688 0 -0.0071549637974843939 -0.022569610903882441 0 -0.0067846122407228156 -0.022576779171229161 0 -0.0068379665640070962 -0.022701796643885688 0 -0.006577580236666678 -0.022664031406026058 0 -0.0067846122407228156 -0.022576779171229161 0 -0.006577580236666678 -0.022664031406026058 0 -0.0063716352246870204 -0.022726091168213794 0 -0.0067846122407228156 -0.022576779171229161 0 -0.0063716352246870204 -0.022726091168213794 0 -0.0067846122407228156 -0.022576779171229161 0 -0.0066410100233781268 -0.022164173329115171 0 -0.006377898774969153 -0.022688548706345488 0 -0.0063035405763242095 -0.023096172826072417 0 -0.0063716352246870204 -0.022726091168213794 0 -0.0064172263300411349 -0.023440408961519933 0 -0.0059344918346610504 -0.023539588068223184 0 -0.0063716352246870204 -0.022726091168213794 0 -0.0065964102037491855 -0.022940615779389818 0 -0.0064172263300411349 -0.023440408961519933 0 -0.0065964102037491855 -0.022940615779389818 0 -0.0067480657300702726 -0.023534493127851702 0 -0.0064172263300411349 -0.023440408961519933 0 -0.0063716352246870204 -0.022726091168213794 0 -0.006550182899228825 -0.022617051190775804 0 -0.0065964102037491855 -0.022940615779389818 0 -0.006577580236666678 -0.022664031406026058 0 -0.0063716352246870204 -0.022726091168213794 0 -0.006550182899228825 -0.022617051190775804 0 -0.0066104147166234535 -0.022636854053478223 0 -0.006577580236666678 -0.022664031406026058 0 -0.006550182899228825 -0.022617051190775804 0 -0.0066951840392221037 -0.022486524066605274 0 -0.0065964102037491855 -0.022940615779389818 0 -0.0070216902768477892 -0.023134890719241661 0 -0.0066130684988349783 -0.022505951304781158 0 -0.006550182899228825 -0.022617051190775804 0 -0.0066951840392221037 -0.022486524066605274 0 -0.006550182899228825 -0.022617051190775804 0 -0.0066951840392221037 -0.022486524066605274 0 -0.0065964102037491855 -0.022940615779389818 0 -0.0065964102037491855 -0.022940615779389818 0 -0.0067480657300702726 -0.023534493127851702 0 -0.0070216902768477892 -0.023134890719241661 0 -0.0067480657300702726 -0.023534493127851702 0 -0.0065250325154653423 -0.024013907446754169 0 -0.0070727423576214758 -0.024308848747837539 0 -0.0067597662795543844 -0.024586310969640437 0 -0.0065250325154653423 -0.024013907446754169 0 -0.0070727423576214758 -0.024308848747837539 0 -0.0067597662795543844 -0.024586310969640437 0 -0.0062516134164326258 -0.024289497860774344 0 -0.0065250325154653423 -0.024013907446754169 0 -0.0074936771712357597 -0.025194821682287424 0 -0.0042663633648647318 -0.025009426976614985 0 -0.0062516134164326258 -0.024289497860774344 0 -0.0065250325154653423 -0.024013907446754169 0 -0.006135434395213378 -0.023927890058751879 0 -0.0065250325154653423 -0.024013907446754169 0 -0.0064172263300411349 -0.023440408961519933 0 -0.006135434395213378 -0.023927890058751879 0 -0.0067480657300702726 -0.023534493127851702 0 -0.0065250325154653423 -0.024013907446754169 0 -0.0064172263300411349 -0.023440408961519933 0 -0.0064172263300411349 -0.023440408961519933 0 -0.0059344918346610504 -0.023539588068223184 0 -0.006135434395213378 -0.023927890058751879 0 -0.0059344918346610504 -0.023539588068223184 0 -0.006135434395213378 -0.023927890058751879 0 -0.005870885470893681 -0.024035380125152602 0 -0.0063035405763242095 -0.023096172826072417 0 -0.011517553393299573 -0.023475012486095542 0 -0.0042663633648647318 -0.025009426976614985 0 -0.017227718738622607 -0.024216087049179019 0 -0.0067735894366913159 -0.025825162048340098 0 -0.0055928032566636681 -0.025493702603473938 0 -0.0062827928481328163 -0.026448682505337964 0 -0.0062516134164326258 -0.024289497860774344 0 -0.006135434395213378 -0.023927890058751879 0 -0.0059233037610106022 -0.024080239041223257 0 -0.0062516134164326258 -0.024289497860774344 0 -0.0059233037610106022 -0.024080239041223257 0 -0.005865396595461864 -0.024136048627135274 0 -0.0059233037610106022 -0.024080239041223257 0 -0.0059103076396086786 -0.024031352501125241 0 -0.005865396595461864 -0.024136048627135274 0 -0.011517553393299573 -0.023475012486095542 0 -0.017227718738622607 -0.024216087049179019 0 -0.006135434395213378 -0.023927890058751879 0 -0.0059233037610106022 -0.024080239041223257 0 -0.005870885470893681 -0.024035380125152602 0 -0.010814202507890346 -0.023110579582721696 0 -0.011517553393299573 -0.023475012486095542 0 -0.028636776950334539 -0.020976843248848086 0 -0.026012662237379757 -0.020880680914315011 0 -0.027274940999909951 -0.021766535117467893 0 -0.029668961109609683 -0.024767157531581513 0 -0.031796027320874304 -0.024878049283296663 0 -0.03074593285958125 -0.025492884153325141 0 -0.025755346887041973 -0.021530228147040142 0 -0.026012662237379757 -0.020880680914315011 0 -0.027274940999909951 -0.021766535117467893 0 -0.031671867103809093 -0.022801531690409538 0 -0.017227718738622607 -0.024216087049179019 0 -0.011517553393299573 -0.023475012486095542 0 -0.017751887912075846 -0.022635872731366528 0 -0.025755346887041973 -0.021530228147040142 0 -0.027274940999909951 -0.021766535117467893 0 -0.027365508719430838 -0.023116176283463363 0 -0.0066410100233781268 -0.022164173329115171 0 -0.0068397848842071439 -0.021799747277846719 0 -0.0071734063232878394 -0.022179411978647479 0 0.011614800304915672 -0.021363556133820936 0 0.00084324790062439341 -0.020949045799688728 0 -0.0010157498714146247 -0.034357469132554004 0 -0.0062510075386178129 -0.035972026525837433 0 -0.0031990392643178179 -0.030869045687729149 0 0.021404121490864306 -0.0091554475260733469 0 0.02146489482743108 -0.0093102503434240105 0 0.020994624923511437 -0.0093136469520103179 0 0.021404121490864306 -0.0091554475260733469 0 0.021796702312716243 -0.0090657147124835816 0 0.02175786208435818 -0.00926482017485597 0 0.011614800304915672 -0.021363556133820936 0 0.011990236580442501 -0.023549995212407016 0 0.021404121490864306 -0.0091554475260733469 0 0.02146489482743108 -0.0093102503434240105 0 0.02175786208435818 -0.00926482017485597 0 0.02146489482743108 -0.0093102503434240105 0 0.021669345643835412 -0.0094180344373068544 0 0.02175786208435818 -0.00926482017485597 0 0.02146489482743108 -0.0093102503434240105 0 0.021669345643835412 -0.0094180344373068544 0 0.021388974038564629 -0.0094332625165700675 0 0.021177962205813871 -0.0095770743083036253 0 0.021388974038564629 -0.0094332625165700675 0 0.020994624923511437 -0.0093136469520103179 0 0.0083923770165632312 -0.014840324505190836 0 0.00084324790062439341 -0.020949045799688728 0 0.02146489482743108 -0.0093102503434240105 0 0.021388974038564629 -0.0094332625165700675 0 0.020994624923511437 -0.0093136469520103179 0 -0.0061016978109923502 -0.022292799408930353 0 -0.0063920331337086146 -0.022169872401284464 0 -0.0061165977574774806 -0.022039269826898314 0 -0.0084170933337738597 -0.022955160468313852 0 0.00084324790062439341 -0.020949045799688728 0 -0.0061788692170980783 -0.022272251007375798 0 -0.0084170933337738597 -0.022955160468313852 0 -0.0066951840392221037 -0.022486524066605274 0 -0.0074869132695663827 -0.022746735930865247 0 -0.0070216902768477892 -0.023134890719241661 0 -0.0064548521085653759 -0.022382919654170202 0 -0.0066951840392221037 -0.022486524066605274 0 -0.0063920331337086146 -0.022169872401284464 0 -0.0067480657300702726 -0.023534493127851702 0 -0.0070216902768477892 -0.023134890719241661 0 -0.007405285650670025 -0.023651478975540829 0 -0.0074869132695663827 -0.022746735930865247 0 -0.0070216902768477892 -0.023134890719241661 0 -0.007405285650670025 -0.023651478975540829 0 -0.0074869132695663827 -0.022746735930865247 0 -0.007405285650670025 -0.023651478975540829 0 -0.0082877409503548695 -0.023027499464635344 0 -0.007405285650670025 -0.023651478975540829 0 -0.0082877409503548695 -0.023027499464635344 0 -0.0081052327244085128 -0.024541860932207255 0 0.00084324790062439341 -0.020949045799688728 0 -0.0085962279668681842 -0.028536280746457893 0 -0.007405285650670025 -0.023651478975540829 0 -0.0081052327244085128 -0.024541860932207255 0 -0.0070727423576214758 -0.024308848747837539 0 -0.0067480657300702726 -0.023534493127851702 0 -0.007405285650670025 -0.023651478975540829 0 -0.0070727423576214758 -0.024308848747837539 0 -0.0074936771712357597 -0.025194821682287424 0 -0.0072820099159533972 -0.025218187404901456 0 -0.0067597662795543844 -0.024586310969640437 0 -0.0070727423576214758 -0.024308848747837539 0 -0.0074051747825788512 -0.025227511319236944 0 -0.0081052327244085128 -0.024541860932207255 0 -0.0070727423576214758 -0.024308848747837539 0 -0.0074051747825788512 -0.025227511319236944 0 -0.0071936094733910374 -0.028633727480277857 0 -0.0060371651693288224 -0.026297256660973791 0 -0.0072772666996695368 -0.025746880007507533 0 -0.0081052327244085128 -0.024541860932207255 0 -0.0074051747825788512 -0.025227511319236944 0 -0.0072772666996695368 -0.025746880007507533 0 -0.0085962279668681842 -0.028536280746457893 0 -0.0071434056955362122 -0.024952959578843806 0 -0.0060371651693288224 -0.026297256660973791 0 -0.001375150415495417 -0.027353434976638252 0 0.00029073188320352661 -0.024239372404650999 0 -0.0043916737308821435 -0.028216441689173387 0 -0.0031990392643178179 -0.030869045687729149 0 -0.001375150415495417 -0.027353434976638252 0 -0.0060371651693288224 -0.026297256660973791 0 -0.0043916737308821435 -0.028216441689173387 0 -0.001375150415495417 -0.027353434976638252 0 -0.0071936094733910374 -0.028633727480277857 0 -0.0060371651693288224 -0.026297256660973791 0 -0.0043916737308821435 -0.028216441689173387 0 -0.0062510075386178129 -0.035972026525837433 0 -0.0071936094733910374 -0.028633727480277857 0 -0.0031990392643178179 -0.030869045687729149 0 -0.0071936094733910374 -0.028633727480277857 0 -0.0043916737308821435 -0.028216441689173387 0 -0.0031990392643178179 -0.030869045687729149 0 -0.0010157498714146247 -0.034357469132554004 0 0.0014992849014050028 -0.030834110013258562 0 0.0043604806611413074 -0.032627523438494371 0 -0.0031990392643178179 -0.030869045687729149 0 0.0014992849014050028 -0.030834110013258562 0 -0.001375150415495417 -0.027353434976638252 0 -0.0010157498714146247 -0.034357469132554004 0 -0.0031990392643178179 -0.030869045687729149 0 0.0014992849014050028 -0.030834110013258562 0 0.0014992849014050028 -0.030834110013258562 0 0.001897399613450045 -0.027723407540556189 0 -0.001375150415495417 -0.027353434976638252 0 0.001897399613450045 -0.027723407540556189 0 -0.001375150415495417 -0.027353434976638252 0 0.00029073188320352661 -0.024239372404650999 0 0.001897399613450045 -0.027723407540556189 0 0.0036654407761711363 -0.025205934748815197 0 0.00029073188320352661 -0.024239372404650999 0 0.0036654407761711363 -0.025205934748815197 0 0.0055248106321700609 -0.028832927629201612 0 0.0066920649019326893 -0.02398223763269507 0 0.001897399613450045 -0.027723407540556189 0 0.0036654407761711363 -0.025205934748815197 0 0.0055248106321700609 -0.028832927629201612 0 0.011320520874621071 -0.027105176443080334 0 0.0055248106321700609 -0.028832927629201612 0 0.0066920649019326893 -0.02398223763269507 0 0.011320520874621071 -0.027105176443080334 0 0.0066920649019326893 -0.02398223763269507 0 0.011021437762609044 -0.022636984805342146 0 0.011320520874621071 -0.027105176443080334 0 0.01004275241004998 -0.031457736274672222 0 0.015041978906745454 -0.029649732786043308 0 0.011320520874621071 -0.027105176443080334 0 0.01004275241004998 -0.031457736274672222 0 0.0055248106321700609 -0.028832927629201612 0 0.016786695639342129 -0.018681736840228207 0 0.017777729983466255 -0.018344076250452028 0 0.016920118619855196 -0.019707077071953846 0 0.012322195620417364 -0.025441490873068143 0 0.011990236580442501 -0.023549995212407016 0 0.01004275241004998 -0.031457736274672222 0 0.0049985728407837791 -0.033196143696098766 0 0.0055248106321700609 -0.028832927629201612 0 0.003219294515244621 -0.029126774147423762 0 0.011990236580442501 -0.023549995212407016 0 0.0014992849014050028 -0.030834110013258562 0 0.0049985728407837791 -0.033196143696098766 0 0.0055248106321700609 -0.028832927629201612 0 0.0014992849014050028 -0.030834110013258562 0 0.001897399613450045 -0.027723407540556189 0 0.0055248106321700609 -0.028832927629201612 0 0.017253648259505091 -0.020977307249858645 0 0.01634630897361404 -0.023242280474241823 0 0.019716719055165977 -0.020609085537715569 0 0.017063606682466093 -0.022729156221435443 0 0.016229122745049947 -0.020808657328568531 0 0.017253648259505091 -0.020977307249858645 0 0.014930984332958298 -0.022099670943763066 0 0.016326474171759451 -0.020026432768405659 0 0.023108906420753868 -0.017533659511014644 0 0.017063606682466093 -0.022729156221435443 0 0.017253648259505091 -0.020977307249858645 0 0.01634630897361404 -0.023242280474241823 0 0.014930984332958298 -0.022099670943763066 0 0.017063606682466093 -0.022729156221435443 0 0.010479770264618483 -0.021658687396505324 0 0.011320520874621071 -0.027105176443080334 0 0.016841738661379096 -0.026681632741898133 0 0.011021437762609044 -0.022636984805342146 0 0.011320520874621071 -0.027105176443080334 0 0.016841738661379096 -0.026681632741898133 0 0.015041978906745454 -0.029649732786043308 0 0.017063606682466093 -0.022729156221435443 0 0.019633492129323398 -0.019369146132476277 0 0.02019642640788059 -0.019484764690237869 0 0.019677503742554014 -0.019132298925700727 0 0.019257649912977178 -0.019812148061660134 0 0.026196075084562224 -0.011731121547778695 0 0.026027687422916116 -0.011589543620067649 0 0.026152825047054955 -0.011385714853762779 0 0.019633492129323398 -0.019369146132476277 0 0.022101688684541678 -0.01131803089409506 0 0.012322195620417364 -0.025441490873068143 0 0.019633492129323398 -0.019369146132476277 0 0.023108906420753868 -0.017533659511014644 0 0.027644349960041836 -0.012770852426348648 0 0.026027687422916116 -0.011589543620067649 0 0.025983009303527749 -0.011409204967428671 0 0.025756751776884773 -0.011539839192313089 0 0.025992005163826649 -0.011799618622632952 0 0.026027687422916116 -0.011589543620067649 0 0.025756751776884773 -0.011539839192313089 0 0.025992005163826649 -0.011799618622632952 0 0.026196075084562224 -0.011731121547778695 0 0.026027687422916116 -0.011589543620067649 0 0.023108906420753868 -0.017533659511014644 0 0.019633492129323398 -0.019369146132476277 0 0.026017112266987649 -0.011220831597586443 0 0.026152825047054955 -0.011385714853762779 0 0.026185118170434906 -0.011021080942694555 0 0.025983009303527749 -0.011409204967428671 0 0.026017112266987649 -0.011220831597586443 0 0.025796938575034501 -0.011276903944356662 0 0.026027687422916116 -0.011589543620067649 0 0.025983009303527749 -0.011409204967428671 0 0.026152825047054955 -0.011385714853762779 0 0.025983009303527749 -0.011409204967428671 0 0.026017112266987649 -0.011220831597586443 0 0.026152825047054955 -0.011385714853762779 0 0.026196075084562224 -0.011731121547778695 0 0.026152825047054955 -0.011385714853762779 0 0.026442710643341513 -0.011300913804943516 0 0.026152825047054955 -0.011385714853762779 0 0.026185118170434906 -0.011021080942694555 0 0.026442710643341513 -0.011300913804943516 0 0.025693396451420471 -0.010115647543996607 0 0.022101688684541678 -0.01131803089409506 0 0.024432825288954331 -0.0092883521599960769 0 0.022999534899244608 -0.0084081848363486995 0 0.023275755072764075 -0.0092711477561092052 0 0.024432825288954331 -0.0092883521599960769 0 0.023275755072764075 -0.0092711477561092052 0 0.023029554975491744 -0.0100903213649794 0 0.026185118170434906 -0.011021080942694555 0 0.025683740102609015 -0.010554212598671227 0 0.025850614200360538 -0.011011734155324943 0 0.026017112266987649 -0.011220831597586443 0 0.026185118170434906 -0.011021080942694555 0 0.025850614200360538 -0.011011734155324943 0 0.026017112266987649 -0.011220831597586443 0 0.025850614200360538 -0.011011734155324943 0 0.025796938575034501 -0.011276903944356662 0 0.021796702312716243 -0.0090657147124835816 0 0.02175786208435818 -0.00926482017485597 0 0.022153443012687481 -0.0092072809639044233 0 0.016786695639342129 -0.018681736840228207 0 0.01578371001437889 -0.019038084968038493 0 0.016920118619855196 -0.019707077071953846 0 0.011990236580442501 -0.023549995212407016 0 0.022101688684541678 -0.01131803089409506 0 0.022999534899244608 -0.0084081848363486995 0 0.023275755072764075 -0.0092711477561092052 0 0.022177003371339359 -0.0096091607938257537 0 0.022101688684541678 -0.01131803089409506 0 0.022516703202768648 -0.0085858207129410179 0 0.022153443012687481 -0.0092072809639044233 0 0.021897226237380246 -0.0094228470412045622 0 0.022177003371339359 -0.0096091607938257537 0 0.02175786208435818 -0.00926482017485597 0 0.022153443012687481 -0.0092072809639044233 0 0.021897226237380246 -0.0094228470412045622 0 0.021669345643835412 -0.0094180344373068544 0 0.02175786208435818 -0.00926482017485597 0 0.021897226237380246 -0.0094228470412045622 0 0.021669345643835412 -0.0094180344373068544 0 0.021897226237380246 -0.0094228470412045622 0 0.021848049043733192 -0.0094927626314038113 0 0.021848049043733192 -0.0094927626314038113 0 0.022177003371339359 -0.0096091607938257537 0 0.023029554975491744 -0.0100903213649794 0 0.021848049043733192 -0.0094927626314038113 0 0.022311519596368758 -0.0094663891688663727 0 0.022707846590726152 -0.0091703506004601268 0 0.021897226237380246 -0.0094228470412045622 0 0.021848049043733192 -0.0094927626314038113 0 0.022177003371339359 -0.0096091607938257537 0 0.021967052426587464 -0.0095141136655719199 0 0.022889956999940002 -0.0096346656025447664 0 0.021848049043733192 -0.0094927626314038113 0 0.022311519596368758 -0.0094663891688663727 0 0.021960475414415766 -0.009565061137842135 0 0.021960475414415766 -0.009565061137842135 0 0.022395434632481899 -0.0095907093502954135 0 0.022107419967584571 -0.0097911219185084792 0 0.022395434632481899 -0.0095907093502954135 0 0.022107419967584571 -0.0097911219185084792 0 0.022869326787232119 -0.0097087623984262409 0 0.022311519596368758 -0.0094663891688663727 0 0.021960475414415766 -0.009565061137842135 0 0.022395434632481899 -0.0095907093502954135 0 0.022721856335465442 -0.0094775588062425611 0 0.022935163517082888 -0.0095293937650766328 0 0.022869326787232119 -0.0097087623984262409 0 0.022395434632481899 -0.0095907093502954135 0 0.022721856335465442 -0.0094775588062425611 0 0.022869326787232119 -0.0097087623984262409 0 0.022311519596368758 -0.0094663891688663727 0 0.022395434632481899 -0.0095907093502954135 0 0.022721856335465442 -0.0094775588062425611 0 0.022721856335465442 -0.0094775588062425611 0 0.022707846590726152 -0.0091703506004601268 0 0.022932247912746156 -0.0093412598011241837 0 0.023275755072764075 -0.0092711477561092052 0 0.022177003371339359 -0.0096091607938257537 0 0.023029554975491744 -0.0100903213649794 0 0.022311519596368758 -0.0094663891688663727 0 0.022721856335465442 -0.0094775588062425611 0 0.022707846590726152 -0.0091703506004601268 0 0.024432825288954331 -0.0092883521599960769 0 0.023029554975491744 -0.0100903213649794 0 0.024834194580144634 -0.010499982535287238 0 0.022889956999940002 -0.0096346656025447664 0 0.024015808243519378 -0.009801833800726455 0 0.022707846590726152 -0.0091703506004601268 0 0.023159850226159559 -0.0091153950658184237 0 0.022932247912746156 -0.0093412598011241837 0 0.024432825288954331 -0.0092883521599960769 0 0.024834194580144634 -0.010499982535287238 0 0.025683740102609015 -0.010554212598671227 0 0.025693396451420471 -0.010115647543996607 0 0.025513957937151339 -0.010469148634108293 0 0.023159850226159559 -0.0091153950658184237 0 0.02313050066790534 -0.0093807496242251376 0 0.023430849278869598 -0.0092920194034937214 0 0.02313050066790534 -0.0093807496242251376 0 0.023358392589185532 -0.0094012910850199936 0 0.023430849278869598 -0.0092920194034937214 0 0.023159850226159559 -0.0091153950658184237 0 0.02313050066790534 -0.0093807496242251376 0 0.022932247912746156 -0.0093412598011241837 0 0.02313050066790534 -0.0093807496242251376 0 0.023358392589185532 -0.0094012910850199936 0 0.023044401902459988 -0.0094627029313019972 0 0.022721856335465442 -0.0094775588062425611 0 0.022932247912746156 -0.0093412598011241837 0 0.022935163517082888 -0.0095293937650766328 0 0.02313050066790534 -0.0093807496242251376 0 0.022932247912746156 -0.0093412598011241837 0 0.022935163517082888 -0.0095293937650766328 0 0.02313050066790534 -0.0093807496242251376 0 0.022935163517082888 -0.0095293937650766328 0 0.023044401902459988 -0.0094627029313019972 0 0.022935163517082888 -0.0095293937650766328 0 0.022871028837943314 -0.0095095312714014828 0 0.023044401902459988 -0.0094627029313019972 0 0.022935163517082888 -0.0095293937650766328 0 0.022871028837943314 -0.0095095312714014828 0 0.022869326787232119 -0.0097087623984262409 0 0.023358392589185532 -0.0094012910850199936 0 0.023044401902459988 -0.0094627029313019972 0 0.023458834285556146 -0.0093835961400410856 0 0.023044401902459988 -0.0094627029313019972 0 0.023011189509421413 -0.009293076011996448 0 0.023458834285556146 -0.0093835961400410856 0 0.022871028837943314 -0.0095095312714014828 0 0.023044401902459988 -0.0094627029313019972 0 0.023011189509421413 -0.009293076011996448 0 0.022567207502151541 -0.0089174009660716955 0 0.022871028837943314 -0.0095095312714014828 0 0.023011189509421413 -0.009293076011996448 0 0.022671260300837191 -0.0089897594826559967 0 0.022567207502151541 -0.0089174009660716955 0 0.022871028837943314 -0.0095095312714014828 0 0.022671260300837191 -0.0089897594826559967 0 0.022871028837943314 -0.0095095312714014828 0 0.023055226536239093 -0.0099458750978530346 0 0.023460142607896538 -0.0085562952206973512 0 0.022671260300837191 -0.0089897594826559967 0 0.023055226536239093 -0.0099458750978530346 0 0.024100775227018222 -0.0099329328521521858 0 0.022982366536898689 -0.0099427067219711781 0 0.022167566286099435 -0.011409411675226607 0 0.021792920448517331 -0.010431229601094877 0 0.023055226536239093 -0.0099458750978530346 0 0.021792920448517331 -0.010431229601094877 0 0.023055226536239093 -0.0099458750978530346 0 0.022107419967584571 -0.0097911219185084792 0 0.023055226536239093 -0.0099458750978530346 0 0.022107419967584571 -0.0097911219185084792 0 0.022869326787232119 -0.0097087623984262409 0 0.022871028837943314 -0.0095095312714014828 0 0.023055226536239093 -0.0099458750978530346 0 0.022869326787232119 -0.0097087623984262409 0 0.02420624803111765 -0.0093100053144815498 0 0.024154102404237727 -0.0094887706995525276 0 0.024676108034761109 -0.0096857897671409534 0 0.02420624803111765 -0.0093100053144815498 0 0.024521086851925306 -0.0093429743718537114 0 0.024676108034761109 -0.0096857897671409534 0 0.024521086851925306 -0.0093429743718537114 0 0.024676108034761109 -0.0096857897671409534 0 0.024691196758324711 -0.0097459845242701369 0 0.02420624803111765 -0.0093100053144815498 0 0.024521086851925306 -0.0093429743718537114 0 0.024254041182264638 -0.0091575531019242699 0 0.024521086851925306 -0.0093429743718537114 0 0.024254041182264638 -0.0091575531019242699 0 0.024510981345945745 -0.0091105591842660753 0 0.023879512925781173 -0.0091245963507869295 0 0.02420624803111765 -0.0093100053144815498 0 0.024254041182264638 -0.0091575531019242699 0 0.023879512925781173 -0.0091245963507869295 0 0.02420624803111765 -0.0093100053144815498 0 0.023449187028581148 -0.0091716058910855901 0 0.023011189509421413 -0.009293076011996448 0 0.023449187028581148 -0.0091716058910855901 0 0.023458834285556146 -0.0093835961400410856 0 0.022567207502151541 -0.0089174009660716955 0 0.023011189509421413 -0.009293076011996448 0 0.023449187028581148 -0.0091716058910855901 0 0.02420624803111765 -0.0093100053144815498 0 0.023449187028581148 -0.0091716058910855901 0 0.024154102404237727 -0.0094887706995525276 0 0.023458834285556146 -0.0093835961400410856 0 0.024154102404237727 -0.0094887706995525276 0 0.023807123066808565 -0.0094512671653864695 0 0.023449187028581148 -0.0091716058910855901 0 0.023458834285556146 -0.0093835961400410856 0 0.024154102404237727 -0.0094887706995525276 0 0.024154102404237727 -0.0094887706995525276 0 0.023807123066808565 -0.0094512671653864695 0 0.025002588045969429 -0.010065387448799085 0 0.023807123066808565 -0.0094512671653864695 0 0.023799212317619296 -0.0091430450993734563 0 0.025002588045969429 -0.010065387448799085 0 0.023358392589185532 -0.0094012910850199936 0 0.023458834285556146 -0.0093835961400410856 0 0.023807123066808565 -0.0094512671653864695 0 0.023358392589185532 -0.0094012910850199936 0 0.023807123066808565 -0.0094512671653864695 0 0.023430849278869598 -0.0092920194034937214 0 0.023807123066808565 -0.0094512671653864695 0 0.023430849278869598 -0.0092920194034937214 0 0.023799212317619296 -0.0091430450993734563 0 0.024015808243519378 -0.009801833800726455 0 0.024845816990082436 -0.0099251752825002051 0 0.024834194580144634 -0.010499982535287238 0 0.026009177103208009 -0.010687274897797366 0 0.025683740102609015 -0.010554212598671227 0 0.023159850226159559 -0.0091153950658184237 0 0.023430849278869598 -0.0092920194034937214 0 0.023799212317619296 -0.0091430450993734563 0 0.026009177103208009 -0.010687274897797366 0 0.025796578781886008 -0.0107839329453174 0 0.025683740102609015 -0.010554212598671227 0 0.024845816990082436 -0.0099251752825002051 0 0.024920255989380909 -0.010027056606804129 0 0.026009177103208009 -0.010687274897797366 0 0.025580854442666411 -0.010764115949961833 0 0.025002588045969429 -0.010065387448799085 0 0.026009177103208009 -0.010687274897797366 0 0.025796578781886008 -0.0107839329453174 0 0.025580854442666411 -0.010764115949961833 0 0.025580854442666411 -0.010764115949961833 0 0.025002588045969429 -0.010065387448799085 0 0.025460294602563303 -0.011678605083773439 0 0.025002588045969429 -0.010065387448799085 0 0.024848070943421636 -0.010625981022998913 0 0.025460294602563303 -0.011678605083773439 0 0.024154102404237727 -0.0094887706995525276 0 0.025002588045969429 -0.010065387448799085 0 0.024676108034761109 -0.0096857897671409534 0 0.025002588045969429 -0.010065387448799085 0 0.024676108034761109 -0.0096857897671409534 0 0.024848070943421636 -0.010625981022998913 0 0.024676108034761109 -0.0096857897671409534 0 0.024691196758324711 -0.0097459845242701369 0 0.024848070943421636 -0.010625981022998913 0 0.024848070943421636 -0.010625981022998913 0 0.025460294602563303 -0.011678605083773439 0 0.024881471993677615 -0.012612429201765713 0 0.025580854442666411 -0.010764115949961833 0 0.025460294602563303 -0.011678605083773439 0 0.025572739085643958 -0.01127477752618785 0 0.025460294602563303 -0.011678605083773439 0 0.025572739085643958 -0.01127477752618785 0 0.025571335431067561 -0.011350822554421323 0 0.025527880592781611 -0.011702785714681604 0 0.026185879926051345 -0.012179923289137836 0 0.025460294602563303 -0.011678605083773439 0 0.027021524789729499 -0.013053785184268488 0 0.02549248566270992 -0.013825216402840878 0 0.025460294602563303 -0.011678605083773439 0 0.024881471993677615 -0.012612429201765713 0 0.02549248566270992 -0.013825216402840878 0 0.024881471993677615 -0.012612429201765713 0 0.02549248566270992 -0.013825216402840878 0 0.024719657043924724 -0.014580212043800198 0 0.025796578781886008 -0.0107839329453174 0 0.025683740102609015 -0.010554212598671227 0 0.025850614200360538 -0.011011734155324943 0 0.025796578781886008 -0.0107839329453174 0 0.025850614200360538 -0.011011734155324943 0 0.0256974295043765 -0.011132507270657278 0 0.025850614200360538 -0.011011734155324943 0 0.0256974295043765 -0.011132507270657278 0 0.025796938575034501 -0.011276903944356662 0 0.025796578781886008 -0.0107839329453174 0 0.025580854442666411 -0.010764115949961833 0 0.0256974295043765 -0.011132507270657278 0 0.025580854442666411 -0.010764115949961833 0 0.0256974295043765 -0.011132507270657278 0 0.025572739085643958 -0.01127477752618785 0 0.0256974295043765 -0.011132507270657278 0 0.025572739085643958 -0.01127477752618785 0 0.025571335431067561 -0.011350822554421323 0 0.0256974295043765 -0.011132507270657278 0 0.025571335431067561 -0.011350822554421323 0 0.025796938575034501 -0.011276903944356662 0 0.026185879926051345 -0.012179923289137836 0 0.027644349960041836 -0.012770852426348648 0 0.025983009303527749 -0.011409204967428671 0 0.025796938575034501 -0.011276903944356662 0 0.025756751776884773 -0.011539839192313089 0 0.025571335431067561 -0.011350822554421323 0 0.025796938575034501 -0.011276903944356662 0 0.025756751776884773 -0.011539839192313089 0 0.029974427460425893 -0.015382695027786757 0 0.028498114932480681 -0.014257085824966115 0 0.028547399199666715 -0.015200402786272714 0 0.028498114932480681 -0.014257085824966115 0 0.028547399199666715 -0.015200402786272714 0 0.027631146480934444 -0.014996007943656261 0 0.027021524789729499 -0.013053785184268488 0 0.027631146480934444 -0.014996007943656261 0 0.02634180236932776 -0.015069900638235562 0 0.027021524789729499 -0.013053785184268488 0 0.028498114932480681 -0.014257085824966115 0 0.027631146480934444 -0.014996007943656261 0 0.024706298197749204 -0.018641340131222466 0 0.025317167417723406 -0.017416646252019673 0 0.027631146480934444 -0.014996007943656261 0 0.028046832544201466 -0.016165229649767528 0 0.02634180236932776 -0.015069900638235562 0 0.028046832544201466 -0.016165229649767528 0 0.02634180236932776 -0.015069900638235562 0 0.025371464086928565 -0.017165138023719956 0 0.01634630897361404 -0.023242280474241823 0 0.021745511351607114 -0.020884100933263001 0 0.019716719055165977 -0.020609085537715569 0 0.023108906420753868 -0.017533659511014644 0 0.024706298197749204 -0.018641340131222466 0 0.029974427460425893 -0.015382695027786757 0 0.028547399199666715 -0.015200402786272714 0 0.028046832544201466 -0.016165229649767528 0 0.028547399199666715 -0.015200402786272714 0 0.027631146480934444 -0.014996007943656261 0 0.028046832544201466 -0.016165229649767528 0 0.021745511351607114 -0.020884100933263001 0 0.019716719055165977 -0.020609085537715569 0 0.023149837870653684 -0.018106231743324222 0 0.02549248566270992 -0.013825216402840878 0 0.025026507227376833 -0.015759371352421697 0 0.024719657043924724 -0.014580212043800198 0 0.02549248566270992 -0.013825216402840878 0 0.02634180236932776 -0.015069900638235562 0 0.025026507227376833 -0.015759371352421697 0 0.027021524789729499 -0.013053785184268488 0 0.02549248566270992 -0.013825216402840878 0 0.02634180236932776 -0.015069900638235562 0 0.02634180236932776 -0.015069900638235562 0 0.025026507227376833 -0.015759371352421697 0 0.025371464086928565 -0.017165138023719956 0 0.025026507227376833 -0.015759371352421697 0 0.024599796948559082 -0.016084069016249838 0 0.024719657043924724 -0.014580212043800198 0 0.025026507227376833 -0.015759371352421697 0 0.02481484672661026 -0.01682403560571678 0 0.024599796948559082 -0.016084069016249838 0 0.025026507227376833 -0.015759371352421697 0 0.02481484672661026 -0.01682403560571678 0 0.025371464086928565 -0.017165138023719956 0 0.02481484672661026 -0.01682403560571678 0 0.025371464086928565 -0.017165138023719956 0 0.024242350679461747 -0.016742460642155572 0 0.02481484672661026 -0.01682403560571678 0 0.02429908511090249 -0.016671882016633308 0 0.024242350679461747 -0.016742460642155572 0 0.02481484672661026 -0.01682403560571678 0 0.024413706950676434 -0.016855158682909325 0 0.02429908511090249 -0.016671882016633308 0 0.02481484672661026 -0.01682403560571678 0 0.024413706950676434 -0.016855158682909325 0 0.024378580529920774 -0.016613120633982913 0 0.024413706950676434 -0.016855158682909325 0 0.024159207287326932 -0.016783749109792228 0 0.02429908511090249 -0.016671882016633308 0 0.024413706950676434 -0.016855158682909325 0 0.024159207287326932 -0.016783749109792228 0 0.024171961315725545 -0.016934324855901253 0 0.02429908511090249 -0.016671882016633308 0 0.024058817637298863 -0.016629421037641496 0 0.023810332959390772 -0.016333339218283109 0 0.024159207287326932 -0.016783749109792228 0 0.02429908511090249 -0.016671882016633308 0 0.024058817637298863 -0.016629421037641496 0 0.0239376972004718 -0.016806538830980561 0 0.023956247720590573 -0.016814453298512295 0 0.023488628893372145 -0.016792065289942575 0 0.024159207287326932 -0.016783749109792228 0 0.024058817637298863 -0.016629421037641496 0 0.0239376972004718 -0.016806538830980561 0 0.024058817637298863 -0.016629421037641496 0 0.0239376972004718 -0.016806538830980561 0 0.023961591360964055 -0.016651227193183928 0 0.026540244909373352 -0.019138797430541109 0 0.0062185599811769342 -0.026942962293142286 0 0.0239376972004718 -0.016806538830980561 0 0.023961591360964055 -0.016651227193183928 0 0.023969632815106851 -0.016786438323289909 0 0.0239376972004718 -0.016806538830980561 0 0.024070547755492434 -0.016875834974853458 0 0.023956247720590573 -0.016814453298512295 0 0.024070547755492434 -0.016875834974853458 0 0.024171961315725545 -0.016934324855901253 0 0.024059623488866314 -0.017016489032998464 0 0.024159207287326932 -0.016783749109792228 0 0.024070547755492434 -0.016875834974853458 0 0.024171961315725545 -0.016934324855901253 0 0.024159207287326932 -0.016783749109792228 0 0.0239376972004718 -0.016806538830980561 0 0.024070547755492434 -0.016875834974853458 0 0.011718331278761263 -0.018418397163755804 0 0.0062185599811769342 -0.026942962293142286 0 0.017536816702304062 -0.010035368698077919 0 0.020853112248457449 -0.013148688749291065 0 0.021781140262626796 -0.0095218820929839926 0 0.023961591360964055 -0.016651227193183928 0 0.023810332959390772 -0.016333339218283109 0 0.023969632815106851 -0.016786438323289909 0 0.024489788660634289 -0.011387620732715655 0 0.0062185599811769342 -0.026942962293142286 0 0.024058817637298863 -0.016629421037641496 0 0.023961591360964055 -0.016651227193183928 0 0.023810332959390772 -0.016333339218283109 0 0.017536816702304062 -0.010035368698077919 0 0.020853112248457449 -0.013148688749291065 0 0.017356423822073603 -0.013045055822058553 0 0.020853112248457449 -0.013148688749291065 0 0.017882597140002475 -0.015725305870266632 0 0.017356423822073603 -0.013045055822058553 0 0.017882597140002475 -0.015725305870266632 0 0.019940727364555186 -0.017077490214304644 0 0.017983179036725978 -0.018633283443759082 0 0.020853112248457449 -0.013148688749291065 0 0.017882597140002475 -0.015725305870266632 0 0.019940727364555186 -0.017077490214304644 0 0.02429908511090249 -0.016671882016633308 0 0.023810332959390772 -0.016333339218283109 0 0.024242350679461747 -0.016742460642155572 0 0.024489788660634289 -0.011387620732715655 0 0.020840733898882913 -0.017852700492263913 0 0.023810332959390772 -0.016333339218283109 0 0.022553931043398742 -0.016631437432434139 0 0.024242350679461747 -0.016742460642155572 0 0.021745511351607114 -0.020884100933263001 0 0.025371464086928565 -0.017165138023719956 0 0.023149837870653684 -0.018106231743324222 0 0.022553931043398742 -0.016631437432434139 0 0.024242350679461747 -0.016742460642155572 0 0.023149837870653684 -0.018106231743324222 0 0.025371464086928565 -0.017165138023719956 0 0.024242350679461747 -0.016742460642155572 0 0.023149837870653684 -0.018106231743324222 0 0.019957783709915081 -0.020142012633047688 0 0.020840733898882913 -0.017852700492263913 0 0.019716719055165977 -0.020609085537715569 0 0.019940727364555186 -0.017077490214304644 0 0.017983179036725978 -0.018633283443759082 0 0.019716719055165977 -0.020609085537715569 0 0.022553931043398742 -0.016631437432434139 0 0.023149837870653684 -0.018106231743324222 0 0.017253648259505091 -0.020977307249858645 0 0.019716719055165977 -0.020609085537715569 0 0.017983179036725978 -0.018633283443759082 0 0.017253648259505091 -0.020977307249858645 0 0.017983179036725978 -0.018633283443759082 0 0.016326474171759451 -0.020026432768405659 0 0.014713957577930514 -0.022764790616944652 0 0.016326474171759451 -0.020026432768405659 0 0.013584436962658571 -0.018123453914478348 0 0.017983179036725978 -0.018633283443759082 0 0.016326474171759451 -0.020026432768405659 0 0.016243593264793667 -0.017486196681357674 0 0.016326474171759451 -0.020026432768405659 0 0.013584436962658571 -0.018123453914478348 0 0.016243593264793667 -0.017486196681357674 0 0.014713957577930514 -0.022764790616944652 0 0.013584436962658571 -0.018123453914478348 0 0.010444162543122902 -0.020435190311860505 0 0.013584436962658571 -0.018123453914478348 0 0.0096914530761842872 -0.01702527405465723 0 0.012065779043595596 -0.01421426893765074 0 0.013584436962658571 -0.018123453914478348 0 0.015226967034172079 -0.015031858214724523 0 0.012065779043595596 -0.01421426893765074 0 0.017882597140002475 -0.015725305870266632 0 0.017983179036725978 -0.018633283443759082 0 0.016243593264793667 -0.017486196681357674 0 0.017882597140002475 -0.015725305870266632 0 0.015226967034172079 -0.015031858214724523 0 0.016243593264793667 -0.017486196681357674 0 0.013584436962658571 -0.018123453914478348 0 0.015226967034172079 -0.015031858214724523 0 0.016243593264793667 -0.017486196681357674 0 0.0033558180205636788 -0.021941958024235521 0 0.0066920649019326893 -0.02398223763269507 0 0.00527841128858787 -0.018294457453886658 0 0.0033558180205636788 -0.021941958024235521 0 0.00527841128858787 -0.018294457453886658 0 0.0007695281051077218 -0.01886115352837657 0 0.0036654407761711363 -0.025205934748815197 0 0.0033558180205636788 -0.021941958024235521 0 0.0066920649019326893 -0.02398223763269507 0 0.010444162543122902 -0.020435190311860505 0 0.0096914530761842872 -0.01702527405465723 0 0.00527841128858787 -0.018294457453886658 0 0.0066920649019326893 -0.02398223763269507 0 0.011021437762609044 -0.022636984805342146 0 0.00527841128858787 -0.018294457453886658 0 0.010479770264618483 -0.021658687396505324 0 0.0056494743934609468 -0.0183729799894412 0 0.013584436962658571 -0.018123453914478348 0 0.010444162543122902 -0.020435190311860505 0 0.0096914530761842872 -0.01702527405465723 0 0.0096914530761842872 -0.01702527405465723 0 0.0075943123351635807 -0.013697916356382654 0 0.012065779043595596 -0.01421426893765074 0 0.0096914530761842872 -0.01702527405465723 0 0.00527841128858787 -0.018294457453886658 0 0.0075943123351635807 -0.013697916356382654 0 0.00527841128858787 -0.018294457453886658 0 0.0075943123351635807 -0.013697916356382654 0 0.0007695281051077218 -0.01886115352837657 0 -0.0057693640490388423 -0.025623558919047391 0 -0.0063027317332100862 -0.025910889314204467 0 -0.0062325542307478752 -0.025639845056373414 0 0.0023354510483053928 -0.01794204467417022 0 -0.0031080469387940132 -0.022895550387938834 0 -0.0057693640490388423 -0.025623558919047391 0 -0.0059057009240718345 -0.025287560003550154 0 -0.0062325542307478752 -0.025639845056373414 0 -0.0057693640490388423 -0.025623558919047391 0 -0.0059057009240718345 -0.025287560003550154 0 -0.0050960745478983464 -0.025172643087095006 0 0.0075943123351635807 -0.013697916356382654 0 0.012065779043595596 -0.01421426893765074 0 0.012516160945729837 -0.010368862100623865 0 0.0023354510483053928 -0.01794204467417022 0 -0.0019808181382301717 -0.026192600841967516 0 -0.013977214954573203 -0.042457825898387737 0 -0.015880716758732646 -0.041541090307287774 0 -0.015101039969207346 -0.043449404994834503 0 -0.011570124615873305 -0.03432841403268546 0 -0.0019808181382301717 -0.026192600841967516 0 -0.013977214954573203 -0.042457825898387737 0 -0.013221547615581185 -0.041360675677044351 0 -0.015880716758732646 -0.041541090307287774 0 -0.013977214954573203 -0.042457825898387737 0 -0.013221547615581185 -0.041360675677044351 0 -0.012625846816540186 -0.042164494249954949 0 0.017882597140002475 -0.015725305870266632 0 0.015226967034172079 -0.015031858214724523 0 0.017356423822073603 -0.013045055822058553 0 0.015226967034172079 -0.015031858214724523 0 0.014995336507297754 -0.012452477333346184 0 0.017356423822073603 -0.013045055822058553 0 0.015226967034172079 -0.015031858214724523 0 0.014995336507297754 -0.012452477333346184 0 0.012065779043595596 -0.01421426893765074 0 0.014995336507297754 -0.012452477333346184 0 0.012065779043595596 -0.01421426893765074 0 0.012516160945729837 -0.010368862100623865 0 -0.015880716758732646 -0.041541090307287774 0 -0.017706050923085571 -0.042963428184542095 0 -0.015101039969207346 -0.043449404994834503 0 -0.0019808181382301717 -0.026192600841967516 0 -0.0098804144129141444 -0.037043451156134714 0 0.017536816702304062 -0.010035368698077919 0 0.014995336507297754 -0.012452477333346184 0 0.012516160945729837 -0.010368862100623865 0 0.00015206417655038045 -0.030391684130802454 0 -0.0015250110077464191 -0.03057843199924077 0 -0.00071461682695935099 -0.029960703112473178 0 0.017536816702304062 -0.010035368698077919 0 0.014995336507297754 -0.012452477333346184 0 0.017356423822073603 -0.013045055822058553 0 0.011718331278761263 -0.018418397163755804 0 -0.0019808181382301717 -0.026192600841967516 0 -0.0098804144129141444 -0.037043451156134714 0 -0.012647821238614283 -0.043043073414216169 0 -0.017706050923085571 -0.042963428184542095 0 -0.017663906131832278 -0.045638091620860417 0 -0.019559910138926318 -0.044568915517782332 0 0.00015206417655038045 -0.030391684130802454 0 -0.00071461682695935099 -0.029960703112473178 0 8.5863556791206932e-05 -0.029280330901348225 0 -0.017706050923085571 -0.042963428184542095 0 -0.016011561761616108 -0.0450058649371394 0 -0.015101039969207346 -0.043449404994834503 0 -0.017706050923085571 -0.042963428184542095 0 -0.016011561761616108 -0.0450058649371394 0 -0.017663906131832278 -0.045638091620860417 0 -0.016011561761616108 -0.0450058649371394 0 -0.015440515037828381 -0.047237224016055304 0 -0.017663906131832278 -0.045638091620860417 0 -0.01539470218171924 -0.047442698789739925 0 -0.017189152622255097 -0.046648646332745229 0 -0.015440515037828381 -0.047237224016055304 0 -0.016150795288541495 -0.048411283988180072 0 -0.01608122380009681 -0.048869061429757207 0 -0.016679627928433371 -0.048895973264255904 0 -0.016150795288541495 -0.048411283988180072 0 -0.01608122380009681 -0.048869061429757207 0 -0.016679627928433371 -0.048895973264255904 0 -0.01682177821693338 -0.049786723357636113 0 -0.01608122380009681 -0.048869061429757207 0 -0.017189152622255097 -0.046648646332745229 0 -0.012647821238614283 -0.043043073414216169 0 -0.016679627928433371 -0.048895973264255904 0 -0.016150795288541495 -0.048411283988180072 0 -0.016826308293072856 -0.048512588526299569 0 -0.013977214954573203 -0.042457825898387737 0 -0.012625846816540186 -0.042164494249954949 0 -0.01327392452027717 -0.043563669417139676 0 -0.01327392452027717 -0.043563669417139676 0 -0.012736839851807636 -0.04431065066282619 0 -0.012236538378477844 -0.043026165491787519 0 -0.012625846816540186 -0.042164494249954949 0 -0.01327392452027717 -0.043563669417139676 0 -0.012236538378477844 -0.043026165491787519 0 -0.01327392452027717 -0.043563669417139676 0 -0.015101039969207346 -0.043449404994834503 0 -0.014033900092394656 -0.045320930194932982 0 -0.013977214954573203 -0.042457825898387737 0 -0.01327392452027717 -0.043563669417139676 0 -0.015101039969207346 -0.043449404994834503 0 -0.016011561761616108 -0.0450058649371394 0 -0.015101039969207346 -0.043449404994834503 0 -0.014033900092394656 -0.045320930194932982 0 -0.014213762122176253 -0.046801438747525882 0 -0.014033900092394656 -0.045320930194932982 0 -0.012774447804091472 -0.046091746297465382 0 -0.016011561761616108 -0.0450058649371394 0 -0.015440515037828381 -0.047237224016055304 0 -0.014033900092394656 -0.045320930194932982 0 -0.015440515037828381 -0.047237224016055304 0 -0.014213762122176253 -0.046801438747525882 0 -0.014033900092394656 -0.045320930194932982 0 -0.014033900092394656 -0.045320930194932982 0 -0.012736839851807636 -0.04431065066282619 0 -0.012774447804091472 -0.046091746297465382 0 -0.01327392452027717 -0.043563669417139676 0 -0.014033900092394656 -0.045320930194932982 0 -0.012736839851807636 -0.04431065066282619 0 -0.015025434120113807 -0.052626090901777341 0 -0.015288598983159089 -0.053452510637522217 0 -0.014826630923013151 -0.053202485603565185 0 -0.015025434120113807 -0.052626090901777341 0 -0.015608659397409177 -0.052522479218622534 0 -0.015288598983159089 -0.053452510637522217 0 -0.014213762122176253 -0.046801438747525882 0 -0.012774447804091472 -0.046091746297465382 0 -0.014746953465639895 -0.048496605317919571 0 -0.014103873437098083 -0.049758982296172719 0 -0.015294297241503638 -0.050490209336224348 0 -0.015440515037828381 -0.047237224016055304 0 -0.014213762122176253 -0.046801438747525882 0 -0.014746953465639895 -0.048496605317919571 0 -0.015608659397409177 -0.052522479218622534 0 -0.015288598983159089 -0.053452510637522217 0 -0.015739733824154858 -0.053134749166526218 0 -0.015288598983159089 -0.053452510637522217 0 -0.014826630923013151 -0.053202485603565185 0 -0.014669846397404328 -0.053829880800714526 0 -0.015288598983159089 -0.053452510637522217 0 -0.014669846397404328 -0.053829880800714526 0 -0.014982947920192684 -0.054421484896347065 0 -0.01682177821693338 -0.049786723357636113 0 -0.016316598255180378 -0.051347012607667414 0 -0.01706388202528946 -0.051364722427844914 0 -0.01682177821693338 -0.049786723357636113 0 -0.01608122380009681 -0.048869061429757207 0 -0.016316598255180378 -0.051347012607667414 0 -0.015294297241503638 -0.050490209336224348 0 -0.016476356648916758 -0.051298947141972119 0 -0.014746953465639895 -0.048496605317919571 0 -0.01608122380009681 -0.048869061429757207 0 -0.016316598255180378 -0.051347012607667414 0 -0.015440515037828381 -0.047237224016055304 0 -0.014746953465639895 -0.048496605317919571 0 -0.01608122380009681 -0.048869061429757207 0 -0.015608659397409177 -0.052522479218622534 0 -0.015739733824154858 -0.053134749166526218 0 -0.016316598255180378 -0.051347012607667414 0 -0.015739733824154858 -0.053134749166526218 0 -0.016316598255180378 -0.051347012607667414 0 -0.016627452775493851 -0.052818216988967513 0 -0.016316598255180378 -0.051347012607667414 0 -0.01706388202528946 -0.051364722427844914 0 -0.016627452775493851 -0.052818216988967513 0 -0.017519226072066713 -0.052569782959259757 0 -0.01706388202528946 -0.051364722427844914 0 -0.016627452775493851 -0.052818216988967513 0 -0.017519226072066713 -0.052569782959259757 0 -0.017604024612693895 -0.051376961689026529 0 -0.01706388202528946 -0.051364722427844914 0 -0.01682177821693338 -0.049786723357636113 0 -0.01706388202528946 -0.051364722427844914 0 -0.017302789519882587 -0.050086826287753489 0 -0.017604024612693895 -0.051376961689026529 0 -0.01706388202528946 -0.051364722427844914 0 -0.017302789519882587 -0.050086826287753489 0 -0.01682177821693338 -0.049786723357636113 0 -0.017302789519882587 -0.050086826287753489 0 -0.017076298291800688 -0.049231343524491551 0 -0.017867817708803368 -0.050366374922837159 0 -0.018308862652359204 -0.051785480253173359 0 -0.018764908824648211 -0.049830117223621594 0 -0.018067131422731 -0.04948555038646265 0 -0.01506968344054958 -0.049113054154469787 0 -0.017867817708803368 -0.050366374922837159 0 -0.018348858013722782 -0.049494647796239029 0 -0.017588754392397703 -0.049238969616467287 0 -0.017302789519882587 -0.050086826287753489 0 -0.017867817708803368 -0.050366374922837159 0 -0.017345687724227551 -0.049290401430631924 0 -0.017604024612693895 -0.051376961689026529 0 -0.017867817708803368 -0.050366374922837159 0 -0.018308862652359204 -0.051785480253173359 0 -0.017604024612693895 -0.051376961689026529 0 -0.017302789519882587 -0.050086826287753489 0 -0.017867817708803368 -0.050366374922837159 0 -0.017519226072066713 -0.052569782959259757 0 -0.018308862652359204 -0.051785480253173359 0 -0.018577599070465647 -0.053732026076561995 0 -0.017519226072066713 -0.052569782959259757 0 -0.017604024612693895 -0.051376961689026529 0 -0.018308862652359204 -0.051785480253173359 0 -0.018308862652359204 -0.051785480253173359 0 -0.019543133494064641 -0.052431015937814025 0 -0.018577599070465647 -0.053732026076561995 0 0.00010482212731734398 -0.054602805945503333 0 0.0010310724542635758 -0.052755973763194096 0 0.0022438510293671587 -0.054540114344618133 0 0.00010482212731734398 -0.054602805945503333 0 0.0017239400228559552 -0.056426277339573942 0 0.0022438510293671587 -0.054540114344618133 0 -0.0047683981580876507 -0.050844247235692502 0 0.00062244397971144964 -0.051713754057404228 0 -0.0030642380858002397 -0.044522786673335077 0 -0.00086233567429170363 -0.047173545557875361 0 -0.0028182178943561616 -0.048468974030611456 0 -0.00086233567429170363 -0.047173545557875361 0 -0.0028182178943561616 -0.048468974030611456 0 0.0014164958226837287 -0.049827964263483765 0 -0.0030642380858002397 -0.044522786673335077 0 -0.0028182178943561616 -0.048468974030611456 0 -0.005605464089109777 -0.048983397296819074 0 -0.018308862652359204 -0.051785480253173359 0 -0.019543133494064641 -0.052431015937814025 0 -0.018764908824648211 -0.049830117223621594 0 -0.0047683981580876507 -0.050844247235692502 0 -0.01506968344054958 -0.049113054154469787 0 -0.01506968344054958 -0.049113054154469787 0 -0.0081369210297100644 -0.050252496263084284 0 -0.0028182178943561616 -0.048468974030611456 0 -0.005605464089109777 -0.048983397296819074 0 -0.002699174027565148 -0.051036451017324486 0 -0.01630783263466154 -0.046274853494469109 0 -0.01564893858438153 -0.04841424822947521 0 -0.012776131863361939 -0.04827924797186918 0 -0.01564893858438153 -0.04841424822947521 0 -0.012776131863361939 -0.04827924797186918 0 -0.014779802224792775 -0.049383826158408188 0 -0.01564893858438153 -0.04841424822947521 0 -0.016763964946043184 -0.049234233112272173 0 -0.017385262951828965 -0.048535602862697182 0 -0.01630783263466154 -0.046274853494469109 0 -0.01564893858438153 -0.04841424822947521 0 -0.017385262951828965 -0.048535602862697182 0 -0.002699174027565148 -0.051036451017324486 0 0.00027330347668044742 -0.05308511091268419 0 0.0014164958226837287 -0.049827964263483765 0 -0.0028182178943561616 -0.048468974030611456 0 -0.002699174027565148 -0.051036451017324486 0 0.0014164958226837287 -0.049827964263483765 0 0.024070547755492434 -0.016875834974853458 0 0.023956247720590573 -0.016814453298512295 0 0.024059623488866314 -0.017016489032998464 0 0.0045524270851687717 -0.034198323931494426 0 0.0079662960614681078 -0.039279315725588355 0 -0.0081369210297100644 -0.050252496263084284 0 0.0079662960614681078 -0.039279315725588355 0 -0.012776131863361939 -0.04827924797186918 0 -0.013267379611682553 -0.051356075560794759 0 -0.0089411869276856768 -0.050672380645442591 0 0.0045524270851687717 -0.034198323931494426 0 0.0062185599811769342 -0.026942962293142286 0 -0.013267379611682553 -0.051356075560794759 0 -0.015462319251650878 -0.050393712054881939 0 -0.017344783182699879 -0.051657186569351407 0 -0.01564893858438153 -0.04841424822947521 0 -0.014779802224792775 -0.049383826158408188 0 -0.016763964946043184 -0.049234233112272173 0 -0.014779802224792775 -0.049383826158408188 0 -0.015462319251650878 -0.050393712054881939 0 -0.016763964946043184 -0.049234233112272173 0 -0.012776131863361939 -0.04827924797186918 0 -0.014779802224792775 -0.049383826158408188 0 -0.013267379611682553 -0.051356075560794759 0 -0.014779802224792775 -0.049383826158408188 0 -0.013267379611682553 -0.051356075560794759 0 -0.015462319251650878 -0.050393712054881939 0 0.0062185599811769342 -0.026942962293142286 0 -0.015631107545766864 -0.056584986117306044 0 -0.015462319251650878 -0.050393712054881939 0 -0.017344783182699879 -0.051657186569351407 0 -0.016763964946043184 -0.049234233112272173 0 -0.017166306123628218 -0.04900866146427061 0 -0.016763964946043184 -0.049234233112272173 0 -0.017385262951828965 -0.048535602862697182 0 -0.017023318637207508 -0.049082534049987206 0 -0.017166306123628218 -0.04900866146427061 0 -0.016763964946043184 -0.049234233112272173 0 -0.017023318637207508 -0.049082534049987206 0 -0.017166306123628218 -0.04900866146427061 0 -0.017130847930652351 -0.048896181933717989 0 -0.017023318637207508 -0.049082534049987206 0 -0.017066160103961475 -0.048743323768972883 0 -0.017130847930652351 -0.048896181933717989 0 0.00015206417655038045 -0.030391684130802454 0 0.0019286977437356714 -0.030078274834205412 0 8.5863556791206932e-05 -0.029280330901348225 0 0.0062185599811769342 -0.026942962293142286 0 -0.012647821238614283 -0.043043073414216169 0 -0.017066160103961475 -0.048743323768972883 0 -0.017130847930652351 -0.048896181933717989 0 -0.017041409420069011 -0.048764854048854514 0 -0.012647821238614283 -0.043043073414216169 0 -0.016000252851397709 -0.046419882643482693 0 -0.017186943740665702 -0.048947822930051302 0 -0.017041409420069011 -0.048764854048854514 0 -0.017076298291800688 -0.049231343524491551 0 -0.017130847930652351 -0.048896181933717989 0 -0.017186943740665702 -0.048947822930051302 0 -0.017041409420069011 -0.048764854048854514 0 -0.017130847930652351 -0.048896181933717989 0 -0.017186943740665702 -0.048947822930051302 0 -0.017319186240583047 -0.048883718562832294 0 -0.016679627928433371 -0.048895973264255904 0 -0.017041409420069011 -0.048764854048854514 0 -0.017076298291800688 -0.049231343524491551 0 -0.016679627928433371 -0.048895973264255904 0 -0.016826308293072856 -0.048512588526299569 0 -0.017041409420069011 -0.048764854048854514 0 -0.016679627928433371 -0.048895973264255904 0 -0.01682177821693338 -0.049786723357636113 0 -0.017076298291800688 -0.049231343524491551 0 -0.017302789519882587 -0.050086826287753489 0 -0.017076298291800688 -0.049231343524491551 0 -0.017345687724227551 -0.049290401430631924 0 -0.017186943740665702 -0.048947822930051302 0 -0.017076298291800688 -0.049231343524491551 0 -0.017345687724227551 -0.049290401430631924 0 -0.017867817708803368 -0.050366374922837159 0 -0.017345687724227551 -0.049290401430631924 0 -0.017588754392397703 -0.049238969616467287 0 -0.017345687724227551 -0.049290401430631924 0 -0.017588754392397703 -0.049238969616467287 0 -0.017319186240583047 -0.048883718562832294 0 -0.01506968344054958 -0.049113054154469787 0 -0.01671577522474765 -0.048778746960123298 0 -0.018348858013722782 -0.049494647796239029 0 -0.017588754392397703 -0.049238969616467287 0 -0.017385262951828965 -0.048535602862697182 0 -0.017166306123628218 -0.04900866146427061 0 -0.017385262951828965 -0.048535602862697182 0 -0.017319186240583047 -0.048883718562832294 0 -0.017588754392397703 -0.049238969616467287 0 -0.017385262951828965 -0.048535602862697182 0 -0.017319186240583047 -0.048883718562832294 0 -0.017166306123628218 -0.04900866146427061 0 -0.017130847930652351 -0.048896181933717989 0 -0.017319186240583047 -0.048883718562832294 0 -0.017186943740665702 -0.048947822930051302 0 -0.017345687724227551 -0.049290401430631924 0 -0.017319186240583047 -0.048883718562832294 0 -0.0075588996969774497 -0.034187509124101512 0 -0.0083793655004704235 -0.030984563092083011 0 -0.0097296069548899519 -0.036371701825883222 0 -0.0059382238028383213 -0.03310370864915356 0 -0.0089630848108834572 -0.038340561976153174 0 -0.00582440849299276 -0.035523492674095394 0 -0.0075588996969774497 -0.034187509124101512 0 -0.0097296069548899519 -0.036371701825883222 0 -0.0063845348395084166 -0.032176650473992707 0 -0.0075588996969774497 -0.034187509124101512 0 -0.0083793655004704235 -0.030984563092083011 0 -0.0063845348395084166 -0.032176650473992707 0 -0.0075588996969774497 -0.034187509124101512 0 -0.0060978294447217056 -0.033867001038815195 0 -0.00582440849299276 -0.035523492674095394 0 -0.0075588996969774497 -0.034187509124101512 0 -0.0060978294447217056 -0.033867001038815195 0 -0.0094797457690212004 -0.038663127494007875 0 -0.0057019642952431037 -0.036589036316214303 0 -0.0080188884914910701 -0.04022448738971824 0 -0.0094797457690212004 -0.038663127494007875 0 -0.010426333241694874 -0.040383759431806963 0 -0.0080188884914910701 -0.04022448738971824 0 -0.0094797457690212004 -0.038663127494007875 0 -0.0057019642952431037 -0.036589036316214303 0 -0.010010386364195833 -0.035538030461369864 0 -0.0057019642952431037 -0.036589036316214303 0 -0.0044714982167544919 -0.030742320396198029 0 -0.010010386364195833 -0.035538030461369864 0 -0.0059382238028383213 -0.03310370864915356 0 -0.017835306715394229 -0.027923620387692149 0 -0.0052414251025415179 -0.02964569222247353 0 -0.0083793655004704235 -0.030984563092083011 0 -0.0067982392339650637 -0.025945403406423571 0 -0.0057019642952431037 -0.036589036316214303 0 -0.0044714982167544919 -0.030742320396198029 0 -0.0034206730100866537 -0.029213827663962053 0 -0.0052414251025415179 -0.02964569222247353 0 -0.0063845348395084166 -0.032176650473992707 0 -0.0083793655004704235 -0.030984563092083011 0 -0.0044714982167544919 -0.030742320396198029 0 -0.0034206730100866537 -0.029213827663962053 0 -0.0054756584175894712 -0.028198187920652106 0 -0.0034206730100866537 -0.029213827663962053 0 -0.0054756584175894712 -0.028198187920652106 0 -0.0048475103373949212 -0.02658770088402555 0 -0.017835306715394229 -0.027923620387692149 0 -0.017934009326465477 -0.026888211672831629 0 -0.030234140951267915 -0.025957048985607668 0 -0.030433949771545708 -0.028916914929180505 0 -0.031413057882130085 -0.026474096068001697 0 -0.0054756584175894712 -0.028198187920652106 0 -0.0048475103373949212 -0.02658770088402555 0 -0.0062827928481328163 -0.026448682505337964 0 -0.017227718738622607 -0.024216087049179019 0 -0.017934009326465477 -0.026888211672831629 0 -0.031796027320874304 -0.024878049283296663 0 -0.031413057882130085 -0.026474096068001697 0 -0.03074593285958125 -0.025492884153325141 0 -0.030234140951267915 -0.025957048985607668 0 -0.031413057882130085 -0.026474096068001697 0 -0.03074593285958125 -0.025492884153325141 0 -0.0055928032566636681 -0.025493702603473938 0 -0.0048475103373949212 -0.02658770088402555 0 -0.0062827928481328163 -0.026448682505337964 0 -0.0054756584175894712 -0.028198187920652106 0 -0.0062827928481328163 -0.026448682505337964 0 -0.0065175463844529147 -0.027333167847877371 0 -0.0044714982167544919 -0.030742320396198029 0 -0.0054756584175894712 -0.028198187920652106 0 -0.0069059794045132836 -0.027869410089334183 0 -0.0054756584175894712 -0.028198187920652106 0 -0.0065175463844529147 -0.027333167847877371 0 -0.0069059794045132836 -0.027869410089334183 0 -0.0043640420574814192 -0.030773007258959272 0 -0.0080650541030273144 -0.031669554686388698 0 -0.0070752767014263199 -0.026688352501247174 0 -0.0073163191724896328 -0.026646295250540405 0 -0.0069059794045132836 -0.027869410089334183 0 -0.0065175463844529147 -0.027333167847877371 0 -0.0070752767014263199 -0.026688352501247174 0 -0.0069059794045132836 -0.027869410089334183 0 -0.0062827928481328163 -0.026448682505337964 0 -0.0065175463844529147 -0.027333167847877371 0 -0.0070752767014263199 -0.026688352501247174 0 -0.0072168552880015994 -0.025792169656195192 0 -0.0067735894366913159 -0.025825162048340098 0 -0.0070752767014263199 -0.026688352501247174 0 -0.0067735894366913159 -0.025825162048340098 0 -0.0062827928481328163 -0.026448682505337964 0 -0.0070752767014263199 -0.026688352501247174 0 -0.0072168552880015994 -0.025792169656195192 0 -0.0070752767014263199 -0.026688352501247174 0 -0.007264980298526783 -0.026116002634679513 0 -0.0070752767014263199 -0.026688352501247174 0 -0.0073163191724896328 -0.026646295250540405 0 -0.007264980298526783 -0.026116002634679513 0 -0.011407229764604286 -0.038410297526299382 0 -0.010010386364195833 -0.035538030461369864 0 -0.011112464038468335 -0.039663867205926795 0 -0.0092120105397819254 -0.032477258403654105 0 -0.0080650541030273144 -0.031669554686388698 0 -0.0094797457690212004 -0.038663127494007875 0 -0.010010386364195833 -0.035538030461369864 0 -0.011112464038468335 -0.039663867205926795 0 -0.0094797457690212004 -0.038663127494007875 0 -0.011112464038468335 -0.039663867205926795 0 -0.010426333241694874 -0.040383759431806963 0 -0.011407229764604286 -0.038410297526299382 0 -0.011112464038468335 -0.039663867205926795 0 -0.011565940426629241 -0.040810310258732489 0 -0.011565940426629241 -0.040810310258732489 0 -0.011701688947298191 -0.040129142213816638 0 -0.01174218720306909 -0.04135522626920593 0 -0.0092120105397819254 -0.032477258403654105 0 -0.0094132170026761958 -0.032970527761484819 0 -0.011407229764604286 -0.038410297526299382 0 -0.011565940426629241 -0.040810310258732489 0 -0.011701688947298191 -0.040129142213816638 0 -0.0073163191724896328 -0.026646295250540405 0 -0.0071076897367963084 -0.025794407189811901 0 -0.0072581489624798049 -0.02608276363763035 0 -0.0072581489624798049 -0.02608276363763035 0 -0.007264980298526783 -0.026116002634679513 0 -0.0072772666996695368 -0.025746880007507533 0 -0.0073163191724896328 -0.026646295250540405 0 -0.0072581489624798049 -0.02608276363763035 0 -0.007264980298526783 -0.026116002634679513 0 -0.0072168552880015994 -0.025792169656195192 0 -0.0074051747825788512 -0.025227511319236944 0 -0.007264980298526783 -0.026116002634679513 0 -0.0074051747825788512 -0.025227511319236944 0 -0.007264980298526783 -0.026116002634679513 0 -0.0072772666996695368 -0.025746880007507533 0 -0.0072581489624798049 -0.02608276363763035 0 -0.0072772666996695368 -0.025746880007507533 0 -0.0066909720654596879 -0.02580375870272144 0 -0.0071076897367963084 -0.025794407189811901 0 -0.0072581489624798049 -0.02608276363763035 0 -0.0066909720654596879 -0.02580375870272144 0 -0.0066909720654596879 -0.02580375870272144 0 -0.0064712145714612397 -0.025924303485298346 0 -0.0063027317332100862 -0.025910889314204467 0 -0.0072772666996695368 -0.025746880007507533 0 -0.0066909720654596879 -0.02580375870272144 0 -0.0064712145714612397 -0.025924303485298346 0 -0.0057532355352582143 -0.025825163206054005 0 -0.0031080469387940132 -0.022895550387938834 0 -0.0060371651693288224 -0.026297256660973791 0 -0.0064712145714612397 -0.025924303485298346 0 -0.0063027317332100862 -0.025910889314204467 0 -0.0060371651693288224 -0.026297256660973791 0 -0.0072772666996695368 -0.025746880007507533 0 -0.0064712145714612397 -0.025924303485298346 0 0.0033558180205636788 -0.021941958024235521 0 0.00029073188320352661 -0.024239372404650999 0 0.0007695281051077218 -0.01886115352837657 0 -0.0060371651693288224 -0.026297256660973791 0 0.00029073188320352661 -0.024239372404650999 0 0.0007695281051077218 -0.01886115352837657 0 0.0036654407761711363 -0.025205934748815197 0 0.0033558180205636788 -0.021941958024235521 0 0.00029073188320352661 -0.024239372404650999 0 -0.0066909720654596879 -0.02580375870272144 0 -0.0063027317332100862 -0.025910889314204467 0 -0.0062325542307478752 -0.025639845056373414 0 -0.0066909720654596879 -0.02580375870272144 0 -0.0065163900091272722 -0.025468282995809333 0 -0.0062325542307478752 -0.025639845056373414 0 -0.0059057009240718345 -0.025287560003550154 0 -0.0065163900091272722 -0.025468282995809333 0 -0.0062325542307478752 -0.025639845056373414 0 -0.0071076897367963084 -0.025794407189811901 0 -0.0066909720654596879 -0.02580375870272144 0 -0.0065163900091272722 -0.025468282995809333 0 -0.0094132170026761958 -0.032970527761484819 0 -0.0087687539577545499 -0.033080120710020582 0 -0.011947248323780331 -0.04106078635283196 0 -0.01174218720306909 -0.04135522626920593 0 -0.012003114237480085 -0.041988067491005102 0 -0.011701688947298191 -0.040129142213816638 0 -0.011947248323780331 -0.04106078635283196 0 -0.01174218720306909 -0.04135522626920593 0 -0.012625846816540186 -0.042164494249954949 0 -0.011947248323780331 -0.04106078635283196 0 -0.012003114237480085 -0.041988067491005102 0 -0.013221547615581185 -0.041360675677044351 0 -0.012625846816540186 -0.042164494249954949 0 -0.011947248323780331 -0.04106078635283196 0 -0.011570124615873305 -0.03432841403268546 0 -0.0087687539577545499 -0.033080120710020582 0 -0.012236538378477844 -0.043026165491787519 0 -0.011794151235289683 -0.042569727468717969 0 -0.011657638269748246 -0.043503795220234204 0 -0.012625846816540186 -0.042164494249954949 0 -0.012003114237480085 -0.041988067491005102 0 -0.012236538378477844 -0.043026165491787519 0 -0.012003114237480085 -0.041988067491005102 0 -0.012236538378477844 -0.043026165491787519 0 -0.011794151235289683 -0.042569727468717969 0 -0.01174218720306909 -0.04135522626920593 0 -0.011681100237228898 -0.04221251813636865 0 -0.011794151235289683 -0.042569727468717969 0 -0.01174218720306909 -0.04135522626920593 0 -0.012003114237480085 -0.041988067491005102 0 -0.011794151235289683 -0.042569727468717969 0 -0.011681100237228898 -0.04221251813636865 0 -0.011794151235289683 -0.042569727468717969 0 -0.011657638269748246 -0.043503795220234204 0 -0.011681100237228898 -0.04221251813636865 0 -0.011722568914959599 -0.043084093004595647 0 -0.011657638269748246 -0.043503795220234204 0 -0.012895361776063369 -0.041650724508262994 0 -0.012312386243564863 -0.042246471806613554 0 -0.011884731842924101 -0.041323560875276465 0 -0.01239043393092284 -0.04493312513063405 0 -0.011661123440049695 -0.041353959095578 0 -0.011681100237228898 -0.04221251813636865 0 -0.011722568914959599 -0.043084093004595647 0 -0.011542818585439932 -0.041952635057079343 0 -0.014103873437098083 -0.049758982296172719 0 -0.01239043393092284 -0.04493312513063405 0 -0.012736839851807636 -0.04431065066282619 0 -0.012236538378477844 -0.043026165491787519 0 -0.011657638269748246 -0.043503795220234204 0 -0.012736839851807636 -0.04431065066282619 0 -0.012774447804091472 -0.046091746297465382 0 -0.011657638269748246 -0.043503795220234204 0 -0.012774447804091472 -0.046091746297465382 0 -0.01093925997267222 -0.044249261237505187 0 -0.011657638269748246 -0.043503795220234204 0 -0.01239043393092284 -0.04493312513063405 0 -0.012077693255159144 -0.043988620378489066 0 -0.015025434120113807 -0.052626090901777341 0 -0.014253423130105388 -0.053068864581483757 0 -0.014826630923013151 -0.053202485603565185 0 -0.015025434120113807 -0.052626090901777341 0 -0.014100086216367207 -0.052294683783704131 0 -0.014253423130105388 -0.053068864581483757 0 -0.014253423130105388 -0.053068864581483757 0 -0.014669846397404328 -0.053829880800714526 0 -0.013899930372753158 -0.053824005766155383 0 -0.014253423130105388 -0.053068864581483757 0 -0.014826630923013151 -0.053202485603565185 0 -0.014669846397404328 -0.053829880800714526 0 -0.014253423130105388 -0.053068864581483757 0 -0.013899930372753158 -0.053824005766155383 0 -0.013418998483825207 -0.052948172411987897 0 -0.013899930372753158 -0.053824005766155383 0 -0.013418998483825207 -0.052948172411987897 0 -0.013273997317402173 -0.05419904028927322 0 -0.014669846397404328 -0.053829880800714526 0 -0.013899930372753158 -0.053824005766155383 0 -0.014365487678976467 -0.054506092351242874 0 -0.014100086216367207 -0.052294683783704131 0 -0.014253423130105388 -0.053068864581483757 0 -0.013418998483825207 -0.052948172411987897 0 -0.01239043393092284 -0.04493312513063405 0 -0.012638476811105302 -0.047897533859474338 0 -0.011767252575447052 -0.042046670127013464 0 -0.012312386243564863 -0.042246471806613554 0 -0.011706785583626946 -0.042934721530748135 0 -0.011767252575447052 -0.042046670127013464 0 -0.012312386243564863 -0.042246471806613554 0 -0.011884731842924101 -0.041323560875276465 0 -0.013418998483825207 -0.052948172411987897 0 -0.012579716247062018 -0.053761492745648655 0 -0.013273997317402173 -0.05419904028927322 0 -0.012638476811105302 -0.047897533859474338 0 -0.01403896661789446 -0.048494359783232431 0 -0.010896560278327453 -0.041652292717733776 0 -0.010770797629189935 -0.041664410136926809 0 -0.010808055321516597 -0.041406074767703409 0 -0.010896560278327453 -0.041652292717733776 0 -0.010770797629189935 -0.041664410136926809 0 -0.011145111796416486 -0.041756662192195468 0 -0.011767252575447052 -0.042046670127013464 0 -0.011706785583626946 -0.042934721530748135 0 -0.011145111796416486 -0.041756662192195468 0 -0.01403896661789446 -0.048494359783232431 0 -0.0098250363910479584 -0.039178090684917989 0 -0.011767252575447052 -0.042046670127013464 0 -0.011145111796416486 -0.041756662192195468 0 -0.011884731842924101 -0.041323560875276465 0 -0.011145111796416486 -0.041756662192195468 0 -0.011884731842924101 -0.041323560875276465 0 -0.011175145923223887 -0.041082052049418151 0 -0.011661123440049695 -0.041353959095578 0 -0.011274510475479322 -0.041244750056647524 0 -0.011565940426629241 -0.040810310258732489 0 -0.011681100237228898 -0.04221251813636865 0 -0.011542818585439932 -0.041952635057079343 0 -0.011565940426629241 -0.040810310258732489 0 -0.01174218720306909 -0.04135522626920593 0 -0.011681100237228898 -0.04221251813636865 0 -0.011565940426629241 -0.040810310258732489 0 -0.011542818585439932 -0.041952635057079343 0 -0.011175145923223887 -0.041082052049418151 0 -0.011112464038468335 -0.039663867205926795 0 -0.011175145923223887 -0.041082052049418151 0 -0.010426333241694874 -0.040383759431806963 0 -0.011112464038468335 -0.039663867205926795 0 -0.011565940426629241 -0.040810310258732489 0 -0.011175145923223887 -0.041082052049418151 0 -0.011175145923223887 -0.041082052049418151 0 -0.010426333241694874 -0.040383759431806963 0 -0.010683521308512505 -0.041196872761044348 0 -0.010426333241694874 -0.040383759431806963 0 -0.010683521308512505 -0.041196872761044348 0 -0.010152529283672088 -0.041136999117269805 0 -0.010683521308512505 -0.041196872761044348 0 -0.010152529283672088 -0.041136999117269805 0 -0.01062016530157911 -0.041589000421609748 0 -0.010152529283672088 -0.041136999117269805 0 -0.01062016530157911 -0.041589000421609748 0 -0.010410584945831443 -0.041456604326258473 0 -0.01062016530157911 -0.041589000421609748 0 -0.010741181642754418 -0.041923079383565792 0 -0.01055943833661588 -0.041745753099888608 0 -0.01062016530157911 -0.041589000421609748 0 -0.01055943833661588 -0.041745753099888608 0 -0.010410584945831443 -0.041456604326258473 0 -0.010683521308512505 -0.041196872761044348 0 -0.01062016530157911 -0.041589000421609748 0 -0.010891445765803684 -0.041592409930768931 0 -0.01062016530157911 -0.041589000421609748 0 -0.010891445765803684 -0.041592409930768931 0 -0.010814720777322363 -0.041793249260574358 0 -0.011145111796416486 -0.041756662192195468 0 -0.011175145923223887 -0.041082052049418151 0 -0.010891445765803684 -0.041592409930768931 0 -0.011175145923223887 -0.041082052049418151 0 -0.010683521308512505 -0.041196872761044348 0 -0.010891445765803684 -0.041592409930768931 0 -0.011145111796416486 -0.041756662192195468 0 -0.010919249902419581 -0.041770928745324322 0 -0.010939201370762186 -0.041701233452763928 0 -0.011145111796416486 -0.041756662192195468 0 -0.010891445765803684 -0.041592409930768931 0 -0.010919249902419581 -0.041770928745324322 0 -0.010896560278327453 -0.041652292717733776 0 -0.011145111796416486 -0.041756662192195468 0 -0.010939201370762186 -0.041701233452763928 0 -0.010919249902419581 -0.041770928745324322 0 -0.010939201370762186 -0.041701233452763928 0 -0.010969670687337372 -0.041695416967320806 0 -0.010939201370762186 -0.041701233452763928 0 -0.010985518055682838 -0.041538249349273963 0 -0.010969670687337372 -0.041695416967320806 0 -0.010939201370762186 -0.041701233452763928 0 -0.010912072915154905 -0.041538798338491396 0 -0.010985518055682838 -0.041538249349273963 0 -0.010896560278327453 -0.041652292717733776 0 -0.010939201370762186 -0.041701233452763928 0 -0.010912072915154905 -0.041538798338491396 0 -0.011130418963607933 -0.041505602053334277 0 -0.010985518055682838 -0.041538249349273963 0 -0.010969670687337372 -0.041695416967320806 0 -0.011130418963607933 -0.041505602053334277 0 -0.010969670687337372 -0.041695416967320806 0 -0.011127977138950562 -0.041672210214863573 0 -0.010969670687337372 -0.041695416967320806 0 -0.01091765659021038 -0.041818097025974763 0 -0.011127977138950562 -0.041672210214863573 0 -0.01091765659021038 -0.041818097025974763 0 -0.010741181642754418 -0.041923079383565792 0 -0.010949360118013894 -0.041917332147124474 0 -0.010919249902419581 -0.041770928745324322 0 -0.010969670687337372 -0.041695416967320806 0 -0.01091765659021038 -0.041818097025974763 0 -0.010919249902419581 -0.041770928745324322 0 -0.01091765659021038 -0.041818097025974763 0 -0.010814720777322363 -0.041793249260574358 0 -0.010891445765803684 -0.041592409930768931 0 -0.010919249902419581 -0.041770928745324322 0 -0.010814720777322363 -0.041793249260574358 0 -0.01062016530157911 -0.041589000421609748 0 -0.010814720777322363 -0.041793249260574358 0 -0.010741181642754418 -0.041923079383565792 0 -0.01091765659021038 -0.041818097025974763 0 -0.010814720777322363 -0.041793249260574358 0 -0.010741181642754418 -0.041923079383565792 0 -0.010741181642754418 -0.041923079383565792 0 -0.010661313273418516 -0.042197279924330901 0 -0.01055943833661588 -0.041745753099888608 0 -0.010741181642754418 -0.041923079383565792 0 -0.010661313273418516 -0.042197279924330901 0 -0.010949360118013894 -0.041917332147124474 0 -0.010661313273418516 -0.042197279924330901 0 -0.011311261650743563 -0.041988977028906783 0 -0.010949360118013894 -0.041917332147124474 0 -0.010661313273418516 -0.042197279924330901 0 -0.011311261650743563 -0.041988977028906783 0 -0.011713888887825144 -0.042382365833959247 0 -0.011311261650743563 -0.041988977028906783 0 -0.010949360118013894 -0.041917332147124474 0 -0.01141648186691281 -0.041705708385385717 0 -0.011311261650743563 -0.041988977028906783 0 -0.01141648186691281 -0.041705708385385717 0 -0.011854978196627895 -0.041912161146996273 0 -0.01091765659021038 -0.041818097025974763 0 -0.010949360118013894 -0.041917332147124474 0 -0.011127977138950562 -0.041672210214863573 0 -0.011127977138950562 -0.041672210214863573 0 -0.01141648186691281 -0.041705708385385717 0 -0.011396986010343165 -0.041447791483220552 0 -0.010949360118013894 -0.041917332147124474 0 -0.011127977138950562 -0.041672210214863573 0 -0.01141648186691281 -0.041705708385385717 0 -0.01141648186691281 -0.041705708385385717 0 -0.011787036826078763 -0.04138307904022951 0 -0.011396986010343165 -0.041447791483220552 0 -0.01141648186691281 -0.041705708385385717 0 -0.011787036826078763 -0.04138307904022951 0 -0.011937508205701178 -0.041624954951708246 0 -0.011130418963607933 -0.041505602053334277 0 -0.011127977138950562 -0.041672210214863573 0 -0.011396986010343165 -0.041447791483220552 0 -0.012862177093405024 -0.041342529524274835 0 -0.012278296672150859 -0.041367005538156303 0 -0.012464767482357794 -0.041734501349662792 0 -0.012278296672150859 -0.041367005538156303 0 -0.011937508205701178 -0.041624954951708246 0 -0.012464767482357794 -0.041734501349662792 0 -0.011787036826078763 -0.04138307904022951 0 -0.012278296672150859 -0.041367005538156303 0 -0.011937508205701178 -0.041624954951708246 0 -0.01141648186691281 -0.041705708385385717 0 -0.011937508205701178 -0.041624954951708246 0 -0.011854978196627895 -0.041912161146996273 0 -0.011937508205701178 -0.041624954951708246 0 -0.012464767482357794 -0.041734501349662792 0 -0.011854978196627895 -0.041912161146996273 0 -0.012464767482357794 -0.041734501349662792 0 -0.012400153168772987 -0.042212721476652719 0 -0.011854978196627895 -0.041912161146996273 0 -0.011311261650743563 -0.041988977028906783 0 -0.011854978196627895 -0.041912161146996273 0 -0.011713888887825144 -0.042382365833959247 0 -0.012400153168772987 -0.042212721476652719 0 -0.011854978196627895 -0.041912161146996273 0 -0.011713888887825144 -0.042382365833959247 0 -0.012400153168772987 -0.042212721476652719 0 -0.011713888887825144 -0.042382365833959247 0 -0.012428387868143868 -0.042798660764646571 0 -0.012642336790442419 -0.037935260572282505 0 -0.011870282727249703 -0.03784418197509605 0 -0.012468104394484163 -0.03836236885258746 0 -0.012562437347149756 -0.040669851126852459 0 -0.010628844568229635 -0.040505548959608693 0 -0.012727908673408133 -0.04348220061431609 0 -0.012428387868143868 -0.042798660764646571 0 -0.011668316498448466 -0.043339385612109191 0 -0.011713888887825144 -0.042382365833959247 0 -0.012428387868143868 -0.042798660764646571 0 -0.011668316498448466 -0.043339385612109191 0 -0.010661313273418516 -0.042197279924330901 0 -0.0087512954489339569 -0.040957550720691849 0 -0.0099901144513153406 -0.041099190751380785 0 -0.01077398890243989 -0.042344680105678018 0 -0.010628844568229635 -0.040505548959608693 0 -0.010661313273418516 -0.042197279924330901 0 -0.011713888887825144 -0.042382365833959247 0 -0.011668316498448466 -0.043339385612109191 0 -0.01025917854331653 -0.041392574647764677 0 -0.0099901144513153406 -0.041099190751380785 0 -0.0097296069548899519 -0.036371701825883222 0 -0.010661313273418516 -0.042197279924330901 0 -0.01025917854331653 -0.041392574647764677 0 -0.0099901144513153406 -0.041099190751380785 0 -0.010661313273418516 -0.042197279924330901 0 -0.01055943833661588 -0.041745753099888608 0 -0.01025917854331653 -0.041392574647764677 0 -0.01055943833661588 -0.041745753099888608 0 -0.01025917854331653 -0.041392574647764677 0 -0.010410584945831443 -0.041456604326258473 0 -0.010152529283672088 -0.041136999117269805 0 -0.01025917854331653 -0.041392574647764677 0 -0.010410584945831443 -0.041456604326258473 0 -0.010628844568229635 -0.040505548959608693 0 -0.0095532263802100194 -0.040703863638809665 0 -0.010426333241694874 -0.040383759431806963 0 -0.010152529283672088 -0.041136999117269805 0 -0.0080188884914910701 -0.04022448738971824 0 -0.010020668871776797 -0.040949618009834154 0 -0.0089630848108834572 -0.038340561976153174 0 -0.010152529283672088 -0.041136999117269805 0 -0.01025917854331653 -0.041392574647764677 0 -0.0080188884914910701 -0.04022448738971824 0 -0.0083931763870042416 -0.040628718591377198 0 -0.0099901144513153406 -0.041099190751380785 0 -0.0097296069548899519 -0.036371701825883222 0 -0.0083931763870042416 -0.040628718591377198 0 -0.0097296069548899519 -0.036371701825883222 0 -0.0059311273065049235 -0.037790403693556233 0 -0.00582440849299276 -0.035523492674095394 0 -0.0097296069548899519 -0.036371701825883222 0 -0.0059311273065049235 -0.037790403693556233 0 -0.010628844568229635 -0.040505548959608693 0 -0.0086417158719496387 -0.037498328888175482 0 -0.02313311687960689 -0.057391457873253927 0 -0.022221655231840363 -0.057733498350216156 0 -0.023247021947848747 -0.057352574066896138 0 -0.023035556958678823 -0.057254448569040557 0 -0.022485584136427973 -0.058177355664738147 0 -0.023349091994717942 -0.057252590122791366 0 -0.023247021947848747 -0.057352574066896138 0 -0.023035556958678823 -0.057254448569040557 0 -0.023035556958678823 -0.057254448569040557 0 -0.022485584136427973 -0.058177355664738147 0 -0.022690182385779228 -0.057074035128460425 0 -0.022050287400183145 -0.057516623535699994 0 -0.022485584136427973 -0.058177355664738147 0 -0.022690182385779228 -0.057074035128460425 0 -0.022050287400183145 -0.057516623535699994 0 -0.022485584136427973 -0.058177355664738147 0 -0.021598897092311508 -0.058240277145213071 0 -0.022028383563165936 -0.057266530028668924 0 -0.022821768113312772 -0.057888186049622849 0 -0.021545666648406746 -0.058060621383783394 0 -0.023247021947848747 -0.057352574066896138 0 -0.022028383563165936 -0.057266530028668924 0 -0.022821768113312772 -0.057888186049622849 0 -0.013100116023418786 -0.040607435005156345 0 -0.012385562724792637 -0.040129010911849054 0 -0.012436789533512476 -0.040708150787494977 0 -0.012385562724792637 -0.040129010911849054 0 -0.012436789533512476 -0.040708150787494977 0 -0.011918239744400932 -0.040736595564341879 0 -0.012436789533512476 -0.040708150787494977 0 -0.012101820027367238 -0.041066302161713093 0 -0.012618605508510367 -0.041049990757641645 0 -0.012436789533512476 -0.040708150787494977 0 -0.012101820027367238 -0.041066302161713093 0 -0.011918239744400932 -0.040736595564341879 0 -0.011787036826078763 -0.04138307904022951 0 -0.012278296672150859 -0.041367005538156303 0 -0.012101820027367238 -0.041066302161713093 0 -0.012862177093405024 -0.041342529524274835 0 -0.012278296672150859 -0.041367005538156303 0 -0.012618605508510367 -0.041049990757641645 0 -0.012278296672150859 -0.041367005538156303 0 -0.012101820027367238 -0.041066302161713093 0 -0.012618605508510367 -0.041049990757641645 0 -0.011396986010343165 -0.041447791483220552 0 -0.01166202739808469 -0.041095096163826395 0 -0.011330727767931316 -0.041215523964242294 0 -0.011130418963607933 -0.041505602053334277 0 -0.011396986010343165 -0.041447791483220552 0 -0.011330727767931316 -0.041215523964242294 0 -0.011787036826078763 -0.04138307904022951 0 -0.012101820027367238 -0.041066302161713093 0 -0.01166202739808469 -0.041095096163826395 0 -0.011787036826078763 -0.04138307904022951 0 -0.011396986010343165 -0.041447791483220552 0 -0.01166202739808469 -0.041095096163826395 0 -0.012101820027367238 -0.041066302161713093 0 -0.01166202739808469 -0.041095096163826395 0 -0.011918239744400932 -0.040736595564341879 0 -0.01166202739808469 -0.041095096163826395 0 -0.011519293286024334 -0.040894823996256581 0 -0.011330727767931316 -0.041215523964242294 0 -0.011519293286024334 -0.040894823996256581 0 -0.011918239744400932 -0.040736595564341879 0 -0.011484868221209605 -0.040536614145334507 0 -0.012385562724792637 -0.040129010911849054 0 -0.011918239744400932 -0.040736595564341879 0 -0.011484868221209605 -0.040536614145334507 0 -0.015978612401106082 -0.049012408436753099 0 -0.016614072540274989 -0.048991799022219708 0 -0.011519293286024334 -0.040894823996256581 0 -0.011484868221209605 -0.040536614145334507 0 -0.011232172795926254 -0.040995884611631797 0 -0.01166202739808469 -0.041095096163826395 0 -0.011519293286024334 -0.040894823996256581 0 -0.011918239744400932 -0.040736595564341879 0 -0.016614072540274989 -0.048991799022219708 0 -0.017351158568157266 -0.053703457691153957 0 -0.011484868221209605 -0.040536614145334507 0 -0.011232172795926254 -0.040995884611631797 0 -0.010950248665120146 -0.040964799529235804 0 -0.021545666648406746 -0.058060621383783394 0 -0.020448506581665013 -0.057811273998674764 0 -0.020011664514223561 -0.058178211864894212 0 -0.020448506581665013 -0.057811273998674764 0 -0.020078265540871845 -0.057997050547163607 0 -0.020380106599081672 -0.057525840453286764 0 -0.018467307915633224 -0.056078303751084024 0 -0.017351158568157266 -0.053703457691153957 0 -0.011232172795926254 -0.040995884611631797 0 -0.011009566931399973 -0.041162714272310705 0 -0.010950248665120146 -0.040964799529235804 0 -0.011232172795926254 -0.040995884611631797 0 -0.011330727767931316 -0.041215523964242294 0 -0.011107618873238283 -0.041305134484889885 0 -0.011519293286024334 -0.040894823996256581 0 -0.011232172795926254 -0.040995884611631797 0 -0.011330727767931316 -0.041215523964242294 0 -0.011107618873238283 -0.041305134484889885 0 -0.010967351570734116 -0.041372129888780335 0 -0.011009566931399973 -0.041162714272310705 0 -0.011232172795926254 -0.040995884611631797 0 -0.011107618873238283 -0.041305134484889885 0 -0.011009566931399973 -0.041162714272310705 0 -0.011130418963607933 -0.041505602053334277 0 -0.010985518055682838 -0.041538249349273963 0 -0.011107618873238283 -0.041305134484889885 0 -0.010985518055682838 -0.041538249349273963 0 -0.011107618873238283 -0.041305134484889885 0 -0.010967351570734116 -0.041372129888780335 0 -0.011130418963607933 -0.041505602053334277 0 -0.011330727767931316 -0.041215523964242294 0 -0.011107618873238283 -0.041305134484889885 0 -0.010896560278327453 -0.041652292717733776 0 -0.010912072915154905 -0.041538798338491396 0 -0.010808055321516597 -0.041406074767703409 0 -0.010967351570734116 -0.041372129888780335 0 -0.011009566931399973 -0.041162714272310705 0 -0.010808055321516597 -0.041406074767703409 0 -0.010912072915154905 -0.041538798338491396 0 -0.010967351570734116 -0.041372129888780335 0 -0.010808055321516597 -0.041406074767703409 0 -0.010912072915154905 -0.041538798338491396 0 -0.010985518055682838 -0.041538249349273963 0 -0.010967351570734116 -0.041372129888780335 0 -0.017679417898609152 -0.057491245833959086 0 -0.018546909238055766 -0.057352793958036254 0 -0.018426699701368048 -0.056752862216573413 0 -0.020078265540871845 -0.057997050547163607 0 -0.01969663172827394 -0.057784494246157142 0 -0.019197839052583893 -0.057764970351056162 0 -0.017351158568157266 -0.053703457691153957 0 -0.019058422882238472 -0.057463432185190282 0 -0.011009566931399973 -0.041162714272310705 0 -0.010950248665120146 -0.040964799529235804 0 -0.010808055321516597 -0.041406074767703409 0 -0.02060499017838734 -0.058270997632566546 0 -0.0194501068847138 -0.05879309387279627 0 -0.01969663172827394 -0.057784494246157142 0 -0.020380106599081672 -0.057525840453286764 0 -0.019163292988166263 -0.057733827202765889 0 -0.017351158568157266 -0.053703457691153957 0 -0.014670769847771407 -0.04869935830841389 0 -0.020078265540871845 -0.057997050547163607 0 -0.01969663172827394 -0.057784494246157142 0 -0.020380106599081672 -0.057525840453286764 0 -0.020006166717322756 -0.059079709641883374 0 -0.01950372024126713 -0.059213745119524569 0 -0.019141986175322354 -0.059688312358426705 0 -0.020006166717322756 -0.059079709641883374 0 -0.019605743925272649 -0.05882014622795681 0 -0.01950372024126713 -0.059213745119524569 0 -0.020006166717322756 -0.059079709641883374 0 -0.020974452862073358 -0.059012117180157954 0 -0.019141986175322354 -0.059688312358426705 0 -0.020006166717322756 -0.059079709641883374 0 -0.020170087007354523 -0.058755086573475265 0 -0.019605743925272649 -0.05882014622795681 0 -0.019605743925272649 -0.05882014622795681 0 -0.020067669526687985 -0.058287105686902575 0 -0.019415904267882558 -0.058176683470222243 0 -0.020170087007354523 -0.058755086573475265 0 -0.019605743925272649 -0.05882014622795681 0 -0.020067669526687985 -0.058287105686902575 0 -0.020067669526687985 -0.058287105686902575 0 -0.020607548170088565 -0.058584998562358853 0 -0.020703531011649286 -0.058016785848694595 0 -0.020607548170088565 -0.058584998562358853 0 -0.020969097548061765 -0.05845214958801264 0 -0.020703531011649286 -0.058016785848694595 0 -0.020170087007354523 -0.058755086573475265 0 -0.020067669526687985 -0.058287105686902575 0 -0.020607548170088565 -0.058584998562358853 0 -0.020607548170088565 -0.058584998562358853 0 -0.020457566433217351 -0.058870015417373162 0 -0.020974452862073358 -0.059012117180157954 0 -0.020006166717322756 -0.059079709641883374 0 -0.020457566433217351 -0.058870015417373162 0 -0.020974452862073358 -0.059012117180157954 0 -0.020006166717322756 -0.059079709641883374 0 -0.020170087007354523 -0.058755086573475265 0 -0.020457566433217351 -0.058870015417373162 0 -0.020170087007354523 -0.058755086573475265 0 -0.020607548170088565 -0.058584998562358853 0 -0.020457566433217351 -0.058870015417373162 0 -0.022028383563165936 -0.057266530028668924 0 -0.021545666648406746 -0.058060621383783394 0 -0.020380106599081672 -0.057525840453286764 0 -0.022485584136427973 -0.058177355664738147 0 -0.020974452862073358 -0.059012117180157954 0 -0.021598897092311508 -0.058240277145213071 0 -0.021545666648406746 -0.058060621383783394 0 -0.020448506581665013 -0.057811273998674764 0 -0.020380106599081672 -0.057525840453286764 0 -0.022221655231840363 -0.057733498350216156 0 -0.02060499017838734 -0.058270997632566546 0 -0.020974452862073358 -0.059012117180157954 0 -0.021598897092311508 -0.058240277145213071 0 -0.020969097548061765 -0.05845214958801264 0 -0.021598897092311508 -0.058240277145213071 0 -0.020969097548061765 -0.05845214958801264 0 -0.020703531011649286 -0.058016785848694595 0 -0.020607548170088565 -0.058584998562358853 0 -0.020974452862073358 -0.059012117180157954 0 -0.020969097548061765 -0.05845214958801264 0 -0.021598897092311508 -0.058240277145213071 0 -0.021284831587451453 -0.057432169550153095 0 -0.020703531011649286 -0.058016785848694595 0 -0.022050287400183145 -0.057516623535699994 0 -0.021598897092311508 -0.058240277145213071 0 -0.021284831587451453 -0.057432169550153095 0 -0.019920014319835085 -0.057864520976868464 0 -0.020703531011649286 -0.058016785848694595 0 -0.020157211782298158 -0.057282502048828031 0 -0.021284831587451453 -0.057432169550153095 0 -0.020703531011649286 -0.058016785848694595 0 -0.020157211782298158 -0.057282502048828031 0 -0.019920014319835085 -0.057864520976868464 0 -0.019206121274374339 -0.057583623795855958 0 -0.020157211782298158 -0.057282502048828031 0 -0.020067669526687985 -0.058287105686902575 0 -0.019920014319835085 -0.057864520976868464 0 -0.019415904267882558 -0.058176683470222243 0 -0.020067669526687985 -0.058287105686902575 0 -0.019920014319835085 -0.057864520976868464 0 -0.020703531011649286 -0.058016785848694595 0 -0.018248465053660855 -0.057585576241948259 0 -0.019206121274374339 -0.057583623795855958 0 -0.018552155290301072 -0.058103592187044251 0 -0.019920014319835085 -0.057864520976868464 0 -0.019206121274374339 -0.057583623795855958 0 -0.019415904267882558 -0.058176683470222243 0 -0.019206121274374339 -0.057583623795855958 0 -0.018552155290301072 -0.058103592187044251 0 -0.019415904267882558 -0.058176683470222243 0 -0.019206121274374339 -0.057583623795855958 0 -0.018792477287739948 -0.05706169541724198 0 -0.020157211782298158 -0.057282502048828031 0 -0.018248465053660855 -0.057585576241948259 0 -0.019206121274374339 -0.057583623795855958 0 -0.018792477287739948 -0.05706169541724198 0 -0.018248465053660855 -0.057585576241948259 0 -0.01706020672623116 -0.057112411006208848 0 -0.018792477287739948 -0.05706169541724198 0 -0.018248465053660855 -0.057585576241948259 0 -0.01706020672623116 -0.057112411006208848 0 -0.017595776871522598 -0.058170133663547258 0 -0.017595776871522598 -0.058170133663547258 0 -0.017601004853399316 -0.05933578868405933 0 -0.015169675906219338 -0.057428085557167094 0 -0.01706020672623116 -0.057112411006208848 0 -0.017595776871522598 -0.058170133663547258 0 -0.015169675906219338 -0.057428085557167094 0 -0.017595776871522598 -0.058170133663547258 0 -0.01847270841862618 -0.059084105726919876 0 -0.017601004853399316 -0.05933578868405933 0 -0.017595776871522598 -0.058170133663547258 0 -0.01847270841862618 -0.059084105726919876 0 -0.018412713410774474 -0.05849629231156004 0 -0.01847270841862618 -0.059084105726919876 0 -0.018412713410774474 -0.05849629231156004 0 -0.018992262131205848 -0.058673723952572428 0 -0.017595776871522598 -0.058170133663547258 0 -0.018412713410774474 -0.05849629231156004 0 -0.018552155290301072 -0.058103592187044251 0 -0.018248465053660855 -0.057585576241948259 0 -0.017595776871522598 -0.058170133663547258 0 -0.018552155290301072 -0.058103592187044251 0 -0.018412713410774474 -0.05849629231156004 0 -0.018552155290301072 -0.058103592187044251 0 -0.018992262131205848 -0.058673723952572428 0 -0.018552155290301072 -0.058103592187044251 0 -0.019415904267882558 -0.058176683470222243 0 -0.018992262131205848 -0.058673723952572428 0 -0.019605743925272649 -0.05882014622795681 0 -0.019415904267882558 -0.058176683470222243 0 -0.018992262131205848 -0.058673723952572428 0 -0.019605743925272649 -0.05882014622795681 0 -0.018992262131205848 -0.058673723952572428 0 -0.019149590778374699 -0.059091344353392743 0 -0.01847270841862618 -0.059084105726919876 0 -0.018992262131205848 -0.058673723952572428 0 -0.019149590778374699 -0.059091344353392743 0 -0.019605743925272649 -0.05882014622795681 0 -0.019149590778374699 -0.059091344353392743 0 -0.01950372024126713 -0.059213745119524569 0 -0.018546909238055766 -0.057352793958036254 0 -0.018935317527691616 -0.05693617120978306 0 -0.019493492050618462 -0.057238108718566078 0 -0.01969663172827394 -0.057784494246157142 0 -0.019163292988166263 -0.057733827202765889 0 -0.019197839052583893 -0.057764970351056162 0 -0.019149590778374699 -0.059091344353392743 0 -0.01950372024126713 -0.059213745119524569 0 -0.019141986175322354 -0.059688312358426705 0 -0.019058422882238472 -0.057463432185190282 0 -0.01941736347560593 -0.057317732333980166 0 -0.019163292988166263 -0.057733827202765889 0 -0.019197839052583893 -0.057764970351056162 0 -0.019493492050618462 -0.057238108718566078 0 -0.01847270841862618 -0.059084105726919876 0 -0.019149590778374699 -0.059091344353392743 0 -0.019141986175322354 -0.059688312358426705 0 -0.01847270841862618 -0.059084105726919876 0 -0.019141986175322354 -0.059688312358426705 0 -0.017601004853399316 -0.05933578868405933 0 -0.019215291004301496 -0.055935607440638448 0 -0.018935317527691616 -0.05693617120978306 0 -0.019493492050618462 -0.057238108718566078 0 -0.019215291004301496 -0.055935607440638448 0 -0.018426699701368048 -0.056752862216573413 0 -0.018935317527691616 -0.05693617120978306 0 -0.018546909238055766 -0.057352793958036254 0 -0.018426699701368048 -0.056752862216573413 0 -0.018935317527691616 -0.05693617120978306 0 -0.01403896661789446 -0.048494359783232431 0 -0.014670769847771407 -0.04869935830841389 0 -0.012579716247062018 -0.053761492745648655 0 -0.013273997317402173 -0.05419904028927322 0 -0.013280173894607252 -0.055093154961470041 0 -0.019215291004301496 -0.055935607440638448 0 -0.019493492050618462 -0.057238108718566078 0 -0.019748049710903069 -0.057169088388301849 0 -0.01403896661789446 -0.048494359783232431 0 -0.016473072730726221 -0.057704959149726842 0 -0.013273997317402173 -0.05419904028927322 0 -0.013280173894607252 -0.055093154961470041 0 -0.013679892415242553 -0.054939678739007097 0 -0.016473072730726221 -0.057704959149726842 0 -0.014627893729994535 -0.057021486873524777 0 -0.019141986175322354 -0.059688312358426705 0 -0.016671784991050997 -0.060756995693443373 0 -0.017601004853399316 -0.05933578868405933 0 -0.019163292988166263 -0.057733827202765889 0 -0.019493492050618462 -0.057238108718566078 0 -0.019748049710903069 -0.057169088388301849 0 -0.0194501068847138 -0.05879309387279627 0 -0.016473072730726221 -0.057704959149726842 0 -0.016671784991050997 -0.060756995693443373 0 -0.017601004853399316 -0.05933578868405933 0 -0.015169675906219338 -0.057428085557167094 0 -0.01301749087806627 -0.055205599737608385 0 -0.01461951792669036 -0.055846588796720546 0 -0.015169675906219338 -0.057428085557167094 0 -0.01461951792669036 -0.055846588796720546 0 -0.015089997202435696 -0.05620241174302857 0 -0.015169675906219338 -0.057428085557167094 0 -0.016473072730726221 -0.057704959149726842 0 -0.014663674120788386 -0.057430345633943128 0 -0.01301749087806627 -0.055205599737608385 0 -0.01461951792669036 -0.055846588796720546 0 -0.013679892415242553 -0.054939678739007097 0 -0.01461951792669036 -0.055846588796720546 0 -0.013679892415242553 -0.054939678739007097 0 -0.014365487678976467 -0.054506092351242874 0 -0.013679892415242553 -0.054939678739007097 0 -0.014365487678976467 -0.054506092351242874 0 -0.013804206372635561 -0.054362758245732785 0 -0.013899930372753158 -0.053824005766155383 0 -0.014365487678976467 -0.054506092351242874 0 -0.013804206372635561 -0.054362758245732785 0 -0.013273997317402173 -0.05419904028927322 0 -0.013679892415242553 -0.054939678739007097 0 -0.013804206372635561 -0.054362758245732785 0 -0.013899930372753158 -0.053824005766155383 0 -0.013273997317402173 -0.05419904028927322 0 -0.013804206372635561 -0.054362758245732785 0 -0.014669846397404328 -0.053829880800714526 0 -0.014365487678976467 -0.054506092351242874 0 -0.014982947920192684 -0.054421484896347065 0 -0.014365487678976467 -0.054506092351242874 0 -0.014846778441626603 -0.055231150629010295 0 -0.014982947920192684 -0.054421484896347065 0 -0.014846778441626603 -0.055231150629010295 0 -0.015089997202435696 -0.05620241174302857 0 -0.01523750491505434 -0.054927510125217335 0 -0.01461951792669036 -0.055846588796720546 0 -0.014365487678976467 -0.054506092351242874 0 -0.014846778441626603 -0.055231150629010295 0 -0.01461951792669036 -0.055846588796720546 0 -0.014846778441626603 -0.055231150629010295 0 -0.015089997202435696 -0.05620241174302857 0 -0.015089997202435696 -0.05620241174302857 0 -0.015162257121160637 -0.056707867224793304 0 -0.015188841182771036 -0.056058702980881836 0 -0.015089997202435696 -0.05620241174302857 0 -0.015169675906219338 -0.057428085557167094 0 -0.015162257121160637 -0.056707867224793304 0 -0.01706020672623116 -0.057112411006208848 0 -0.015169675906219338 -0.057428085557167094 0 -0.015702404223883588 -0.056837135031108724 0 -0.015169675906219338 -0.057428085557167094 0 -0.015162257121160637 -0.056707867224793304 0 -0.015702404223883588 -0.056837135031108724 0 -0.015162257121160637 -0.056707867224793304 0 -0.015702404223883588 -0.056837135031108724 0 -0.015132609741698874 -0.056584694447532981 0 -0.015702404223883588 -0.056837135031108724 0 -0.015485662181263746 -0.056490834560154544 0 -0.015132609741698874 -0.056584694447532981 0 -0.015702404223883588 -0.056837135031108724 0 -0.01663174384001798 -0.056525762916622563 0 -0.015485662181263746 -0.056490834560154544 0 -0.01706020672623116 -0.057112411006208848 0 -0.015702404223883588 -0.056837135031108724 0 -0.01663174384001798 -0.056525762916622563 0 -0.01663174384001798 -0.056525762916622563 0 -0.015485662181263746 -0.056490834560154544 0 -0.015402503251320098 -0.056156605057688977 0 -0.01663174384001798 -0.056525762916622563 0 -0.015402503251320098 -0.056156605057688977 0 -0.017545419842214839 -0.055940481295478073 0 -0.015485662181263746 -0.056490834560154544 0 -0.015402503251320098 -0.056156605057688977 0 -0.01475518818929606 -0.05630638047731909 0 -0.015402503251320098 -0.056156605057688977 0 -0.016010618642557563 -0.054999767311908546 0 -0.01431136155683208 -0.055906182019457712 0 -0.016010618642557563 -0.054999767311908546 0 -0.01431136155683208 -0.055906182019457712 0 -0.013193121222782017 -0.054999715591383544 0 -0.015402503251320098 -0.056156605057688977 0 -0.016010618642557563 -0.054999767311908546 0 -0.0170023302230396 -0.056315185280202448 0 -0.015609222767373768 -0.056114836819238872 0 -0.017190630607494768 -0.055632978817581086 0 -0.015402503251320098 -0.056156605057688977 0 -0.017287668648192756 -0.054909195655770987 0 -0.017545419842214839 -0.055940481295478073 0 -0.017287668648192756 -0.054909195655770987 0 -0.019068154874424686 -0.055441459328933053 0 -0.017545419842214839 -0.055940481295478073 0 -0.017287668648192756 -0.054909195655770987 0 -0.019479483834327637 -0.054536168893690347 0 -0.019068154874424686 -0.055441459328933053 0 -0.019068154874424686 -0.055441459328933053 0 -0.018993074781629437 -0.056017482213342039 0 -0.017545419842214839 -0.055940481295478073 0 -0.017190630607494768 -0.055632978817581086 0 -0.019385769880510721 -0.055254797243188138 0 -0.016010618642557563 -0.054999767311908546 0 -0.0170023302230396 -0.056315185280202448 0 -0.018835333618035837 -0.054999701898243013 0 -0.0170023302230396 -0.056315185280202448 0 -0.018835333618035837 -0.054999701898243013 0 -0.01938315003643909 -0.055904741158112614 0 -0.019385769880510721 -0.055254797243188138 0 -0.0216582030217683 -0.054999990579464683 0 -0.018835333618035837 -0.054999701898243013 0 -0.01938315003643909 -0.055904741158112614 0 -0.021658891208859173 -0.055000092867146091 0 -0.019479483834327637 -0.054536168893690347 0 -0.019068154874424686 -0.055441459328933053 0 -0.020566430691195493 -0.055454620762049746 0 -0.019068154874424686 -0.055441459328933053 0 -0.020055102983397657 -0.055989454740987162 0 -0.018993074781629437 -0.056017482213342039 0 -0.019068154874424686 -0.055441459328933053 0 -0.020055102983397657 -0.055989454740987162 0 -0.020566430691195493 -0.055454620762049746 0 -0.018993074781629437 -0.056017482213342039 0 -0.018119029364838331 -0.056527157274975724 0 -0.019960007227596499 -0.056497817861123199 0 -0.020055102983397657 -0.055989454740987162 0 -0.018993074781629437 -0.056017482213342039 0 -0.019960007227596499 -0.056497817861123199 0 -0.01663174384001798 -0.056525762916622563 0 -0.017545419842214839 -0.055940481295478073 0 -0.018119029364838331 -0.056527157274975724 0 -0.018993074781629437 -0.056017482213342039 0 -0.017545419842214839 -0.055940481295478073 0 -0.018119029364838331 -0.056527157274975724 0 -0.01706020672623116 -0.057112411006208848 0 -0.01663174384001798 -0.056525762916622563 0 -0.018119029364838331 -0.056527157274975724 0 -0.01706020672623116 -0.057112411006208848 0 -0.018119029364838331 -0.056527157274975724 0 -0.018792477287739948 -0.05706169541724198 0 -0.018119029364838331 -0.056527157274975724 0 -0.018792477287739948 -0.05706169541724198 0 -0.019960007227596499 -0.056497817861123199 0 -0.018792477287739948 -0.05706169541724198 0 -0.020157211782298158 -0.057282502048828031 0 -0.019960007227596499 -0.056497817861123199 0 -0.020943555236753907 -0.05678736581425016 0 -0.020157211782298158 -0.057282502048828031 0 -0.019960007227596499 -0.056497817861123199 0 -0.021284831587451453 -0.057432169550153095 0 -0.020943555236753907 -0.05678736581425016 0 -0.020157211782298158 -0.057282502048828031 0 -0.022050287400183145 -0.057516623535699994 0 -0.021284831587451453 -0.057432169550153095 0 -0.022044556714974826 -0.056698743713421679 0 -0.021284831587451453 -0.057432169550153095 0 -0.020943555236753907 -0.05678736581425016 0 -0.022044556714974826 -0.056698743713421679 0 -0.020943555236753907 -0.05678736581425016 0 -0.022044556714974826 -0.056698743713421679 0 -0.021197994827216553 -0.05609414395583702 0 -0.022044556714974826 -0.056698743713421679 0 -0.021197994827216553 -0.05609414395583702 0 -0.022448969389131608 -0.056084138958764795 0 -0.020943555236753907 -0.05678736581425016 0 -0.021197994827216553 -0.05609414395583702 0 -0.019960007227596499 -0.056497817861123199 0 -0.020055102983397657 -0.055989454740987162 0 -0.021197994827216553 -0.05609414395583702 0 -0.019960007227596499 -0.056497817861123199 0 -0.021197994827216553 -0.05609414395583702 0 -0.020566430691195493 -0.055454620762049746 0 -0.02258744232388939 -0.055630518119970294 0 -0.020055102983397657 -0.055989454740987162 0 -0.021197994827216553 -0.05609414395583702 0 -0.020566430691195493 -0.055454620762049746 0 -0.020566430691195493 -0.055454620762049746 0 -0.021660397660680349 -0.054996941755070326 0 -0.02258744232388939 -0.055630518119970294 0 -0.019479483834327637 -0.054536168893690347 0 -0.020566430691195493 -0.055454620762049746 0 -0.021660397660680349 -0.054996941755070326 0 -0.021660397660680349 -0.054996941755070326 0 -0.02258744232388939 -0.055630518119970294 0 -0.024664088311632668 -0.055000488692620801 0 -0.021197994827216553 -0.05609414395583702 0 -0.02258744232388939 -0.055630518119970294 0 -0.022448969389131608 -0.056084138958764795 0 -0.022448969389131608 -0.056084138958764795 0 -0.023461531671035964 -0.055836161210811565 0 -0.02287611390741829 -0.056364723882642902 0 -0.02258744232388939 -0.055630518119970294 0 -0.022448969389131608 -0.056084138958764795 0 -0.023461531671035964 -0.055836161210811565 0 -0.026533734449746008 -0.056232150549575047 0 -0.025424804579314265 -0.055149965521777915 0 -0.024670368048222726 -0.054999749234433799 0 -0.02258744232388939 -0.055630518119970294 0 -0.023461531671035964 -0.055836161210811565 0 -0.024664088311632668 -0.055000488692620801 0 -0.024989778931702886 -0.055972821162518331 0 -0.024669158610973619 -0.054999704334404723 0 -0.026533734449746008 -0.056232150549575047 0 -0.025424804579314265 -0.055149965521777915 0 -0.027758714465804378 -0.056120675904456054 0 -0.027507758009202878 -0.054999497935174606 0 -0.025424804579314265 -0.055149965521777915 0 -0.027299256216528525 -0.055743876021450797 0 -0.025424804579314265 -0.055149965521777915 0 -0.027299256216528525 -0.055743876021450797 0 -0.027672840318231768 -0.056847366323194343 0 -0.025704942605418165 -0.055178401816621647 0 -0.027681387009483419 -0.056470212226957847 0 -0.027507758009202878 -0.054999497935174606 0 -0.025424804579314265 -0.055149965521777915 0 -0.024670368048222726 -0.054999749234433799 0 -0.028579937502189758 -0.055998738804741113 0 -0.027299256216528525 -0.055743876021450797 0 -0.027672840318231768 -0.056847366323194343 0 -0.026533734449746008 -0.056232150549575047 0 -0.027758714465804378 -0.056120675904456054 0 -0.0280437283598759 -0.057964569590730611 0 -0.023257653530962676 -0.056607868304090529 0 -0.02287611390741829 -0.056364723882642902 0 -0.022690182385779228 -0.057074035128460425 0 -0.024989778931702886 -0.055972821162518331 0 -0.02553537842004816 -0.056957976876899102 0 -0.029991170382046552 -0.057671948985067473 0 -0.027758714465804378 -0.056120675904456054 0 -0.0280437283598759 -0.057964569590730611 0 -0.023461531671035964 -0.055836161210811565 0 -0.023257653530962676 -0.056607868304090529 0 -0.02287611390741829 -0.056364723882642902 0 -0.022044556714974826 -0.056698743713421679 0 -0.022448969389131608 -0.056084138958764795 0 -0.02287611390741829 -0.056364723882642902 0 -0.022044556714974826 -0.056698743713421679 0 -0.02287611390741829 -0.056364723882642902 0 -0.022690182385779228 -0.057074035128460425 0 -0.022050287400183145 -0.057516623535699994 0 -0.022044556714974826 -0.056698743713421679 0 -0.022690182385779228 -0.057074035128460425 0 -0.026757875326565386 -0.060247277534441646 0 -0.02553537842004816 -0.056957976876899102 0 -0.023349091994717942 -0.057252590122791366 0 -0.023035556958678823 -0.057254448569040557 0 -0.023257653530962676 -0.056607868304090529 0 -0.023035556958678823 -0.057254448569040557 0 -0.023257653530962676 -0.056607868304090529 0 -0.022690182385779228 -0.057074035128460425 0 -0.00041589192701950049 -0.049063034894396805 0 0.00036869292806340781 -0.049410943960723333 0 -0.0005644601192850079 -0.050085641631292671 0 -0.0013150759985404846 -0.049330993573317591 0 -0.00041589192701950049 -0.049063034894396805 0 -0.0005644601192850079 -0.050085641631292671 0 -0.0091654732314104207 -0.052295882033485425 0 -0.0091135304873352883 -0.052536687091188243 0 -0.017098091124819848 -0.055889493818134954 0 -0.017874289746053266 -0.054778112683608375 0 -0.016888217817599867 -0.054939390486733249 0 -0.0013150759985404846 -0.049330993573317591 0 -0.00041589192701950049 -0.049063034894396805 0 -0.00087519876415572859 -0.048512494020455946 0 -0.0013150759985404846 -0.049330993573317591 0 -0.0020831222516733338 -0.048531546526458615 0 -0.00087519876415572859 -0.048512494020455946 0 -0.00041589192701950049 -0.049063034894396805 0 0.0003055467355267508 -0.048738127105557354 0 -0.00024779155212787459 -0.04829623826286393 0 0.0003055467355267508 -0.048738127105557354 0 0.0015865753123892874 -0.048706478609751226 0 0.00036869292806340781 -0.049410943960723333 0 0.0003055467355267508 -0.048738127105557354 0 0.0015865753123892874 -0.048706478609751226 0 0.00030846492307903025 -0.048189767618720951 0 -0.00041589192701950049 -0.049063034894396805 0 0.0003055467355267508 -0.048738127105557354 0 0.00036869292806340781 -0.049410943960723333 0 0.0015865753123892874 -0.048706478609751226 0 0.0014646534613609848 -0.049724353209852037 0 0.00036869292806340781 -0.049410943960723333 0 0.0014646534613609848 -0.049724353209852037 0 0.00036869292806340781 -0.049410943960723333 0 0.00057063673504929619 -0.050249646063102206 0 0.00036869292806340781 -0.049410943960723333 0 0.00057063673504929619 -0.050249646063102206 0 -0.0005644601192850079 -0.050085641631292671 0 0.00057063673504929619 -0.050249646063102206 0 0.00083865542376979475 -0.050765625610019953 0 1.0671338289571951e-05 -0.050513828626985835 0 0.00057063673504929619 -0.050249646063102206 0 1.0671338289571951e-05 -0.050513828626985835 0 -0.0005644601192850079 -0.050085641631292671 0 0.00057063673504929619 -0.050249646063102206 0 0.00083865542376979475 -0.050765625610019953 0 0.0018897057892515304 -0.050684962463141449 0 0.0014646534613609848 -0.049724353209852037 0 0.00057063673504929619 -0.050249646063102206 0 0.0018897057892515304 -0.050684962463141449 0 0.0011192738836986007 -0.051558514898867584 0 0.0017352220461052249 -0.05075152521835271 0 -0.0047683981580876507 -0.050844247235692502 0 0.0011192738836986007 -0.051558514898867584 0 0.00023585103690297509 -0.050601977114371297 0 0.00083865542376979475 -0.050765625610019953 0 1.0671338289571951e-05 -0.050513828626985835 0 -0.0047683981580876507 -0.050844247235692502 0 -0.0099243715019043024 -0.05192218551341922 0 -0.017519226072066713 -0.052569782959259757 0 -0.018577599070465647 -0.053732026076561995 0 -0.017144491674860977 -0.053960955557077549 0 -0.0099243715019043024 -0.05192218551341922 0 -0.0091135304873352883 -0.052536687091188243 0 -0.018577599070465647 -0.053732026076561995 0 -0.017874289746053266 -0.054778112683608375 0 -0.017144491674860977 -0.053960955557077549 0 -0.017874289746053266 -0.054778112683608375 0 -0.017144491674860977 -0.053960955557077549 0 -0.016888217817599867 -0.054939390486733249 0 -0.017519226072066713 -0.052569782959259757 0 -0.017144491674860977 -0.053960955557077549 0 -0.016627452775493851 -0.052818216988967513 0 -0.017144491674860977 -0.053960955557077549 0 -0.016627452775493851 -0.052818216988967513 0 -0.016196864755568668 -0.054364455144093556 0 -0.015739733824154858 -0.053134749166526218 0 -0.016627452775493851 -0.052818216988967513 0 -0.016196864755568668 -0.054364455144093556 0 -0.015739733824154858 -0.053134749166526218 0 -0.016196864755568668 -0.054364455144093556 0 -0.01555856189015079 -0.054290124056127501 0 -0.016196864755568668 -0.054364455144093556 0 -0.01555856189015079 -0.054290124056127501 0 -0.015465132335973977 -0.055492355722735309 0 -0.017144491674860977 -0.053960955557077549 0 -0.016196864755568668 -0.054364455144093556 0 -0.016888217817599867 -0.054939390486733249 0 -0.016196864755568668 -0.054364455144093556 0 -0.016173328241552615 -0.05563596217457166 0 -0.016888217817599867 -0.054939390486733249 0 -0.014846778441626603 -0.055231150629010295 0 -0.014982947920192684 -0.054421484896347065 0 -0.01523750491505434 -0.054927510125217335 0 -0.015288598983159089 -0.053452510637522217 0 -0.014982947920192684 -0.054421484896347065 0 -0.01523750491505434 -0.054927510125217335 0 -0.015288598983159089 -0.053452510637522217 0 -0.015739733824154858 -0.053134749166526218 0 -0.01555856189015079 -0.054290124056127501 0 -0.015288598983159089 -0.053452510637522217 0 -0.01555856189015079 -0.054290124056127501 0 -0.01523750491505434 -0.054927510125217335 0 -0.01555856189015079 -0.054290124056127501 0 -0.01523750491505434 -0.054927510125217335 0 -0.015465132335973977 -0.055492355722735309 0 -0.01523750491505434 -0.054927510125217335 0 -0.015188841182771036 -0.056058702980881836 0 -0.015465132335973977 -0.055492355722735309 0 -0.015089997202435696 -0.05620241174302857 0 -0.01523750491505434 -0.054927510125217335 0 -0.015188841182771036 -0.056058702980881836 0 -0.015188841182771036 -0.056058702980881836 0 -0.015465132335973977 -0.055492355722735309 0 -0.015130171129827107 -0.056428207813695064 0 -0.015130171129827107 -0.056428207813695064 0 -0.015347979277390383 -0.056281334689300321 0 -0.014980193771616896 -0.056417278553523617 0 -0.015465132335973977 -0.055492355722735309 0 -0.015130171129827107 -0.056428207813695064 0 -0.015347979277390383 -0.056281334689300321 0 -0.015162257121160637 -0.056707867224793304 0 -0.015130171129827107 -0.056428207813695064 0 -0.015132609741698874 -0.056584694447532981 0 -0.015162257121160637 -0.056707867224793304 0 -0.015188841182771036 -0.056058702980881836 0 -0.015130171129827107 -0.056428207813695064 0 -0.017098091124819848 -0.055889493818134954 0 -0.016173328241552615 -0.05563596217457166 0 -0.016888217817599867 -0.054939390486733249 0 -0.015465132335973977 -0.055492355722735309 0 -0.016173328241552615 -0.05563596217457166 0 -0.015347979277390383 -0.056281334689300321 0 -0.016196864755568668 -0.054364455144093556 0 -0.015465132335973977 -0.055492355722735309 0 -0.016173328241552615 -0.05563596217457166 0 -0.016173328241552615 -0.05563596217457166 0 -0.015347979277390383 -0.056281334689300321 0 -0.016333684399588943 -0.056858461851348671 0 -0.017215070536979724 -0.057202055481242658 0 -0.01066158598202718 -0.055018653033841479 0 -0.0091654732314104207 -0.052295882033485425 0 -0.01066158598202718 -0.055018653033841479 0 -0.017098091124819848 -0.055889493818134954 0 -0.016173328241552615 -0.05563596217457166 0 -0.016333684399588943 -0.056858461851348671 0 -0.0080477692981607927 -0.061128689328854471 0 -0.0078517843242772636 -0.059117304002143878 0 -0.0065002091179633351 -0.06019077863719436 0 -0.01066158598202718 -0.055018653033841479 0 -0.0028752871595332159 -0.053469747240846091 0 -0.015032633637774831 -0.056362507859779684 0 -0.015073171773848516 -0.056361646155143011 0 -0.014860664981463134 -0.056341691601444817 0 -0.015347979277390383 -0.056281334689300321 0 -0.015032633637774831 -0.056362507859779684 0 -0.015073171773848516 -0.056361646155143011 0 -0.01066158598202718 -0.055018653033841479 0 -0.01221865128914525 -0.058318722238910957 0 -0.009725581832568192 -0.059138858425942673 0 -0.0078517843242772636 -0.059117304002143878 0 -0.0083806343462019019 -0.057019745623148828 0 -0.0080477692981607927 -0.061128689328854471 0 -0.009725581832568192 -0.059138858425942673 0 -0.0078517843242772636 -0.059117304002143878 0 -0.015132609741698874 -0.056584694447532981 0 -0.014980193771616896 -0.056417278553523617 0 -0.01475518818929606 -0.05630638047731909 0 -0.015130171129827107 -0.056428207813695064 0 -0.015132609741698874 -0.056584694447532981 0 -0.014980193771616896 -0.056417278553523617 0 -0.015073171773848516 -0.056361646155143011 0 -0.014860664981463134 -0.056341691601444817 0 -0.014980193771616896 -0.056417278553523617 0 -0.015347979277390383 -0.056281334689300321 0 -0.015073171773848516 -0.056361646155143011 0 -0.014980193771616896 -0.056417278553523617 0 -0.014860664981463134 -0.056341691601444817 0 -0.01475518818929606 -0.05630638047731909 0 -0.014369200073899207 -0.056081709884109189 0 -0.014860664981463134 -0.056341691601444817 0 -0.014980193771616896 -0.056417278553523617 0 -0.01475518818929606 -0.05630638047731909 0 -0.015485662181263746 -0.056490834560154544 0 -0.015132609741698874 -0.056584694447532981 0 -0.01475518818929606 -0.05630638047731909 0 -0.01475518818929606 -0.05630638047731909 0 -0.01431136155683208 -0.055906182019457712 0 -0.014369200073899207 -0.056081709884109189 0 -0.015402503251320098 -0.056156605057688977 0 -0.01475518818929606 -0.05630638047731909 0 -0.01431136155683208 -0.055906182019457712 0 -0.01221865128914525 -0.058318722238910957 0 -0.012961795427790827 -0.056388200819137993 0 -0.011450157884013467 -0.057091776979051018 0 -0.013188275122013805 -0.054999989892153267 0 -0.0099988429253987567 -0.054999956802198879 0 -0.01431136155683208 -0.055906182019457712 0 -0.014369200073899207 -0.056081709884109189 0 -0.013193121222782017 -0.054999715591383544 0 -0.012961795427790827 -0.056388200819137993 0 -0.01318850480140594 -0.055000325305296929 0 -0.0078517843242772636 -0.059117304002143878 0 -0.0083806343462019019 -0.057019745623148828 0 -0.0062206157020381235 -0.058388004706820915 0 -0.0083806343462019019 -0.057019745623148828 0 -0.0060639209634072225 -0.05662076124139611 0 -0.0062206157020381235 -0.058388004706820915 0 -0.009725581832568192 -0.059138858425942673 0 -0.011450157884013467 -0.057091776979051018 0 -0.0083806343462019019 -0.057019745623148828 0 -0.011450157884013467 -0.057091776979051018 0 -0.0083806343462019019 -0.057019745623148828 0 -0.0099988429253987567 -0.054999956802198879 0 -0.0083806343462019019 -0.057019745623148828 0 -0.0099988429253987567 -0.054999956802198879 0 -0.0068094502364661816 -0.054999978520973186 0 -0.0083806343462019019 -0.057019745623148828 0 -0.0068094502364661816 -0.054999978520973186 0 -0.0060639209634072225 -0.05662076124139611 0 -0.0068094502364661816 -0.054999978520973186 0 -0.0060639209634072225 -0.05662076124139611 0 -0.0036200161074969321 -0.054999922041940416 0 -0.0060639209634072225 -0.05662076124139611 0 -0.0036200161074969321 -0.054999922041940416 0 -0.0046576452987189118 -0.057561467839925391 0 -0.0046576452987189118 -0.057561467839925391 0 -0.0048957544215757522 -0.059356868577295739 0 -0.0028596817177269813 -0.058109367027463978 0 -0.0036200161074969321 -0.054999922041940416 0 -0.0046576452987189118 -0.057561467839925391 0 -0.0028596817177269813 -0.058109367027463978 0 -0.0060639209634072225 -0.05662076124139611 0 -0.0046576452987189118 -0.057561467839925391 0 -0.0062206157020381235 -0.058388004706820915 0 -0.0078517843242772636 -0.059117304002143878 0 -0.0062206157020381235 -0.058388004706820915 0 -0.0065002091179633351 -0.06019077863719436 0 -0.0046576452987189118 -0.057561467839925391 0 -0.0062206157020381235 -0.058388004706820915 0 -0.0048957544215757522 -0.059356868577295739 0 -0.0062206157020381235 -0.058388004706820915 0 -0.0049884867803934039 -0.059249960969654833 0 -0.0065002091179633351 -0.06019077863719436 0 -0.0038115406231179561 -0.056923250180492636 0 -0.0028752871595332159 -0.053469747240846091 0 -0.0057400679260061977 -0.058355283667368654 0 -0.0038115406231179561 -0.056923250180492636 0 -0.0029036891978383456 -0.059039507344142962 0 -0.0040911770313579949 -0.059015867001953826 0 -0.0025148584618274517 -0.060170833140882812 0 -0.0038115406231179561 -0.056923250180492636 0 0.0011624371479933796 -0.052914737489475963 0 -0.0038115406231179561 -0.056923250180492636 0 -0.0028650648784252926 -0.05829673343342167 0 -0.0029036891978383456 -0.059039507344142962 0 -0.0040911770313579949 -0.059015867001953826 0 -0.0024114133234259447 -0.057955846421879655 0 -0.00060893147266277898 -0.047656015631146749 0 -0.00024779155212787459 -0.04829623826286393 0 0.00022386270273591069 -0.04822811019404178 0 -0.00060893147266277898 -0.047656015631146749 0 -0.00024779155212787459 -0.04829623826286393 0 -0.00087519876415572859 -0.048512494020455946 0 -0.00041589192701950049 -0.049063034894396805 0 -0.00024779155212787459 -0.04829623826286393 0 -0.00087519876415572859 -0.048512494020455946 0 0.00025726621181247172 -0.050051974387089998 0 0.0011624371479933796 -0.052914737489475963 0 -0.0020831222516733338 -0.048531546526458615 0 -0.00087519876415572859 -0.048512494020455946 0 -0.0013359485548779038 -0.048070529315234728 0 -0.00060893147266277898 -0.047656015631146749 0 -0.00087519876415572859 -0.048512494020455946 0 -0.0013359485548779038 -0.048070529315234728 0 0.0085723018571356117 -0.056545967113367575 0 0.0086668540953893525 -0.05561949917509422 0 0.0069582681026421232 -0.055624298990467592 0 0.0044347889213037653 -0.058312791179130893 0 0.0011624371479933796 -0.052914737489475963 0 0.0055538345127194369 -0.052542197530148244 0 0.0011624371479933796 -0.052914737489475963 0 0.0003055467355267508 -0.048738127105557354 0 -0.00024779155212787459 -0.04829623826286393 0 0.00030846492307903025 -0.048189767618720951 0 -0.0029036891978383456 -0.059039507344142962 0 -0.0025148584618274517 -0.060170833140882812 0 -0.001450325477543563 -0.058972757564846441 0 -0.0029036891978383456 -0.059039507344142962 0 -0.001450325477543563 -0.058972757564846441 0 -0.0024114133234259447 -0.057955846421879655 0 -2.1963339917715862e-05 -0.05979993496988522 0 -0.001450325477543563 -0.058972757564846441 0 0.00049166429201171597 -0.058034593891493229 0 -2.1963339917715862e-05 -0.05979993496988522 0 -0.0025148584618274517 -0.060170833140882812 0 -0.001450325477543563 -0.058972757564846441 0 -0.001450325477543563 -0.058972757564846441 0 -0.00076600378773580694 -0.056812718888387202 0 0.00049166429201171597 -0.058034593891493229 0 -0.001450325477543563 -0.058972757564846441 0 -0.00076600378773580694 -0.056812718888387202 0 -0.0024114133234259447 -0.057955846421879655 0 -0.00079075471373685484 -0.056821475638445709 0 -0.0028650648784252926 -0.05829673343342167 0 -0.0036200161074969321 -0.054999922041940416 0 -0.00076600378773580694 -0.056812718888387202 0 -0.0028596817177269813 -0.058109367027463978 0 -0.0036200161074969321 -0.054999922041940416 0 -0.00076600378773580694 -0.056812718888387202 0 -0.00043033212793434011 -0.054999937735922322 0 -0.00076600378773580694 -0.056812718888387202 0 -0.00043033212793434011 -0.054999937735922322 0 0.00083611190782444968 -0.056382685538898511 0 -0.00043033212793434011 -0.054999937735922322 0 0.00083611190782444968 -0.056382685538898511 0 0.002758925778707393 -0.054999889769714698 0 0.002758925778707393 -0.054999889769714698 0 0.0021039493709263881 -0.05705984639671647 0 0.0043466657437682384 -0.056831992788888112 0 0.00083611190782444968 -0.056382685538898511 0 0.002758925778707393 -0.054999889769714698 0 0.0021039493709263881 -0.05705984639671647 0 0.0021039493709263881 -0.05705984639671647 0 0.0043466657437682384 -0.056831992788888112 0 0.0027435486105804058 -0.059377496300914351 0 0.00083611190782444968 -0.056382685538898511 0 0.0021039493709263881 -0.05705984639671647 0 0.00049166429201171597 -0.058034593891493229 0 -0.00076600378773580694 -0.056812718888387202 0 0.00083611190782444968 -0.056382685538898511 0 0.00049166429201171597 -0.058034593891493229 0 0.0021039493709263881 -0.05705984639671647 0 0.00049166429201171597 -0.058034593891493229 0 0.0027435486105804058 -0.059377496300914351 0 0.0059490170127863388 -0.054999405241126877 0 0.0043466657437682384 -0.056831992788888112 0 0.0070885272647988407 -0.056434443818224503 0 0.002758925778707393 -0.054999889769714698 0 0.0059490170127863388 -0.054999405241126877 0 0.0043466657437682384 -0.056831992788888112 0 0.0043466657437682384 -0.056831992788888112 0 0.0070885272647988407 -0.056434443818224503 0 0.0058256858551292041 -0.058734798343535399 0 0.0070885272647988407 -0.056434443818224503 0 0.0058256858551292041 -0.058734798343535399 0 0.0095411602486618723 -0.057160006486021174 0 0.010022057054071066 -0.056640978569758624 0 0.010007809836108454 -0.056675273338376207 0 0.0095411602486618723 -0.057160006486021174 0 0.0043466657437682384 -0.056831992788888112 0 0.0058256858551292041 -0.058734798343535399 0 0.0027435486105804058 -0.059377496300914351 0 0.0078916011617660743 -0.057648124544601394 0 0.0061656276896952869 -0.057625173643764613 0 0.010022057054071066 -0.056640978569758624 0 0.0099576841853167928 -0.056417594821201476 0 0.0096857260716387492 -0.055989536300595583 0 0.0099576841853167928 -0.056417594821201476 0 0.0097363050616201194 -0.056404004259445535 0 0.010045096635801911 -0.056542546634902768 0 0.010022057054071066 -0.056640978569758624 0 0.0099576841853167928 -0.056417594821201476 0 0.010007809836108454 -0.056675273338376207 0 0.0099576841853167928 -0.056417594821201476 0 0.010007809836108454 -0.056675273338376207 0 0.010045096635801911 -0.056542546634902768 0 0.0044347889213037653 -0.058312791179130893 0 0.0061656276896952869 -0.057625173643764613 0 -2.1963339917715862e-05 -0.05979993496988522 0 0.00049166429201171597 -0.058034593891493229 0 0.0027435486105804058 -0.059377496300914351 0 0.0099576841853167928 -0.056417594821201476 0 0.0096857260716387492 -0.055989536300595583 0 0.0097363050616201194 -0.056404004259445535 0 0.0086668540953893525 -0.05561949917509422 0 0.0096857260716387492 -0.055989536300595583 0 0.0097363050616201194 -0.056404004259445535 0 0.0085723018571356117 -0.056545967113367575 0 0.0086668540953893525 -0.05561949917509422 0 0.0097363050616201194 -0.056404004259445535 0 0.0085723018571356117 -0.056545967113367575 0 0.0097444043786258424 -0.056701307364829735 0 0.0097363050616201194 -0.056404004259445535 0 0.0014646534613609848 -0.049724353209852037 0 0.0038865433973943476 -0.049492482336706153 0 0.0018897057892515304 -0.050684962463141449 0 0.0015865753123892874 -0.048706478609751226 0 0.0014646534613609848 -0.049724353209852037 0 0.0038865433973943476 -0.049492482336706153 0 0.0055538345127194369 -0.052542197530148244 0 0.0067261908562049784 -0.053092127909051066 0 0.0097444043786258424 -0.056701307364829735 0 0.0097363050616201194 -0.056404004259445535 0 0.010073552489780735 -0.056470077162330753 0 0.0097363050616201194 -0.056404004259445535 0 0.010045096635801911 -0.056542546634902768 0 0.010073552489780735 -0.056470077162330753 0 0.010007809836108454 -0.056675273338376207 0 0.010045096635801911 -0.056542546634902768 0 0.010039252153603294 -0.056716626627507025 0 0.010045096635801911 -0.056542546634902768 0 0.010014979031802347 -0.056358510569400895 0 0.010039252153603294 -0.056716626627507025 0 0.010045096635801911 -0.056542546634902768 0 0.010014979031802347 -0.056358510569400895 0 0.010073552489780735 -0.056470077162330753 0 0.010014979031802347 -0.056358510569400895 0 0.010073552489780735 -0.056470077162330753 0 0.01031822088789491 -0.056004829315381581 0 0.0097444043786258424 -0.056701307364829735 0 0.010073552489780735 -0.056470077162330753 0 0.01031822088789491 -0.056004829315381581 0 0.0067261908562049784 -0.053092127909051066 0 0.0086865629652867378 -0.053828357238550666 0 0.01031822088789491 -0.056004829315381581 0 0.0097766826110593282 -0.054651391300845252 0 0.0094990535576269918 -0.055630321257361871 0 0.010014979031802347 -0.056358510569400895 0 0.01031822088789491 -0.056004829315381581 0 0.0094990535576269918 -0.055630321257361871 0 0.0086865629652867378 -0.053828357238550666 0 0.0096739612287807097 -0.054549541425627054 0 0.0071704251860329081 -0.051630166309804749 0 0.0078244784700868143 -0.054013542121800082 0 0.0097766826110593282 -0.054651391300845252 0 0.0078244784700868143 -0.054013542121800082 0 0.0097766826110593282 -0.054651391300845252 0 0.0089487345986542424 -0.054841429756667379 0 0.0071704251860329081 -0.051630166309804749 0 0.0061248185325682063 -0.053894644820959778 0 0.0042990144917552636 -0.051909115063292086 0 0.0071704251860329081 -0.051630166309804749 0 0.0078244784700868143 -0.054013542121800082 0 0.0061248185325682063 -0.053894644820959778 0 0.0027737491503349505 -0.052885421710989193 0 0.0042990144917552636 -0.051909115063292086 0 0.0041679305281085537 -0.054288238289093751 0 0.0061248185325682063 -0.053894644820959778 0 0.0042990144917552636 -0.051909115063292086 0 0.0041679305281085537 -0.054288238289093751 0 0.0010310724542635758 -0.052755973763194096 0 0.0027737491503349505 -0.052885421710989193 0 0.0018897057892515304 -0.050684962463141449 0 0.0027737491503349505 -0.052885421710989193 0 0.0041679305281085537 -0.054288238289093751 0 0.0022438510293671587 -0.054540114344618133 0 0.0010310724542635758 -0.052755973763194096 0 0.0027737491503349505 -0.052885421710989193 0 0.0022438510293671587 -0.054540114344618133 0 0.0027737491503349505 -0.052885421710989193 0 0.0018897057892515304 -0.050684962463141449 0 0.0042990144917552636 -0.051909115063292086 0 0.0038865433973943476 -0.049492482336706153 0 0.0018897057892515304 -0.050684962463141449 0 0.0042990144917552636 -0.051909115063292086 0 0.0038865433973943476 -0.049492482336706153 0 0.0071704251860329081 -0.051630166309804749 0 0.0042990144917552636 -0.051909115063292086 0 0.012091215517007202 -0.056553970248298766 0 0.011968003979074071 -0.056753435281462539 0 0.012067674597329837 -0.056882775327121708 0 0.013526105064655706 -0.056928262023218337 0 0.012067674597329837 -0.056882775327121708 0 0.012683301507073527 -0.05680078216298267 0 0.012504949646234416 -0.056235515478298539 0 0.012091215517007202 -0.056553970248298766 0 0.012067674597329837 -0.056882775327121708 0 0.012997078694823493 -0.05658625087632152 0 0.012165243779717215 -0.05679729680914844 0 0.013526105064655706 -0.056928262023218337 0 0.012683301507073527 -0.05680078216298267 0 0.013721560998097631 -0.056475501848290546 0 0.012504949646234416 -0.056235515478298539 0 0.012265867265226126 -0.056538427302709984 0 0.012647963998187423 -0.056702108749407815 0 0.012504949646234416 -0.056235515478298539 0 0.012265867265226126 -0.056538427302709984 0 0.012091215517007202 -0.056553970248298766 0 0.012265867265226126 -0.056538427302709984 0 0.012091215517007202 -0.056553970248298766 0 0.012006188813601324 -0.056609688250069755 0 0.011706527611826424 -0.056574763287473802 0 0.011866373622066363 -0.05657048363536344 0 0.01199070471074975 -0.056672700777982608 0 0.012006188813601324 -0.056609688250069755 0 0.011866373622066363 -0.05657048363536344 0 0.011670898599518864 -0.056658506974544685 0 0.011706527611826424 -0.056574763287473802 0 0.011866373622066363 -0.05657048363536344 0 0.011670898599518864 -0.056658506974544685 0 0.012091215517007202 -0.056553970248298766 0 0.012006188813601324 -0.056609688250069755 0 0.011866373622066363 -0.05657048363536344 0 0.010743505784413613 -0.056141591882276812 0 0.010571783959258327 -0.055715717323251021 0 0.011706527611826424 -0.056574763287473802 0 0.01199070471074975 -0.056672700777982608 0 0.011390513024113608 -0.056529101327159617 0 0.0097766826110593282 -0.054651391300845252 0 0.0094990535576269918 -0.055630321257361871 0 0.009833396244946559 -0.054564511806776433 0 0.01199070471074975 -0.056672700777982608 0 0.011968003979074071 -0.056753435281462539 0 0.011770139071730334 -0.057159274874407383 0 0.012091215517007202 -0.056553970248298766 0 0.011866373622066363 -0.05657048363536344 0 0.011968003979074071 -0.056753435281462539 0 0.011866373622066363 -0.05657048363536344 0 0.01199070471074975 -0.056672700777982608 0 0.011968003979074071 -0.056753435281462539 0 0.011770139071730334 -0.057159274874407383 0 0.012164820687321876 -0.057081582665349379 0 0.012067674597329837 -0.056882775327121708 0 0.011968003979074071 -0.056753435281462539 0 0.011770139071730334 -0.057159274874407383 0 0.012067674597329837 -0.056882775327121708 0 0.010743505784413613 -0.056141591882276812 0 0.010761041488854942 -0.056792484626966434 0 0.010014979031802347 -0.056358510569400895 0 0.0094990535576269918 -0.055630321257361871 0 0.0097854899248120443 -0.056589607148452965 0 0.010039252153603294 -0.056716626627507025 0 0.0097854899248120443 -0.056589607148452965 0 0.010610939389146336 -0.05706588898293774 0 0.010014979031802347 -0.056358510569400895 0 0.010039252153603294 -0.056716626627507025 0 0.0097854899248120443 -0.056589607148452965 0 0.011770139071730334 -0.057159274874407383 0 0.011969346062445561 -0.057274074257757608 0 0.010610939389146336 -0.05706588898293774 0 0.011770139071730334 -0.057159274874407383 0 0.011969346062445561 -0.057274074257757608 0 0.012164820687321876 -0.057081582665349379 0 0.010761041488854942 -0.056792484626966434 0 0.010662705951819012 -0.056949772160873172 0 0.011969346062445561 -0.057274074257757608 0 0.012164820687321876 -0.057081582665349379 0 0.012709301894320671 -0.057310582352436815 0 0.012164820687321876 -0.057081582665349379 0 0.012683301507073527 -0.05680078216298267 0 0.012709301894320671 -0.057310582352436815 0 0.012164820687321876 -0.057081582665349379 0 0.012067674597329837 -0.056882775327121708 0 0.012683301507073527 -0.05680078216298267 0 0.012683301507073527 -0.05680078216298267 0 0.012709301894320671 -0.057310582352436815 0 0.013449709119612206 -0.057753247319539174 0 0.012858107075202669 -0.056806201969360502 0 0.01391899869624438 -0.056649583806959135 0 0.012683301507073527 -0.05680078216298267 0 0.0143429242279991 -0.055610791501780922 0 0.013721560998097631 -0.056475501848290546 0 0.012998453574962489 -0.057272632513919813 0 0.012709301894320671 -0.057310582352436815 0 0.013449709119612206 -0.057753247319539174 0 0.011969346062445561 -0.057274074257757608 0 0.012998453574962489 -0.057272632513919813 0 0.012709301894320671 -0.057310582352436815 0 0.012998453574962489 -0.057272632513919813 0 0.011881318997843721 -0.057083181007220374 0 0.013334743537887809 -0.056891912165466491 0 0.011969346062445561 -0.057274074257757608 0 0.012998453574962489 -0.057272632513919813 0 0.011881318997843721 -0.057083181007220374 0 0.011969346062445561 -0.057274074257757608 0 0.011881318997843721 -0.057083181007220374 0 0.010610939389146336 -0.05706588898293774 0 0.011881318997843721 -0.057083181007220374 0 0.010864692087784421 -0.057003885110630204 0 0.011556759750603707 -0.056498855372458412 0 0.011881318997843721 -0.057083181007220374 0 0.013334743537887809 -0.056891912165466491 0 0.011556759750603707 -0.056498855372458412 0 0.010007809836108454 -0.056675273338376207 0 0.010039252153603294 -0.056716626627507025 0 0.010610939389146336 -0.05706588898293774 0 0.011881318997843721 -0.057083181007220374 0 0.010610939389146336 -0.05706588898293774 0 0.010864692087784421 -0.057003885110630204 0 0.010864692087784421 -0.057003885110630204 0 0.0095411602486618723 -0.057160006486021174 0 0.011556759750603707 -0.056498855372458412 0 0.010610939389146336 -0.05706588898293774 0 0.010864692087784421 -0.057003885110630204 0 0.0095411602486618723 -0.057160006486021174 0 0.0078916011617660743 -0.057648124544601394 0 0.0093947866309624095 -0.057235938045239666 0 0.010007809836108454 -0.056675273338376207 0 0.010610939389146336 -0.05706588898293774 0 0.0095411602486618723 -0.057160006486021174 0 0.0070885272647988407 -0.056434443818224503 0 0.0095411602486618723 -0.057160006486021174 0 0.009138905138763212 -0.054999594409359483 0 0.0095411602486618723 -0.057160006486021174 0 0.009138905138763212 -0.054999594409359483 0 0.011556759750603707 -0.056498855372458412 0 0.0059490170127863388 -0.054999405241126877 0 0.0070885272647988407 -0.056434443818224503 0 0.009138905138763212 -0.054999594409359483 0 0.013334743537887809 -0.056891912165466491 0 0.011556759750603707 -0.056498855372458412 0 0.014214357438337991 -0.056287634097985026 0 0.009138905138763212 -0.054999594409359483 0 0.011556759750603707 -0.056498855372458412 0 0.012327401665904269 -0.054999324505959277 0 0.011556759750603707 -0.056498855372458412 0 0.012327401665904269 -0.054999324505959277 0 0.014214357438337991 -0.056287634097985026 0 0.012327401665904269 -0.054999324505959277 0 0.014214357438337991 -0.056287634097985026 0 0.015515569816236165 -0.054999669123591964 0 0.014214357438337991 -0.056287634097985026 0 0.016202211851517788 -0.056384903694454591 0 0.01496525799572971 -0.05666089967618812 0 0.014214357438337991 -0.056287634097985026 0 0.016202211851517788 -0.056384903694454591 0 0.015515569816236165 -0.054999669123591964 0 0.016202211851517788 -0.056384903694454591 0 0.015515569816236165 -0.054999669123591964 0 0.018705019803717627 -0.054999243445885262 0 0.016202211851517788 -0.056384903694454591 0 0.018705019803717627 -0.054999243445885262 0 0.020107674542946961 -0.05724816603777054 0 0.018705019803717627 -0.054999243445885262 0 0.020107674542946961 -0.05724816603777054 0 0.021895800117728521 -0.055000283298429833 0 0.016202211851517788 -0.056384903694454591 0 0.015892694078927714 -0.05621420065919 0 0.015827412992891105 -0.056206284266584007 0 0.016534476363684117 -0.056444482431174753 0 0.017511566046272783 -0.056686428606404847 0 0.016202211851517788 -0.056384903694454591 0 0.015827412992891105 -0.056206284266584007 0 0.01496525799572971 -0.05666089967618812 0 0.015892694078927714 -0.05621420065919 0 0.015827412992891105 -0.056206284266584007 0 0.01594077690770581 -0.056049888592312559 0 0.015827412992891105 -0.056206284266584007 0 0.015862636756922181 -0.056104660908491602 0 0.01594077690770581 -0.056049888592312559 0 0.015827412992891105 -0.056206284266584007 0 0.01496525799572971 -0.05666089967618812 0 0.015054028355150873 -0.057230690467902565 0 0.015827412992891105 -0.056206284266584007 0 0.015862636756922181 -0.056104660908491602 0 0.015054028355150873 -0.057230690467902565 0 0.014016282903765463 -0.057149221429357237 0 0.01496525799572971 -0.05666089967618812 0 0.015054028355150873 -0.057230690467902565 0 0.012998453574962489 -0.057272632513919813 0 0.013334743537887809 -0.056891912165466491 0 0.014016282903765463 -0.057149221429357237 0 0.013334743537887809 -0.056891912165466491 0 0.014016282903765463 -0.057149221429357237 0 0.01496525799572971 -0.05666089967618812 0 0.013334743537887809 -0.056891912165466491 0 0.014214357438337991 -0.056287634097985026 0 0.01496525799572971 -0.05666089967618812 0 0.027140096872739956 -0.056482658711021129 0 0.025248423992027622 -0.054999836659210308 0 0.029763698768325356 -0.054999605684097404 0 0.027140096872739956 -0.056482658711021129 0 0.025959068538055321 -0.057493621556204938 0 0.027159137132753391 -0.057957795884951799 0 0.027140096872739956 -0.056482658711021129 0 0.025248423992027622 -0.054999836659210308 0 0.025959068538055321 -0.057493621556204938 0 0.025248423992027622 -0.054999836659210308 0 0.025959068538055321 -0.057493621556204938 0 0.023404638372029839 -0.057418396553404839 0 0.026827821035036916 -0.057633163971198845 0 0.021566357896251841 -0.056845812590522266 0 0.021566357896251841 -0.056845812590522266 0 0.021897338108371377 -0.055001996727242229 0 0.025248423992027622 -0.054999836659210308 0 0.023404638372029839 -0.057418396553404839 0 0.021895586868794083 -0.054999974004069738 0 0.020107674542946961 -0.05724816603777054 0 0.02316198776558365 -0.057520106865274853 0 0.021895800117728521 -0.055000283298429833 0 0.017511566046272783 -0.056686428606404847 0 0.021566357896251841 -0.056845812590522266 0 0.015892694078927714 -0.05621420065919 0 0.015928250273425433 -0.056130583957859859 0 0.01594077690770581 -0.056049888592312559 0 0.015862636756922181 -0.056104660908491602 0 0.01594077690770581 -0.056049888592312559 0 0.015991556800334653 -0.055661150060673875 0 0.01594077690770581 -0.056049888592312559 0 0.015879391658643525 -0.055942777845245727 0 0.015991556800334653 -0.055661150060673875 0 0.015928250273425433 -0.056130583957859859 0 0.01594077690770581 -0.056049888592312559 0 0.015879391658643525 -0.055942777845245727 0 0.021566357896251841 -0.056845812590522266 0 0.020552950721647957 -0.057015513224169929 0 0.025959068538055321 -0.057493621556204938 0 0.025718570859866771 -0.058591329783451961 0 0.026764757094013596 -0.058759574594403445 0 0.025959068538055321 -0.057493621556204938 0 0.024923871180255561 -0.057398327160901125 0 0.025718570859866771 -0.058591329783451961 0 0.025718570859866771 -0.058591329783451961 0 0.026676944402251344 -0.059184233621409621 0 0.026362133810526416 -0.059458775847447527 0 0.020552950721647957 -0.057015513224169929 0 0.021520027679715583 -0.058367680002993624 0 0.015879391658643525 -0.055942777845245727 0 0.015903137737693737 -0.055548801493476081 0 0.015991556800334653 -0.055661150060673875 0 0.025718570859866771 -0.058591329783451961 0 0.026764757094013596 -0.058759574594403445 0 0.026676944402251344 -0.059184233621409621 0 0.026854821979488238 -0.059072137147059375 0 0.028475071843524543 -0.057881218019768706 0 0.026764757094013596 -0.058759574594403445 0 0.026676944402251344 -0.059184233621409621 0 0.028027186639690886 -0.059131460999646904 0 0.026764757094013596 -0.058759574594403445 0 0.027159137132753391 -0.057957795884951799 0 0.028027186639690886 -0.059131460999646904 0 0.025959068538055321 -0.057493621556204938 0 0.026764757094013596 -0.058759574594403445 0 0.027159137132753391 -0.057957795884951799 0 0.015903137737693737 -0.055548801493476081 0 0.016132281469498001 -0.054766100206567685 0 0.015821194722188407 -0.054819669645291155 0 0.021520027679715583 -0.058367680002993624 0 0.020327221791732904 -0.054544099234931517 0 0.026676944402251344 -0.059184233621409621 0 0.026362133810526416 -0.059458775847447527 0 0.027576018939643385 -0.061834664578591311 0 0.015903137737693737 -0.055548801493476081 0 0.016123876962232931 -0.055117876179470955 0 0.015991556800334653 -0.055661150060673875 0 0.015903137737693737 -0.055548801493476081 0 0.016123876962232931 -0.055117876179470955 0 0.016132281469498001 -0.054766100206567685 0 0.016074473676218577 -0.055236149877052415 0 0.015991556800334653 -0.055661150060673875 0 0.015914774386572034 -0.0555218279194271 0 0.016123876962232931 -0.055117876179470955 0 0.016074473676218577 -0.055236149877052415 0 0.015991556800334653 -0.055661150060673875 0 0.015862636756922181 -0.056104660908491602 0 0.015991556800334653 -0.055661150060673875 0 0.015914774386572034 -0.0555218279194271 0 0.016074473676218577 -0.055236149877052415 0 0.015914774386572034 -0.0555218279194271 0 0.015981450334138121 -0.055320000540380047 0 0.015914774386572034 -0.0555218279194271 0 0.015981450334138121 -0.055320000540380047 0 0.015790674566726601 -0.055547886536171751 0 0.015981450334138121 -0.055320000540380047 0 0.0159112150662548 -0.055391236547979977 0 0.015790674566726601 -0.055547886536171751 0 0.0159112150662548 -0.055391236547979977 0 0.015659906388241471 -0.055718834223984777 0 0.016017698180703678 -0.055277141446637278 0 0.0159112150662548 -0.055391236547979977 0 0.016113636093916622 -0.055057933181388463 0 0.016017698180703678 -0.055277141446637278 0 0.015981450334138121 -0.055320000540380047 0 0.0159112150662548 -0.055391236547979977 0 0.016113636093916622 -0.055057933181388463 0 0.016113636093916622 -0.055057933181388463 0 0.016172742478690424 -0.054929495769511595 0 0.016017698180703678 -0.055277141446637278 0 0.016113636093916622 -0.055057933181388463 0 0.016209192726106457 -0.054856229047311619 0 0.016270695148887251 -0.054658275072184265 0 0.016113636093916622 -0.055057933181388463 0 0.016172742478690424 -0.054929495769511595 0 0.016270695148887251 -0.054658275072184265 0 0.016074473676218577 -0.055236149877052415 0 0.015981450334138121 -0.055320000540380047 0 0.016113636093916622 -0.055057933181388463 0 0.016074473676218577 -0.055236149877052415 0 0.016113636093916622 -0.055057933181388463 0 0.016209192726106457 -0.054856229047311619 0 0.016123876962232931 -0.055117876179470955 0 0.016074473676218577 -0.055236149877052415 0 0.016209192726106457 -0.054856229047311619 0 0.016123876962232931 -0.055117876179470955 0 0.016237159397209457 -0.054676707182941944 0 0.016209192726106457 -0.054856229047311619 0 0.016123876962232931 -0.055117876179470955 0 0.016237159397209457 -0.054676707182941944 0 0.016132281469498001 -0.054766100206567685 0 0.016237159397209457 -0.054676707182941944 0 0.016209192726106457 -0.054856229047311619 0 0.016353708243635696 -0.054351456076586285 0 0.016209192726106457 -0.054856229047311619 0 0.016270695148887251 -0.054658275072184265 0 0.016353708243635696 -0.054351456076586285 0 0.016172742478690424 -0.054929495769511595 0 0.016270695148887251 -0.054658275072184265 0 0.016294530388108752 -0.054599080859827544 0 0.016270695148887251 -0.054658275072184265 0 0.01640255241325235 -0.054189657582591831 0 0.016294530388108752 -0.054599080859827544 0 0.016270695148887251 -0.054658275072184265 0 0.01640255241325235 -0.054189657582591831 0 0.016353708243635696 -0.054351456076586285 0 0.01640255241325235 -0.054189657582591831 0 0.016353708243635696 -0.054351456076586285 0 0.0165042180607511 -0.05386269815913914 0 0.016353708243635696 -0.054351456076586285 0 0.0165042180607511 -0.05386269815913914 0 0.016308919505215149 -0.054327173336169661 0 0.01640255241325235 -0.054189657582591831 0 0.016533044907845521 -0.053676318610113377 0 0.0165042180607511 -0.05386269815913914 0 0.016533044907845521 -0.053676318610113377 0 0.0165042180607511 -0.05386269815913914 0 0.016770771344563493 -0.052986216561619587 0 0.0165042180607511 -0.05386269815913914 0 0.016308919505215149 -0.054327173336169661 0 0.016329177202195823 -0.05373771213779182 0 0.016308919505215149 -0.054327173336169661 0 0.016173028425779126 -0.054558281985297025 0 0.016329177202195823 -0.05373771213779182 0 0.016237159397209457 -0.054676707182941944 0 0.016353708243635696 -0.054351456076586285 0 0.016308919505215149 -0.054327173336169661 0 0.016237159397209457 -0.054676707182941944 0 0.016308919505215149 -0.054327173336169661 0 0.016132281469498001 -0.054766100206567685 0 0.016308919505215149 -0.054327173336169661 0 0.016132281469498001 -0.054766100206567685 0 0.016173028425779126 -0.054558281985297025 0 0.015410273022348523 -0.054902927739677976 0 0.020327221791732904 -0.054544099234931517 0 0.0143429242279991 -0.055610791501780922 0 0.015380836538123357 -0.055478147387262741 0 0.015136123287745041 -0.056009755277855608 0 0.0143429242279991 -0.055610791501780922 0 0.014357497550122517 -0.056351260111158534 0 0.013721560998097631 -0.056475501848290546 0 0.012998453574962489 -0.057272632513919813 0 0.014016282903765463 -0.057149221429357237 0 0.013449709119612206 -0.057753247319539174 0 0.01391899869624438 -0.056649583806959135 0 0.015160396333742771 -0.056362018428621222 0 0.014016282903765463 -0.057149221429357237 0 0.013449709119612206 -0.057753247319539174 0 0.015054028355150873 -0.057230690467902565 0 0.015756539369704257 -0.056148913307438444 0 0.015160396333742771 -0.056362018428621222 0 0.015862636756922181 -0.056104660908491602 0 0.015380836538123357 -0.055478147387262741 0 0.015690039769534633 -0.055643641785036127 0 0.015862636756922181 -0.056104660908491602 0 0.015914774386572034 -0.0555218279194271 0 0.015690039769534633 -0.055643641785036127 0 0.015914774386572034 -0.0555218279194271 0 0.015690039769534633 -0.055643641785036127 0 0.015790674566726601 -0.055547886536171751 0 0.015380836538123357 -0.055478147387262741 0 0.015690039769534633 -0.055643641785036127 0 0.015136123287745041 -0.056009755277855608 0 0.015690039769534633 -0.055643641785036127 0 0.015469153039234846 -0.055847460336725753 0 0.015136123287745041 -0.056009755277855608 0 0.015690039769534633 -0.055643641785036127 0 0.015790674566726601 -0.055547886536171751 0 0.015469153039234846 -0.055847460336725753 0 0.0159112150662548 -0.055391236547979977 0 0.015790674566726601 -0.055547886536171751 0 0.015659906388241471 -0.055718834223984777 0 0.015790674566726601 -0.055547886536171751 0 0.015659906388241471 -0.055718834223984777 0 0.015469153039234846 -0.055847460336725753 0 0.015149663367581936 -0.05619586392615538 0 0.015469153039234846 -0.055847460336725753 0 0.015136123287745041 -0.056009755277855608 0 0.015659906388241471 -0.055718834223984777 0 0.015149663367581936 -0.05619586392615538 0 0.015469153039234846 -0.055847460336725753 0 0.015149663367581936 -0.05619586392615538 0 0.015136123287745041 -0.056009755277855608 0 0.014742768550159975 -0.056574179252251791 0 0.015136123287745041 -0.056009755277855608 0 0.014357497550122517 -0.056351260111158534 0 0.014742768550159975 -0.056574179252251791 0 0.0143429242279991 -0.055610791501780922 0 0.015136123287745041 -0.056009755277855608 0 0.014357497550122517 -0.056351260111158534 0 0.013526105064655706 -0.056928262023218337 0 0.014357497550122517 -0.056351260111158534 0 0.013721560998097631 -0.056475501848290546 0 0.012997078694823493 -0.05658625087632152 0 0.014182591073982087 -0.05640136575930485 0 0.013526105064655706 -0.056928262023218337 0 0.014357497550122517 -0.056351260111158534 0 0.014742768550159975 -0.056574179252251791 0 0.012504949646234416 -0.056235515478298539 0 0.013622113253781338 -0.05621743361801948 0 0.012647963998187423 -0.056702108749407815 0 0.013306692658314898 -0.05679128749808688 0 0.013622113253781338 -0.05621743361801948 0 0.012647963998187423 -0.056702108749407815 0 0.013306692658314898 -0.05679128749808688 0 0.012647963998187423 -0.056702108749407815 0 0.012873763933236934 -0.057110950525756564 0 0.015676063946912018 -0.05572481874860926 0 0.015618501566408967 -0.056043883656636095 0 0.014112180143395764 -0.05613064029957722 0 0.013306692658314898 -0.05679128749808688 0 0.01343127974019925 -0.057353295994737992 0 0.012873763933236934 -0.057110950525756564 0 0.013306692658314898 -0.05679128749808688 0 0.01343127974019925 -0.057353295994737992 0 0.014087070862257058 -0.056683634890481692 0 0.015676063946912018 -0.05572481874860926 0 0.016670215034061159 -0.055284179255107507 0 0.016650175006306361 -0.055397208221220878 0 0.014584938439755857 -0.056441968180030937 0 0.015745304279838009 -0.056673288301749052 0 0.01343127974019925 -0.057353295994737992 0 0.014087070862257058 -0.056683634890481692 0 0.015003274925792216 -0.056875422960109612 0 0.015676063946912018 -0.05572481874860926 0 0.016650175006306361 -0.055397208221220878 0 0.015618501566408967 -0.056043883656636095 0 0.013306692658314898 -0.05679128749808688 0 0.014087070862257058 -0.056683634890481692 0 0.013622113253781338 -0.05621743361801948 0 0.014182591073982087 -0.05640136575930485 0 0.015066529155931492 -0.056405915309045616 0 0.014087070862257058 -0.056683634890481692 0 0.013622113253781338 -0.05621743361801948 0 0.0151275013610986 -0.056340279690536892 0 0.015149663367581936 -0.05619586392615538 0 0.014742768550159975 -0.056574179252251791 0 0.0151275013610986 -0.056340279690536892 0 0.015149663367581936 -0.05619586392615538 0 0.015368886781904276 -0.056063478050540412 0 0.0151275013610986 -0.056340279690536892 0 0.015659906388241471 -0.055718834223984777 0 0.015149663367581936 -0.05619586392615538 0 0.015368886781904276 -0.056063478050540412 0 0.015659906388241471 -0.055718834223984777 0 0.01551631596971197 -0.056051751489402155 0 0.015843637929183595 -0.055650565627843082 0 0.015659906388241471 -0.055718834223984777 0 0.015368886781904276 -0.056063478050540412 0 0.01551631596971197 -0.056051751489402155 0 0.015368886781904276 -0.056063478050540412 0 0.01551631596971197 -0.056051751489402155 0 0.0151275013610986 -0.056340279690536892 0 0.015883199168169736 -0.046426730033565268 0 0.016820336882816096 -0.050721069261968239 0 0.014906660028977994 -0.038575267825969928 0 0.015507090280919627 -0.038838233018881951 0 0.016682449708365982 -0.038389974055274473 0 0.015745304279838009 -0.056673288301749052 0 0.016820336882816096 -0.050721069261968239 0 0.01551631596971197 -0.056051751489402155 0 0.015003274925792216 -0.056875422960109612 0 0.015880477413759371 -0.055998893267624521 0 0.016670215034061159 -0.055284179255107507 0 0.016650175006306361 -0.055397208221220878 0 0.017415568385168195 -0.054826987640373012 0 0.014087070862257058 -0.056683634890481692 0 0.0151275013610986 -0.056340279690536892 0 0.015003274925792216 -0.056875422960109612 0 0.01551631596971197 -0.056051751489402155 0 0.0151275013610986 -0.056340279690536892 0 0.015003274925792216 -0.056875422960109612 0 0.014906660028977994 -0.038575267825969928 0 0.014852662441036229 -0.03876937700536378 0 0.014735249163032302 -0.038749566821023575 0 0.014906660028977994 -0.038575267825969928 0 0.014852662441036229 -0.03876937700536378 0 0.015071322646025929 -0.038816934642402351 0 0.014906660028977994 -0.038575267825969928 0 0.015071322646025929 -0.038816934642402351 0 0.015507090280919627 -0.038838233018881951 0 0.015071322646025929 -0.038816934642402351 0 0.015113050229747743 -0.039053314584597772 0 0.015507090280919627 -0.038838233018881951 0 0.014852662441036229 -0.03876937700536378 0 0.015071322646025929 -0.038816934642402351 0 0.015113050229747743 -0.039053314584597772 0 0.014852662441036229 -0.03876937700536378 0 0.015113050229747743 -0.039053314584597772 0 0.014652154860624572 -0.038792251591439293 0 0.015113050229747743 -0.039053314584597772 0 0.015983976325339572 -0.039194502720449179 0 0.016174784839991407 -0.040057592712720247 0 0.015507090280919627 -0.038838233018881951 0 0.015983976325339572 -0.039194502720449179 0 0.016682449708365982 -0.038389974055274473 0 0.015113050229747743 -0.039053314584597772 0 0.015507090280919627 -0.038838233018881951 0 0.015983976325339572 -0.039194502720449179 0 0.01431436298945722 -0.037919221802971845 0 0.013515508299869732 -0.038089046411610261 0 0.013777977874225049 -0.038267984000807609 0 0.01529681425945539 -0.039040529802153938 0 0.014322716253652498 -0.038666646716559748 0 0.015113050229747743 -0.039053314584597772 0 0.016174784839991407 -0.040057592712720247 0 0.014903922324965064 -0.039336986856490383 0 0.015113050229747743 -0.039053314584597772 0 0.014903922324965064 -0.039336986856490383 0 0.014652154860624572 -0.038792251591439293 0 0.014322716253652498 -0.038666646716559748 0 0.014536045650231418 -0.038265704331444175 0 0.014903922324965064 -0.039336986856490383 0 0.014490911370261884 -0.038137591008410736 0 0.014652154860624572 -0.038792251591439293 0 0.014490911370261884 -0.038137591008410736 0 0.014643264491929188 -0.0385757284038852 0 0.014652154860624572 -0.038792251591439293 0 0.014490911370261884 -0.038137591008410736 0 0.014994774791723195 -0.037457998514803893 0 0.015160461623124994 -0.038155393899772239 0 0.014490911370261884 -0.038137591008410736 0 0.014643264491929188 -0.0385757284038852 0 0.015160461623124994 -0.038155393899772239 0 0.014643264491929188 -0.0385757284038852 0 0.015175914935813845 -0.038538161099073903 0 0.015160461623124994 -0.038155393899772239 0 0.014643264491929188 -0.0385757284038852 0 0.01467014517149459 -0.038878374629332628 0 0.01466519272354107 -0.038749582091257055 0 0.014643264491929188 -0.0385757284038852 0 0.01467014517149459 -0.038878374629332628 0 0.015175914935813845 -0.038538161099073903 0 0.015883199168169736 -0.046426730033565268 0 0.015106881669170054 -0.047538123707833259 0 0.01467014517149459 -0.038878374629332628 0 0.014735249163032302 -0.038749566821023575 0 0.01466519272354107 -0.038749582091257055 0 0.014906660028977994 -0.038575267825969928 0 0.01467014517149459 -0.038878374629332628 0 0.014735249163032302 -0.038749566821023575 0 0.014852662441036229 -0.03876937700536378 0 0.014735249163032302 -0.038749566821023575 0 0.014652154860624572 -0.038792251591439293 0 0.014735249163032302 -0.038749566821023575 0 0.014652154860624572 -0.038792251591439293 0 0.01466519272354107 -0.038749582091257055 0 0.014643264491929188 -0.0385757284038852 0 0.014652154860624572 -0.038792251591439293 0 0.01466519272354107 -0.038749582091257055 0 0.020476113802318001 -0.039123071700281953 0 0.02063359233923737 -0.040083348060952886 0 0.021447289028746545 -0.040224936970181938 0 0.020476113802318001 -0.039123071700281953 0 0.019822411846386612 -0.039355183169576577 0 0.02063359233923737 -0.040083348060952886 0 0.016444131276795143 -0.054077073218932709 0 0.016648964394112363 -0.053646983721015506 0 0.016385468864994854 -0.054043385283494852 0 0.016648964394112363 -0.053646983721015506 0 0.01647668207654053 -0.053857585087891728 0 0.016760988944024217 -0.05308932667619648 0 0.016444131276795143 -0.054077073218932709 0 0.016648964394112363 -0.053646983721015506 0 0.01647668207654053 -0.053857585087891728 0 0.016533044907845521 -0.053676318610113377 0 0.01647668207654053 -0.053857585087891728 0 0.016760988944024217 -0.05308932667619648 0 0.01640255241325235 -0.054189657582591831 0 0.016533044907845521 -0.053676318610113377 0 0.01647668207654053 -0.053857585087891728 0 0.01640255241325235 -0.054189657582591831 0 0.01647668207654053 -0.053857585087891728 0 0.016381201982341172 -0.054296681836862294 0 0.016413517591273262 -0.05416101554872136 0 0.01647668207654053 -0.053857585087891728 0 0.016381201982341172 -0.054296681836862294 0 0.016444131276795143 -0.054077073218932709 0 0.016413517591273262 -0.05416101554872136 0 0.016375607317783907 -0.05435724688976009 0 0.016444131276795143 -0.054077073218932709 0 0.016413517591273262 -0.05416101554872136 0 0.01647668207654053 -0.053857585087891728 0 0.016444131276795143 -0.054077073218932709 0 0.016375607317783907 -0.05435724688976009 0 0.016326667649940979 -0.054618371267457611 0 0.016375607317783907 -0.05435724688976009 0 0.016381201982341172 -0.054296681836862294 0 0.01630282411106419 -0.054640168165321835 0 0.016413517591273262 -0.05416101554872136 0 0.016375607317783907 -0.05435724688976009 0 0.016381201982341172 -0.054296681836862294 0 0.01640255241325235 -0.054189657582591831 0 0.016381201982341172 -0.054296681836862294 0 0.016294530388108752 -0.054599080859827544 0 0.016381201982341172 -0.054296681836862294 0 0.016294530388108752 -0.054599080859827544 0 0.01630282411106419 -0.054640168165321835 0 0.016294530388108752 -0.054599080859827544 0 0.01630282411106419 -0.054640168165321835 0 0.016209781425216483 -0.054912218883547394 0 0.016375607317783907 -0.05435724688976009 0 0.01630282411106419 -0.054640168165321835 0 0.016326667649940979 -0.054618371267457611 0 0.01630282411106419 -0.054640168165321835 0 0.016326667649940979 -0.054618371267457611 0 0.016249010619403616 -0.05491298399373061 0 0.016326667649940979 -0.054618371267457611 0 0.016317297211957505 -0.054699353821628278 0 0.016249010619403616 -0.05491298399373061 0 0.016444131276795143 -0.054077073218932709 0 0.016317297211957505 -0.054699353821628278 0 0.0162364209666498 -0.055164754778909572 0 0.016317297211957505 -0.054699353821628278 0 0.0162364209666498 -0.055164754778909572 0 0.016249010619403616 -0.05491298399373061 0 0.01645634297937228 -0.054098878231606182 0 0.016361145062137154 -0.054799057989929123 0 0.020476113802318001 -0.039123071700281953 0 0.019822411846386612 -0.039355183169576577 0 0.018610069890801186 -0.038606548506068233 0 0.019822411846386612 -0.039355183169576577 0 0.018610069890801186 -0.038606548506068233 0 0.019568118349901822 -0.039611971805656808 0 0.018402573174559185 -0.04662634687564704 0 0.017794400152457552 -0.045630123790709555 0 0.016444131276795143 -0.054077073218932709 0 0.016848719443613738 -0.053675631779552611 0 0.01689358238302056 -0.053707817970390634 0 0.016444131276795143 -0.054077073218932709 0 0.016385468864994854 -0.054043385283494852 0 0.016848719443613738 -0.053675631779552611 0 0.016444131276795143 -0.054077073218932709 0 0.016326667649940979 -0.054618371267457611 0 0.016317297211957505 -0.054699353821628278 0 0.017794400152457552 -0.045630123790709555 0 0.016820336882816096 -0.050721069261968239 0 0.0162364209666498 -0.055164754778909572 0 0.016084559358135918 -0.055310320230352303 0 0.015880477413759371 -0.055998893267624521 0 0.016848719443613738 -0.053675631779552611 0 0.01689358238302056 -0.053707817970390634 0 0.017368111857921899 -0.053355081784087051 0 0.016361145062137154 -0.054799057989929123 0 0.016820336882816096 -0.050721069261968239 0 0.018610069890801186 -0.038606548506068233 0 0.016682449708365982 -0.038389974055274473 0 0.017665160073182692 -0.038948484514876106 0 0.018610069890801186 -0.038606548506068233 0 0.017665160073182692 -0.038948484514876106 0 0.018265816969855499 -0.039192344904252469 0 0.018610069890801186 -0.038606548506068233 0 0.018265816969855499 -0.039192344904252469 0 0.018812411126841455 -0.039338814894063399 0 0.0162364209666498 -0.055164754778909572 0 0.016249010619403616 -0.05491298399373061 0 0.016084559358135918 -0.055310320230352303 0 0.01630282411106419 -0.054640168165321835 0 0.016249010619403616 -0.05491298399373061 0 0.016209781425216483 -0.054912218883547394 0 0.016249010619403616 -0.05491298399373061 0 0.016209781425216483 -0.054912218883547394 0 0.016084559358135918 -0.055310320230352303 0 0.016172742478690424 -0.054929495769511595 0 0.016294530388108752 -0.054599080859827544 0 0.016209781425216483 -0.054912218883547394 0 0.016172742478690424 -0.054929495769511595 0 0.016209781425216483 -0.054912218883547394 0 0.016017698180703678 -0.055277141446637278 0 0.016209781425216483 -0.054912218883547394 0 0.016084559358135918 -0.055310320230352303 0 0.016017698180703678 -0.055277141446637278 0 0.015659906388241471 -0.055718834223984777 0 0.016017698180703678 -0.055277141446637278 0 0.015843637929183595 -0.055650565627843082 0 0.016084559358135918 -0.055310320230352303 0 0.016017698180703678 -0.055277141446637278 0 0.015843637929183595 -0.055650565627843082 0 0.01551631596971197 -0.056051751489402155 0 0.015843637929183595 -0.055650565627843082 0 0.015880477413759371 -0.055998893267624521 0 0.016084559358135918 -0.055310320230352303 0 0.015843637929183595 -0.055650565627843082 0 0.015880477413759371 -0.055998893267624521 0 0.015983976325339572 -0.039194502720449179 0 0.016682449708365982 -0.038389974055274473 0 0.016976920947650184 -0.039552085147545539 0 0.016682449708365982 -0.038389974055274473 0 0.016976920947650184 -0.039552085147545539 0 0.017665160073182692 -0.038948484514876106 0 0.016976920947650184 -0.039552085147545539 0 0.017783510259369806 -0.039670231952316053 0 0.017665160073182692 -0.038948484514876106 0 0.015983976325339572 -0.039194502720449179 0 0.016174784839991407 -0.040057592712720247 0 0.016976920947650184 -0.039552085147545539 0 0.016174784839991407 -0.040057592712720247 0 0.016976920947650184 -0.039552085147545539 0 0.017918670511782839 -0.040417950350058893 0 0.01431436298945722 -0.037919221802971845 0 0.017474074248866225 -0.038856458734944865 0 0.016421011813061614 -0.039611228758044945 0 0.01529681425945539 -0.039040529802153938 0 0.017622646338180441 -0.039655453942610448 0 0.017474074248866225 -0.038856458734944865 0 0.019145976602885733 -0.040787065207141961 0 0.018037912699320324 -0.040348369608810108 0 0.017474074248866225 -0.038856458734944865 0 0.018037912699320324 -0.040348369608810108 0 0.016421011813061614 -0.039611228758044945 0 0.017918670511782839 -0.040417950350058893 0 0.018411747883677117 -0.039626644067264287 0 0.01913331490230016 -0.039763380043865718 0 0.018411747883677117 -0.039626644067264287 0 0.017783510259369806 -0.039670231952316053 0 0.018265816969855499 -0.039192344904252469 0 0.016976920947650184 -0.039552085147545539 0 0.017918670511782839 -0.040417950350058893 0 0.017783510259369806 -0.039670231952316053 0 0.017918670511782839 -0.040417950350058893 0 0.018411747883677117 -0.039626644067264287 0 0.017783510259369806 -0.039670231952316053 0 0.017783510259369806 -0.039670231952316053 0 0.017665160073182692 -0.038948484514876106 0 0.018265816969855499 -0.039192344904252469 0 0.018411747883677117 -0.039626644067264287 0 0.018265816969855499 -0.039192344904252469 0 0.018812411126841455 -0.039338814894063399 0 0.019568118349901822 -0.039611971805656808 0 0.01913331490230016 -0.039763380043865718 0 0.01954666812786086 -0.040346089819698908 0 0.018812411126841455 -0.039338814894063399 0 0.019568118349901822 -0.039611971805656808 0 0.01913331490230016 -0.039763380043865718 0 0.018411747883677117 -0.039626644067264287 0 0.018812411126841455 -0.039338814894063399 0 0.01913331490230016 -0.039763380043865718 0 0.018610069890801186 -0.038606548506068233 0 0.018812411126841455 -0.039338814894063399 0 0.019568118349901822 -0.039611971805656808 0 0.017918670511782839 -0.040417950350058893 0 0.01913331490230016 -0.039763380043865718 0 0.01954666812786086 -0.040346089819698908 0 0.017622646338180441 -0.039655453942610448 0 0.019318503360247156 -0.040169972442813666 0 0.017474074248866225 -0.038856458734944865 0 0.01954666812786086 -0.040346089819698908 0 0.019145976602885733 -0.040787065207141961 0 0.01954666812786086 -0.040346089819698908 0 0.020247681456236767 -0.04149014989328046 0 0.019145976602885733 -0.040787065207141961 0 0.01954666812786086 -0.040346089819698908 0 0.020247681456236767 -0.04149014989328046 0 0.021253516122602283 -0.040985111171600107 0 0.019568118349901822 -0.039611971805656808 0 0.01954666812786086 -0.040346089819698908 0 0.02063359233923737 -0.040083348060952886 0 0.01954666812786086 -0.040346089819698908 0 0.02063359233923737 -0.040083348060952886 0 0.021253516122602283 -0.040985111171600107 0 0.019822411846386612 -0.039355183169576577 0 0.019568118349901822 -0.039611971805656808 0 0.02063359233923737 -0.040083348060952886 0 0.020036761479520247 -0.042243874403960623 0 0.020247681456236767 -0.04149014989328046 0 0.019353855644106178 -0.041617357625589456 0 0.020036761479520247 -0.042243874403960623 0 0.019353855644106178 -0.041617357625589456 0 0.018942234706865169 -0.041876668604141236 0 0.019145976602885733 -0.040787065207141961 0 0.018733598270085836 -0.041200833353481285 0 0.019353855644106178 -0.041617357625589456 0 0.020247681456236767 -0.04149014989328046 0 0.019145976602885733 -0.040787065207141961 0 0.019353855644106178 -0.041617357625589456 0 0.019145976602885733 -0.040787065207141961 0 0.018733598270085836 -0.041200833353481285 0 0.018037912699320324 -0.040348369608810108 0 0.018733598270085836 -0.041200833353481285 0 0.019353855644106178 -0.041617357625589456 0 0.018491063125674299 -0.041636609060935789 0 0.019353855644106178 -0.041617357625589456 0 0.018491063125674299 -0.041636609060935789 0 0.018942234706865169 -0.041876668604141236 0 0.018491063125674299 -0.041636609060935789 0 0.018191283633389128 -0.041433046252390977 0 0.018257530466845223 -0.041414934237913925 0 0.018733598270085836 -0.041200833353481285 0 0.018491063125674299 -0.041636609060935789 0 0.017853278449577556 -0.041117330246346818 0 0.018491063125674299 -0.041636609060935789 0 0.018191283633389128 -0.041433046252390977 0 0.017853278449577556 -0.041117330246346818 0 0.018733598270085836 -0.041200833353481285 0 0.018037912699320324 -0.040348369608810108 0 0.017853278449577556 -0.041117330246346818 0 0.018037912699320324 -0.040348369608810108 0 0.017853278449577556 -0.041117330246346818 0 0.016421011813061614 -0.039611228758044945 0 0.016421011813061614 -0.039611228758044945 0 0.013262832387596568 -0.037810775160379763 0 0.013777977874225049 -0.038267984000807609 0 0.016520904032194781 -0.039318052850987877 0 0.016106303362309643 -0.039499422145590039 0 0.01431436298945722 -0.037919221802971845 0 0.016421011813061614 -0.039611228758044945 0 0.013777977874225049 -0.038267984000807609 0 0.017853278449577556 -0.041117330246346818 0 0.016421011813061614 -0.039611228758044945 0 0.018584969859682388 -0.04171226573881831 0 0.018191283633389128 -0.041433046252390977 0 0.018584969859682388 -0.04171226573881831 0 0.018654082136456401 -0.041106827846130262 0 0.018191283633389128 -0.041433046252390977 0 0.017853278449577556 -0.041117330246346818 0 0.018584969859682388 -0.04171226573881831 0 0.018654082136456401 -0.041106827846130262 0 0.019299968740464281 -0.039751516372600222 0 0.021001011878016337 -0.040622794675656188 0 0.018654082136456401 -0.041106827846130262 0 0.019299968740464281 -0.039751516372600222 0 0.018412655423721634 -0.040472507783258185 0 0.019299968740464281 -0.039751516372600222 0 0.01861173487742622 -0.039267889031935968 0 0.019286234647891736 -0.03828223996106881 0 0.019299968740464281 -0.039751516372600222 0 0.018412655423721634 -0.040472507783258185 0 0.01861173487742622 -0.039267889031935968 0 0.018412655423721634 -0.040472507783258185 0 0.01861173487742622 -0.039267889031935968 0 0.017744703284320634 -0.039579524607333903 0 0.018412655423721634 -0.040472507783258185 0 0.017744703284320634 -0.039579524607333903 0 0.018058757632513019 -0.04094079887144042 0 0.018412655423721634 -0.040472507783258185 0 0.018257530466845223 -0.041414934237913925 0 0.018058757632513019 -0.04094079887144042 0 0.018654082136456401 -0.041106827846130262 0 0.018412655423721634 -0.040472507783258185 0 0.018257530466845223 -0.041414934237913925 0 0.018191283633389128 -0.041433046252390977 0 0.018654082136456401 -0.041106827846130262 0 0.018257530466845223 -0.041414934237913925 0 0.018491063125674299 -0.041636609060935789 0 0.018257530466845223 -0.041414934237913925 0 0.01818352757660191 -0.041733118780776665 0 0.018491063125674299 -0.041636609060935789 0 0.01818352757660191 -0.041733118780776665 0 0.018942234706865169 -0.041876668604141236 0 0.01818352757660191 -0.041733118780776665 0 0.018942234706865169 -0.041876668604141236 0 0.018611574733714702 -0.042297681500344339 0 0.018201571672696537 -0.041575717325694796 0 0.018520474759644117 -0.041731749451181452 0 0.018257530466845223 -0.041414934237913925 0 0.01818352757660191 -0.041733118780776665 0 0.018058757632513019 -0.04094079887144042 0 0.01818352757660191 -0.041733118780776665 0 0.017339922738228829 -0.040935112271355607 0 0.018058757632513019 -0.04094079887144042 0 0.017928168048208157 -0.038921158573102348 0 0.018520474759644117 -0.041731749451181452 0 0.017744703284320634 -0.039579524607333903 0 0.017339922738228829 -0.040935112271355607 0 0.018058757632513019 -0.04094079887144042 0 0.01711874961760065 -0.039467200615898368 0 0.017143598934465282 -0.038453454477974554 0 0.016085737405002631 -0.038065491534998754 0 0.017952281028248439 -0.038468179936322712 0 0.01711874961760065 -0.039467200615898368 0 0.017143598934465282 -0.038453454477974554 0 0.018520474759644117 -0.041731749451181452 0 0.018480075183684816 -0.042847767167217436 0 0.021268012583644993 -0.044107300548153892 0 0.021922064525295964 -0.044164416633350918 0 0.021784733406539289 -0.044675903182537946 0 0.021691341113311082 -0.04349254542189529 0 0.021268012583644993 -0.044107300548153892 0 0.021922064525295964 -0.044164416633350918 0 0.021088329362579952 -0.042957279005697964 0 0.018520474759644117 -0.041731749451181452 0 0.020036761479520247 -0.042243874403960623 0 0.018942234706865169 -0.041876668604141236 0 0.018611574733714702 -0.042297681500344339 0 0.014237539393702658 -0.03694474529652518 0 0.013390045781261156 -0.037239531823243126 0 0.013829212763828621 -0.035807955012078209 0 0.014237539393702658 -0.03694474529652518 0 0.013829212763828621 -0.035807955012078209 0 0.014849179341751182 -0.035560295335595009 0 0.014237539393702658 -0.03694474529652518 0 0.014849179341751182 -0.035560295335595009 0 0.01535299206637784 -0.036500236414520715 0 0.014237539393702658 -0.03694474529652518 0 0.014994774791723195 -0.037457998514803893 0 0.01535299206637784 -0.036500236414520715 0 0.014490911370261884 -0.038137591008410736 0 0.014237539393702658 -0.03694474529652518 0 0.014994774791723195 -0.037457998514803893 0 0.013515508299869732 -0.038089046411610261 0 0.014490911370261884 -0.038137591008410736 0 0.014237539393702658 -0.03694474529652518 0 0.013515508299869732 -0.038089046411610261 0 0.013777977874225049 -0.038267984000807609 0 0.013390045781261156 -0.037239531823243126 0 0.013515508299869732 -0.038089046411610261 0 0.014237539393702658 -0.03694474529652518 0 0.013390045781261156 -0.037239531823243126 0 0.013262832387596568 -0.037810775160379763 0 0.013777977874225049 -0.038267984000807609 0 0.013390045781261156 -0.037239531823243126 0 0.013262832387596568 -0.037810775160379763 0 0.013390045781261156 -0.037239531823243126 0 0.012335230005706452 -0.035498940936693701 0 0.013390045781261156 -0.037239531823243126 0 0.012987836357597173 -0.034998694957676754 0 0.013829212763828621 -0.035807955012078209 0 0.013390045781261156 -0.037239531823243126 0 0.012987836357597173 -0.034998694957676754 0 0.012335230005706452 -0.035498940936693701 0 0.018584969859682388 -0.04171226573881831 0 0.018654082136456401 -0.041106827846130262 0 0.021001011878016337 -0.040622794675656188 0 0.016106303362309643 -0.039499422145590039 0 0.016719543683308802 -0.037935924294561892 0 0.019299968740464281 -0.039751516372600222 0 0.021001011878016337 -0.040622794675656188 0 0.020589131965656239 -0.037938753759083212 0 0.021001011878016337 -0.040622794675656188 0 0.023278375738569942 -0.038276173264473558 0 0.020589131965656239 -0.037938753759083212 0 0.016719543683308802 -0.037935924294561892 0 0.017650684936843734 -0.035451715608478117 0 0.012987836357597173 -0.034998694957676754 0 0.012335230005706452 -0.035498940936693701 0 0.011941123384973419 -0.032870510766870691 0 0.012987836357597173 -0.034998694957676754 0 0.013970938718371444 -0.034119580129727711 0 0.011941123384973419 -0.032870510766870691 0 0.012987836357597173 -0.034998694957676754 0 0.013829212763828621 -0.035807955012078209 0 0.013970938718371444 -0.034119580129727711 0 0.013829212763828621 -0.035807955012078209 0 0.014849179341751182 -0.035560295335595009 0 0.013970938718371444 -0.034119580129727711 0 0.014849179341751182 -0.035560295335595009 0 0.013970938718371444 -0.034119580129727711 0 0.015524602035999863 -0.034180740082569307 0 0.013970938718371444 -0.034119580129727711 0 0.01475216272211978 -0.03283661254313202 0 0.013483687899022203 -0.03175475932076488 0 0.013970938718371444 -0.034119580129727711 0 0.01475216272211978 -0.03283661254313202 0 0.015524602035999863 -0.034180740082569307 0 0.01475216272211978 -0.03283661254313202 0 0.016409988747040288 -0.032857703497491328 0 0.015524602035999863 -0.034180740082569307 0 0.016409988747040288 -0.032857703497491328 0 0.016666914432861727 -0.034105773740590289 0 0.01748256714105231 -0.033449784709180704 0 0.016409988747040288 -0.032857703497491328 0 0.016666914432861727 -0.034105773740590289 0 0.015524602035999863 -0.034180740082569307 0 0.016666914432861727 -0.034105773740590289 0 0.016173194537018931 -0.035444468820739893 0 0.01714515580950032 -0.034958777978040867 0 0.016666914432861727 -0.034105773740590289 0 0.015524602035999863 -0.034180740082569307 0 0.016173194537018931 -0.035444468820739893 0 0.014849179341751182 -0.035560295335595009 0 0.015524602035999863 -0.034180740082569307 0 0.016173194537018931 -0.035444468820739893 0 0.014849179341751182 -0.035560295335595009 0 0.01535299206637784 -0.036500236414520715 0 0.016173194537018931 -0.035444468820739893 0 0.01535299206637784 -0.036500236414520715 0 0.016173194537018931 -0.035444468820739893 0 0.016414438752654019 -0.036727988695336042 0 0.016173194537018931 -0.035444468820739893 0 0.016414438752654019 -0.036727988695336042 0 0.016979606947214974 -0.036007931937055405 0 0.016173194537018931 -0.035444468820739893 0 0.016979606947214974 -0.036007931937055405 0 0.01714515580950032 -0.034958777978040867 0 0.016414438752654019 -0.036727988695336042 0 0.015745713922193063 -0.037400802309125888 0 0.016693264853168834 -0.037535248633454726 0 0.01535299206637784 -0.036500236414520715 0 0.016414438752654019 -0.036727988695336042 0 0.015745713922193063 -0.037400802309125888 0 0.014994774791723195 -0.037457998514803893 0 0.01535299206637784 -0.036500236414520715 0 0.015745713922193063 -0.037400802309125888 0 0.018274446035157533 -0.036066650499199007 0 0.017483403738447392 -0.03696670903042662 0 0.018467450269617415 -0.037455694842529245 0 0.018274446035157533 -0.036066650499199007 0 0.019275183844687779 -0.036353833576833 0 0.018467450269617415 -0.037455694842529245 0 0.018274446035157533 -0.036066650499199007 0 0.018681213749526731 -0.035209606250568209 0 0.019275183844687779 -0.036353833576833 0 0.016414438752654019 -0.036727988695336042 0 0.017483403738447392 -0.03696670903042662 0 0.016693264853168834 -0.037535248633454726 0 0.016414438752654019 -0.036727988695336042 0 0.017483403738447392 -0.03696670903042662 0 0.016979606947214974 -0.036007931937055405 0 0.017483403738447392 -0.03696670903042662 0 0.017572259184187717 -0.036018707674840035 0 0.016979606947214974 -0.036007931937055405 0 0.018274446035157533 -0.036066650499199007 0 0.017483403738447392 -0.03696670903042662 0 0.017572259184187717 -0.036018707674840035 0 0.017572259184187717 -0.036018707674840035 0 0.01714515580950032 -0.034958777978040867 0 0.017975326407791294 -0.034621079159045408 0 0.017572259184187717 -0.036018707674840035 0 0.016979606947214974 -0.036007931937055405 0 0.01714515580950032 -0.034958777978040867 0 0.018274446035157533 -0.036066650499199007 0 0.018681213749526731 -0.035209606250568209 0 0.017975326407791294 -0.034621079159045408 0 0.018274446035157533 -0.036066650499199007 0 0.017572259184187717 -0.036018707674840035 0 0.017975326407791294 -0.034621079159045408 0 0.018681213749526731 -0.035209606250568209 0 0.018507340621027098 -0.034477136537639966 0 0.018828541369125467 -0.03457176109289279 0 0.018681213749526731 -0.035209606250568209 0 0.018507340621027098 -0.034477136537639966 0 0.017975326407791294 -0.034621079159045408 0 0.017975326407791294 -0.034621079159045408 0 0.01748256714105231 -0.033449784709180704 0 0.01824889569009322 -0.033102848975762933 0 0.018507340621027098 -0.034477136537639966 0 0.01824889569009322 -0.033102848975762933 0 0.019079526448471808 -0.034314021450311642 0 0.018507340621027098 -0.034477136537639966 0 0.017975326407791294 -0.034621079159045408 0 0.01824889569009322 -0.033102848975762933 0 0.020636309864305643 -0.024680379862824779 0 0.019068258805559325 -0.028881158762518216 0 0.016666914432861727 -0.034105773740590289 0 0.01714515580950032 -0.034958777978040867 0 0.01748256714105231 -0.033449784709180704 0 0.01714515580950032 -0.034958777978040867 0 0.017975326407791294 -0.034621079159045408 0 0.01748256714105231 -0.033449784709180704 0 0.01748256714105231 -0.033449784709180704 0 0.01824889569009322 -0.033102848975762933 0 0.017859299135905671 -0.031921325219788806 0 0.016409988747040288 -0.032857703497491328 0 0.01748256714105231 -0.033449784709180704 0 0.017859299135905671 -0.031921325219788806 0 0.020636309864305643 -0.024680379862824779 0 0.019717304098131921 -0.023904842744229028 0 0.022772798781035102 -0.017031520509998153 0 0.023691775419035947 -0.016647938479352621 0 0.023438928037197597 -0.015730772838651427 0 0.023691775419035947 -0.016647938479352621 0 0.024076977759715984 -0.01625434251206687 0 0.023438928037197597 -0.015730772838651427 0 0.023691775419035947 -0.016647938479352621 0 0.023886092661653195 -0.016985456068571537 0 0.024076977759715984 -0.01625434251206687 0 0.023691775419035947 -0.016647938479352621 0 0.023886092661653195 -0.016985456068571537 0 0.023618848802643953 -0.017550631344585996 0 0.022772798781035102 -0.017031520509998153 0 0.023691775419035947 -0.016647938479352621 0 0.023618848802643953 -0.017550631344585996 0 0.018507340621027098 -0.034477136537639966 0 0.019079526448471808 -0.034314021450311642 0 0.018828541369125467 -0.03457176109289279 0 0.02481484672661026 -0.01682403560571678 0 0.024599796948559082 -0.016084069016249838 0 0.024378580529920774 -0.016613120633982913 0 0.024599796948559082 -0.016084069016249838 0 0.024076977759715984 -0.01625434251206687 0 0.024378580529920774 -0.016613120633982913 0 0.023886092661653195 -0.016985456068571537 0 0.024076977759715984 -0.01625434251206687 0 0.024146517062982781 -0.016952701456796827 0 0.024076977759715984 -0.01625434251206687 0 0.024146517062982781 -0.016952701456796827 0 0.024378580529920774 -0.016613120633982913 0 0.024413706950676434 -0.016855158682909325 0 0.024146517062982781 -0.016952701456796827 0 0.024378580529920774 -0.016613120633982913 0 0.024413706950676434 -0.016855158682909325 0 0.024171961315725545 -0.016934324855901253 0 0.024212078018512044 -0.016985134518281406 0 0.024413706950676434 -0.016855158682909325 0 0.024146517062982781 -0.016952701456796827 0 0.024212078018512044 -0.016985134518281406 0 0.024146517062982781 -0.016952701456796827 0 0.024212078018512044 -0.016985134518281406 0 0.024107854960757319 -0.017125986942509528 0 0.024146517062982781 -0.016952701456796827 0 0.024107854960757319 -0.017125986942509528 0 0.023902740368108136 -0.01721770780813241 0 0.021020159754085808 -0.024440480309536366 0 0.019551909907458167 -0.024764506531907499 0 0.015899237889735528 -0.033357961634285387 0 0.015736290191019835 -0.033222333086027844 0 0.015833720103585976 -0.033610101469665234 0 0.018691393503255483 -0.03410625558676391 0 0.011479472933894244 -0.045270029933875459 0 0.021020159754085808 -0.024440480309536366 0 0.0079662960614681078 -0.039279315725588355 0 0.024171961315725545 -0.016934324855901253 0 0.024107854960757319 -0.017125986942509528 0 0.024059623488866314 -0.017016489032998464 0 0.024171961315725545 -0.016934324855901253 0 0.024212078018512044 -0.016985134518281406 0 0.024107854960757319 -0.017125986942509528 0 0.019068258805559325 -0.028881158762518216 0 0.018691393503255483 -0.03410625558676391 0 0.018681213749526731 -0.035209606250568209 0 0.019079526448471808 -0.034314021450311642 0 0.019275183844687779 -0.036353833576833 0 0.019068258805559325 -0.028881158762518216 0 0.019551909907458167 -0.024764506531907499 0 0.019079526448471808 -0.034314021450311642 0 0.020417337747608174 -0.036238366537843458 0 0.019275183844687779 -0.036353833576833 0 0.018681213749526731 -0.035209606250568209 0 0.019079526448471808 -0.034314021450311642 0 0.018828541369125467 -0.03457176109289279 0 0.015601653772697691 -0.032705871191317723 0 0.015778658113893205 -0.033055686159575978 0 0.015736290191019835 -0.033222333086027844 0 0.023886092661653195 -0.016985456068571537 0 0.024146517062982781 -0.016952701456796827 0 0.023902740368108136 -0.01721770780813241 0 0.023886092661653195 -0.016985456068571537 0 0.023618848802643953 -0.017550631344585996 0 0.023902740368108136 -0.01721770780813241 0 0.015899237889735528 -0.033357961634285387 0 0.015778658113893205 -0.033055686159575978 0 0.015736290191019835 -0.033222333086027844 0 0.020417337747608174 -0.036238366537843458 0 0.019275183844687779 -0.036353833576833 0 0.019511442802798783 -0.038121532265985275 0 0.019275183844687779 -0.036353833576833 0 0.019511442802798783 -0.038121532265985275 0 0.018467450269617415 -0.037455694842529245 0 0.014153477858835408 -0.048952882208891359 0 0.011479472933894244 -0.045270029933875459 0 0.020417337747608174 -0.036238366537843458 0 0.019511442802798783 -0.038121532265985275 0 0.021439913966453124 -0.03781652785701127 0 0.0081722495607969726 -0.058878114752780299 0 0.0048578650621869043 -0.059662812868466593 0 0.0052657034419295815 -0.057703736342180512 0 0.0085913040620231966 -0.057458132201105343 0 0.0054860425192048501 -0.05768347232904527 0 0.0081722495607969726 -0.058878114752780299 0 0.0085979973282456525 -0.05699328190891615 0 0.0052657034419295815 -0.057703736342180512 0 0.0081722495607969726 -0.058878114752780299 0 0.0085979973282456525 -0.05699328190891615 0 0.011449858038572078 -0.057848246093137469 0 0.015899237889735528 -0.033357961634285387 0 0.01597378288702014 -0.033589925678590975 0 0.015833720103585976 -0.033610101469665234 0 0.00027330347668044742 -0.05308511091268419 0 0.0037206441016752008 -0.052512611149713194 0 0.0014164958226837287 -0.049827964263483765 0 0.0079662960614681078 -0.039279315725588355 0 0.011479472933894244 -0.045270029933875459 0 0.011479472933894244 -0.045270029933875459 0 0.0023557807046217299 -0.054896225224471927 0 0.0048578650621869043 -0.059662812868466593 0 0.0052657034419295815 -0.057703736342180512 0 0.0033476700948984247 -0.058075113652933746 0 0.00062244397971144964 -0.051713754057404228 0 0.0023557807046217299 -0.054896225224471927 0 0.0017239400228559552 -0.056426277339573942 0 0.0033476700948984247 -0.058075113652933746 0 0.0037185362337413415 -0.05615838429990784 0 0.0052657034419295815 -0.057703736342180512 0 0.0037185362337413415 -0.05615838429990784 0 0.005495312579787884 -0.055707804054059409 0 0.0052657034419295815 -0.057703736342180512 0 0.0033476700948984247 -0.058075113652933746 0 0.0037185362337413415 -0.05615838429990784 0 0.0037185362337413415 -0.05615838429990784 0 0.005495312579787884 -0.055707804054059409 0 0.0041679305281085537 -0.054288238289093751 0 0.0061248185325682063 -0.053894644820959778 0 0.005495312579787884 -0.055707804054059409 0 0.0041679305281085537 -0.054288238289093751 0 0.0017239400228559552 -0.056426277339573942 0 0.0037185362337413415 -0.05615838429990784 0 0.0022438510293671587 -0.054540114344618133 0 0.0037185362337413415 -0.05615838429990784 0 0.0041679305281085537 -0.054288238289093751 0 0.0022438510293671587 -0.054540114344618133 0 0.008244113583754412 -0.056560163542789137 0 0.0070551489364504396 -0.056643567448059297 0 0.0077453311663206667 -0.055369584786322021 0 0.008244113583754412 -0.056560163542789137 0 0.0090040006709629986 -0.055704699793304377 0 0.010004893774244327 -0.057394192063041811 0 0.0086053631929920611 -0.057934077200233053 0 0.008244113583754412 -0.056560163542789137 0 0.010004893774244327 -0.057394192063041811 0 0.0086053631929920611 -0.057934077200233053 0 0.008244113583754412 -0.056560163542789137 0 0.0070551489364504396 -0.056643567448059297 0 0.0052657034419295815 -0.057703736342180512 0 0.005495312579787884 -0.055707804054059409 0 0.0070551489364504396 -0.056643567448059297 0 0.0086053631929920611 -0.057934077200233053 0 0.0052657034419295815 -0.057703736342180512 0 0.0070551489364504396 -0.056643567448059297 0 0.005495312579787884 -0.055707804054059409 0 0.0070551489364504396 -0.056643567448059297 0 0.0077453311663206667 -0.055369584786322021 0 0.0061248185325682063 -0.053894644820959778 0 0.005495312579787884 -0.055707804054059409 0 0.0077453311663206667 -0.055369584786322021 0 0.0078244784700868143 -0.054013542121800082 0 0.0061248185325682063 -0.053894644820959778 0 0.0077453311663206667 -0.055369584786322021 0 0.0078244784700868143 -0.054013542121800082 0 0.0077453311663206667 -0.055369584786322021 0 0.0089487345986542424 -0.054841429756667379 0 0.008244113583754412 -0.056560163542789137 0 0.0077453311663206667 -0.055369584786322021 0 0.0090040006709629986 -0.055704699793304377 0 0.0077453311663206667 -0.055369584786322021 0 0.0090040006709629986 -0.055704699793304377 0 0.0089487345986542424 -0.054841429756667379 0 0.011390513024113608 -0.056529101327159617 0 0.011216065651223607 -0.056892215850191753 0 0.010004893774244327 -0.057394192063041811 0 0.0097766826110593282 -0.054651391300845252 0 0.0089487345986542424 -0.054841429756667379 0 0.009833396244946559 -0.054564511806776433 0 0.010571783959258327 -0.055715717323251021 0 0.010069761280497184 -0.057356238412258738 0 0.0090040006709629986 -0.055704699793304377 0 0.0089487345986542424 -0.054841429756667379 0 0.009833396244946559 -0.054564511806776433 0 0.0090040006709629986 -0.055704699793304377 0 0.009833396244946559 -0.054564511806776433 0 0.010004893774244327 -0.057394192063041811 0 0.011390513024113608 -0.056529101327159617 0 0.011216065651223607 -0.056892215850191753 0 0.011670898599518864 -0.056658506974544685 0 0.011706527611826424 -0.056574763287473802 0 0.011390513024113608 -0.056529101327159617 0 0.011670898599518864 -0.056658506974544685 0 0.0086053631929920611 -0.057934077200233053 0 0.010004893774244327 -0.057394192063041811 0 0.011572451664777909 -0.057749177140282944 0 0.011216065651223607 -0.056892215850191753 0 0.011136810313453795 -0.05718897491950601 0 0.010004893774244327 -0.057394192063041811 0 0.011136810313453795 -0.05718897491950601 0 0.010004893774244327 -0.057394192063041811 0 0.011572451664777909 -0.057749177140282944 0 0.011625333556767065 -0.05723719248691532 0 0.01199504021912365 -0.057351996424333591 0 0.011572451664777909 -0.057749177140282944 0 0.011136810313453795 -0.05718897491950601 0 0.011625333556767065 -0.05723719248691532 0 0.011572451664777909 -0.057749177140282944 0 0.011136810313453795 -0.05718897491950601 0 0.011625333556767065 -0.05723719248691532 0 0.011457905452538716 -0.056952353850650388 0 0.011625333556767065 -0.05723719248691532 0 0.011457905452538716 -0.056952353850650388 0 0.011786868771385798 -0.056993052977722183 0 0.011216065651223607 -0.056892215850191753 0 0.011136810313453795 -0.05718897491950601 0 0.011457905452538716 -0.056952353850650388 0 0.011625333556767065 -0.05723719248691532 0 0.011786868771385798 -0.056993052977722183 0 0.01199504021912365 -0.057351996424333591 0 0.011786868771385798 -0.056993052977722183 0 0.011670898599518864 -0.056658506974544685 0 0.011951640086052916 -0.056801587161946991 0 0.011216065651223607 -0.056892215850191753 0 0.011457905452538716 -0.056952353850650388 0 0.011670898599518864 -0.056658506974544685 0 0.011457905452538716 -0.056952353850650388 0 0.011786868771385798 -0.056993052977722183 0 0.011670898599518864 -0.056658506974544685 0 0.012006188813601324 -0.056609688250069755 0 0.011670898599518864 -0.056658506974544685 0 0.011951640086052916 -0.056801587161946991 0 0.012006188813601324 -0.056609688250069755 0 0.012227307872687686 -0.056746767717464237 0 0.011951640086052916 -0.056801587161946991 0 0.012265867265226126 -0.056538427302709984 0 0.012006188813601324 -0.056609688250069755 0 0.012227307872687686 -0.056746767717464237 0 0.012227307872687686 -0.056746767717464237 0 0.012353977998833371 -0.056977932794938006 0 0.01210758019640573 -0.056996492812137846 0 0.011786868771385798 -0.056993052977722183 0 0.01210758019640573 -0.056996492812137846 0 0.011951640086052916 -0.056801587161946991 0 0.012227307872687686 -0.056746767717464237 0 0.01210758019640573 -0.056996492812137846 0 0.011951640086052916 -0.056801587161946991 0 0.012265867265226126 -0.056538427302709984 0 0.012227307872687686 -0.056746767717464237 0 0.012647963998187423 -0.056702108749407815 0 0.012227307872687686 -0.056746767717464237 0 0.012353977998833371 -0.056977932794938006 0 0.012647963998187423 -0.056702108749407815 0 0.012353977998833371 -0.056977932794938006 0 0.012647963998187423 -0.056702108749407815 0 0.012540018236632073 -0.057135780640116499 0 0.014584938439755857 -0.056441968180030937 0 0.013265843384744737 -0.056801844548670162 0 0.01343127974019925 -0.057353295994737992 0 0.012873763933236934 -0.057110950525756564 0 0.01242040685138957 -0.057430433781088475 0 0.012647963998187423 -0.056702108749407815 0 0.012873763933236934 -0.057110950525756564 0 0.012540018236632073 -0.057135780640116499 0 0.012540018236632073 -0.057135780640116499 0 0.01242040685138957 -0.057430433781088475 0 0.012278695440056537 -0.057191719314465483 0 0.012873763933236934 -0.057110950525756564 0 0.012540018236632073 -0.057135780640116499 0 0.01242040685138957 -0.057430433781088475 0 0.01242040685138957 -0.057430433781088475 0 0.01199504021912365 -0.057351996424333591 0 0.011572451664777909 -0.057749177140282944 0 0.013265843384744737 -0.056801844548670162 0 0.011626421850407843 -0.057126167488483467 0 0.011786868771385798 -0.056993052977722183 0 0.01210758019640573 -0.056996492812137846 0 0.01199504021912365 -0.057351996424333591 0 0.01210758019640573 -0.056996492812137846 0 0.012278695440056537 -0.057191719314465483 0 0.01199504021912365 -0.057351996424333591 0 0.012353977998833371 -0.056977932794938006 0 0.01210758019640573 -0.056996492812137846 0 0.012278695440056537 -0.057191719314465483 0 0.012353977998833371 -0.056977932794938006 0 0.012540018236632073 -0.057135780640116499 0 0.012278695440056537 -0.057191719314465483 0 0.01242040685138957 -0.057430433781088475 0 0.012278695440056537 -0.057191719314465483 0 0.01199504021912365 -0.057351996424333591 0 0.015991519466106406 -0.038784913004117454 0 0.016656466331330298 -0.038187780197387229 0 0.017667791500140508 -0.03843678316416832 0 0.014112180143395764 -0.05613064029957722 0 0.013973335776711757 -0.056855746710916442 0 0.011725748632121393 -0.05652148680198462 0 0.01467014517149459 -0.038878374629332628 0 0.015991519466106406 -0.038784913004117454 0 0.015175914935813845 -0.038538161099073903 0 0.015991519466106406 -0.038784913004117454 0 0.015175914935813845 -0.038538161099073903 0 0.015569135350463061 -0.038362985968268641 0 0.015106881669170054 -0.047538123707833259 0 0.014973444812504431 -0.04781525882590909 0 0.015618501566408967 -0.056043883656636095 0 0.014112180143395764 -0.05613064029957722 0 0.013973335776711757 -0.056855746710916442 0 0.015991519466106406 -0.038784913004117454 0 0.015569135350463061 -0.038362985968268641 0 0.01599189481196376 -0.037995432580491199 0 0.015745713922193063 -0.037400802309125888 0 0.015160461623124994 -0.038155393899772239 0 0.01599189481196376 -0.037995432580491199 0 0.015160461623124994 -0.038155393899772239 0 0.015569135350463061 -0.038362985968268641 0 0.01599189481196376 -0.037995432580491199 0 0.015175914935813845 -0.038538161099073903 0 0.015160461623124994 -0.038155393899772239 0 0.015569135350463061 -0.038362985968268641 0 0.014994774791723195 -0.037457998514803893 0 0.015745713922193063 -0.037400802309125888 0 0.015160461623124994 -0.038155393899772239 0 0.015745713922193063 -0.037400802309125888 0 0.01599189481196376 -0.037995432580491199 0 0.016693264853168834 -0.037535248633454726 0 0.016656466331330298 -0.038187780197387229 0 0.01599189481196376 -0.037995432580491199 0 0.016693264853168834 -0.037535248633454726 0 0.015991519466106406 -0.038784913004117454 0 0.016656466331330298 -0.038187780197387229 0 0.01599189481196376 -0.037995432580491199 0 0.016656466331330298 -0.038187780197387229 0 0.017254769956446911 -0.037770752297316405 0 0.017667791500140508 -0.03843678316416832 0 0.017483403738447392 -0.03696670903042662 0 0.016693264853168834 -0.037535248633454726 0 0.017254769956446911 -0.037770752297316405 0 0.016656466331330298 -0.038187780197387229 0 0.016693264853168834 -0.037535248633454726 0 0.017254769956446911 -0.037770752297316405 0 0.017254769956446911 -0.037770752297316405 0 0.017718419929441814 -0.037662844317232103 0 0.017667791500140508 -0.03843678316416832 0 0.017483403738447392 -0.03696670903042662 0 0.017254769956446911 -0.037770752297316405 0 0.017718419929441814 -0.037662844317232103 0 0.017483403738447392 -0.03696670903042662 0 0.017718419929441814 -0.037662844317232103 0 0.018467450269617415 -0.037455694842529245 0 0.019511442802798783 -0.038121532265985275 0 0.018467450269617415 -0.037455694842529245 0 0.017667791500140508 -0.03843678316416832 0 0.017718419929441814 -0.037662844317232103 0 0.018467450269617415 -0.037455694842529245 0 0.017667791500140508 -0.03843678316416832 0 0.014153477858835408 -0.048952882208891359 0 0.014457637017265282 -0.048091119109415728 0 0.0085913040620231966 -0.057458132201105343 0 0.011626421850407843 -0.057126167488483467 0 0.0085979973282456525 -0.05699328190891615 0 0.011725748632121393 -0.05652148680198462 0 0.011449858038572078 -0.057848246093137469 0 0.013973335776711757 -0.056855746710916442 0 0.011725748632121393 -0.05652148680198462 0 0.011449858038572078 -0.057848246093137469 0 0.014973444812504431 -0.04781525882590909 0 0.014457637017265282 -0.048091119109415728 0 0.055487405062653136 -0.042252554984298564 0 0.054336708630930236 -0.042032481180031792 0 0.055154959220357652 -0.041824927245545131 0 0.055000636853405734 -0.043791699236286674 0 0.055487405062653136 -0.042252554984298564 0 0.055154959220357652 -0.041824927245545131 0 0.055000636853405734 -0.043791699236286674 0 0.055487405062653136 -0.042252554984298564 0 0.054998927604916308 -0.040820938346257725 0 0.054373845876366872 -0.04237431072503399 0 0.055577182600520213 -0.040497399405571927 0 0.055487405062653136 -0.042252554984298564 0 0.054336708630930236 -0.042032481180031792 0 0.056423346612683244 -0.040930826773362294 0 0.052592097339059063 -0.042031542700816577 0 0.054336708630930236 -0.042032481180031792 0 0.05290206973704132 -0.042599316497026113 0 0.054336708630930236 -0.042032481180031792 0 0.05290206973704132 -0.042599316497026113 0 0.053947607303368464 -0.042835011047424473 0 0.052592097339059063 -0.042031542700816577 0 0.051679205270366124 -0.042246636688020582 0 0.05290206973704132 -0.042599316497026113 0 0.052592097339059063 -0.042031542700816577 0 0.053013528507729044 -0.041408126850235982 0 0.051502268234800162 -0.041817451043246245 0 0.052592097339059063 -0.042031542700816577 0 0.053013528507729044 -0.041408126850235982 0 0.054336708630930236 -0.042032481180031792 0 0.053013528507729044 -0.041408126850235982 0 0.054336708630930236 -0.042032481180031792 0 0.054087410882891596 -0.041197490137707758 0 0.053013528507729044 -0.041408126850235982 0 0.052373746727688311 -0.039639042353986277 0 0.051502268234800162 -0.041817451043246245 0 0.053013528507729044 -0.041408126850235982 0 0.054087410882891596 -0.041197490137707758 0 0.052373746727688311 -0.039639042353986277 0 0.049801718305047114 -0.056367741417308985 0 0.052878446797795943 -0.053743879464046782 0 0.050476740439832669 -0.054488725151334003 0 0.050864509311878879 -0.047837338346041959 0 0.054357084790016164 -0.048145921534605424 0 0.049801718305047114 -0.056367741417308985 0 0.052878446797795943 -0.053743879464046782 0 0.053302360611284919 -0.054099006833489303 0 0.054087410882891596 -0.041197490137707758 0 0.052373746727688311 -0.039639042353986277 0 0.05439168519876298 -0.040041113589637627 0 0.05487136478248348 -0.05017200223128683 0 0.054357084790016164 -0.048145921534605424 0 0.053399465457145412 -0.053534319319044746 0 0.054998878691079944 -0.047799738366468558 0 0.054207160473779742 -0.051426248786412963 0 0.054357084790016164 -0.048145921534605424 0 0.055743069587202619 -0.043169615590086835 0 0.058113230899651112 -0.047372716912480059 0 0.056577409940145103 -0.045620907273431349 0 0.056177925655301574 -0.046646986559661471 0 0.052878446797795943 -0.053743879464046782 0 0.053399465457145412 -0.053534319319044746 0 0.054207160473779742 -0.051426248786412963 0 0.054336708630930236 -0.042032481180031792 0 0.054087410882891596 -0.041197490137707758 0 0.055154959220357652 -0.041824927245545131 0 0.054087410882891596 -0.041197490137707758 0 0.05439168519876298 -0.040041113589637627 0 0.055154959220357652 -0.041824927245545131 0 0.055000412569868026 -0.043799354865511037 0 0.055743069587202619 -0.043169615590086835 0 0.055000014131936434 -0.043799264535841341 0 0.056577409940145103 -0.045620907273431349 0 0.054999951498312209 -0.04579356034302965 0 0.056577409940145103 -0.045620907273431349 0 0.054999951498312209 -0.04579356034302965 0 0.056177925655301574 -0.046646986559661471 0 0.054999951498312209 -0.04579356034302965 0 0.054999989903037318 -0.047787660753871121 0 0.056177925655301574 -0.046646986559661471 0 0.054357084790016164 -0.048145921534605424 0 0.05500100811289322 -0.047790226729697634 0 0.058113230899651112 -0.047372716912480059 0 0.054999989903037318 -0.047787660753871121 0 0.056177925655301574 -0.046646986559661471 0 0.054998878691079944 -0.047799738366468558 0 0.054207160473779742 -0.051426248786412963 0 0.054999257115184601 -0.050540467166516508 0 0.05499977962985915 -0.054991772716810196 0 0.049473150859225941 -0.054808208158985953 0 0.044046140747760552 -0.05499749697913682 0 0.052878446797795943 -0.053743879464046782 0 0.054207160473779742 -0.051426248786412963 0 0.052229304621843692 -0.052975189638652449 0 0.054207160473779742 -0.051426248786412963 0 0.053566581941671639 -0.051202258312623344 0 0.052229304621843692 -0.052975189638652449 0 0.054207160473779742 -0.051426248786412963 0 0.053566581941671639 -0.051202258312623344 0 0.054999257115184601 -0.050540467166516508 0 0.053161825178301904 -0.052482129413428613 0 0.054999208015146579 -0.050547095580802261 0 0.052984987276999962 -0.053676549940487317 0 0.054994571104803623 -0.050561075067601852 0 0.05499977962985915 -0.054991772716810196 0 0.052984987276999962 -0.053676549940487317 0 0.05499977962985915 -0.054991772716810196 0 0.049473150859225941 -0.054808208158985953 0 0.052984987276999962 -0.053676549940487317 0 0.049473150859225941 -0.054808208158985953 0 0.050192784190629489 -0.054329263819214511 0 0.050192784190629489 -0.054329263819214511 0 0.050476740439832669 -0.054488725151334003 0 0.048953767602730007 -0.054932752673347178 0 0.049473150859225941 -0.054808208158985953 0 0.050192784190629489 -0.054329263819214511 0 0.048953767602730007 -0.054932752673347178 0 0.053566581941671639 -0.051202258312623344 0 0.050192784190629489 -0.054329263819214511 0 0.052229304621843692 -0.052975189638652449 0 0.053161825178301904 -0.052482129413428613 0 0.050571604453120284 -0.053980147149840244 0 0.052878446797795943 -0.053743879464046782 0 0.052229304621843692 -0.052975189638652449 0 0.050476740439832669 -0.054488725151334003 0 0.049801718305047114 -0.056367741417308985 0 0.050476740439832669 -0.054488725151334003 0 0.048358601148781204 -0.055738546062985735 0 0.050192784190629489 -0.054329263819214511 0 0.052229304621843692 -0.052975189638652449 0 0.050476740439832669 -0.054488725151334003 0 0.050476740439832669 -0.054488725151334003 0 0.048358601148781204 -0.055738546062985735 0 0.048953767602730007 -0.054932752673347178 0 0.048358601148781204 -0.055738546062985735 0 0.047802765035393741 -0.055459926874966085 0 0.048953767602730007 -0.054932752673347178 0 0.048358601148781204 -0.055738546062985735 0 0.047802765035393741 -0.055459926874966085 0 0.046616704682167893 -0.055899173662204801 0 0.048358601148781204 -0.055738546062985735 0 0.046616704682167893 -0.055899173662204801 0 0.047347630629830981 -0.057512087758450722 0 0.04752405892647605 -0.055201292335565096 0 0.046996883658810461 -0.055371909423409665 0 0.045729321020172908 -0.05547415858702287 0 0.047802765035393741 -0.055459926874966085 0 0.04752405892647605 -0.055201292335565096 0 0.046616704682167893 -0.055899173662204801 0 0.049473150859225941 -0.054808208158985953 0 0.04752405892647605 -0.055201292335565096 0 0.048953767602730007 -0.054932752673347178 0 0.047802765035393741 -0.055459926874966085 0 0.04752405892647605 -0.055201292335565096 0 0.048953767602730007 -0.054932752673347178 0 0.049473150859225941 -0.054808208158985953 0 0.04752405892647605 -0.055201292335565096 0 0.046996883658810461 -0.055371909423409665 0 0.049473150859225941 -0.054808208158985953 0 0.046996883658810461 -0.055371909423409665 0 0.044046140747760552 -0.05499749697913682 0 0.046996883658810461 -0.055371909423409665 0 0.044046140747760552 -0.05499749697913682 0 0.043523986340273754 -0.056878534572385508 0 0.046697563227661554 -0.055476280217761131 0 0.044591703789011547 -0.055666605567474464 0 0.046996883658810461 -0.055371909423409665 0 0.045785241171071939 -0.054608560160143621 0 0.045729321020172908 -0.05547415858702287 0 0.044046140747760552 -0.05499749697913682 0 0.043523986340273754 -0.056878534572385508 0 0.040797542652838477 -0.057188457242708331 0 0.044591703789011547 -0.055666605567474464 0 0.041985141475132985 -0.055500069796927953 0 0.045785241171071939 -0.054608560160143621 0 0.045729321020172908 -0.05547415858702287 0 0.043281257505162332 -0.053828057994780062 0 0.045406178947784384 -0.054425757021807297 0 0.043869011688721336 -0.055382748290674522 0 0.042125701673426538 -0.054057290628201388 0 0.045406178947784384 -0.054425757021807297 0 0.043869011688721336 -0.055382748290674522 0 0.045215915146049494 -0.055809175657036775 0 0.045528180917095339 -0.054953090982953576 0 0.04231034338024553 -0.054682850369782224 0 0.047391464553034654 -0.055165215028696618 0 0.045528180917095339 -0.054953090982953576 0 0.04752405892647605 -0.055201292335565096 0 0.045406178947784384 -0.054425757021807297 0 0.046616704682167893 -0.055899173662204801 0 0.045406178947784384 -0.054425757021807297 0 0.046616704682167893 -0.055899173662204801 0 0.045215915146049494 -0.055809175657036775 0 0.046616704682167893 -0.055899173662204801 0 0.045215915146049494 -0.055809175657036775 0 0.045643816236538154 -0.056890334709584246 0 0.043869011688721336 -0.055382748290674522 0 0.045215915146049494 -0.055809175657036775 0 0.044068172642164213 -0.05664611664592574 0 0.045215915146049494 -0.055809175657036775 0 0.044068172642164213 -0.05664611664592574 0 0.045643816236538154 -0.056890334709584246 0 0.044068172642164213 -0.05664611664592574 0 0.044702459813009042 -0.058528628201703799 0 0.045643816236538154 -0.056890334709584246 0 0.044068172642164213 -0.05664611664592574 0 0.044702459813009042 -0.058528628201703799 0 0.042630495516708222 -0.057538059684997388 0 0.046452030353003076 -0.039426796254193597 0 0.046079237247318702 -0.042529796540365331 0 0.043118126569666917 -0.039806485577785024 0 0.046452030353003076 -0.039426796254193597 0 0.049765009542907204 -0.039365661334716064 0 0.048434990491510017 -0.041384299931778119 0 0.046616704682167893 -0.055899173662204801 0 0.045643816236538154 -0.056890334709584246 0 0.047347630629830981 -0.057512087758450722 0 0.04532183614738531 -0.048998998069212638 0 0.048571968403611235 -0.048467657963866463 0 0.044702459813009042 -0.058528628201703799 0 0.045643816236538154 -0.056890334709584246 0 0.047347630629830981 -0.057512087758450722 0 0.052373746727688311 -0.039639042353986277 0 0.049765009542907204 -0.039365661334716064 0 0.051502268234800162 -0.041817451043246245 0 0.049801718305047114 -0.056367741417308985 0 0.048358601148781204 -0.055738546062985735 0 0.047347630629830981 -0.057512087758450722 0 0.050864509311878879 -0.047837338346041959 0 0.048571968403611235 -0.048467657963866463 0 0.049765009542907204 -0.039365661334716064 0 0.051502268234800162 -0.041817451043246245 0 0.048434990491510017 -0.041384299931778119 0 0.051502268234800162 -0.041817451043246245 0 0.049292622164635098 -0.043742532795573184 0 0.048434990491510017 -0.041384299931778119 0 0.051502268234800162 -0.041817451043246245 0 0.050558307623517124 -0.041730176524076373 0 0.051679205270366124 -0.042246636688020582 0 0.052592097339059063 -0.042031542700816577 0 0.051502268234800162 -0.041817451043246245 0 0.051679205270366124 -0.042246636688020582 0 0.051464762297854239 -0.0418065931852932 0 0.049600732518919964 -0.042898944857619199 0 0.049292622164635098 -0.043742532795573184 0 0.046079237247318702 -0.042529796540365331 0 0.046975114323937431 -0.045403042521813583 0 0.046079237247318702 -0.042529796540365331 0 0.044948634886417455 -0.044881187817500466 0 0.046975114323937431 -0.045403042521813583 0 0.046452030353003076 -0.039426796254193597 0 0.046079237247318702 -0.042529796540365331 0 0.048434990491510017 -0.041384299931778119 0 0.049292622164635098 -0.043742532795573184 0 0.046079237247318702 -0.042529796540365331 0 0.048434990491510017 -0.041384299931778119 0 0.043523923911963393 -0.042797243772753714 0 0.041525778709103144 -0.042479671766364135 0 0.043118126569666917 -0.039806485577785024 0 0.046079237247318702 -0.042529796540365331 0 0.043523923911963393 -0.042797243772753714 0 0.043118126569666917 -0.039806485577785024 0 0.046079237247318702 -0.042529796540365331 0 0.043523923911963393 -0.042797243772753714 0 0.044948634886417455 -0.044881187817500466 0 0.043523923911963393 -0.042797243772753714 0 0.043117098081991184 -0.044674341832376119 0 0.044948634886417455 -0.044881187817500466 0 0.033223621680213748 -0.043168831276529242 0 0.034400002890225899 -0.046381197602593106 0 0.043523923911963393 -0.042797243772753714 0 0.041525778709103144 -0.042479671766364135 0 0.043117098081991184 -0.044674341832376119 0 0.026035226679709245 -0.047336782620546254 0 0.026311236478195117 -0.046916618982721384 0 0.025799101432247964 -0.047023312709620513 0 0.026035226679709245 -0.047336782620546254 0 0.024917727508647541 -0.04786490718277913 0 0.026311236478195117 -0.046916618982721384 0 0.024917727508647541 -0.04786490718277913 0 0.024600087576817791 -0.046414269533853039 0 0.026311236478195117 -0.046916618982721384 0 0.024600087576817791 -0.046414269533853039 0 0.026311236478195117 -0.046916618982721384 0 0.025561212332030101 -0.045266386621471977 0 0.033223621680213748 -0.043168831276529242 0 0.034803316205295011 -0.050083594590352408 0 0.034803316205295011 -0.050083594590352408 0 0.043171955786623077 -0.049563917272967356 0 0.041525778709103144 -0.042479671766364135 0 0.039877678127674676 -0.040244829784159469 0 0.043118126569666917 -0.039806485577785024 0 0.037887087990748018 -0.060014325052804011 0 0.038931152148103831 -0.058356853526488964 0 0.041399874936678641 -0.059409952214497033 0 0.037728827690965222 -0.06061622399230393 0 0.036640671629647993 -0.059030165575264665 0 0.034279156539752595 -0.061128824869305737 0 0.034803316205295011 -0.050083594590352408 0 0.02786247083328609 -0.053552552956918485 0 0.024600087576817791 -0.046414269533853039 0 0.025561212332030101 -0.045266386621471977 0 0.023095170256719328 -0.045148287547281292 0 0.034803316205295011 -0.050083594590352408 0 0.037674714180592705 -0.060026767570270312 0 0.037674714180592705 -0.060026767570270312 0 0.035469818599212333 -0.057071146855703254 0 0.037887087990748018 -0.060014325052804011 0 0.036788701552042079 -0.058598385619715462 0 0.038931152148103831 -0.058356853526488964 0 0.036788701552042079 -0.058598385619715462 0 0.038931152148103831 -0.058356853526488964 0 0.038097277042771896 -0.056616325643120018 0 0.038931152148103831 -0.058356853526488964 0 0.040498742223946727 -0.057144720563110873 0 0.038097277042771896 -0.056616325643120018 0 0.038931152148103831 -0.058356853526488964 0 0.041399874936678641 -0.059409952214497033 0 0.040498742223946727 -0.057144720563110873 0 0.041399874936678641 -0.059409952214497033 0 0.042630495516708222 -0.057538059684997388 0 0.040498742223946727 -0.057144720563110873 0 0.04532183614738531 -0.048998998069212638 0 0.043171955786623077 -0.049563917272967356 0 0.044702459813009042 -0.058528628201703799 0 0.041399874936678641 -0.059409952214497033 0 0.042630495516708222 -0.057538059684997388 0 0.044068172642164213 -0.05664611664592574 0 0.042630495516708222 -0.057538059684997388 0 0.042318621239932228 -0.055916454626587044 0 0.044046140747760552 -0.05499749697913682 0 0.040797542652838477 -0.057188457242708331 0 0.03584612432794082 -0.055000334044094448 0 0.042630495516708222 -0.057538059684997388 0 0.042318621239932228 -0.055916454626587044 0 0.040498742223946727 -0.057144720563110873 0 0.043869011688721336 -0.055382748290674522 0 0.044068172642164213 -0.05664611664592574 0 0.042318621239932228 -0.055916454626587044 0 0.042318621239932228 -0.055916454626587044 0 0.040324780136564257 -0.055567792843489554 0 0.040498742223946727 -0.057144720563110873 0 0.04231034338024553 -0.054682850369782224 0 0.0385435631623091 -0.054496419923323984 0 0.040324780136564257 -0.055567792843489554 0 0.042125701673426538 -0.054057290628201388 0 0.038511271258530266 -0.054082793828112902 0 0.042318621239932228 -0.055916454626587044 0 0.040324780136564257 -0.055567792843489554 0 0.042125701673426538 -0.054057290628201388 0 0.043869011688721336 -0.055382748290674522 0 0.042318621239932228 -0.055916454626587044 0 0.042125701673426538 -0.054057290628201388 0 0.045729321020172908 -0.05547415858702287 0 0.042480902535214984 -0.05529439196755398 0 0.043281257505162332 -0.053828057994780062 0 0.040797542652838477 -0.057188457242708331 0 0.038058900239457023 -0.057152424491495435 0 0.03584612432794082 -0.055000334044094448 0 0.042480902535214984 -0.05529439196755398 0 0.043281257505162332 -0.053828057994780062 0 0.040117025455445883 -0.053153612637498134 0 0.042480902535214984 -0.05529439196755398 0 0.040117025455445883 -0.053153612637498134 0 0.038596095126056308 -0.054903393608383894 0 0.041985141475132985 -0.055500069796927953 0 0.039066872695003509 -0.055164248759109739 0 0.03584612432794082 -0.055000334044094448 0 0.035338141595050929 -0.057039258849944888 0 0.032801846023851639 -0.056603580335606515 0 0.038058900239457023 -0.057152424491495435 0 0.03584612432794082 -0.055000334044094448 0 0.035338141595050929 -0.057039258849944888 0 0.039066872695003509 -0.055164248759109739 0 0.036084804973483368 -0.054758681011654882 0 0.040117025455445883 -0.053153612637498134 0 0.036864382756945632 -0.052642767949549585 0 0.038596095126056308 -0.054903393608383894 0 0.036864382756945632 -0.052642767949549585 0 0.038596095126056308 -0.054903393608383894 0 0.034825452065994682 -0.054376366904199225 0 0.0385435631623091 -0.054496419923323984 0 0.035043342081321503 -0.054385507300030458 0 0.036163346793331656 -0.055714701569478525 0 0.038511271258530266 -0.054082793828112902 0 0.038097277042771896 -0.056616325643120018 0 0.036163346793331656 -0.055714701569478525 0 0.038511271258530266 -0.054082793828112902 0 0.034825452065994682 -0.054376366904199225 0 0.040324780136564257 -0.055567792843489554 0 0.038511271258530266 -0.054082793828112902 0 0.038097277042771896 -0.056616325643120018 0 0.040324780136564257 -0.055567792843489554 0 0.040498742223946727 -0.057144720563110873 0 0.038097277042771896 -0.056616325643120018 0 0.036163346793331656 -0.055714701569478525 0 0.038097277042771896 -0.056616325643120018 0 0.035582225840065373 -0.057302604915124095 0 0.036788701552042079 -0.058598385619715462 0 0.038097277042771896 -0.056616325643120018 0 0.035582225840065373 -0.057302604915124095 0 0.036163346793331656 -0.055714701569478525 0 0.035582225840065373 -0.057302604915124095 0 0.033808465558465603 -0.05602289543350452 0 0.035582225840065373 -0.057302604915124095 0 0.033808465558465603 -0.05602289543350452 0 0.033857529844220108 -0.058703078689801312 0 0.033808465558465603 -0.05602289543350452 0 0.031461185492836274 -0.05756567639756064 0 0.033857529844220108 -0.058703078689801312 0 0.033808465558465603 -0.05602289543350452 0 0.033359962190368887 -0.054004523662831955 0 0.031344753922504014 -0.054335887937079282 0 0.033808465558465603 -0.05602289543350452 0 0.031344753922504014 -0.054335887937079282 0 0.031461185492836274 -0.05756567639756064 0 0.036163346793331656 -0.055714701569478525 0 0.033808465558465603 -0.05602289543350452 0 0.034825452065994682 -0.054376366904199225 0 0.033808465558465603 -0.05602289543350452 0 0.034825452065994682 -0.054376366904199225 0 0.033359962190368887 -0.054004523662831955 0 0.036864382756945632 -0.052642767949549585 0 0.034825452065994682 -0.054376366904199225 0 0.034472698099746554 -0.053347625723496023 0 0.036084804973483368 -0.054758681011654882 0 0.033197050450197642 -0.055325829858459304 0 0.035338141595050929 -0.057039258849944888 0 0.032601048147231894 -0.056775944327940198 0 0.032801846023851639 -0.056603580335606515 0 0.036864382756945632 -0.052642767949549585 0 0.033793736184184762 -0.052254635956755814 0 0.034472698099746554 -0.053347625723496023 0 0.03584612432794082 -0.055000334044094448 0 0.032801846023851639 -0.056603580335606515 0 0.029763698768325356 -0.054999605684097404 0 0.033197050450197642 -0.055325829858459304 0 0.033044388875820875 -0.055509339606252421 0 0.033793736184184762 -0.052254635956755814 0 0.034472698099746554 -0.053347625723496023 0 0.033359962190368887 -0.054004523662831955 0 0.034825452065994682 -0.054376366904199225 0 0.034472698099746554 -0.053347625723496023 0 0.033359962190368887 -0.054004523662831955 0 0.033197050450197642 -0.055325829858459304 0 0.03085814459820882 -0.05609319113894571 0 0.03195730214555139 -0.056689182305355121 0 0.030040907631036867 -0.056670825643463013 0 0.030234107308936931 -0.058161517895016279 0 0.033793736184184762 -0.052254635956755814 0 0.033359962190368887 -0.054004523662831955 0 0.031344753922504014 -0.054335887937079282 0 0.032579178612362855 -0.056769268855881537 0 0.03195730214555139 -0.056689182305355121 0 0.030234107308936931 -0.058161517895016279 0 0.032598462824427084 -0.056768780839043236 0 0.03195730214555139 -0.056689182305355121 0 0.032801846023851639 -0.056603580335606515 0 0.033197050450197642 -0.055325829858459304 0 0.032544522190896367 -0.055654064862026356 0 0.03195730214555139 -0.056689182305355121 0 0.032801846023851639 -0.056603580335606515 0 0.029763698768325356 -0.054999605684097404 0 0.027140096872739956 -0.056482658711021129 0 0.029763698768325356 -0.054999605684097404 0 0.028419917427721448 -0.057143418586803191 0 0.03195730214555139 -0.056689182305355121 0 0.029763698768325356 -0.054999605684097404 0 0.030040907631036867 -0.056670825643463013 0 0.029763698768325356 -0.054999605684097404 0 0.030040907631036867 -0.056670825643463013 0 0.028419917427721448 -0.057143418586803191 0 0.030040907631036867 -0.056670825643463013 0 0.028419917427721448 -0.057143418586803191 0 0.030234107308936931 -0.058161517895016279 0 0.027140096872739956 -0.056482658711021129 0 0.027159137132753391 -0.057957795884951799 0 0.028419917427721448 -0.057143418586803191 0 0.027159137132753391 -0.057957795884951799 0 0.028419917427721448 -0.057143418586803191 0 0.028027186639690886 -0.059131460999646904 0 0.028419917427721448 -0.057143418586803191 0 0.030234107308936931 -0.058161517895016279 0 0.028027186639690886 -0.059131460999646904 0 0.03085814459820882 -0.05609319113894571 0 0.028475071843524543 -0.057881218019768706 0 0.031344753922504014 -0.054335887937079282 0 0.031461185492836274 -0.05756567639756064 0 0.028875075052955109 -0.056630302053580384 0 0.031461185492836274 -0.05756567639756064 0 0.028875075052955109 -0.056630302053580384 0 0.029383018751674796 -0.05948936566039268 0 0.026676944402251344 -0.059184233621409621 0 0.028875075052955109 -0.056630302053580384 0 0.029383018751674796 -0.05948936566039268 0 0.026676944402251344 -0.059184233621409621 0 0.027576018939643385 -0.061834664578591311 0 0.029383018751674796 -0.05948936566039268 0 0.020327221791732904 -0.054544099234931517 0 0.025502292107433613 -0.053283408341854549 0 0.027576018939643385 -0.061834664578591311 0 0.029383018751674796 -0.05948936566039268 0 0.030778978626637626 -0.061570568532736007 0 0.029383018751674796 -0.05948936566039268 0 0.030778978626637626 -0.061570568532736007 0 0.03193269843409785 -0.059688897938612047 0 0.031461185492836274 -0.05756567639756064 0 0.029383018751674796 -0.05948936566039268 0 0.03193269843409785 -0.059688897938612047 0 0.031461185492836274 -0.05756567639756064 0 0.03193269843409785 -0.059688897938612047 0 0.033857529844220108 -0.058703078689801312 0 0.03193269843409785 -0.059688897938612047 0 0.033857529844220108 -0.058703078689801312 0 0.034279156539752595 -0.061128824869305737 0 0.036640671629647993 -0.059030165575264665 0 0.035582225840065373 -0.057302604915124095 0 0.033857529844220108 -0.058703078689801312 0 0.036640671629647993 -0.059030165575264665 0 0.033857529844220108 -0.058703078689801312 0 0.034279156539752595 -0.061128824869305737 0 0.030778978626637626 -0.061570568532736007 0 0.03193269843409785 -0.059688897938612047 0 0.034279156539752595 -0.061128824869305737 0 0.025502292107433613 -0.053283408341854549 0 0.02786247083328609 -0.053552552956918485 0 0.019450148754091082 -0.045301752271270271 0 0.023095170256719328 -0.045148287547281292 0 0.02241793275292351 -0.047711807941120281 0 0.019450148754091082 -0.045301752271270271 0 0.02241793275292351 -0.047711807941120281 0 0.019330572195515441 -0.048389713012671233 0 0.024600087576817791 -0.046414269533853039 0 0.023095170256719328 -0.045148287547281292 0 0.02241793275292351 -0.047711807941120281 0 0.024917727508647541 -0.04786490718277913 0 0.02241793275292351 -0.047711807941120281 0 0.023424340310393938 -0.049476680188446913 0 0.024917727508647541 -0.04786490718277913 0 0.024600087576817791 -0.046414269533853039 0 0.02241793275292351 -0.047711807941120281 0 0.02241793275292351 -0.047711807941120281 0 0.019330572195515441 -0.048389713012671233 0 0.020580087910099906 -0.050541849061363435 0 0.02241793275292351 -0.047711807941120281 0 0.020580087910099906 -0.050541849061363435 0 0.023424340310393938 -0.049476680188446913 0 0.019330572195515441 -0.048389713012671233 0 0.017598613211332888 -0.051714345921299795 0 0.020580087910099906 -0.050541849061363435 0 0.019330572195515441 -0.048389713012671233 0 0.016353514480997196 -0.048349923429831784 0 0.017598613211332888 -0.051714345921299795 0 0.015895255262967478 -0.050123999798447054 0 0.01760955784696782 -0.052250286798588584 0 0.016770771344563493 -0.052986216561619587 0 0.016329177202195823 -0.05373771213779182 0 0.017598613211332888 -0.051714345921299795 0 0.0165042180607511 -0.05386269815913914 0 0.016770771344563493 -0.052986216561619587 0 0.016329177202195823 -0.05373771213779182 0 0.015083232340433796 -0.045799518606515731 0 0.019450148754091082 -0.045301752271270271 0 0.016353514480997196 -0.048349923429831784 0 0.020327221791732904 -0.054544099234931517 0 0.015895255262967478 -0.050123999798447054 0 0.019450148754091082 -0.045301752271270271 0 0.019330572195515441 -0.048389713012671233 0 0.016353514480997196 -0.048349923429831784 0 0.0224262270734354 -0.039978260935527296 0 0.02426442628265894 -0.041245776869593805 0 0.02258919892999035 -0.040961239013319224 0 0.020151121467482127 -0.046772922999778366 0 0.022924435948478358 -0.046645860894474596 0 0.016648964394112363 -0.053646983721015506 0 0.016385468864994854 -0.054043385283494852 0 0.018007098084529573 -0.053618907856203393 0 0.020476113802318001 -0.039123071700281953 0 0.0224262270734354 -0.039978260935527296 0 0.021447289028746545 -0.040224936970181938 0 0.018402573174559185 -0.04662634687564704 0 0.020151121467482127 -0.046772922999778366 0 0.0224262270734354 -0.039978260935527296 0 0.02258919892999035 -0.040961239013319224 0 0.021447289028746545 -0.040224936970181938 0 0.018007098084529573 -0.053618907856203393 0 0.016760988944024217 -0.05308932667619648 0 0.017598613211332888 -0.051714345921299795 0 0.016648964394112363 -0.053646983721015506 0 0.018007098084529573 -0.053618907856203393 0 0.016760988944024217 -0.05308932667619648 0 0.016533044907845521 -0.053676318610113377 0 0.016770771344563493 -0.052986216561619587 0 0.016760988944024217 -0.05308932667619648 0 0.016770771344563493 -0.052986216561619587 0 0.016760988944024217 -0.05308932667619648 0 0.017598613211332888 -0.051714345921299795 0 0.018007098084529573 -0.053618907856203393 0 0.017598613211332888 -0.051714345921299795 0 0.020580087910099906 -0.050541849061363435 0 0.020580087910099906 -0.050541849061363435 0 0.023424340310393938 -0.049476680188446913 0 0.021951657184863822 -0.052081346666349296 0 0.018007098084529573 -0.053618907856203393 0 0.020580087910099906 -0.050541849061363435 0 0.021951657184863822 -0.052081346666349296 0 0.023424340310393938 -0.049476680188446913 0 0.021951657184863822 -0.052081346666349296 0 0.025052389790316511 -0.04949582508897353 0 0.022924435948478358 -0.046645860894474596 0 0.025106993312968791 -0.046309041697703557 0 0.02426442628265894 -0.041245776869593805 0 0.024708470030202382 -0.042381158346127407 0 0.025775793500317189 -0.043037267034848142 0 0.02426442628265894 -0.041245776869593805 0 0.023611506863887254 -0.041936996526445711 0 0.02258919892999035 -0.040961239013319224 0 0.02426442628265894 -0.041245776869593805 0 0.023611506863887254 -0.041936996526445711 0 0.024708470030202382 -0.042381158346127407 0 0.024708470030202382 -0.042381158346127407 0 0.024679649925232493 -0.043081896095859218 0 0.025529834868265912 -0.043314571210137799 0 0.023611506863887254 -0.041936996526445711 0 0.024708470030202382 -0.042381158346127407 0 0.024679649925232493 -0.043081896095859218 0 0.023611506863887254 -0.041936996526445711 0 0.024679649925232493 -0.043081896095859218 0 0.023395613749794077 -0.042708923439347575 0 0.023611506863887254 -0.041936996526445711 0 0.022619428131858979 -0.041825416677758749 0 0.023395613749794077 -0.042708923439347575 0 0.023611506863887254 -0.041936996526445711 0 0.022619428131858979 -0.041825416677758749 0 0.02258919892999035 -0.040961239013319224 0 0.02258919892999035 -0.040961239013319224 0 0.021447289028746545 -0.040224936970181938 0 0.021253516122602283 -0.040985111171600107 0 0.02063359233923737 -0.040083348060952886 0 0.021447289028746545 -0.040224936970181938 0 0.021253516122602283 -0.040985111171600107 0 0.022619428131858979 -0.041825416677758749 0 0.021253516122602283 -0.040985111171600107 0 0.022006142578205126 -0.042476228575954039 0 0.022619428131858979 -0.041825416677758749 0 0.02258919892999035 -0.040961239013319224 0 0.021253516122602283 -0.040985111171600107 0 0.020036761479520247 -0.042243874403960623 0 0.020247681456236767 -0.04149014989328046 0 0.022006142578205126 -0.042476228575954039 0 0.020247681456236767 -0.04149014989328046 0 0.021253516122602283 -0.040985111171600107 0 0.022006142578205126 -0.042476228575954039 0 0.022619428131858979 -0.041825416677758749 0 0.022006142578205126 -0.042476228575954039 0 0.023395613749794077 -0.042708923439347575 0 0.022006142578205126 -0.042476228575954039 0 0.023395613749794077 -0.042708923439347575 0 0.022881788787099903 -0.043527758367858528 0 0.021088329362579952 -0.042957279005697964 0 0.021922053205006897 -0.042329561720242555 0 0.021691341113311082 -0.04349254542189529 0 0.022006142578205126 -0.042476228575954039 0 0.022881788787099903 -0.043527758367858528 0 0.021691341113311082 -0.04349254542189529 0 0.022881788787099903 -0.043527758367858528 0 0.022735138626843517 -0.044195054525840161 0 0.021691341113311082 -0.04349254542189529 0 0.021922064525295964 -0.044164416633350918 0 0.022735138626843517 -0.044195054525840161 0 0.022881788787099903 -0.043527758367858528 0 0.022735138626843517 -0.044195054525840161 0 0.023698039037532773 -0.044286617503698188 0 0.022735138626843517 -0.044195054525840161 0 0.023698039037532773 -0.044286617503698188 0 0.023315465684086961 -0.045007963917032927 0 0.022735138626843517 -0.044195054525840161 0 0.022442165301045123 -0.044674294096311302 0 0.023315465684086961 -0.045007963917032927 0 0.021922064525295964 -0.044164416633350918 0 0.022735138626843517 -0.044195054525840161 0 0.022442165301045123 -0.044674294096311302 0 0.021922064525295964 -0.044164416633350918 0 0.022442165301045123 -0.044674294096311302 0 0.021784733406539289 -0.044675903182537946 0 0.024458123996891824 -0.044697726600381425 0 0.023698039037532773 -0.044286617503698188 0 0.023315465684086961 -0.045007963917032927 0 0.022881788787099903 -0.043527758367858528 0 0.023698039037532773 -0.044286617503698188 0 0.024114941361238915 -0.043592032612988302 0 0.023698039037532773 -0.044286617503698188 0 0.024636087313823132 -0.044147466057338998 0 0.024114941361238915 -0.043592032612988302 0 0.024458123996891824 -0.044697726600381425 0 0.024636087313823132 -0.044147466057338998 0 0.025467551796899992 -0.044332157492178025 0 0.024458123996891824 -0.044697726600381425 0 0.023698039037532773 -0.044286617503698188 0 0.024636087313823132 -0.044147466057338998 0 0.024636087313823132 -0.044147466057338998 0 0.024114941361238915 -0.043592032612988302 0 0.025086439746086975 -0.043813902778994385 0 0.023395613749794077 -0.042708923439347575 0 0.022881788787099903 -0.043527758367858528 0 0.024114941361238915 -0.043592032612988302 0 0.024679649925232493 -0.043081896095859218 0 0.023395613749794077 -0.042708923439347575 0 0.024114941361238915 -0.043592032612988302 0 0.024679649925232493 -0.043081896095859218 0 0.024114941361238915 -0.043592032612988302 0 0.025086439746086975 -0.043813902778994385 0 0.024679649925232493 -0.043081896095859218 0 0.025654821037112967 -0.043752548623240801 0 0.025086439746086975 -0.043813902778994385 0 0.025654821037112967 -0.043752548623240801 0 0.025688556640939605 -0.044009295133309145 0 0.025086439746086975 -0.043813902778994385 0 0.025654821037112967 -0.043752548623240801 0 0.025990287286352512 -0.044109205141762531 0 0.026005581746093395 -0.044213371124344321 0 0.025654821037112967 -0.043752548623240801 0 0.025688556640939605 -0.044009295133309145 0 0.025990287286352512 -0.044109205141762531 0 0.025688556640939605 -0.044009295133309145 0 0.026082717960025228 -0.044176878689292043 0 0.025990287286352512 -0.044109205141762531 0 0.025688556640939605 -0.044009295133309145 0 0.025467551796899992 -0.044332157492178025 0 0.026082717960025228 -0.044176878689292043 0 0.025688556640939605 -0.044009295133309145 0 0.025086439746086975 -0.043813902778994385 0 0.025467551796899992 -0.044332157492178025 0 0.024636087313823132 -0.044147466057338998 0 0.025086439746086975 -0.043813902778994385 0 0.025467551796899992 -0.044332157492178025 0 0.038286100284118552 -0.017145594349006636 0 0.040572397498510583 -0.01782661361583612 0 0.040194658248403604 -0.015104304668693152 0 0.031805351100552749 -0.030860062291813352 0 0.033478625189318822 -0.028685354893146289 0 0.038286100284118552 -0.017145594349006636 0 0.038964220236683805 -0.018594397183825006 0 0.040572397498510583 -0.01782661361583612 0 0.0308314021870718 -0.031353067085962326 0 0.031805351100552749 -0.030860062291813352 0 0.037179019848558363 -0.018192030494771923 0 0.038286100284118552 -0.017145594349006636 0 0.038964220236683805 -0.018594397183825006 0 0.043980698785251286 -0.018681400942042823 0 0.040572397498510583 -0.01782661361583612 0 0.043355410736708684 -0.016581992502591139 0 0.043980698785251286 -0.018681400942042823 0 0.040572397498510583 -0.01782661361583612 0 0.041967910214092907 -0.020164294729488171 0 0.041584839323837233 -0.016148313615211352 0 0.042713126511536581 -0.014884758242884455 0 0.040194658248403604 -0.015104304668693152 0 0.040572397498510583 -0.01782661361583612 0 0.041584839323837233 -0.016148313615211352 0 0.043355410736708684 -0.016581992502591139 0 0.040572397498510583 -0.01782661361583612 0 0.041584839323837233 -0.016148313615211352 0 0.040194658248403604 -0.015104304668693152 0 0.041584839323837233 -0.016148313615211352 0 0.043355410736708684 -0.016581992502591139 0 0.042713126511536581 -0.014884758242884455 0 0.043355410736708684 -0.016581992502591139 0 0.042713126511536581 -0.014884758242884455 0 0.045672830841006991 -0.014868334216415331 0 0.042713126511536581 -0.014884758242884455 0 0.040194658248403604 -0.015104304668693152 0 0.043501223387208299 -0.012245482531880828 0 0.042713126511536581 -0.014884758242884455 0 0.043501223387208299 -0.012245482531880828 0 0.045672830841006991 -0.014868334216415331 0 0.033478625189318822 -0.028685354893146289 0 0.035019674077631027 -0.034148376814605572 0 0.026082717960025228 -0.044176878689292043 0 0.025990287286352512 -0.044109205141762531 0 0.026618951213992166 -0.043891655787364939 0 0.025990287286352512 -0.044109205141762531 0 0.026222632477448316 -0.044598669947340193 0 0.026493519285540706 -0.04503893215001048 0 0.022700220395407658 -0.046393378040274713 0 0.035019674077631027 -0.034148376814605572 0 0.025990287286352512 -0.044109205141762531 0 0.026222632477448316 -0.044598669947340193 0 0.026005581746093395 -0.044213371124344321 0 0.026222632477448316 -0.044598669947340193 0 0.026493519285540706 -0.04503893215001048 0 0.026486780767418325 -0.044924601776286127 0 0.026493519285540706 -0.04503893215001048 0 0.026486780767418325 -0.044924601776286127 0 0.0269145902352955 -0.045280242388252193 0 0.026486780767418325 -0.044924601776286127 0 0.026222053638014102 -0.044708110165295814 0 0.026702870646738534 -0.045092989899854767 0 0.026222632477448316 -0.044598669947340193 0 0.026486780767418325 -0.044924601776286127 0 0.026222053638014102 -0.044708110165295814 0 0.026222053638014102 -0.044708110165295814 0 0.026259258060743546 -0.044940889620189342 0 0.026702870646738534 -0.045092989899854767 0 0.026259258060743546 -0.044940889620189342 0 0.026401718288418106 -0.04482719915321795 0 0.027021652887973018 -0.045136336803732448 0 0.026222053638014102 -0.044708110165295814 0 0.026259258060743546 -0.044940889620189342 0 0.025991063431078248 -0.044583411274337424 0 0.026259258060743546 -0.044940889620189342 0 0.025991063431078248 -0.044583411274337424 0 0.02582616834980879 -0.044943881551804399 0 0.025991063431078248 -0.044583411274337424 0 0.02582616834980879 -0.044943881551804399 0 0.025928835310340195 -0.044800829424182349 0 0.025991063431078248 -0.044583411274337424 0 0.02596934422933277 -0.044076709587079509 0 0.025928835310340195 -0.044800829424182349 0 0.026222053638014102 -0.044708110165295814 0 0.025991063431078248 -0.044583411274337424 0 0.026005581746093395 -0.044213371124344321 0 0.026222632477448316 -0.044598669947340193 0 0.026222053638014102 -0.044708110165295814 0 0.026005581746093395 -0.044213371124344321 0 0.025991063431078248 -0.044583411274337424 0 0.026005581746093395 -0.044213371124344321 0 0.02596934422933277 -0.044076709587079509 0 0.025654821037112967 -0.043752548623240801 0 0.025529834868265912 -0.043314571210137799 0 0.02596934422933277 -0.044076709587079509 0 0.025654821037112967 -0.043752548623240801 0 0.026005581746093395 -0.044213371124344321 0 0.02596934422933277 -0.044076709587079509 0 0.024679649925232493 -0.043081896095859218 0 0.025654821037112967 -0.043752548623240801 0 0.025529834868265912 -0.043314571210137799 0 0.024708470030202382 -0.042381158346127407 0 0.025529834868265912 -0.043314571210137799 0 0.025775793500317189 -0.043037267034848142 0 0.025529834868265912 -0.043314571210137799 0 0.02596934422933277 -0.044076709587079509 0 0.026069064714158065 -0.044186237739227793 0 0.02596934422933277 -0.044076709587079509 0 0.026069064714158065 -0.044186237739227793 0 0.025928835310340195 -0.044800829424182349 0 0.026069064714158065 -0.044186237739227793 0 0.025928835310340195 -0.044800829424182349 0 0.02605900580938314 -0.046201412492950816 0 0.025106993312968791 -0.046309041697703557 0 0.02570322689065593 -0.046220724480295752 0 0.026069064714158065 -0.044186237739227793 0 0.025775793500317189 -0.043037267034848142 0 0.02605900580938314 -0.046201412492950816 0 0.025529834868265912 -0.043314571210137799 0 0.026069064714158065 -0.044186237739227793 0 0.025775793500317189 -0.043037267034848142 0 0.024917727508647541 -0.04786490718277913 0 0.023424340310393938 -0.049476680188446913 0 0.025052389790316511 -0.04949582508897353 0 0.026035226679709245 -0.047336782620546254 0 0.024917727508647541 -0.04786490718277913 0 0.025052389790316511 -0.04949582508897353 0 0.026035226679709245 -0.047336782620546254 0 0.025052389790316511 -0.04949582508897353 0 0.02605900580938314 -0.046201412492950816 0 0.026035226679709245 -0.047336782620546254 0 0.025799101432247964 -0.047023312709620513 0 0.02605900580938314 -0.046201412492950816 0 0.025799101432247964 -0.047023312709620513 0 0.02605900580938314 -0.046201412492950816 0 0.025769185099341355 -0.045798621684186441 0 0.025799101432247964 -0.047023312709620513 0 0.025129376926047144 -0.045545809841387265 0 0.025769185099341355 -0.045798621684186441 0 0.043117098081991184 -0.044674341832376119 0 0.044948634886417455 -0.044881187817500466 0 0.044655714030444889 -0.046919249924513309 0 0.034400002890225899 -0.046381197602593106 0 0.037318920179271756 -0.044049480175553914 0 0.026259258060743546 -0.044940889620189342 0 0.026401718288418106 -0.04482719915321795 0 0.02582616834980879 -0.044943881551804399 0 0.037318920179271756 -0.044049480175553914 0 0.026219857738626694 -0.04753587889296234 0 0.025129376926047144 -0.045545809841387265 0 0.02582616834980879 -0.044943881551804399 0 0.025769185099341355 -0.045798621684186441 0 0.02582616834980879 -0.044943881551804399 0 0.025928835310340195 -0.044800829424182349 0 0.025769185099341355 -0.045798621684186441 0 0.025928835310340195 -0.044800829424182349 0 0.02605900580938314 -0.046201412492950816 0 0.025769185099341355 -0.045798621684186441 0 0.049932311760793983 -0.042398802109436459 0 0.049146670100225075 -0.042178767698434955 0 0.049556015094911872 -0.04259884155206322 0 0.049932311760793983 -0.042398802109436459 0 0.049146670100225075 -0.042178767698434955 0 0.049428068705661951 -0.041806017982995006 0 0.048402345056840698 -0.041885514607730281 0 0.049146670100225075 -0.042178767698434955 0 0.04880709860520073 -0.042352968669434263 0 0.048402345056840698 -0.041885514607730281 0 0.049146670100225075 -0.042178767698434955 0 0.049428068705661951 -0.041806017982995006 0 0.037318920179271756 -0.044049480175553914 0 0.049748549856234968 -0.043154301171799449 0 0.044948634886417455 -0.044881187817500466 0 0.044655714030444889 -0.046919249924513309 0 0.046975114323937431 -0.045403042521813583 0 0.049600732518919964 -0.042898944857619199 0 0.049748549856234968 -0.043154301171799449 0 0.049932311760793983 -0.042398802109436459 0 0.049428068705661951 -0.041806017982995006 0 0.050644360343111379 -0.042263803440217941 0 0.050558307623517124 -0.041730176524076373 0 0.049428068705661951 -0.041806017982995006 0 0.050644360343111379 -0.042263803440217941 0 0.050558307623517124 -0.041730176524076373 0 0.050644360343111379 -0.042263803440217941 0 0.051679205270366124 -0.042246636688020582 0 0.050644360343111379 -0.042263803440217941 0 0.051679205270366124 -0.042246636688020582 0 0.05154923283014174 -0.042646311753663166 0 0.050644360343111379 -0.042263803440217941 0 0.05154923283014174 -0.042646311753663166 0 0.050625071089561532 -0.042614729839565588 0 0.05154923283014174 -0.042646311753663166 0 0.051063451328246551 -0.04297900551911573 0 0.052639314825193767 -0.043213809448197735 0 0.05154923283014174 -0.042646311753663166 0 0.051063451328246551 -0.04297900551911573 0 0.050625071089561532 -0.042614729839565588 0 0.049932311760793983 -0.042398802109436459 0 0.050644360343111379 -0.042263803440217941 0 0.050625071089561532 -0.042614729839565588 0 0.051063451328246551 -0.04297900551911573 0 0.050625071089561532 -0.042614729839565588 0 0.050315054007017052 -0.042779707930844776 0 0.049932311760793983 -0.042398802109436459 0 0.050625071089561532 -0.042614729839565588 0 0.050315054007017052 -0.042779707930844776 0 0.049932311760793983 -0.042398802109436459 0 0.050315054007017052 -0.042779707930844776 0 0.049556015094911872 -0.04259884155206322 0 0.052159921141476308 -0.036878467575084152 0 0.048851964033032109 -0.036531810765337874 0 0.050315054007017052 -0.042779707930844776 0 0.05078179499386519 -0.043003828027808499 0 0.05001987567550268 -0.042988704621083992 0 0.050315054007017052 -0.042779707930844776 0 0.05001987567550268 -0.042988704621083992 0 0.049556015094911872 -0.04259884155206322 0 0.059424730390095576 -0.035046447810388119 0 0.059012279375774454 -0.034432702952877661 0 0.058426443659198392 -0.034828825579900989 0 0.051063451328246551 -0.04297900551911573 0 0.051011838130180551 -0.04359896230354867 0 0.052639314825193767 -0.043213809448197735 0 0.051154616275548771 -0.044100881551428675 0 0.052159921141476308 -0.036878467575084152 0 0.051063451328246551 -0.04297900551911573 0 0.050315054007017052 -0.042779707930844776 0 0.05078179499386519 -0.043003828027808499 0 0.052159921141476308 -0.036878467575084152 0 0.054052472175599921 -0.033889201217625065 0 0.059424730390095576 -0.035046447810388119 0 0.059510639005180395 -0.033925557269957107 0 0.059012279375774454 -0.034432702952877661 0 0.059510639005180395 -0.033925557269957107 0 0.059012279375774454 -0.034432702952877661 0 0.058812533460976389 -0.033462823016850191 0 0.046586154170019933 -0.030848018198134704 0 0.044337108053314152 -0.032088237041047608 0 0.04664549327480428 -0.033214361569660733 0 0.048483069945066362 -0.032304130294474098 0 0.046586154170019933 -0.030848018198134704 0 0.04664549327480428 -0.033214361569660733 0 0.048677372770458527 -0.029627675652682414 0 0.048483069945066362 -0.032304130294474098 0 0.046586154170019933 -0.030848018198134704 0 0.05001987567550268 -0.042988704621083992 0 0.049164293542249757 -0.042844563867292441 0 0.049556015094911872 -0.04259884155206322 0 0.048851964033032109 -0.036531810765337874 0 0.042506050708758895 -0.041126895858954703 0 0.049146670100225075 -0.042178767698434955 0 0.049556015094911872 -0.04259884155206322 0 0.04880709860520073 -0.042352968669434263 0 0.049164293542249757 -0.042844563867292441 0 0.049556015094911872 -0.04259884155206322 0 0.04880709860520073 -0.042352968669434263 0 0.037318920179271756 -0.044049480175553914 0 0.03759740683870362 -0.043902138146372865 0 0.026259258060743546 -0.044940889620189342 0 0.027021652887973018 -0.045136336803732448 0 0.026702870646738534 -0.045092989899854767 0 0.027553108355529744 -0.045519793397093923 0 0.026702870646738534 -0.045092989899854767 0 0.0269145902352955 -0.045280242388252193 0 0.042506050708758895 -0.041126895858954703 0 0.03759740683870362 -0.043902138146372865 0 0.027553108355529744 -0.045519793397093923 0 0.027021652887973018 -0.045136336803732448 0 0.026702870646738534 -0.045092989899854767 0 0.026486780767418325 -0.044924601776286127 0 0.026702870646738534 -0.045092989899854767 0 0.0269145902352955 -0.045280242388252193 0 0.039993112974816745 -0.034651706629434467 0 0.042184611888764226 -0.033313097995620433 0 0.044122173323658719 -0.034881199208227097 0 0.035019674077631027 -0.034148376814605572 0 0.047503057542923353 -0.02216381196814602 0 0.042506050708758895 -0.041126895858954703 0 0.033493428820555733 -0.040051453701627771 0 0.035019674077631027 -0.034148376814605572 0 0.033493428820555733 -0.040051453701627771 0 0.044122173323658719 -0.034881199208227097 0 0.045542816496327056 -0.034013256399254517 0 0.046926483500540961 -0.034833641162129732 0 0.044337108053314152 -0.032088237041047608 0 0.044122173323658719 -0.034881199208227097 0 0.045542816496327056 -0.034013256399254517 0 0.044337108053314152 -0.032088237041047608 0 0.042184611888764226 -0.033313097995620433 0 0.044122173323658719 -0.034881199208227097 0 0.044337108053314152 -0.032088237041047608 0 0.045542816496327056 -0.034013256399254517 0 0.04664549327480428 -0.033214361569660733 0 0.048142972292020074 -0.012159454924734634 0 0.045672830841006991 -0.014868334216415331 0 0.049681381275348817 -0.015394675580501106 0 0.043501223387208299 -0.012245482531880828 0 0.048142972292020074 -0.012159454924734634 0 0.045672830841006991 -0.014868334216415331 0 0.043355410736708684 -0.016581992502591139 0 0.045672830841006991 -0.014868334216415331 0 0.047084758356874777 -0.017956652806338829 0 0.049681381275348817 -0.015394675580501106 0 0.047084758356874777 -0.017956652806338829 0 0.050625770766563674 -0.018682309103400581 0 0.045672830841006991 -0.014868334216415331 0 0.049681381275348817 -0.015394675580501106 0 0.047084758356874777 -0.017956652806338829 0 0.047084758356874777 -0.017956652806338829 0 0.050625770766563674 -0.018682309103400581 0 0.049405888317536763 -0.021680828944693118 0 0.043980698785251286 -0.018681400942042823 0 0.047084758356874777 -0.017956652806338829 0 0.045791745953827574 -0.021886800066065828 0 0.043980698785251286 -0.018681400942042823 0 0.043355410736708684 -0.016581992502591139 0 0.047084758356874777 -0.017956652806338829 0 0.056308051900492824 -0.021367712630207911 0 0.054586356138479286 -0.019189445883369346 0 0.053815089232020351 -0.021967253093806167 0 0.054175407715350198 -0.015703049573289468 0 0.053747414079896708 -0.022775929041257997 0 0.050625770766563674 -0.018682309103400581 0 0.053815089232020351 -0.021967253093806167 0 0.049405888317536763 -0.021680828944693118 0 0.050625770766563674 -0.018682309103400581 0 0.053461583344779531 -0.016859393573548157 0 0.053815089232020351 -0.021967253093806167 0 0.049681381275348817 -0.015394675580501106 0 0.050625770766563674 -0.018682309103400581 0 0.053461583344779531 -0.016859393573548157 0 0.049681381275348817 -0.015394675580501106 0 0.053461583344779531 -0.016859393573548157 0 0.052934562926461329 -0.012423164714871303 0 0.056308051900492824 -0.021367712630207911 0 0.054586356138479286 -0.019189445883369346 0 0.056995455018284166 -0.018673258816426508 0 0.054586356138479286 -0.019189445883369346 0 0.055942146272095768 -0.017697769581641296 0 0.056995455018284166 -0.018673258816426508 0 0.055942146272095768 -0.017697769581641296 0 0.054931063810985732 -0.016230719315072684 0 0.057116148539182628 -0.016725448819193158 0 0.053609721445108782 -0.025055854942665712 0 0.058571165871580233 -0.024723641841269406 0 0.054586356138479286 -0.019189445883369346 0 0.055942146272095768 -0.017697769581641296 0 0.054931063810985732 -0.016230719315072684 0 0.054175407715350198 -0.015703049573289468 0 0.053609721445108782 -0.025055854942665712 0 0.053461583344779531 -0.016859393573548157 0 0.053526218087808532 -0.012480356031088302 0 0.052934562926461329 -0.012423164714871303 0 0.053609721445108782 -0.025055854942665712 0 0.050078839691007668 -0.026245046816297312 0 0.044122173323658719 -0.034881199208227097 0 0.04790829595790834 -0.034983069009441245 0 0.046926483500540961 -0.034833641162129732 0 0.048142972292020074 -0.012159454924734634 0 0.049681381275348817 -0.015394675580501106 0 0.052934562926461329 -0.012423164714871303 0 0.047503057542923353 -0.02216381196814602 0 0.050078839691007668 -0.026245046816297312 0 0.050078839691007668 -0.026245046816297312 0 0.048652875034240269 -0.029103512276918084 0 0.048483069945066362 -0.032304130294474098 0 0.047849959915079156 -0.035000041242293972 0 0.04664549327480428 -0.033214361569660733 0 0.045542816496327056 -0.034013256399254517 0 0.046926483500540961 -0.034833641162129732 0 0.04664549327480428 -0.033214361569660733 0 0.047849959915079156 -0.035000041242293972 0 0.046926483500540961 -0.034833641162129732 0 0.04664549327480428 -0.033214361569660733 0 0.048483069945066362 -0.032304130294474098 0 0.04831020342802049 -0.03502639764107314 0 0.047849959915079156 -0.035000041242293972 0 0.059510639005180395 -0.033925557269957107 0 0.059564771090071779 -0.032786623664250523 0 0.058812533460976389 -0.033462823016850191 0 0.059564771090071779 -0.032786623664250523 0 0.058812533460976389 -0.033462823016850191 0 0.058651965805494907 -0.032592302528541756 0 0.054052472175599921 -0.033889201217625065 0 0.053609721445108782 -0.025055854942665712 0 0.058812533460976389 -0.033462823016850191 0 0.057975607220613047 -0.03371925885054633 0 0.0584494347510887 -0.034190087317949688 0 0.058812533460976389 -0.033462823016850191 0 0.058079979869930139 -0.033010751093951247 0 0.057975607220613047 -0.03371925885054633 0 0.058812533460976389 -0.033462823016850191 0 0.058079979869930139 -0.033010751093951247 0 0.058651965805494907 -0.032592302528541756 0 0.057975607220613047 -0.03371925885054633 0 0.05749038467564873 -0.033246990208667358 0 0.057328414600898728 -0.034053023122562524 0 0.057435559113689034 -0.033704050621295986 0 0.057470009857206267 -0.033691454457286357 0 0.058079979869930139 -0.033010751093951247 0 0.057975607220613047 -0.03371925885054633 0 0.05749038467564873 -0.033246990208667358 0 0.057520864536629281 -0.027127620034729627 0 0.057011940799918004 -0.030664881588772203 0 0.057968108355058771 -0.032878419112403953 0 0.058453345435301056 -0.031570880227996825 0 0.057131098667123792 -0.032766504057696974 0 0.057435559113689034 -0.033704050621295986 0 0.057520864536629281 -0.027127620034729627 0 0.058079979869930139 -0.033010751093951247 0 0.05749038467564873 -0.033246990208667358 0 0.057727320729984564 -0.032394973710212847 0 0.057520864536629281 -0.027127620034729627 0 0.058571165871580233 -0.024723641841269406 0 0.059303169625931705 -0.017224614553528361 0 0.057116148539182628 -0.016725448819193158 0 0.056995455018284166 -0.018673258816426508 0 0.058079979869930139 -0.033010751093951247 0 0.057727320729984564 -0.032394973710212847 0 0.058651965805494907 -0.032592302528541756 0 0.055942146272095768 -0.017697769581641296 0 0.057116148539182628 -0.016725448819193158 0 0.056995455018284166 -0.018673258816426508 0 0.059303169625931705 -0.017224614553528361 0 0.056995455018284166 -0.018673258816426508 0 0.058499552405652695 -0.020125099683409191 0 0.057520864536629281 -0.027127620034729627 0 0.058570649146280573 -0.023175850131735485 0 0.057838633517306823 -0.030166919292730316 0 0.057245910219468205 -0.028626482876485494 0 0.056554620284811417 -0.030016881993546105 0 0.057838633517306823 -0.030166919292730316 0 0.057245910219468205 -0.028626482876485494 0 0.058329618612371993 -0.027679422756982847 0 0.057245910219468205 -0.028626482876485494 0 0.058329618612371993 -0.027679422756982847 0 0.057411315207470962 -0.025975360070439331 0 0.057245910219468205 -0.028626482876485494 0 0.056640061273332293 -0.026159742570377065 0 0.057411315207470962 -0.025975360070439331 0 0.056308051900492824 -0.021367712630207911 0 0.058499552405652695 -0.020125099683409191 0 0.057621920389763076 -0.024218898416536228 0 0.058570649146280573 -0.023175850131735485 0 0.057622894476043622 -0.024671312169851762 0 0.058329618612371993 -0.027679422756982847 0 0.057621920389763076 -0.024218898416536228 0 0.057411315207470962 -0.025975360070439331 0 0.056308051900492824 -0.021367712630207911 0 0.056995455018284166 -0.018673258816426508 0 0.058499552405652695 -0.020125099683409191 0 0.054999466096026704 -0.028892501664420138 0 0.056161517100884767 -0.028617655588074217 0 0.055752250555191354 -0.026820729233475178 0 0.056161517100884767 -0.028617655588074217 0 0.056640061273332293 -0.026159742570377065 0 0.055752250555191354 -0.026820729233475178 0 0.057245910219468205 -0.028626482876485494 0 0.056161517100884767 -0.028617655588074217 0 0.056640061273332293 -0.026159742570377065 0 0.057245910219468205 -0.028626482876485494 0 0.056161517100884767 -0.028617655588074217 0 0.056554620284811417 -0.030016881993546105 0 0.056161517100884767 -0.028617655588074217 0 0.055609752412542283 -0.030542796967053761 0 0.056554620284811417 -0.030016881993546105 0 0.054999466096026704 -0.028892501664420138 0 0.056161517100884767 -0.028617655588074217 0 0.055609752412542283 -0.030542796967053761 0 0.054999466096026704 -0.028892501664420138 0 0.055609752412542283 -0.030542796967053761 0 0.054999633616642882 -0.031874242904825392 0 0.055609752412542283 -0.030542796967053761 0 0.056333412839997953 -0.032275257888362219 0 0.054999633616642882 -0.031874242904825392 0 0.056333412839997953 -0.032275257888362219 0 0.054999633616642882 -0.031874242904825392 0 0.055491994854288053 -0.032988247843181003 0 0.056333412839997953 -0.032275257888362219 0 0.057127523695981633 -0.031242549811252449 0 0.057131098667123792 -0.032766504057696974 0 0.055609752412542283 -0.030542796967053761 0 0.056333412839997953 -0.032275257888362219 0 0.057127523695981633 -0.031242549811252449 0 0.058453345435301056 -0.031570880227996825 0 0.057127523695981633 -0.031242549811252449 0 0.057131098667123792 -0.032766504057696974 0 0.055599829300347646 -0.030482150542129167 0 0.057011940799918004 -0.030664881588772203 0 0.057968108355058771 -0.032878419112403953 0 0.057131098667123792 -0.032766504057696974 0 0.057328414600898728 -0.034053023122562524 0 0.057131098667123792 -0.032766504057696974 0 0.056531462662823384 -0.033473705753365307 0 0.057328414600898728 -0.034053023122562524 0 0.056333412839997953 -0.032275257888362219 0 0.057131098667123792 -0.032766504057696974 0 0.056531462662823384 -0.033473705753365307 0 0.054999633616642882 -0.031874242904825392 0 0.055491994854288053 -0.032988247843181003 0 0.055000011901112283 -0.034856063956011207 0 0.056531462662823384 -0.033473705753365307 0 0.055491994854288053 -0.032988247843181003 0 0.05607485571438809 -0.034362480987512475 0 0.05554784610090089 -0.033100459270502883 0 0.056138441279856267 -0.034926179587117918 0 0.056333412839997953 -0.032275257888362219 0 0.056531462662823384 -0.033473705753365307 0 0.055491994854288053 -0.032988247843181003 0 0.055491994854288053 -0.032988247843181003 0 0.055000011901112283 -0.034856063956011207 0 0.056258433290621954 -0.035447860915308105 0 0.055000011901112283 -0.034856063956011207 0 0.056258433290621954 -0.035447860915308105 0 0.055817720424574169 -0.036700785383654726 0 0.056138441279856267 -0.034926179587117918 0 0.056605268999703848 -0.036451709357798331 0 0.056258433290621954 -0.035447860915308105 0 0.055817720424574169 -0.036700785383654726 0 0.056722413994382714 -0.037937517968941258 0 0.055817720424574169 -0.036700785383654726 0 0.056722413994382714 -0.037937517968941258 0 0.054999692538813663 -0.037836992051354879 0 0.055000011901112283 -0.034856063956011207 0 0.055817720424574169 -0.036700785383654726 0 0.054999692538813663 -0.037836992051354879 0 0.05607485571438809 -0.034362480987512475 0 0.0564826541905811 -0.035593902262457386 0 0.056872958774244656 -0.034811520631695174 0 0.0564826541905811 -0.035593902262457386 0 0.056872958774244656 -0.034811520631695174 0 0.057219908831910422 -0.035729155964611292 0 0.056872958774244656 -0.034811520631695174 0 0.056692389183888893 -0.034144404786969056 0 0.057328414600898728 -0.034053023122562524 0 0.05607485571438809 -0.034362480987512475 0 0.056872958774244656 -0.034811520631695174 0 0.056692389183888893 -0.034144404786969056 0 0.056531462662823384 -0.033473705753365307 0 0.05607485571438809 -0.034362480987512475 0 0.056692389183888893 -0.034144404786969056 0 0.056531462662823384 -0.033473705753365307 0 0.056692389183888893 -0.034144404786969056 0 0.057328414600898728 -0.034053023122562524 0 0.057328414600898728 -0.034053023122562524 0 0.057890136645163896 -0.034398296376643052 0 0.057605042358193984 -0.034998627333040738 0 0.056872958774244656 -0.034811520631695174 0 0.057328414600898728 -0.034053023122562524 0 0.057605042358193984 -0.034998627333040738 0 0.057975607220613047 -0.03371925885054633 0 0.057328414600898728 -0.034053023122562524 0 0.057890136645163896 -0.034398296376643052 0 0.059012279375774454 -0.034432702952877661 0 0.058812533460976389 -0.033462823016850191 0 0.0584494347510887 -0.034190087317949688 0 0.057975607220613047 -0.03371925885054633 0 0.057890136645163896 -0.034398296376643052 0 0.0584494347510887 -0.034190087317949688 0 0.057890136645163896 -0.034398296376643052 0 0.0584494347510887 -0.034190087317949688 0 0.058426443659198392 -0.034828825579900989 0 0.059012279375774454 -0.034432702952877661 0 0.0584494347510887 -0.034190087317949688 0 0.058426443659198392 -0.034828825579900989 0 0.058426443659198392 -0.034828825579900989 0 0.057605042358193984 -0.034998627333040738 0 0.058173385907635808 -0.035915446453834918 0 0.052159921141476308 -0.036878467575084152 0 0.055908510297818459 -0.039717244663988474 0 0.059424730390095576 -0.035046447810388119 0 0.058426443659198392 -0.034828825579900989 0 0.058173385907635808 -0.035915446453834918 0 0.057890136645163896 -0.034398296376643052 0 0.058426443659198392 -0.034828825579900989 0 0.057605042358193984 -0.034998627333040738 0 0.057605042358193984 -0.034998627333040738 0 0.057219908831910422 -0.035729155964611292 0 0.058173385907635808 -0.035915446453834918 0 0.056872958774244656 -0.034811520631695174 0 0.057605042358193984 -0.034998627333040738 0 0.057219908831910422 -0.035729155964611292 0 0.055908510297818459 -0.039717244663988474 0 0.055577182600520213 -0.040497399405571927 0 0.057219908831910422 -0.035729155964611292 0 0.058173385907635808 -0.035915446453834918 0 0.056845518551273136 -0.036823828476825624 0 0.051679205270366124 -0.042246636688020582 0 0.05154923283014174 -0.042646311753663166 0 0.05290206973704132 -0.042599316497026113 0 0.05154923283014174 -0.042646311753663166 0 0.052639314825193767 -0.043213809448197735 0 0.05290206973704132 -0.042599316497026113 0 0.052639314825193767 -0.043213809448197735 0 0.05290206973704132 -0.042599316497026113 0 0.053947607303368464 -0.042835011047424473 0 0.054336708630930236 -0.042032481180031792 0 0.056423346612683244 -0.040930826773362294 0 0.056464576713508706 -0.040910892133602383 0 0.055487405062653136 -0.042252554984298564 0 0.056423346612683244 -0.040930826773362294 0 0.055648854503256108 -0.040896178472015952 0 0.05564682027337077 -0.040485181263243374 0 0.055577182600520213 -0.040497399405571927 0 0.056423346612683244 -0.040930826773362294 0 0.056201542867952453 -0.040034319957842637 0 0.055648854503256108 -0.040896178472015952 0 0.056423346612683244 -0.040930826773362294 0 0.056696324923235938 -0.040733609521656403 0 0.056201542867952453 -0.040034319957842637 0 0.055487405062653136 -0.042252554984298564 0 0.055648854503256108 -0.040896178472015952 0 0.054998927604916308 -0.040820938346257725 0 0.055648854503256108 -0.040896178472015952 0 0.054998927604916308 -0.040820938346257725 0 0.055661735166987018 -0.039550574807018582 0 0.056201542867952453 -0.040034319957842637 0 0.055648854503256108 -0.040896178472015952 0 0.055661735166987018 -0.039550574807018582 0 0.056722413994382714 -0.037937517968941258 0 0.056201542867952453 -0.040034319957842637 0 0.055661735166987018 -0.039550574807018582 0 0.054998927604916308 -0.040820938346257725 0 0.055661735166987018 -0.039550574807018582 0 0.054999692538813663 -0.037836992051354879 0 0.056722413994382714 -0.037937517968941258 0 0.055661735166987018 -0.039550574807018582 0 0.054999692538813663 -0.037836992051354879 0 0.056722413994382714 -0.037937517968941258 0 0.056696324923235938 -0.040733609521656403 0 0.056201542867952453 -0.040034319957842637 0 0.0564826541905811 -0.035593902262457386 0 0.057219908831910422 -0.035729155964611292 0 0.056845518551273136 -0.036823828476825624 0 0.056605268999703848 -0.036451709357798331 0 0.055577182600520213 -0.040497399405571927 0 0.056413869927214005 -0.017558583833613563 0 0.055784374044430977 -0.018104165914273336 0 0.056481239163180839 -0.018654669808198746 0 0.056413869927214005 -0.017558583833613563 0 0.057121115976042781 -0.018316343054589974 0 0.056481239163180839 -0.018654669808198746 0 0.057095095023144152 -0.016886740287949231 0 0.055835177151819196 -0.017368560538264421 0 0.056495552552774518 -0.015266299572136646 0 0.056896569935554767 -0.01525067754323762 0 0.056014669663266251 -0.016620451404493735 0 0.056857867362390554 -0.016643230739226536 0 0.057095095023144152 -0.016886740287949231 0 0.056014669663266251 -0.016620451404493735 0 0.054999488350763515 -0.015671346445727194 0 0.055000141306497045 -0.017961962528664104 0 0.056014669663266251 -0.016620451404493735 0 0.054999488350763515 -0.015671346445727194 0 0.055801695592873297 -0.015499186477792999 0 0.056495552552774518 -0.015266299572136646 0 0.056014669663266251 -0.016620451404493735 0 0.055801695592873297 -0.015499186477792999 0 0.054999488350763515 -0.015671346445727194 0 0.055687176388987743 -0.014501745183677119 0 0.055000724771715664 -0.013383987647742842 0 0.055687176388987743 -0.014501745183677119 0 0.056446099751916168 -0.013640146341966225 0 0.055000724771715664 -0.013383987647742842 0 0.056495552552774518 -0.015266299572136646 0 0.055687176388987743 -0.014501745183677119 0 0.056446099751916168 -0.013640146341966225 0 0.056495552552774518 -0.015266299572136646 0 0.055801695592873297 -0.015499186477792999 0 0.055687176388987743 -0.014501745183677119 0 0.054999488350763515 -0.015671346445727194 0 0.055801695592873297 -0.015499186477792999 0 0.055687176388987743 -0.014501745183677119 0 0.056495552552774518 -0.015266299572136646 0 0.056733708687650646 -0.015203876388475099 0 0.056446099751916168 -0.013640146341966225 0 0.056733708687650646 -0.015203876388475099 0 0.057588938668389905 -0.013506288949234134 0 0.056446099751916168 -0.013640146341966225 0 0.058311659533229497 -0.018187580732001923 0 0.057710024432762901 -0.018197608970982489 0 0.057715674794361779 -0.01884052200801746 0 0.057095095023144152 -0.016886740287949231 0 0.057756824793937511 -0.016109207325824337 0 0.057219212415094027 -0.018700127337775149 0 0.057710024432762901 -0.018197608970982489 0 0.057715674794361779 -0.01884052200801746 0 0.057219212415094027 -0.018700127337775149 0 0.057088032383562227 -0.018205405938267333 0 0.057710024432762901 -0.018197608970982489 0 0.057470467871309078 -0.024330254084613489 0 0.057804395884415001 -0.022791613121544482 0 0.057308825828388373 -0.024337220681699117 0 0.057804395884415001 -0.022791613121544482 0 0.057867545100661277 -0.022123984786591836 0 0.057308825828388373 -0.024337220681699117 0 0.057867545100661277 -0.022123984786591836 0 0.057077706863921704 -0.023036202851424784 0 0.0573123623582628 -0.023972810959167323 0 0.059575742991051617 -0.017595162177013485 0 0.058667612039043755 -0.018204845748230353 0 0.059055453772589799 -0.019087958490829782 0 0.057917096580317677 -0.022963576562670767 0 0.056715575489137221 -0.02220740265965411 0 0.059575742991051617 -0.017595162177013485 0 0.058667612039043755 -0.018204845748230353 0 0.057848397319845486 -0.017582007745978685 0 0.057320856707718505 -0.020541505809806543 0 0.058424164829650467 -0.020976236116013208 0 0.057320856707718505 -0.020541505809806543 0 0.058024599377582468 -0.017803696400364114 0 0.058667612039043755 -0.018204845748230353 0 0.057961207720099953 -0.018693761079212386 0 0.059055453772589799 -0.019087958490829782 0 0.057095095023144152 -0.016886740287949231 0 0.058024599377582468 -0.017803696400364114 0 0.056413869927214005 -0.017558583833613563 0 0.057848397319845486 -0.017582007745978685 0 0.057121115976042781 -0.018316343054589974 0 0.058667612039043755 -0.018204845748230353 0 0.057848397319845486 -0.017582007745978685 0 0.057961207720099953 -0.018693761079212386 0 0.057848397319845486 -0.017582007745978685 0 0.057961207720099953 -0.018693761079212386 0 0.057121115976042781 -0.018316343054589974 0 0.057961207720099953 -0.018693761079212386 0 0.057121115976042781 -0.018316343054589974 0 0.057270415114313043 -0.01938295806038514 0 0.057961207720099953 -0.018693761079212386 0 0.057270415114313043 -0.01938295806038514 0 0.05785821922266169 -0.019776402123739198 0 0.057270415114313043 -0.01938295806038514 0 0.057417358058468204 -0.020375808425981645 0 0.056744601715255492 -0.019999638363353178 0 0.057270415114313043 -0.01938295806038514 0 0.05785821922266169 -0.019776402123739198 0 0.057417358058468204 -0.020375808425981645 0 0.058424164829650467 -0.020976236116013208 0 0.058136116559412754 -0.021176856546263039 0 0.057804395884415001 -0.022791613121544482 0 0.057867545100661277 -0.022123984786591836 0 0.058053930418342767 -0.02117410641014697 0 0.05785821922266169 -0.019776402123739198 0 0.059055453772589799 -0.019087958490829782 0 0.058053930418342767 -0.02117410641014697 0 0.057867545100661277 -0.022123984786591836 0 0.057185057198800807 -0.022296678158579501 0 0.057077706863921704 -0.023036202851424784 0 0.057961207720099953 -0.018693761079212386 0 0.05785821922266169 -0.019776402123739198 0 0.059055453772589799 -0.019087958490829782 0 0.057867545100661277 -0.022123984786591836 0 0.057401207663127084 -0.021788004241102599 0 0.057185057198800807 -0.022296678158579501 0 0.057401207663127084 -0.021788004241102599 0 0.058053930418342767 -0.02117410641014697 0 0.0571740946038184 -0.021729486335596758 0 0.057867545100661277 -0.022123984786591836 0 0.057401207663127084 -0.021788004241102599 0 0.058053930418342767 -0.02117410641014697 0 0.057417358058468204 -0.020375808425981645 0 0.057522305186284317 -0.021159501866310718 0 0.056744601715255492 -0.019999638363353178 0 0.058053930418342767 -0.02117410641014697 0 0.057417358058468204 -0.020375808425981645 0 0.057522305186284317 -0.021159501866310718 0 0.05785821922266169 -0.019776402123739198 0 0.058053930418342767 -0.02117410641014697 0 0.057417358058468204 -0.020375808425981645 0 0.056744601715255492 -0.019999638363353178 0 0.055926847093144258 -0.019837355970486716 0 0.05664377037924527 -0.02151939091269359 0 0.057522305186284317 -0.021159501866310718 0 0.056744601715255492 -0.019999638363353178 0 0.05664377037924527 -0.02151939091269359 0 0.056744601715255492 -0.019999638363353178 0 0.056002005797082616 -0.018881247291405272 0 0.055926847093144258 -0.019837355970486716 0 0.056744601715255492 -0.019999638363353178 0 0.056481239163180839 -0.018654669808198746 0 0.056002005797082616 -0.018881247291405272 0 0.057270415114313043 -0.01938295806038514 0 0.056744601715255492 -0.019999638363353178 0 0.056481239163180839 -0.018654669808198746 0 0.057121115976042781 -0.018316343054589974 0 0.057270415114313043 -0.01938295806038514 0 0.056481239163180839 -0.018654669808198746 0 0.055835177151819196 -0.017368560538264421 0 0.055000213739736022 -0.017961851140519947 0 0.055784374044430977 -0.018104165914273336 0 0.056481239163180839 -0.018654669808198746 0 0.056002005797082616 -0.018881247291405272 0 0.055784374044430977 -0.018104165914273336 0 0.055000110391232752 -0.017964728977515474 0 0.056002005797082616 -0.018881247291405272 0 0.055000110391232752 -0.017964728977515474 0 0.056002005797082616 -0.018881247291405272 0 0.055926847093144258 -0.019837355970486716 0 0.055000110391232752 -0.017964728977515474 0 0.054999644083268927 -0.020612023348078667 0 0.055926847093144258 -0.019837355970486716 0 0.054999644083268927 -0.020612023348078667 0 0.055926847093144258 -0.019837355970486716 0 0.05664377037924527 -0.02151939091269359 0 0.054999644083268927 -0.020612023348078667 0 0.05664377037924527 -0.02151939091269359 0 0.05499983533549746 -0.023262102588488102 0 0.05664377037924527 -0.02151939091269359 0 0.056915701443190893 -0.023709177582641027 0 0.058045925965883274 -0.021816560542542211 0 0.05664377037924527 -0.02151939091269359 0 0.05499983533549746 -0.023262102588488102 0 0.056915701443190893 -0.023709177582641027 0 0.05499983533549746 -0.023262102588488102 0 0.056915701443190893 -0.023709177582641027 0 0.054999939503290601 -0.025912180438710717 0 0.056070159757991643 -0.024200426840997422 0 0.055752250555191354 -0.026820729233475178 0 0.054999049204242922 -0.025912782515799163 0 0.056478241396280195 -0.023962378225888984 0 0.055000237855343921 -0.025912163300145837 0 0.056070159757991643 -0.024200426840997422 0 0.056640061273332293 -0.026159742570377065 0 0.055752250555191354 -0.026820729233475178 0 0.054999466096026704 -0.028892501664420138 0 0.055752250555191354 -0.026820729233475178 0 0.054999049204242922 -0.025912782515799163 0 0.057621920389763076 -0.024218898416536228 0 0.057411315207470962 -0.025975360070439331 0 0.057085524605641993 -0.024231170726204811 0 0.056640061273332293 -0.026159742570377065 0 0.057411315207470962 -0.025975360070439331 0 0.057085524605641993 -0.024231170726204811 0 0.056070159757991643 -0.024200426840997422 0 0.056640061273332293 -0.026159742570377065 0 0.057085524605641993 -0.024231170726204811 0 0.057621920389763076 -0.024218898416536228 0 0.057085524605641993 -0.024231170726204811 0 0.056985495829178841 -0.023924358200156124 0 0.057085524605641993 -0.024231170726204811 0 0.056985495829178841 -0.023924358200156124 0 0.056960729867136808 -0.023176018832175422 0 0.057621920389763076 -0.024218898416536228 0 0.056985495829178841 -0.023924358200156124 0 0.056386418074970239 -0.023874579876555533 0 0.057085524605641993 -0.024231170726204811 0 0.056960729867136808 -0.023176018832175422 0 0.056612472348665163 -0.023039701921783309 0 0.056070159757991643 -0.024200426840997422 0 0.057085524605641993 -0.024231170726204811 0 0.056612472348665163 -0.023039701921783309 0 0.056478241396280195 -0.023962378225888984 0 0.057299059442454621 -0.022441829991119343 0 0.057522305186284317 -0.021159501866310718 0 0.05664377037924527 -0.02151939091269359 0 0.058045925965883274 -0.021816560542542211 0 0.058053930418342767 -0.02117410641014697 0 0.057522305186284317 -0.021159501866310718 0 0.058045925965883274 -0.021816560542542211 0 0.058053930418342767 -0.02117410641014697 0 0.058045925965883274 -0.021816560542542211 0 0.0571740946038184 -0.021729486335596758 0 0.056960729867136808 -0.023176018832175422 0 0.056612472348665163 -0.023039701921783309 0 0.0571740946038184 -0.021729486335596758 0 0.057299059442454621 -0.022441829991119343 0 0.057246865547134672 -0.02181304196194837 0 0.056960729867136808 -0.023176018832175422 0 0.057034365610804841 -0.022344724790088012 0 0.0571740946038184 -0.021729486335596758 0 0.057034365610804841 -0.022344724790088012 0 0.056633092341493253 -0.021683215013872548 0 0.0571740946038184 -0.021729486335596758 0 0.057034365610804841 -0.022344724790088012 0 0.056633092341493253 -0.021683215013872548 0 0.05713680861647058 -0.02241842089137356 0 0.057034365610804841 -0.022344724790088012 0 0.05713680861647058 -0.02241842089137356 0 0.057201637659453713 -0.0233860144961569 0 0.050842555294266727 -0.029602720946907086 0 0.053429544851031983 -0.026631281766693566 0 0.050525561747136551 -0.026926415821491464 0 0.053916914783170601 -0.026459997474216027 0 0.055352473356314338 -0.024880761215252633 0 0.056960729867136808 -0.023176018832175422 0 0.057034365610804841 -0.022344724790088012 0 0.057201637659453713 -0.0233860144961569 0 0.056985495829178841 -0.023924358200156124 0 0.057201637659453713 -0.0233860144961569 0 0.056386418074970239 -0.023874579876555533 0 0.056985495829178841 -0.023924358200156124 0 0.056960729867136808 -0.023176018832175422 0 0.057201637659453713 -0.0233860144961569 0 0.053429544851031983 -0.026631281766693566 0 0.053602796216017594 -0.024249875746377651 0 0.056386418074970239 -0.023874579876555533 0 0.055352473356314338 -0.024880761215252633 0 0.056306383145199985 -0.023909956465563702 0 0.053429544851031983 -0.026631281766693566 0 0.051008013082631025 -0.024469192964138013 0 0.050525561747136551 -0.026926415821491464 0 0.053429544851031983 -0.026631281766693566 0 0.051008013082631025 -0.024469192964138013 0 0.053602796216017594 -0.024249875746377651 0 0.051008013082631025 -0.024469192964138013 0 0.053815089232020351 -0.021967253093806167 0 0.049405888317536763 -0.021680828944693118 0 0.051008013082631025 -0.024469192964138013 0 0.053602796216017594 -0.024249875746377651 0 0.053815089232020351 -0.021967253093806167 0 0.056308051900492824 -0.021367712630207911 0 0.053815089232020351 -0.021967253093806167 0 0.056386418074970239 -0.023874579876555533 0 0.056308051900492824 -0.021367712630207911 0 0.057621920389763076 -0.024218898416536228 0 0.056386418074970239 -0.023874579876555533 0 0.053602796216017594 -0.024249875746377651 0 0.053815089232020351 -0.021967253093806167 0 0.056386418074970239 -0.023874579876555533 0 0.047084758356874777 -0.017956652806338829 0 0.045791745953827574 -0.021886800066065828 0 0.049405888317536763 -0.021680828944693118 0 0.045791745953827574 -0.021886800066065828 0 0.049405888317536763 -0.021680828944693118 0 0.048145210717672443 -0.02512005597113412 0 0.051008013082631025 -0.024469192964138013 0 0.049405888317536763 -0.021680828944693118 0 0.048145210717672443 -0.02512005597113412 0 0.051008013082631025 -0.024469192964138013 0 0.048145210717672443 -0.02512005597113412 0 0.050525561747136551 -0.026926415821491464 0 0.045791745953827574 -0.021886800066065828 0 0.048145210717672443 -0.02512005597113412 0 0.045513421170234769 -0.026671646260172127 0 0.045791745953827574 -0.021886800066065828 0 0.045513421170234769 -0.026671646260172127 0 0.042537088424457165 -0.025272729574649582 0 0.045513421170234769 -0.026671646260172127 0 0.047221335059752984 -0.029144414175674652 0 0.043164546152215127 -0.029316904839891397 0 0.048145210717672443 -0.02512005597113412 0 0.045513421170234769 -0.026671646260172127 0 0.047221335059752984 -0.029144414175674652 0 0.048145210717672443 -0.02512005597113412 0 0.047221335059752984 -0.029144414175674652 0 0.050525561747136551 -0.026926415821491464 0 0.050842555294266727 -0.029602720946907086 0 0.047221335059752984 -0.029144414175674652 0 0.050525561747136551 -0.026926415821491464 0 0.050842555294266727 -0.029602720946907086 0 0.047221335059752984 -0.029144414175674652 0 0.04837169213342167 -0.032703611709598408 0 0.053916914783170601 -0.026459997474216027 0 0.051781405252130222 -0.023942583838023765 0 0.056633092341493253 -0.021683215013872548 0 0.05713680861647058 -0.02241842089137356 0 0.05743976509468008 -0.021584767537072582 0 0.047221335059752984 -0.029144414175674652 0 0.045850714066659401 -0.031450216688110266 0 0.04837169213342167 -0.032703611709598408 0 0.047221335059752984 -0.029144414175674652 0 0.045850714066659401 -0.031450216688110266 0 0.043164546152215127 -0.029316904839891397 0 0.045850714066659401 -0.031450216688110266 0 0.04537133840103201 -0.033090604392488406 0 0.04837169213342167 -0.032703611709598408 0 0.047334239447045172 -0.022419756632859722 0 0.047445350724912072 -0.023290872234561659 0 0.048487009506213034 -0.021641085297517345 0 0.047445350724912072 -0.023290872234561659 0 0.048839126570995636 -0.021451052559707383 0 0.048487009506213034 -0.021641085297517345 0 0.045850714066659401 -0.031450216688110266 0 0.04537133840103201 -0.033090604392488406 0 0.043606584188832308 -0.033053100443344925 0 0.047479046664901804 -0.021628907267388087 0 0.047334239447045172 -0.022419756632859722 0 0.048487009506213034 -0.021641085297517345 0 0.050662458671972624 -0.022726866527150592 0 0.051781405252130222 -0.023942583838023765 0 0.047479046664901804 -0.021628907267388087 0 0.047334239447045172 -0.022419756632859722 0 0.046671582671491664 -0.021622817475858414 0 0.046315337410092375 -0.024890146499051302 0 0.051781405252130222 -0.023942583838023765 0 0.046315337410092375 -0.024890146499051302 0 0.048479999214540923 -0.022590643070383418 0 0.047496370726501771 -0.021681812219203754 0 0.048839126570995636 -0.021451052559707383 0 0.048487009506213034 -0.021641085297517345 0 0.053395052714457165 -0.022682063245501115 0 0.054743701262370346 -0.022692773210541847 0 0.053486780211423966 -0.023499112547475488 0 0.053395052714457165 -0.022682063245501115 0 0.054743701262370346 -0.022692773210541847 0 0.054892487101165698 -0.02137875900342498 0 0.047334239447045172 -0.022419756632859722 0 0.047445350724912072 -0.023290872234561659 0 0.046774530333950688 -0.02380647442750258 0 0.054743701262370346 -0.022692773210541847 0 0.055645349919783482 -0.021984706565511308 0 0.056140029160196933 -0.022204587779344302 0 0.057985571304653809 -0.021445611140296965 0 0.051781405252130222 -0.023942583838023765 0 0.056633092341493253 -0.021683215013872548 0 0.055645349919783482 -0.021984706565511308 0 0.054892487101165698 -0.02137875900342498 0 0.054743701262370346 -0.022692773210541847 0 0.055645349919783482 -0.021984706565511308 0 0.054892487101165698 -0.02137875900342498 0 0.056633092341493253 -0.021683215013872548 0 0.055645349919783482 -0.021984706565511308 0 0.056140029160196933 -0.022204587779344302 0 0.056633092341493253 -0.021683215013872548 0 0.056833832667249624 -0.021966393467354815 0 0.056140029160196933 -0.022204587779344302 0 0.056633092341493253 -0.021683215013872548 0 0.0571740946038184 -0.021729486335596758 0 0.056833832667249624 -0.021966393467354815 0 0.057401207663127084 -0.021788004241102599 0 0.0571740946038184 -0.021729486335596758 0 0.056833832667249624 -0.021966393467354815 0 0.057401207663127084 -0.021788004241102599 0 0.056833832667249624 -0.021966393467354815 0 0.057185057198800807 -0.022296678158579501 0 0.056833832667249624 -0.021966393467354815 0 0.057185057198800807 -0.022296678158579501 0 0.056594812109807088 -0.022675810718039792 0 0.057185057198800807 -0.022296678158579501 0 0.056594812109807088 -0.022675810718039792 0 0.057077706863921704 -0.023036202851424784 0 0.054743701262370346 -0.022692773210541847 0 0.056140029160196933 -0.022204587779344302 0 0.055561345106682689 -0.023050956228611759 0 0.056833832667249624 -0.021966393467354815 0 0.056594812109807088 -0.022675810718039792 0 0.056140029160196933 -0.022204587779344302 0 0.056594812109807088 -0.022675810718039792 0 0.056140029160196933 -0.022204587779344302 0 0.055561345106682689 -0.023050956228611759 0 0.055561345106682689 -0.023050956228611759 0 0.055894480352067517 -0.024054199149231813 0 0.053833936732327649 -0.02383332072161308 0 0.056594812109807088 -0.022675810718039792 0 0.055561345106682689 -0.023050956228611759 0 0.055894480352067517 -0.024054199149231813 0 0.054886855080944784 -0.023860962787575542 0 0.056715575489137221 -0.02220740265965411 0 0.056594812109807088 -0.022675810718039792 0 0.055894480352067517 -0.024054199149231813 0 0.057077706863921704 -0.023036202851424784 0 0.055894480352067517 -0.024054199149231813 0 0.057077706863921704 -0.023036202851424784 0 0.0573123623582628 -0.023972810959167323 0 0.057320856707718505 -0.020541505809806543 0 0.056715575489137221 -0.02220740265965411 0 0.056265679243307866 -0.020445300291004682 0 0.056306497029486688 -0.020446864522919991 0 0.056470996800681128 -0.020019276814529023 0 0.057320856707718505 -0.020541505809806543 0 0.05656588451414233 -0.019230138777886246 0 0.056715575489137221 -0.02220740265965411 0 0.055486437966240462 -0.022307267069364548 0 0.054081503114765277 -0.023526472689481472 0 0.055120931541630301 -0.023486181956810744 0 0.05473620222370594 -0.024457847615121646 0 0.056265679243307866 -0.020445300291004682 0 0.056470996800681128 -0.020019276814529023 0 0.056442910147230463 -0.019950032390584529 0 0.057219212415094027 -0.018700127337775149 0 0.057088032383562227 -0.018205405938267333 0 0.056779927451218813 -0.018987926629544034 0 0.054081503114765277 -0.023526472689481472 0 0.053693254320311239 -0.024001665080260876 0 0.05473620222370594 -0.024457847615121646 0 0.054081503114765277 -0.023526472689481472 0 0.053693254320311239 -0.024001665080260876 0 0.053833936732327649 -0.02383332072161308 0 0.053693254320311239 -0.024001665080260876 0 0.053833936732327649 -0.02383332072161308 0 0.052903809263549768 -0.024048467379265304 0 0.052060350707527084 -0.02337180373211328 0 0.052736691943615854 -0.023899029954425329 0 0.053246194739269774 -0.024058043945072494 0 0.053833936732327649 -0.02383332072161308 0 0.052903809263549768 -0.024048467379265304 0 0.053246194739269774 -0.024058043945072494 0 0.053486780211423966 -0.023499112547475488 0 0.053833936732327649 -0.02383332072161308 0 0.054743701262370346 -0.022692773210541847 0 0.055561345106682689 -0.023050956228611759 0 0.053833936732327649 -0.02383332072161308 0 0.054743701262370346 -0.022692773210541847 0 0.053486780211423966 -0.023499112547475488 0 0.053833936732327649 -0.02383332072161308 0 0.054886855080944784 -0.023860962787575542 0 0.054012132739940898 -0.023813325665443121 0 0.045366613136129601 -0.024099082080182591 0 0.045845579586876621 -0.025422698375084093 0 0.043564476806871325 -0.024093290913235439 0 0.048129447229911533 -0.023314747243316544 0 0.044066763788681573 -0.02194210525426191 0 0.047620043349364795 -0.021790820473316687 0 0.045920958418506956 -0.022280095980263499 0 0.045034462644790184 -0.019884395687566711 0 0.048019706400899406 -0.021243579506951427 0 0.047620043349364795 -0.021790820473316687 0 0.045034462644790184 -0.019884395687566711 0 0.050662458671972624 -0.022726866527150592 0 0.048129447229911533 -0.023314747243316544 0 0.053246194739269774 -0.024058043945072494 0 0.053486780211423966 -0.023499112547475488 0 0.05257181624307971 -0.023758677696689684 0 0.047445350724912072 -0.023290872234561659 0 0.045845579586876621 -0.025422698375084093 0 0.046774530333950688 -0.02380647442750258 0 0.053395052714457165 -0.022682063245501115 0 0.053486780211423966 -0.023499112547475488 0 0.05257181624307971 -0.023758677696689684 0 0.045366613136129601 -0.024099082080182591 0 0.045845579586876621 -0.025422698375084093 0 0.046774530333950688 -0.02380647442750258 0 0.048114170070434538 -0.021128333017795996 0 0.047620043349364795 -0.021790820473316687 0 0.048785411729038983 -0.022908335957605046 0 0.050407226620598808 -0.022388347927229324 0 0.048785411729038983 -0.022908335957605046 0 0.050074375699949096 -0.024724092767551015 0 0.048129447229911533 -0.023314747243316544 0 0.048330433188406775 -0.022463988859136048 0 0.052060350707527084 -0.02337180373211328 0 0.048129447229911533 -0.023314747243316544 0 0.050407226620598808 -0.022388347927229324 0 0.048114170070434538 -0.021128333017795996 0 0.048785411729038983 -0.022908335957605046 0 0.047620043349364795 -0.021790820473316687 0 0.048785411729038983 -0.022908335957605046 0 0.047392713293640358 -0.02267671003017303 0 0.048785411729038983 -0.022908335957605046 0 0.047392713293640358 -0.02267671003017303 0 0.047278104786355156 -0.023733290258018916 0 0.047392713293640358 -0.02267671003017303 0 0.045920958418506956 -0.022280095980263499 0 0.047278104786355156 -0.023733290258018916 0 0.045920958418506956 -0.022280095980263499 0 0.04507402978162408 -0.023811133535090862 0 0.047278104786355156 -0.023733290258018916 0 0.047620043349364795 -0.021790820473316687 0 0.047392713293640358 -0.02267671003017303 0 0.045920958418506956 -0.022280095980263499 0 0.043364156265565765 -0.021891807758133212 0 0.043267638121501639 -0.023808257773735603 0 0.04507402978162408 -0.023811133535090862 0 0.045920958418506956 -0.022280095980263499 0 0.043364156265565765 -0.021891807758133212 0 0.04507402978162408 -0.023811133535090862 0 0.043364156265565765 -0.021891807758133212 0 0.040815395237928091 -0.023507987647779355 0 0.043267638121501639 -0.023808257773735603 0 0.043364156265565765 -0.021891807758133212 0 0.040556429878994091 -0.021614338965755944 0 0.040815395237928091 -0.023507987647779355 0 0.043364156265565765 -0.021891807758133212 0 0.042177606696378059 -0.018785040132124155 0 0.040556429878994091 -0.021614338965755944 0 0.045920958418506956 -0.022280095980263499 0 0.043364156265565765 -0.021891807758133212 0 0.045034462644790184 -0.019884395687566711 0 0.043364156265565765 -0.021891807758133212 0 0.045034462644790184 -0.019884395687566711 0 0.042177606696378059 -0.018785040132124155 0 0.043564476806871325 -0.024093290913235439 0 0.042645126902663227 -0.022687641273002979 0 0.043951485580756469 -0.022863707751933127 0 0.042645126902663227 -0.022687641273002979 0 0.040847880029974672 -0.022150711095656448 0 0.043079166491156548 -0.022297217889958088 0 0.044066763788681573 -0.02194210525426191 0 0.041949962703412301 -0.020741969637649207 0 0.043564476806871325 -0.024093290913235439 0 0.042645126902663227 -0.022687641273002979 0 0.041217897231442729 -0.0226380942066557 0 0.043079166491156548 -0.022297217889958088 0 0.04394010429811071 -0.022309331104832724 0 0.043951485580756469 -0.022863707751933127 0 0.042645126902663227 -0.022687641273002979 0 0.043079166491156548 -0.022297217889958088 0 0.043951485580756469 -0.022863707751933127 0 0.042645126902663227 -0.022687641273002979 0 0.041217897231442729 -0.0226380942066557 0 0.040847880029974672 -0.022150711095656448 0 0.041352367381240568 -0.021389149946568226 0 0.040847880029974672 -0.022150711095656448 0 0.042982074549209083 -0.02179527293050738 0 0.041352367381240568 -0.021389149946568226 0 0.040847880029974672 -0.022150711095656448 0 0.039160549225435104 -0.021292784947296035 0 0.041352367381240568 -0.021389149946568226 0 0.042982074549209083 -0.02179527293050738 0 0.043203130024818237 -0.021416473295311437 0 0.040889630367768805 -0.022212015889587825 0 0.043525632005774723 -0.021429739804777161 0 0.040847880029974672 -0.022150711095656448 0 0.043079166491156548 -0.022297217889958088 0 0.043733639780016167 -0.02169520940494991 0 0.040080922904988388 -0.021429558584742898 0 0.041129010874856431 -0.021327686904386016 0 0.043079166491156548 -0.022297217889958088 0 0.043733639780016167 -0.02169520940494991 0 0.04394010429811071 -0.022309331104832724 0 0.043733639780016167 -0.02169520940494991 0 0.044687837962413893 -0.022298688679341035 0 0.046557966903620608 -0.02116124065376988 0 0.042982074549209083 -0.02179527293050738 0 0.043203130024818237 -0.021416473295311437 0 0.044955687215396167 -0.021460385006807449 0 0.043525632005774723 -0.021429739804777161 0 0.045105020736746354 -0.023629179126865827 0 0.039914921558739221 -0.021628483478966967 0 0.041064433301920965 -0.02180941955386374 0 0.040464540173273951 -0.021250721744744218 0 0.041129010874856431 -0.021327686904386016 0 0.045105020736746354 -0.023629179126865827 0 0.043733639780016167 -0.02169520940494991 0 0.044687837962413893 -0.022298688679341035 0 0.04394010429811071 -0.022309331104832724 0 0.044687837962413893 -0.022298688679341035 0 0.043951485580756469 -0.022863707751933127 0 0.044811366749358691 -0.023212211394640279 0 0.045366613136129601 -0.024099082080182591 0 0.043564476806871325 -0.024093290913235439 0 0.044811366749358691 -0.023212211394640279 0 0.044687837962413893 -0.022298688679341035 0 0.04394010429811071 -0.022309331104832724 0 0.043951485580756469 -0.022863707751933127 0 0.044687837962413893 -0.022298688679341035 0 0.045374377430996385 -0.022622685235471268 0 0.044811366749358691 -0.023212211394640279 0 0.045374377430996385 -0.022622685235471268 0 0.044811366749358691 -0.023212211394640279 0 0.045893125828991875 -0.023300216578050568 0 0.045366613136129601 -0.024099082080182591 0 0.044811366749358691 -0.023212211394640279 0 0.045893125828991875 -0.023300216578050568 0 0.043564476806871325 -0.024093290913235439 0 0.043951485580756469 -0.022863707751933127 0 0.044811366749358691 -0.023212211394640279 0 0.047051266920377255 -0.022775195780706574 0 0.045105020736746354 -0.023629179126865827 0 0.046774530333950688 -0.02380647442750258 0 0.045893125828991875 -0.023300216578050568 0 0.046557966903620608 -0.02116124065376988 0 0.045366613136129601 -0.024099082080182591 0 0.046774530333950688 -0.02380647442750258 0 0.045893125828991875 -0.023300216578050568 0 0.044687837962413893 -0.022298688679341035 0 0.045374377430996385 -0.022622685235471268 0 0.046557966903620608 -0.02116124065376988 0 0.045374377430996385 -0.022622685235471268 0 0.045893125828991875 -0.023300216578050568 0 0.046557966903620608 -0.02116124065376988 0 0.047334239447045172 -0.022419756632859722 0 0.046774530333950688 -0.02380647442750258 0 0.046671582671491664 -0.021622817475858414 0 0.046315337410092375 -0.024890146499051302 0 0.045105020736746354 -0.023629179126865827 0 0.045850714066659401 -0.031450216688110266 0 0.043606584188832308 -0.033053100443344925 0 0.043164546152215127 -0.029316904839891397 0 0.045105020736746354 -0.023629179126865827 0 0.04195451752568341 -0.025809802172036045 0 0.041064433301920965 -0.02180941955386374 0 0.040464540173273951 -0.021250721744744218 0 0.040959056604626121 -0.020888787653912291 0 0.040464540173273951 -0.021250721744744218 0 0.03987279451995239 -0.020512813208107071 0 0.040959056604626121 -0.020888787653912291 0 0.039914921558739221 -0.021628483478966967 0 0.040464540173273951 -0.021250721744744218 0 0.03987279451995239 -0.020512813208107071 0 0.03987279451995239 -0.020512813208107071 0 0.040959056604626121 -0.020888787653912291 0 0.041025440966076854 -0.020297118766904668 0 0.04195451752568341 -0.025809802172036045 0 0.041839907306408936 -0.022534293529517285 0 0.045513421170234769 -0.026671646260172127 0 0.043164546152215127 -0.029316904839891397 0 0.042537088424457165 -0.025272729574649582 0 0.03987279451995239 -0.020512813208107071 0 0.040560249081527992 -0.020030142592087817 0 0.039358906012061913 -0.019707074823914275 0 0.03987279451995239 -0.020512813208107071 0 0.041025440966076854 -0.020297118766904668 0 0.040560249081527992 -0.020030142592087817 0 0.038964220236683805 -0.018594397183825006 0 0.040572397498510583 -0.01782661361583612 0 0.040560249081527992 -0.020030142592087817 0 0.040572397498510583 -0.01782661361583612 0 0.040560249081527992 -0.020030142592087817 0 0.041967910214092907 -0.020164294729488171 0 0.041839907306408936 -0.022534293529517285 0 0.041871071554212262 -0.020387028613852446 0 0.045791745953827574 -0.021886800066065828 0 0.042537088424457165 -0.025272729574649582 0 0.041967910214092907 -0.020164294729488171 0 0.041025440966076854 -0.020297118766904668 0 0.040560249081527992 -0.020030142592087817 0 0.041967910214092907 -0.020164294729488171 0 0.043980698785251286 -0.018681400942042823 0 0.045791745953827574 -0.021886800066065828 0 0.041967910214092907 -0.020164294729488171 0 0.037179019848558363 -0.018192030494771923 0 0.038964220236683805 -0.018594397183825006 0 0.038124579319793961 -0.019194761913023359 0 0.038964220236683805 -0.018594397183825006 0 0.040560249081527992 -0.020030142592087817 0 0.039358906012061913 -0.019707074823914275 0 0.038964220236683805 -0.018594397183825006 0 0.039358906012061913 -0.019707074823914275 0 0.038124579319793961 -0.019194761913023359 0 0.03987279451995239 -0.020512813208107071 0 0.039358906012061913 -0.019707074823914275 0 0.03877612148309912 -0.019907591366118051 0 0.038124579319793961 -0.019194761913023359 0 0.03877612148309912 -0.019907591366118051 0 0.037727729426673628 -0.01961034750014044 0 0.039358906012061913 -0.019707074823914275 0 0.038124579319793961 -0.019194761913023359 0 0.03877612148309912 -0.019907591366118051 0 0.03877612148309912 -0.019907591366118051 0 0.038728359582369927 -0.020457309585395159 0 0.037727729426673628 -0.01961034750014044 0 0.038728359582369927 -0.020457309585395159 0 0.037582512740485477 -0.020119929401634016 0 0.037727729426673628 -0.01961034750014044 0 0.03987279451995239 -0.020512813208107071 0 0.03877612148309912 -0.019907591366118051 0 0.038728359582369927 -0.020457309585395159 0 0.039914921558739221 -0.021628483478966967 0 0.03987279451995239 -0.020512813208107071 0 0.038728359582369927 -0.020457309585395159 0 0.038608024541661172 -0.021287268536858559 0 0.039914921558739221 -0.021628483478966967 0 0.038728359582369927 -0.020457309585395159 0 0.038608024541661172 -0.021287268536858559 0 0.038728359582369927 -0.020457309585395159 0 0.037582512740485477 -0.020119929401634016 0 0.037582512740485477 -0.020119929401634016 0 0.036613168531814407 -0.019620093127128129 0 0.037291298845878611 -0.020716371640444112 0 0.038608024541661172 -0.021287268536858559 0 0.037582512740485477 -0.020119929401634016 0 0.037291298845878611 -0.020716371640444112 0 0.037582512740485477 -0.020119929401634016 0 0.036613168531814407 -0.019620093127128129 0 0.036741835960467366 -0.019223638636716486 0 0.036613168531814407 -0.019620093127128129 0 0.036741835960467366 -0.019223638636716486 0 0.036368024059603321 -0.019076317013798968 0 0.037582512740485477 -0.020119929401634016 0 0.036741835960467366 -0.019223638636716486 0 0.037727729426673628 -0.01961034750014044 0 0.036741835960467366 -0.019223638636716486 0 0.037727729426673628 -0.01961034750014044 0 0.037039849023260324 -0.019050037301787809 0 0.038124579319793961 -0.019194761913023359 0 0.037727729426673628 -0.01961034750014044 0 0.037039849023260324 -0.019050037301787809 0 0.036741835960467366 -0.019223638636716486 0 0.037039849023260324 -0.019050037301787809 0 0.036438887190325932 -0.018908745248858411 0 0.037039849023260324 -0.019050037301787809 0 0.036447180705624735 -0.018746455831737965 0 0.036438887190325932 -0.018908745248858411 0 0.0308314021870718 -0.031353067085962326 0 0.030115580430308299 -0.03220839249758483 0 0.037179019848558363 -0.018192030494771923 0 0.037039849023260324 -0.019050037301787809 0 0.036447180705624735 -0.018746455831737965 0 0.037179019848558363 -0.018192030494771923 0 0.038124579319793961 -0.019194761913023359 0 0.037039849023260324 -0.019050037301787809 0 0.022442165301045123 -0.044674294096311302 0 0.023315465684086961 -0.045007963917032927 0 0.022323407441066163 -0.045188197189376486 0 0.027604843029803126 -0.029256032052867115 0 0.018480075183684816 -0.042847767167217436 0 0.022442165301045123 -0.044674294096311302 0 0.022323407441066163 -0.045188197189376486 0 0.021784733406539289 -0.044675903182537946 0 0.030115580430308299 -0.03220839249758483 0 0.027604843029803126 -0.029256032052867115 0 0.036447180705624735 -0.018746455831737965 0 0.036438887190325932 -0.018908745248858411 0 0.03634526383047415 -0.018947414394504553 0 0.036438887190325932 -0.018908745248858411 0 0.03634526383047415 -0.018947414394504553 0 0.036274374749900765 -0.018522572905960977 0 0.034897784181227381 -0.016204813047804113 0 0.034694911487902401 -0.017538830954512939 0 0.036274374749900765 -0.018522572905960977 0 0.027604843029803126 -0.029256032052867115 0 0.036964323928211688 -0.015509523277470908 0 0.034694911487902401 -0.017538830954512939 0 0.036274374749900765 -0.018522572905960977 0 0.03541514646766377 -0.018391839043327272 0 0.034694911487902401 -0.017538830954512939 0 0.03541514646766377 -0.018391839043327272 0 0.033803394212222712 -0.017665875307911121 0 0.036741835960467366 -0.019223638636716486 0 0.036438887190325932 -0.018908745248858411 0 0.036274374749900765 -0.018522572905960977 0 0.036741835960467366 -0.019223638636716486 0 0.036274374749900765 -0.018522572905960977 0 0.036368024059603321 -0.019076317013798968 0 0.036368024059603321 -0.019076317013798968 0 0.035328615122324054 -0.018935980566256151 0 0.036420226320857632 -0.019055955922208666 0 0.036274374749900765 -0.018522572905960977 0 0.036368024059603321 -0.019076317013798968 0 0.03541514646766377 -0.018391839043327272 0 0.036613168531814407 -0.019620093127128129 0 0.036368024059603321 -0.019076317013798968 0 0.036420226320857632 -0.019055955922208666 0 0.036368024059603321 -0.019076317013798968 0 0.03541514646766377 -0.018391839043327272 0 0.035328615122324054 -0.018935980566256151 0 0.03541514646766377 -0.018391839043327272 0 0.035328615122324054 -0.018935980566256151 0 0.033803394212222712 -0.017665875307911121 0 0.035328615122324054 -0.018935980566256151 0 0.035678679991725352 -0.019505851784701767 0 0.034209262748559156 -0.01924428008181114 0 0.035328615122324054 -0.018935980566256151 0 0.035678679991725352 -0.019505851784701767 0 0.036420226320857632 -0.019055955922208666 0 0.035449853097864067 -0.020147754382394766 0 0.036620045251274345 -0.020216307289426021 0 0.035493408050507234 -0.02091800280581211 0 0.035678679991725352 -0.019505851784701767 0 0.035449853097864067 -0.020147754382394766 0 0.036620045251274345 -0.020216307289426021 0 0.036620045251274345 -0.020216307289426021 0 0.036420226320857632 -0.019055955922208666 0 0.037809521247368118 -0.019309768884335679 0 0.035678679991725352 -0.019505851784701767 0 0.036620045251274345 -0.020216307289426021 0 0.036420226320857632 -0.019055955922208666 0 0.036613168531814407 -0.019620093127128129 0 0.036420226320857632 -0.019055955922208666 0 0.036673299706453978 -0.019795722506614113 0 0.036420226320857632 -0.019055955922208666 0 0.039445682722972476 -0.017823569147485382 0 0.037809521247368118 -0.019309768884335679 0 0.036532833868170231 -0.018706141282762063 0 0.038263712173467579 -0.020011077091427444 0 0.036480760555693444 -0.019588817764416976 0 0.038263712173467579 -0.020011077091427444 0 0.040080922904988388 -0.021429558584742898 0 0.038263712173467579 -0.020011077091427444 0 0.041949962703412301 -0.020741969637649207 0 0.038263712173467579 -0.020011077091427444 0 0.041217897231442729 -0.0226380942066557 0 0.040847880029974672 -0.022150711095656448 0 0.039160549225435104 -0.021292784947296035 0 0.042177606696378059 -0.018785040132124155 0 0.039061407097522031 -0.020017262157134286 0 0.040556429878994091 -0.021614338965755944 0 0.042177606696378059 -0.018785040132124155 0 0.039445682722972476 -0.017823569147485382 0 0.039061407097522031 -0.020017262157134286 0 0.039445682722972476 -0.017823569147485382 0 0.037809521247368118 -0.019309768884335679 0 0.039061407097522031 -0.020017262157134286 0 0.036620045251274345 -0.020216307289426021 0 0.037809521247368118 -0.019309768884335679 0 0.039061407097522031 -0.020017262157134286 0 0.036620045251274345 -0.020216307289426021 0 0.039061407097522031 -0.020017262157134286 0 0.037859361807137032 -0.021476998074272384 0 0.039071449971605492 -0.020017676091034529 0 0.03831758895525561 -0.021740740485265551 0 0.039061407097522031 -0.020017262157134286 0 0.039016935878520467 -0.021879434613997047 0 0.040556429878994091 -0.021614338965755944 0 0.040556429878994091 -0.021614338965755944 0 0.039676754130470601 -0.023047303790761527 0 0.040815395237928091 -0.023507987647779355 0 0.039016935878520467 -0.021879434613997047 0 0.040556429878994091 -0.021614338965755944 0 0.039676754130470601 -0.023047303790761527 0 0.03831758895525561 -0.021740740485265551 0 0.03955744278520025 -0.022382913786638311 0 0.039016935878520467 -0.021879434613997047 0 0.039676754130470601 -0.023047303790761527 0 0.038798153083008186 -0.023471879114546054 0 0.037859361807137032 -0.021476998074272384 0 0.036554292903979255 -0.021997662645787581 0 0.037080269059477873 -0.022303634157564211 0 0.037859361807137032 -0.021476998074272384 0 0.036310810190215446 -0.021439179902277509 0 0.036554292903979255 -0.021997662645787581 0 0.036310810190215446 -0.021439179902277509 0 0.035937174296702172 -0.022029125322949431 0 0.035388350236945504 -0.021606640343049811 0 0.036310810190215446 -0.021439179902277509 0 0.035493408050507234 -0.02091800280581211 0 0.035388350236945504 -0.021606640343049811 0 0.036310810190215446 -0.021439179902277509 0 0.036554292903979255 -0.021997662645787581 0 0.035937174296702172 -0.022029125322949431 0 0.035937174296702172 -0.022029125322949431 0 0.035388350236945504 -0.021606640343049811 0 0.035192904069175156 -0.022175899230473403 0 0.036620045251274345 -0.020216307289426021 0 0.036310810190215446 -0.021439179902277509 0 0.035493408050507234 -0.02091800280581211 0 0.036620045251274345 -0.020216307289426021 0 0.037859361807137032 -0.021476998074272384 0 0.036310810190215446 -0.021439179902277509 0 0.036593375743241632 -0.023132006644952123 0 0.036228020944825759 -0.022904588841517675 0 0.036362400501571329 -0.022431491593140333 0 0.040104618771460217 -0.012800971755399751 0 0.03955744278520025 -0.022382913786638311 0 0.040104618771460217 -0.012800971755399751 0 0.037401426044575033 -0.019466212454065508 0 0.037401426044575033 -0.019466212454065508 0 0.035144229454788831 -0.022794971614953349 0 0.035479749858027911 -0.0225785249332222 0 0.035499606806408193 -0.022498975446997065 0 0.035030807243585135 -0.022465538434787071 0 0.038304817361757601 -0.0098385986388994442 0 0.040320901570500112 -0.010144158106770674 0 0.040031629615414441 -0.010981647555175819 0 0.03872150747532125 -0.0085033601092780204 0 0.037401426044575033 -0.019466212454065508 0 0.037401426044575033 -0.019466212454065508 0 0.035956827710928119 -0.023590563573940019 0 0.036019190335053471 -0.023252064239015123 0 0.03567492564344224 -0.02244816819908773 0 0.035030807243585135 -0.022465538434787071 0 0.036019190335053471 -0.023252064239015123 0 0.036362400501571329 -0.022431491593140333 0 0.03567492564344224 -0.02244816819908773 0 0.035937174296702172 -0.022029125322949431 0 0.03567492564344224 -0.02244816819908773 0 0.035192904069175156 -0.022175899230473403 0 0.036554292903979255 -0.021997662645787581 0 0.035937174296702172 -0.022029125322949431 0 0.036362400501571329 -0.022431491593140333 0 0.035937174296702172 -0.022029125322949431 0 0.036362400501571329 -0.022431491593140333 0 0.03567492564344224 -0.02244816819908773 0 0.036554292903979255 -0.021997662645787581 0 0.036362400501571329 -0.022431491593140333 0 0.036711363916595359 -0.022377148776473864 0 0.036593375743241632 -0.023132006644952123 0 0.036362400501571329 -0.022431491593140333 0 0.036711363916595359 -0.022377148776473864 0 0.036593375743241632 -0.023132006644952123 0 0.036711363916595359 -0.022377148776473864 0 0.037080269059477873 -0.022303634157564211 0 0.036554292903979255 -0.021997662645787581 0 0.036711363916595359 -0.022377148776473864 0 0.037080269059477873 -0.022303634157564211 0 0.03955744278520025 -0.022382913786638311 0 0.040136963501558071 -0.021293168209436362 0 0.039676754130470601 -0.023047303790761527 0 0.038798153083008186 -0.023471879114546054 0 0.040091541904037714 -0.024720509553878139 0 0.039676754130470601 -0.023047303790761527 0 0.040815395237928091 -0.023507987647779355 0 0.040091541904037714 -0.024720509553878139 0 0.041037442298370745 -0.024390545054759859 0 0.040091541904037714 -0.024720509553878139 0 0.041343806773065706 -0.024954934420218063 0 0.040815395237928091 -0.023507987647779355 0 0.041037442298370745 -0.024390545054759859 0 0.040091541904037714 -0.024720509553878139 0 0.043963683529883307 -0.014940731604477996 0 0.042607295553118582 -0.018645735407843787 0 0.04050152336087183 -0.015505970039230202 0 0.044348812859598234 0.0023447536024211696 0 0.044017500280152319 0.0017203600459949617 0 0.042996159057377858 0.0025455089371907752 0 0.043963683529883307 -0.014940731604477996 0 0.04050152336087183 -0.015505970039230202 0 0.041091573067845021 -0.01306406309992284 0 0.040091541904037714 -0.024720509553878139 0 0.041026549944626428 -0.025604695703108329 0 0.041343806773065706 -0.024954934420218063 0 0.040136963501558071 -0.021293168209436362 0 0.044037773713116672 -0.010341785063663095 0 0.043458235234551279 -0.0018496506893682318 0 0.044037773713116672 -0.010341785063663095 0 0.04050152336087183 -0.015505970039230202 0 0.041091573067845021 -0.01306406309992284 0 0.03847678711887724 -0.012409747523845908 0 0.044602234470736475 0.0021796261876032819 0 0.046025446134470002 0.0019571180521420358 0 0.045994545497980675 0.0014261559309413758 0 0.044348812859598234 0.0023447536024211696 0 0.045994545497980675 0.0014261559309413758 0 0.044853821603711395 0.0015447428759935739 0 0.043458235234551279 -0.0018496506893682318 0 0.045752934196081847 0.0022694846146194183 0 0.045230323585891428 0.00098831813413856285 0 0.045994545497980675 0.0014261559309413758 0 0.044853821603711395 0.0015447428759935739 0 0.045230323585891428 0.00098831813413856285 0 0.045994545497980675 0.0014261559309413758 0 0.045858485902059036 0.00054869955539053666 0 0.044348812859598234 0.0023447536024211696 0 0.044017500280152319 0.0017203600459949617 0 0.044853821603711395 0.0015447428759935739 0 0.044017500280152319 0.0017203600459949617 0 0.044853821603711395 0.0015447428759935739 0 0.044331062892502611 0.0010705761388137846 0 0.045230323585891428 0.00098831813413856285 0 0.044853821603711395 0.0015447428759935739 0 0.044331062892502611 0.0010705761388137846 0 0.044017500280152319 0.0017203600459949617 0 0.044331062892502611 0.0010705761388137846 0 0.043357428651333234 0.0013212179376858816 0 0.043357428651333234 0.0013212179376858816 0 0.042267292200041953 0.0012874485525969596 0 0.042878483257950038 0.0021079916401550774 0 0.043357428651333234 0.0013212179376858816 0 0.042267292200041953 0.0012874485525969596 0 0.043512124784956398 0.00051571569355952603 0 0.042267292200041953 0.0012874485525969596 0 0.042878483257950038 0.0021079916401550774 0 0.041924772474652622 0.0021080265358479158 0 0.042878483257950038 0.0021079916401550774 0 0.042293509932874174 0.0025637542858139755 0 0.041924772474652622 0.0021080265358479158 0 0.044017500280152319 0.0017203600459949617 0 0.043357428651333234 0.0013212179376858816 0 0.042878483257950038 0.0021079916401550774 0 0.040104618771460217 -0.012800971755399751 0 0.043458235234551279 -0.0018496506893682318 0 0.043130048826951532 0.0028825252019437642 0 0.044348812859598234 0.0023447536024211696 0 0.042996159057377858 0.0025455089371907752 0 0.044122029527980777 0.0025137185266297852 0 0.041029423131194315 -1.8755249547141685e-05 0 0.044017500280152319 0.0017203600459949617 0 0.042878483257950038 0.0021079916401550774 0 0.042218535805996174 0.0033410147877916962 0 0.042293509932874174 0.0025637542858139755 0 0.042077705047144885 0.0029458792837851262 0 0.041924772474652622 0.0021080265358479158 0 0.042878483257950038 0.0021079916401550774 0 0.042293509932874174 0.0025637542858139755 0 0.042218535805996174 0.0033410147877916962 0 0.042293509932874174 0.0025637542858139755 0 0.042077705047144885 0.0029458792837851262 0 0.042218535805996174 0.0033410147877916962 0 0.038304817361757601 -0.0098385986388994442 0 0.040320901570500112 -0.010144158106770674 0 0.038743807496163143 -0.0086409006818068557 0 0.041573081536657529 0.0014731101089346217 0 0.041029423131194315 -1.8755249547141685e-05 0 0.040104618771460217 -0.012800971755399751 0 0.041029423131194315 -1.8755249547141685e-05 0 0.035341444884163971 -0.0071955463976276206 0 0.035300309167454851 -0.0065568573063341821 0 0.035546402392467043 -0.00699010750208364 0 0.041428324561080303 0.003869407908957301 0 0.042077705047144885 0.0029458792837851262 0 0.040666116976264592 0.002106268150803922 0 0.03872150747532125 -0.0085033601092780204 0 0.038173704683789209 -0.00082078076543622841 0 0.03872150747532125 -0.0085033601092780204 0 0.041029423131194315 -1.8755249547141685e-05 0 0.041428324561080303 0.003869407908957301 0 0.042077705047144885 0.0029458792837851262 0 0.04217953053759254 0.0032343452159540715 0 0.042077705047144885 0.0029458792837851262 0 0.040666116976264592 0.002106268150803922 0 0.041924772474652622 0.0021080265358479158 0 0.042267292200041953 0.0012874485525969596 0 0.040666116976264592 0.002106268150803922 0 0.0415486605022631 0.00013112387368326142 0 0.042267292200041953 0.0012874485525969596 0 0.040666116976264592 0.002106268150803922 0 0.041924772474652622 0.0021080265358479158 0 0.040666116976264592 0.002106268150803922 0 0.0415486605022631 0.00013112387368326142 0 0.039550249110389721 0.00022593407313237495 0 0.042267292200041953 0.0012874485525969596 0 0.0415486605022631 0.00013112387368326142 0 0.043512124784956398 0.00051571569355952603 0 0.0415486605022631 0.00013112387368326142 0 0.043512124784956398 0.00051571569355952603 0 0.043665853168158242 -0.00078261655246726646 0 0.0415486605022631 0.00013112387368326142 0 0.042528357316800255 -0.0015290376929240946 0 0.043665853168158242 -0.00078261655246726646 0 0.042528357316800255 -0.0015290376929240946 0 0.044088848481508285 -0.0020611024608706567 0 0.043665853168158242 -0.00078261655246726646 0 0.0415486605022631 0.00013112387368326142 0 0.042528357316800255 -0.0015290376929240946 0 0.04078824920262282 -0.0019338747261495022 0 0.0415486605022631 0.00013112387368326142 0 0.04078824920262282 -0.0019338747261495022 0 0.039550249110389721 0.00022593407313237495 0 0.04078824920262282 -0.0019338747261495022 0 0.04260354657969178 -0.0024869494067765795 0 0.040809024534208892 -0.0036868024513763598 0 0.042528357316800255 -0.0015290376929240946 0 0.04078824920262282 -0.0019338747261495022 0 0.04260354657969178 -0.0024869494067765795 0 0.04260354657969178 -0.0024869494067765795 0 0.044000024155880835 -0.0031445369504880414 0 0.044088848481508285 -0.0020611024608706567 0 0.042528357316800255 -0.0015290376929240946 0 0.04260354657969178 -0.0024869494067765795 0 0.044088848481508285 -0.0020611024608706567 0 0.04260354657969178 -0.0024869494067765795 0 0.044000024155880835 -0.0031445369504880414 0 0.040809024534208892 -0.0036868024513763598 0 0.044000024155880835 -0.0031445369504880414 0 0.040809024534208892 -0.0036868024513763598 0 0.042940269843230711 -0.003946133780327335 0 0.04611149639098433 -0.0033617521548736451 0 0.046868295592365661 -0.0038323776190564668 0 0.045600660721805256 -0.0041818977959949587 0 0.045199883331030262 -0.0028998672337563697 0 0.04611149639098433 -0.0033617521548736451 0 0.045600660721805256 -0.0041818977959949587 0 0.045199883331030262 -0.0028998672337563697 0 0.04611149639098433 -0.0033617521548736451 0 0.046364701264145103 -0.0024506379008122628 0 0.044000024155880835 -0.0031445369504880414 0 0.045199883331030262 -0.0028998672337563697 0 0.044088848481508285 -0.0020611024608706567 0 0.044000024155880835 -0.0031445369504880414 0 0.045199883331030262 -0.0028998672337563697 0 0.045600660721805256 -0.0041818977959949587 0 0.045199883331030262 -0.0028998672337563697 0 0.044088848481508285 -0.0020611024608706567 0 0.04558361008168757 -0.0018392828668293141 0 0.045199883331030262 -0.0028998672337563697 0 0.04558361008168757 -0.0018392828668293141 0 0.046364701264145103 -0.0024506379008122628 0 0.04558361008168757 -0.0018392828668293141 0 0.046546697378406429 -0.0015205598344689764 0 0.046364701264145103 -0.0024506379008122628 0 0.04558361008168757 -0.0018392828668293141 0 0.045979669468676709 -0.00058670972599901116 0 0.044878118657628287 -0.00097389082290631258 0 0.04558361008168757 -0.0018392828668293141 0 0.045979669468676709 -0.00058670972599901116 0 0.046546697378406429 -0.0015205598344689764 0 0.044088848481508285 -0.0020611024608706567 0 0.04558361008168757 -0.0018392828668293141 0 0.044878118657628287 -0.00097389082290631258 0 0.044088848481508285 -0.0020611024608706567 0 0.044878118657628287 -0.00097389082290631258 0 0.043665853168158242 -0.00078261655246726646 0 0.044878118657628287 -0.00097389082290631258 0 0.043665853168158242 -0.00078261655246726646 0 0.044914199058091048 0.00029876100016559132 0 0.043512124784956398 0.00051571569355952603 0 0.043665853168158242 -0.00078261655246726646 0 0.044914199058091048 0.00029876100016559132 0 0.044331062892502611 0.0010705761388137846 0 0.043512124784956398 0.00051571569355952603 0 0.044914199058091048 0.00029876100016559132 0 0.045230323585891428 0.00098831813413856285 0 0.044331062892502611 0.0010705761388137846 0 0.044914199058091048 0.00029876100016559132 0 0.044331062892502611 0.0010705761388137846 0 0.043357428651333234 0.0013212179376858816 0 0.043512124784956398 0.00051571569355952603 0 0.045979669468676709 -0.00058670972599901116 0 0.044914199058091048 0.00029876100016559132 0 0.045858485902059036 0.00054869955539053666 0 0.045979669468676709 -0.00058670972599901116 0 0.044878118657628287 -0.00097389082290631258 0 0.044914199058091048 0.00029876100016559132 0 0.045230323585891428 0.00098831813413856285 0 0.044914199058091048 0.00029876100016559132 0 0.045858485902059036 0.00054869955539053666 0 0.045979669468676709 -0.00058670972599901116 0 0.047082886878100312 0.00060526548662981653 0 0.047057606389178427 -0.00096797002796960414 0 0.047082886878100312 0.00060526548662981653 0 0.048157621142846642 -0.0012062712308423696 0 0.047057606389178427 -0.00096797002796960414 0 0.045979669468676709 -0.00058670972599901116 0 0.045858485902059036 0.00054869955539053666 0 0.047082886878100312 0.00060526548662981653 0 0.04916822587902369 -0.0023193810073237372 0 0.048417983937524986 -0.0020885376673972977 0 0.048157621142846642 -0.0012062712308423696 0 0.048417983937524986 -0.0020885376673972977 0 0.048125239978142144 -0.001330670914531158 0 0.048193553847803418 -0.0031533044282113457 0 0.050683376689188875 -0.0043698762013914278 0 0.046521766119052788 -0.015281596545621225 0 0.04789953638971859 0.00035565596263284396 0 0.048376773819605853 -0.0015546550951558587 0 0.04916822587902369 -0.0023193810073237372 0 0.048417983937524986 -0.0020885376673972977 0 0.048717783522972478 -0.0026800685712733106 0 0.048417983937524986 -0.0020885376673972977 0 0.048157621142846642 -0.0012062712308423696 0 0.048125239978142144 -0.001330670914531158 0 0.048157621142846642 -0.0012062712308423696 0 0.048332478400146456 -0.0017012561416921237 0 0.048125239978142144 -0.001330670914531158 0 0.048157621142846642 -0.0012062712308423696 0 0.048332478400146456 -0.0017012561416921237 0 0.047507499630035609 -0.0018249720496424074 0 0.048157621142846642 -0.0012062712308423696 0 0.047057606389178427 -0.00096797002796960414 0 0.047507499630035609 -0.0018249720496424074 0 0.045979669468676709 -0.00058670972599901116 0 0.047057606389178427 -0.00096797002796960414 0 0.046546697378406429 -0.0015205598344689764 0 0.047057606389178427 -0.00096797002796960414 0 0.046546697378406429 -0.0015205598344689764 0 0.047507499630035609 -0.0018249720496424074 0 0.046364701264145103 -0.0024506379008122628 0 0.047507499630035609 -0.0018249720496424074 0 0.047336338740631728 -0.0029061148343015801 0 0.046546697378406429 -0.0015205598344689764 0 0.046364701264145103 -0.0024506379008122628 0 0.047507499630035609 -0.0018249720496424074 0 0.048127415271325358 -0.0022045796809938528 0 0.047336338740631728 -0.0029061148343015801 0 0.04851674790717192 -0.0029027439383297006 0 0.047507499630035609 -0.0018249720496424074 0 0.048127415271325358 -0.0022045796809938528 0 0.047336338740631728 -0.0029061148343015801 0 0.048332478400146456 -0.0017012561416921237 0 0.048127415271325358 -0.0022045796809938528 0 0.048565786961447442 -0.0022768009406235546 0 0.048332478400146456 -0.0017012561416921237 0 0.047507499630035609 -0.0018249720496424074 0 0.048127415271325358 -0.0022045796809938528 0 0.048127415271325358 -0.0022045796809938528 0 0.04851674790717192 -0.0029027439383297006 0 0.048565786961447442 -0.0022768009406235546 0 0.047755018060484919 -0.0037275477938867123 0 0.047336338740631728 -0.0029061148343015801 0 0.04851674790717192 -0.0029027439383297006 0 0.047755018060484919 -0.0037275477938867123 0 0.048609651675393856 -0.0037891466046982621 0 0.04851674790717192 -0.0029027439383297006 0 0.04611149639098433 -0.0033617521548736451 0 0.046364701264145103 -0.0024506379008122628 0 0.047336338740631728 -0.0029061148343015801 0 0.047755018060484919 -0.0037275477938867123 0 0.046868295592365661 -0.0038323776190564668 0 0.047336338740631728 -0.0029061148343015801 0 0.04611149639098433 -0.0033617521548736451 0 0.046868295592365661 -0.0038323776190564668 0 0.047336338740631728 -0.0029061148343015801 0 0.050461755439262242 -0.0061940182604529733 0 0.049840272221241599 -0.0047980813413087218 0 0.050081969118675115 -0.0045445989330839508 0 0.050497813837588203 -0.0052011470630905334 0 0.050151231333930978 -0.0044368508828704053 0 0.049840272221241599 -0.0047980813413087218 0 0.049859394395141803 -0.0068763913567473764 0 0.048870227152556109 -0.0068903841305543679 0 0.050461755439262242 -0.0061940182604529733 0 0.049840272221241599 -0.0047980813413087218 0 0.049859394395141803 -0.0068763913567473764 0 0.050461755439262242 -0.0061940182604529733 0 0.051827809632484935 -0.0072903785797493468 0 0.050081969118675115 -0.0045445989330839508 0 0.049152452924755771 -0.0035604624886706707 0 0.049283749138968123 -0.0023750664723712618 0 0.050081969118675115 -0.0045445989330839508 0 0.049152452924755771 -0.0035604624886706707 0 0.048609651675393856 -0.0037891466046982621 0 0.049316521640950337 -0.0042511976510984945 0 0.049152452924755771 -0.0035604624886706707 0 0.048609651675393856 -0.0037891466046982621 0 0.04851674790717192 -0.0029027439383297006 0 0.049152452924755771 -0.0035604624886706707 0 0.04851674790717192 -0.0029027439383297006 0 0.049283749138968123 -0.0023750664723712618 0 0.051827809632484935 -0.0072903785797493468 0 0.051237370756312031 -0.0087931441351839206 0 0.051703100347198917 -0.0094942885563425988 0 0.04851674790717192 -0.0029027439383297006 0 0.049283749138968123 -0.0023750664723712618 0 0.048565786961447442 -0.0022768009406235546 0 0.048332478400146456 -0.0017012561416921237 0 0.049283749138968123 -0.0023750664723712618 0 0.048565786961447442 -0.0022768009406235546 0 0.051827809632484935 -0.0072903785797493468 0 0.050529779426191648 -0.0077558201902033072 0 0.051237370756312031 -0.0087931441351839206 0 0.050529779426191648 -0.0077558201902033072 0 0.050664569233908628 -0.0088383843445796542 0 0.051237370756312031 -0.0087931441351839206 0 0.050461755439262242 -0.0061940182604529733 0 0.051827809632484935 -0.0072903785797493468 0 0.050529779426191648 -0.0077558201902033072 0 0.049859394395141803 -0.0068763913567473764 0 0.049525310997037102 -0.0087989117207750451 0 0.048870227152556109 -0.0068903841305543679 0 0.050461755439262242 -0.0061940182604529733 0 0.050529779426191648 -0.0077558201902033072 0 0.049859394395141803 -0.0068763913567473764 0 0.050529779426191648 -0.0077558201902033072 0 0.049859394395141803 -0.0068763913567473764 0 0.049525310997037102 -0.0087989117207750451 0 0.050805934731248177 -0.0085315678413928984 0 0.051568077848824827 -0.010154330788656062 0 0.050529779426191648 -0.0077558201902033072 0 0.049659067166446351 -0.0088136159707969969 0 0.050664569233908628 -0.0088383843445796542 0 0.051568077848824827 -0.010154330788656062 0 0.051232037816261566 -0.012318796667458722 0 0.049659067166446351 -0.0088136159707969969 0 0.050664569233908628 -0.0088383843445796542 0 0.051233144602969724 -0.0099387013851021336 0 0.049659067166446351 -0.0088136159707969969 0 0.051068184231856238 -0.010342501940266769 0 0.051422703045424151 -0.01169575287513204 0 0.052154908009518601 -0.014694942477428743 0 0.052068880075434025 -0.0129140115053411 0 0.052441799489069622 -0.013504555616121332 0 0.051237370756312031 -0.0087931441351839206 0 0.051233144602969724 -0.0099387013851021336 0 0.051703100347198917 -0.0094942885563425988 0 0.050664569233908628 -0.0088383843445796542 0 0.051237370756312031 -0.0087931441351839206 0 0.051233144602969724 -0.0099387013851021336 0 0.049659067166446351 -0.0088136159707969969 0 0.051233144602969724 -0.0099387013851021336 0 0.051068184231856238 -0.010342501940266769 0 0.048332478400146456 -0.0017012561416921237 0 0.049283749138968123 -0.0023750664723712618 0 0.048125239978142144 -0.001330670914531158 0 0.051827809632484935 -0.0072903785797493468 0 0.051703100347198917 -0.0094942885563425988 0 0.052607979389312699 -0.010320139281930799 0 0.050497813837588203 -0.0052011470630905334 0 0.050683376689188875 -0.0043698762013914278 0 0.051703100347198917 -0.0094942885563425988 0 0.052607979389312699 -0.010320139281930799 0 0.051760411723052367 -0.010865242542700803 0 0.051233144602969724 -0.0099387013851021336 0 0.051703100347198917 -0.0094942885563425988 0 0.051760411723052367 -0.010865242542700803 0 0.052607979389312699 -0.010320139281930799 0 0.051699680107442698 -0.011836851368966492 0 0.052927073851997242 -0.012045768506430602 0 0.052607979389312699 -0.010320139281930799 0 0.051760411723052367 -0.010865242542700803 0 0.051699680107442698 -0.011836851368966492 0 0.051760411723052367 -0.010865242542700803 0 0.051422703045424151 -0.01169575287513204 0 0.051699680107442698 -0.011836851368966492 0 0.052154908009518601 -0.014694942477428743 0 0.052068880075434025 -0.0129140115053411 0 0.051422703045424151 -0.01169575287513204 0 0.052068880075434025 -0.0129140115053411 0 0.051993523896505113 -0.012212679674521091 0 0.052541665102755139 -0.012803654318796515 0 0.051760411723052367 -0.010865242542700803 0 0.051068184231856238 -0.010342501940266769 0 0.051422703045424151 -0.01169575287513204 0 0.051233144602969724 -0.0099387013851021336 0 0.051760411723052367 -0.010865242542700803 0 0.051068184231856238 -0.010342501940266769 0 0.052068880075434025 -0.0129140115053411 0 0.051422703045424151 -0.01169575287513204 0 0.051993523896505113 -0.012212679674521091 0 0.051422703045424151 -0.01169575287513204 0 0.051993523896505113 -0.012212679674521091 0 0.051758906295419058 -0.011676829706802659 0 0.048670367031646809 -0.024615742933458706 0 0.048331971728794686 -0.024319380142094369 0 0.04973766968566698 -0.029674088045027473 0 0.049588002963680364 -0.029733588433982751 0 0.049793106468889001 -0.029524984359982215 0 0.049736851218277291 -0.029148281122966354 0 0.049772564867230383 -0.028339796948745673 0 0.047013549326274849 -0.028299701517255811 0 0.048331971728794686 -0.024319380142094369 0 0.047787173494265464 -0.019007742616742249 0 0.049588002963680364 -0.029733588433982751 0 0.049736851218277291 -0.029148281122966354 0 0.049793106468889001 -0.029524984359982215 0 0.049588002963680364 -0.029733588433982751 0 0.049736851218277291 -0.029148281122966354 0 0.047013549326274849 -0.028299701517255811 0 0.048331971728794686 -0.024319380142094369 0 0.045061572355732757 -0.027425437029399577 0 0.051422703045424151 -0.01169575287513204 0 0.051758906295419058 -0.011676829706802659 0 0.051699680107442698 -0.011836851368966492 0 0.049186896311035823 -0.027266593933894356 0 0.047013549326274849 -0.028299701517255811 0 0.047777841514505807 -0.026590692059572266 0 0.049772564867230383 -0.028339796948745673 0 0.049186896311035823 -0.027266593933894356 0 0.047013549326274849 -0.028299701517255811 0 0.047013549326274849 -0.028299701517255811 0 0.047777841514505807 -0.026590692059572266 0 0.046230924464118993 -0.026409146083301086 0 0.047787173494265464 -0.019007742616742249 0 0.046521766119052788 -0.015281596545621225 0 0.043255498167068605 -0.025293894003689157 0 0.043537785052604118 -0.026235486322151648 0 0.042726883884393788 -0.025509237011306387 0 0.043537785052604118 -0.026235486322151648 0 0.042398310669042122 -0.025950284246596064 0 0.042726883884393788 -0.025509237011306387 0 0.044779901480589093 -0.026469941114387094 0 0.043255498167068605 -0.025293894003689157 0 0.043537785052604118 -0.026235486322151648 0 0.048417983937524986 -0.0020885376673972977 0 0.048717783522972478 -0.0026800685712733106 0 0.048193553847803418 -0.0031533044282113457 0 0.046521766119052788 -0.015281596545621225 0 0.045743581781386662 -0.024511887708577138 0 0.042398310669042122 -0.025950284246596064 0 0.042726883884393788 -0.025509237011306387 0 0.042205410103672174 -0.025486976744336184 0 0.046025446134470002 0.0019571180521420358 0 0.045994545497980675 0.0014261559309413758 0 0.047082886878100312 0.00060526548662981653 0 0.044037773713116672 -0.010341785063663095 0 0.046521766119052788 -0.015281596545621225 0 0.041026549944626428 -0.025604695703108329 0 0.042387216985386229 -0.025862315097275507 0 0.042205410103672174 -0.025486976744336184 0 0.044037773713116672 -0.010341785063663095 0 0.04789953638971859 0.00035565596263284396 0 0.050002913734527157 -0.0036872761907662285 0 0.048717783522972478 -0.0026800685712733106 0 0.048193553847803418 -0.0031533044282113457 0 0.050002913734527157 -0.0036872761907662285 0 0.04916822587902369 -0.0023193810073237372 0 0.048717783522972478 -0.0026800685712733106 0 0.045994545497980675 0.0014261559309413758 0 0.045858485902059036 0.00054869955539053666 0 0.047082886878100312 0.00060526548662981653 0 0.041343806773065706 -0.024954934420218063 0 0.042205410103672174 -0.025486976744336184 0 0.041935647509339986 -0.024398238647475652 0 0.041026549944626428 -0.025604695703108329 0 0.041343806773065706 -0.024954934420218063 0 0.042205410103672174 -0.025486976744336184 0 0.045061572355732757 -0.027425437029399577 0 0.042851192756394089 -0.025127181599036982 0 0.043255498167068605 -0.025293894003689157 0 0.042726883884393788 -0.025509237011306387 0 0.041935647509339986 -0.024398238647475652 0 0.042726883884393788 -0.025509237011306387 0 0.042205410103672174 -0.025486976744336184 0 0.041935647509339986 -0.024398238647475652 0 0.047013549326274849 -0.028299701517255811 0 0.043825892010269006 -0.026175909291058758 0 0.046230924464118993 -0.026409146083301086 0 0.043825892010269006 -0.026175909291058758 0 0.046590208954951952 -0.024843697112358985 0 0.046230924464118993 -0.026409146083301086 0 0.041037442298370745 -0.024390545054759859 0 0.041343806773065706 -0.024954934420218063 0 0.041935647509339986 -0.024398238647475652 0 0.040815395237928091 -0.023507987647779355 0 0.041037442298370745 -0.024390545054759859 0 0.041935647509339986 -0.024398238647475652 0 0.040815395237928091 -0.023507987647779355 0 0.043825892010269006 -0.026175909291058758 0 0.043267638121501639 -0.023808257773735603 0 0.040931407510822949 -0.023633978347651317 0 0.042851192756394089 -0.025127181599036982 0 0.043825892010269006 -0.026175909291058758 0 0.04507402978162408 -0.023811133535090862 0 0.046590208954951952 -0.024843697112358985 0 0.043825892010269006 -0.026175909291058758 0 0.043267638121501639 -0.023808257773735603 0 0.04507402978162408 -0.023811133535090862 0 0.04507402978162408 -0.023811133535090862 0 0.046590208954951952 -0.024843697112358985 0 0.047278104786355156 -0.023733290258018916 0 0.046590208954951952 -0.024843697112358985 0 0.047278104786355156 -0.023733290258018916 0 0.048140300657475821 -0.025318543806992617 0 0.048785411729038983 -0.022908335957605046 0 0.047278104786355156 -0.023733290258018916 0 0.048564583380612154 -0.024180139057179362 0 0.048785411729038983 -0.022908335957605046 0 0.048564583380612154 -0.024180139057179362 0 0.050074375699949096 -0.024724092767551015 0 0.048564583380612154 -0.024180139057179362 0 0.048140300657475821 -0.025318543806992617 0 0.050074375699949096 -0.024724092767551015 0 0.047278104786355156 -0.023733290258018916 0 0.048564583380612154 -0.024180139057179362 0 0.048140300657475821 -0.025318543806992617 0 0.048140300657475821 -0.025318543806992617 0 0.049190428411914074 -0.026191140028668874 0 0.047777841514505807 -0.026590692059572266 0 0.048140300657475821 -0.025318543806992617 0 0.049190428411914074 -0.026191140028668874 0 0.050074375699949096 -0.024724092767551015 0 0.049186896311035823 -0.027266593933894356 0 0.049190428411914074 -0.026191140028668874 0 0.050622981707045656 -0.026421244587920955 0 0.049186896311035823 -0.027266593933894356 0 0.049190428411914074 -0.026191140028668874 0 0.047777841514505807 -0.026590692059572266 0 0.046590208954951952 -0.024843697112358985 0 0.047777841514505807 -0.026590692059572266 0 0.046230924464118993 -0.026409146083301086 0 0.046590208954951952 -0.024843697112358985 0 0.048140300657475821 -0.025318543806992617 0 0.047777841514505807 -0.026590692059572266 0 0.052289541855344658 -0.026737226169305184 0 0.053434275051535723 -0.025022017612316164 0 0.054229774279253004 -0.026161295722423324 0 0.051998701098731837 -0.02541684472036293 0 0.052289541855344658 -0.026737226169305184 0 0.053434275051535723 -0.025022017612316164 0 0.051998701098731837 -0.02541684472036293 0 0.050622981707045656 -0.026421244587920955 0 0.050074375699949096 -0.024724092767551015 0 0.051998701098731837 -0.02541684472036293 0 0.052289541855344658 -0.026737226169305184 0 0.050622981707045656 -0.026421244587920955 0 0.049190428411914074 -0.026191140028668874 0 0.050622981707045656 -0.026421244587920955 0 0.050074375699949096 -0.024724092767551015 0 0.051998701098731837 -0.02541684472036293 0 0.050074375699949096 -0.024724092767551015 0 0.052903809263549768 -0.024048467379265304 0 0.050407226620598808 -0.022388347927229324 0 0.050074375699949096 -0.024724092767551015 0 0.052903809263549768 -0.024048467379265304 0 0.053693254320311239 -0.024001665080260876 0 0.052903809263549768 -0.024048467379265304 0 0.053434275051535723 -0.025022017612316164 0 0.051998701098731837 -0.02541684472036293 0 0.052903809263549768 -0.024048467379265304 0 0.053434275051535723 -0.025022017612316164 0 0.053434275051535723 -0.025022017612316164 0 0.05473620222370594 -0.024457847615121646 0 0.054229774279253004 -0.026161295722423324 0 0.055486437966240462 -0.022307267069364548 0 0.05545219678234925 -0.022764977889544812 0 0.053693254320311239 -0.024001665080260876 0 0.053434275051535723 -0.025022017612316164 0 0.05473620222370594 -0.024457847615121646 0 0.056470996800681128 -0.020019276814529023 0 0.056442910147230463 -0.019950032390584529 0 0.056538907344426556 -0.019778199419546009 0 0.057219212415094027 -0.018700127337775149 0 0.056779927451218813 -0.018987926629544034 0 0.057078443115417939 -0.019512838939181244 0 0.05656588451414233 -0.019230138777886246 0 0.0565334175420232 -0.019832433925842122 0 0.056779927451218813 -0.018987926629544034 0 0.056534833514996351 -0.019756659747652221 0 0.057078443115417939 -0.019512838939181244 0 0.056442910147230463 -0.019950032390584529 0 0.056538907344426556 -0.019778199419546009 0 0.056534833514996351 -0.019756659747652221 0 0.05545219678234925 -0.022764977889544812 0 0.054329044827600023 -0.025129923232569393 0 0.052289541855344658 -0.026737226169305184 0 0.054229774279253004 -0.026161295722423324 0 0.053059661135911276 -0.028311892076719445 0 0.056538907344426556 -0.019778199419546009 0 0.056534833514996351 -0.019756659747652221 0 0.056380254218053122 -0.019941514657994749 0 0.056534833514996351 -0.019756659747652221 0 0.056380254218053122 -0.019941514657994749 0 0.056532952835469032 -0.019966599167971298 0 0.058145341996769961 -0.01494056624255796 0 0.057482096215071644 -0.016195687077031798 0 0.056534833514996351 -0.019756659747652221 0 0.056532952835469032 -0.019966599167971298 0 0.057078443115417939 -0.019512838939181244 0 0.058674704728967825 -0.011692296891538853 0 0.057956365905164023 -0.011716802789961107 0 0.05821033155745315 -0.012464278268861494 0 0.058674704728967825 -0.011692296891538853 0 0.058135619427413472 -0.011153214179834109 0 0.058474854253575355 -0.01110359774672387 0 0.058674704728967825 -0.011692296891538853 0 0.058135619427413472 -0.011153214179834109 0 0.057956365905164023 -0.011716802789961107 0 0.058145341996769961 -0.01494056624255796 0 0.055733486361196842 -0.019998875005059206 0 0.056380254218053122 -0.019941514657994749 0 0.056532952835469032 -0.019966599167971298 0 0.056223772825584786 -0.020195375666502535 0 0.054329044827600023 -0.025129923232569393 0 0.055733486361196842 -0.019998875005059206 0 0.053059661135911276 -0.028311892076719445 0 0.05157332851275101 -0.028307690795270225 0 0.052117650846625535 -0.029824511740600926 0 0.052289541855344658 -0.026737226169305184 0 0.053059661135911276 -0.028311892076719445 0 0.05157332851275101 -0.028307690795270225 0 0.052289541855344658 -0.026737226169305184 0 0.05157332851275101 -0.028307690795270225 0 0.050703134381552682 -0.027530503568854548 0 0.049772564867230383 -0.028339796948745673 0 0.05157332851275101 -0.028307690795270225 0 0.050703134381552682 -0.027530503568854548 0 0.049186896311035823 -0.027266593933894356 0 0.050622981707045656 -0.026421244587920955 0 0.050703134381552682 -0.027530503568854548 0 0.052289541855344658 -0.026737226169305184 0 0.050622981707045656 -0.026421244587920955 0 0.050703134381552682 -0.027530503568854548 0 0.049772564867230383 -0.028339796948745673 0 0.049186896311035823 -0.027266593933894356 0 0.050703134381552682 -0.027530503568854548 0 0.05157332851275101 -0.028307690795270225 0 0.050391976166131676 -0.029035129218141251 0 0.050473502053749959 -0.029615333978692926 0 0.050936231236156641 -0.031994094691964736 0 0.052894536647166097 -0.022358498872594074 0 0.049736851218277291 -0.029148281122966354 0 0.049772564867230383 -0.028339796948745673 0 0.050391976166131676 -0.029035129218141251 0 0.05157332851275101 -0.028307690795270225 0 0.050473502053749959 -0.029615333978692926 0 0.050760554796483941 -0.030795917444845881 0 0.049772564867230383 -0.028339796948745673 0 0.05157332851275101 -0.028307690795270225 0 0.050391976166131676 -0.029035129218141251 0 0.050391976166131676 -0.029035129218141251 0 0.050082139550154031 -0.029512951201327027 0 0.050473502053749959 -0.029615333978692926 0 0.049736851218277291 -0.029148281122966354 0 0.050391976166131676 -0.029035129218141251 0 0.050082139550154031 -0.029512951201327027 0 0.049736851218277291 -0.029148281122966354 0 0.050082139550154031 -0.029512951201327027 0 0.049793106468889001 -0.029524984359982215 0 0.04973766968566698 -0.029674088045027473 0 0.050082139550154031 -0.029512951201327027 0 0.049793106468889001 -0.029524984359982215 0 0.04973766968566698 -0.029674088045027473 0 0.050082139550154031 -0.029512951201327027 0 0.049868898277855046 -0.029740406869173924 0 0.049868898277855046 -0.029740406869173924 0 0.050473502053749959 -0.029615333978692926 0 0.05025839674177781 -0.030259848693680098 0 0.04973766968566698 -0.029674088045027473 0 0.049665694573041638 -0.02965921659994018 0 0.049868898277855046 -0.029740406869173924 0 0.048331971728794686 -0.024319380142094369 0 0.051782488736382727 -0.022814947148037439 0 0.049665694573041638 -0.02965921659994018 0 0.049868898277855046 -0.029740406869173924 0 0.049918043983285906 -0.02975020970280616 0 0.051993523896505113 -0.012212679674521091 0 0.051758906295419058 -0.011676829706802659 0 0.053095961170513108 -0.012489321714336516 0 0.052438724492740105 -0.026450540113890877 0 0.051782488736382727 -0.022814947148037439 0 0.050082139550154031 -0.029512951201327027 0 0.049868898277855046 -0.029740406869173924 0 0.050473502053749959 -0.029615333978692926 0 0.050473502053749959 -0.029615333978692926 0 0.050760554796483941 -0.030795917444845881 0 0.05025839674177781 -0.030259848693680098 0 0.052894536647166097 -0.022358498872594074 0 0.051782488736382727 -0.022814947148037439 0 0.053155681922538063 -0.022020026177473936 0 0.052279136985350569 -0.021239798056448256 0 0.052962075996018522 -0.02221897768779078 0 0.053013268437790799 -0.013116140267915261 0 0.053095961170513108 -0.012489321714336516 0 0.053595478025538996 -0.013286262594001586 0 0.051782488736382727 -0.022814947148037439 0 0.054231746645506909 -0.016497312281063083 0 0.052894536647166097 -0.022358498872594074 0 0.054231746645506909 -0.016497312281063083 0 0.051993523896505113 -0.012212679674521091 0 0.052541665102755139 -0.012803654318796515 0 0.053095961170513108 -0.012489321714336516 0 0.052068880075434025 -0.0129140115053411 0 0.052541665102755139 -0.012803654318796515 0 0.052441799489069622 -0.013504555616121332 0 0.053013268437790799 -0.013116140267915261 0 0.052541665102755139 -0.012803654318796515 0 0.052441799489069622 -0.013504555616121332 0 0.053013268437790799 -0.013116140267915261 0 0.052541665102755139 -0.012803654318796515 0 0.053095961170513108 -0.012489321714336516 0 0.05157332851275101 -0.028307690795270225 0 0.051606898644242408 -0.030364829739572944 0 0.052117650846625535 -0.029824511740600926 0 0.055414969598701104 -0.0196347233709817 0 0.055457079236452871 -0.019614489097502619 0 0.055425766964899245 -0.019637909401477416 0 0.059001316817315838 -0.01120284761231227 0 0.058914330524623852 -0.011040819266173549 0 0.059057254823837335 -0.011003612276482146 0 0.052894536647166097 -0.022358498872594074 0 0.055733486361196842 -0.019998875005059206 0 0.055733486361196842 -0.019998875005059206 0 0.05545679424405757 -0.013923744676948839 0 0.059001316817315838 -0.01120284761231227 0 0.058914330524623852 -0.011040819266173549 0 0.058776807904764986 -0.011060486938481896 0 0.059565217343934655 -0.0081040660252686934 0 0.058557005188993198 -0.0071142922656047764 0 0.058120223667211306 -0.0080487640186186517 0 0.058914330524623852 -0.011040819266173549 0 0.059029250450101219 -0.010974422256765501 0 0.058677148743459091 -0.010927691529003507 0 0.055947766747442146 -0.010034026105942825 0 0.057092953345370519 -0.0050387612071437675 0 0.057338032303060241 -0.0069357834388858869 0 0.057672530837487461 -0.0061985345171969419 0 0.056062324226774922 -0.004937009611439949 0 0.059207243295167605 -0.0077348101228691029 0 0.059575380417248192 -0.0075450625788028884 0 0.058195510485985188 -0.0053545607030163079 0 0.057191073033741817 -0.011386727826557082 0 0.057978873279385487 -0.0064555371015024383 0 0.057191073033741817 -0.011386727826557082 0 0.058889860691658927 -0.0092774115719539661 0 0.059207243295167605 -0.0077348101228691029 0 0.058195510485985188 -0.0053545607030163079 0 0.057503412692405859 -0.0060661427879877394 0 0.058914330524623852 -0.011040819266173549 0 0.059029250450101219 -0.010974422256765501 0 0.059057254823837335 -0.011003612276482146 0 0.056757353983752111 -0.011613797387030876 0 0.055194064396813659 -0.010177380041046222 0 0.054561194968022871 -0.011569743251030946 0 0.057191073033741817 -0.011386727826557082 0 0.055959683978449561 -0.01169383051257576 0 0.05545679424405757 -0.013923744676948839 0 0.055959683978449561 -0.01169383051257576 0 0.056217300003470999 -0.014538257269825144 0 0.055555697906366726 -0.015993144067843478 0 0.054525387228473152 -0.014468795884624117 0 0.057191073033741817 -0.011386727826557082 0 0.05545679424405757 -0.013923744676948839 0 0.059207243295167605 -0.0077348101228691029 0 0.059484830276472049 -0.0077427591750233553 0 0.059575380417248192 -0.0075450625788028884 0 0.053013268437790799 -0.013116140267915261 0 0.052441799489069622 -0.013504555616121332 0 0.053340669878259889 -0.013555667252339653 0 0.052790021115031664 -0.013450194011990112 0 0.05403376074204546 -0.013415800811312205 0 0.052154908009518601 -0.014694942477428743 0 0.052441799489069622 -0.013504555616121332 0 0.053374195514100428 -0.013520687034619385 0 0.053013268437790799 -0.013116140267915261 0 0.053340669878259889 -0.013555667252339653 0 0.053595478025538996 -0.013286262594001586 0 0.054757800469542796 -0.010876226151022647 0 0.054154889311714902 -0.01040026747769337 0 0.054985062436813725 -0.0085598770776035733 0 0.052624626516661561 -0.010692654331848636 0 0.052159619987420691 -0.010683502641568605 0 0.052279397432479592 -0.0093889687290864277 0 0.05403376074204546 -0.013415800811312205 0 0.054231746645506909 -0.016497312281063083 0 0.05397709554661085 -0.013656276135009313 0 0.055418088304044932 -0.012169437379362264 0 0.055819861134137651 -0.013693681841713047 0 0.05403376074204546 -0.013415800811312205 0 0.054732509653882024 -0.012058671280449821 0 0.052894536647166097 -0.022358498872594074 0 0.05545679424405757 -0.013923744676948839 0 0.053484307705413917 -0.012032492987770479 0 0.056217300003470999 -0.014538257269825144 0 0.054525387228473152 -0.014468795884624117 0 0.053484307705413917 -0.012032492987770479 0 0.054525387228473152 -0.014468795884624117 0 0.052068235860325003 -0.013495669368222047 0 0.054525387228473152 -0.014468795884624117 0 0.052068235860325003 -0.013495669368222047 0 0.052713244661642414 -0.015936670693541783 0 0.054231746645506909 -0.016497312281063083 0 0.054732509653882024 -0.012058671280449821 0 0.055555697906366726 -0.015993144067843478 0 0.054525387228473152 -0.014468795884624117 0 0.052713244661642414 -0.015936670693541783 0 0.055959683978449561 -0.01169383051257576 0 0.054732509653882024 -0.012058671280449821 0 0.054732509653882024 -0.012058671280449821 0 0.055947766747442146 -0.010034026105942825 0 0.056530314518978754 -0.011890272884200017 0 0.055072282184105689 -0.011861440813013702 0 0.056156861575574583 -0.012711348887109834 0 0.055959683978449561 -0.01169383051257576 0 0.055947766747442146 -0.010034026105942825 0 0.054732509653882024 -0.012058671280449821 0 0.054862119120952464 -0.008050887384783741 0 0.055947766747442146 -0.010034026105942825 0 0.054862119120952464 -0.008050887384783741 0 0.051568077848824827 -0.010154330788656062 0 0.05403376074204546 -0.013415800811312205 0 0.054091194078843025 -0.0091482070841012904 0 0.052624626516661561 -0.010692654331848636 0 0.052279397432479592 -0.0093889687290864277 0 0.054862119120952464 -0.008050887384783741 0 0.05197116884556794 -0.0056527974997181924 0 0.05375551341556991 -0.0073777281389774381 0 0.054621382993633741 -0.0054111427888488559 0 0.053915372905676343 -0.005596497149047093 0 0.051568077848824827 -0.010154330788656062 0 0.05197116884556794 -0.0056527974997181924 0 0.054091194078843025 -0.0091482070841012904 0 0.052279397432479592 -0.0093889687290864277 0 0.053352869015857014 -0.0069670914999193237 0 0.054862119120952464 -0.008050887384783741 0 0.055760919092988234 -0.0048400565316368748 0 0.05782431184422443 -0.0046362717577011041 0 0.056062324226774922 -0.004937009611439949 0 0.056378609517997391 -0.0033288574171878214 0 0.057672530837487461 -0.0061985345171969419 0 0.05782431184422443 -0.0046362717577011041 0 0.056062324226774922 -0.004937009611439949 0 0.056378609517997391 -0.0033288574171878214 0 0.057962773812026504 -0.0031118396359345745 0 0.055928957668941362 -0.0016563243753301194 0 0.050220960431291442 -0.0042340935421753901 0 0.05197116884556794 -0.0056527974997181924 0 0.050716927109932648 -0.0035648318704174162 0 0.051248108112895895 -0.002511306704681345 0 0.051546010251289999 -0.0033704791188663057 0 0.05782431184422443 -0.0046362717577011041 0 0.056378609517997391 -0.0033288574171878214 0 0.057962773812026504 -0.0031118396359345745 0 0.05197116884556794 -0.0056527974997181924 0 0.053612680915764203 -0.0037061558565716747 0 0.054621382993633741 -0.0054111427888488559 0 0.053915372905676343 -0.005596497149047093 0 0.054081151546976514 -0.0038245298802323398 0 0.055760919092988234 -0.0048400565316368748 0 0.053612680915764203 -0.0037061558565716747 0 0.058675254864103181 -0.0029889378097557274 0 0.059033058961570253 0.0017370368469905397 0 0.060170222931467038 -0.0023679365258170307 0 0.05845131102715441 -0.0019517547364994129 0 0.057971037613249399 -0.00029956614728924127 0 0.060312979398728997 0.0010629953127109825 0 0.060211128397236344 0.0017149684534701057 0 0.0592250071826304 0.0021354776782775164 0 0.060312979398728997 0.0010629953127109825 0 0.060211128397236344 0.0017149684534701057 0 0.060822702733552357 0.0016752545205239936 0 0.056062324226774922 -0.004937009611439949 0 0.056378609517997391 -0.0033288574171878214 0 0.054824180357617117 -0.0029932580912032315 0 0.057092953345370519 -0.0050387612071437675 0 0.058325441605198647 -0.00095262102011343052 0 0.058195510485985188 -0.0053545607030163079 0 0.055786575154119472 -0.0044216738058752737 0 0.056800436123758853 -0.0031907484973590148 0 0.058675254864103181 -0.0029889378097557274 0 0.058325441605198647 -0.00095262102011343052 0 0.058675254864103181 -0.0029889378097557274 0 0.057978873279385487 -0.0064555371015024383 0 0.058195510485985188 -0.0053545607030163079 0 0.055786575154119472 -0.0044216738058752737 0 0.057503412692405859 -0.0060661427879877394 0 0.057532482657920776 -0.0061178086183458699 0 0.058557005188993198 -0.0071142922656047764 0 0.057083632695979991 -0.0066675607539398996 0 0.060170222931467038 -0.0023679365258170307 0 0.05944316685951908 -0.0032508362083693235 0 0.05845131102715441 -0.0019517547364994129 0 0.058675254864103181 -0.0029889378097557274 0 0.058868410493575322 -0.0050851425186427927 0 0.058868410493575322 -0.0050851425186427927 0 0.058921246618795775 -0.0024082472980046818 0 0.058637143855983107 -0.0069148025933818743 0 0.058621918478264028 -0.0080982602951838092 0 0.057683722621752205 -0.0080794507536246004 0 0.058637143855983107 -0.0069148025933818743 0 0.058621918478264028 -0.0080982602951838092 0 0.059559964506778508 -0.0081220778867443257 0 0.058398811601447255 -0.0094086939158099202 0 0.058889860691658927 -0.0092774115719539661 0 0.058868410493575322 -0.0050851425186427927 0 0.058889860691658927 -0.0092774115719539661 0 0.058557005188993198 -0.0071142922656047764 0 0.057083632695979991 -0.0066675607539398996 0 0.058120223667211306 -0.0080487640186186517 0 0.058674704728967825 -0.011692296891538853 0 0.058776807904764986 -0.011060486938481896 0 0.058474854253575355 -0.01110359774672387 0 0.058674704728967825 -0.011692296891538853 0 0.059001316817315838 -0.01120284761231227 0 0.058776807904764986 -0.011060486938481896 0 0.058914330524623852 -0.011040819266173549 0 0.058677148743459091 -0.010927691529003507 0 0.058776807904764986 -0.011060486938481896 0 0.058889860691658927 -0.0092774115719539661 0 0.059168532852891947 -0.010837456369449348 0 0.058637652427588484 -0.010822741033009738 0 0.058776807904764986 -0.011060486938481896 0 0.058474854253575355 -0.01110359774672387 0 0.058246349993467138 -0.010766845089596095 0 0.058135619427413472 -0.011153214179834109 0 0.058474854253575355 -0.01110359774672387 0 0.058246349993467138 -0.010766845089596095 0 0.058637652427588484 -0.010822741033009738 0 0.058474854253575355 -0.01110359774672387 0 0.058246349993467138 -0.010766845089596095 0 0.058135619427413472 -0.011153214179834109 0 0.057974977817086742 -0.01090203815289733 0 0.058095064874970397 -0.011339837139033471 0 0.057450639521358079 -0.010132620330888052 0 0.057974977817086742 -0.01090203815289733 0 0.057448535098405133 -0.010915488184474941 0 0.057801758290380784 -0.010772972051287293 0 0.058135619427413472 -0.011153214179834109 0 0.057268651256182884 -0.010805685455687232 0 0.057668097221288912 -0.0112723811830073 0 0.058135619427413472 -0.011153214179834109 0 0.057974977817086742 -0.01090203815289733 0 0.057448535098405133 -0.010915488184474941 0 0.057216298565256084 -0.010269422258884659 0 0.056792208798972808 -0.010824940880986815 0 0.057287362912228947 -0.011448374514495084 0 0.057450639521358079 -0.010132620330888052 0 0.057265249731346571 -0.011541423145053466 0 0.056549232299761311 -0.0064689602364281533 0 0.05851123884095439 -0.0065094028216350916 0 0.057752976112987686 -0.0045565716869997155 0 0.056934617293022974 -0.0074147280417282734 0 0.058198538771796329 -0.0085086114203615625 0 0.057425771387830303 -0.010686798144896341 0 0.057801758290380784 -0.010772972051287293 0 0.057850048865903891 -0.010713384039204207 0 0.057450639521358079 -0.010132620330888052 0 0.056934617293022974 -0.0074147280417282734 0 0.057448535098405133 -0.010915488184474941 0 0.057425771387830303 -0.010686798144896341 0 0.057801758290380784 -0.010772972051287293 0 0.058868410493575322 -0.0050851425186427927 0 0.058198538771796329 -0.0085086114203615625 0 0.058246349993467138 -0.010766845089596095 0 0.057974977817086742 -0.01090203815289733 0 0.057849343689674919 -0.010719690393437061 0 0.058398811601447255 -0.0094086939158099202 0 0.058198538771796329 -0.0085086114203615625 0 0.057974977817086742 -0.01090203815289733 0 0.057801758290380784 -0.010772972051287293 0 0.057849343689674919 -0.010719690393437061 0 0.057911422185240612 -0.0090041611975311218 0 0.058198538771796329 -0.0085086114203615625 0 0.060426517038766843 -0.0041839016063814228 0 0.05851123884095439 -0.0065094028216350916 0 0.058890399946958355 -0.0041674372158179672 0 0.05851123884095439 -0.0065094028216350916 0 0.058890399946958355 -0.0041674372158179672 0 0.057752976112987686 -0.0045565716869997155 0 0.060426517038766843 -0.0041839016063814228 0 0.058890399946958355 -0.0041674372158179672 0 0.059340776086186889 -0.0027692657104143453 0 0.058890399946958355 -0.0041674372158179672 0 0.057752976112987686 -0.0045565716869997155 0 0.057861172241941691 -0.0030779878764416223 0 0.056549232299761311 -0.0064689602364281533 0 0.057752976112987686 -0.0045565716869997155 0 0.056253834459741366 -0.0031137941167323768 0 0.056934617293022974 -0.0074147280417282734 0 0.057488452025465389 -0.0019608857474731024 0 0.057752976112987686 -0.0045565716869997155 0 0.057861172241941691 -0.0030779878764416223 0 0.056253834459741366 -0.0031137941167323768 0 0.058282280322930972 -0.00055461898391224681 0 0.058146599805448215 -0.00064835343540881757 0 0.058021424321504651 0.00079783095573866792 0 0.057701503164970837 -0.00087524427187342911 0 0.058531191849774511 0.0005206903936624918 0 0.057758459024283525 -0.0010753995930368684 0 0.058026403161955904 0.00063379684869903862 0 0.057701503164970837 -0.00087524427187342911 0 0.05869829367033292 0.0019252080822872995 0 0.057861172241941691 -0.0030779878764416223 0 0.056395560228657673 -0.0026388018604065421 0 0.058252211417400321 -0.0013518618987575228 0 0.057861172241941691 -0.0030779878764416223 0 0.056253834459741366 -0.0031137941167323768 0 0.056395560228657673 -0.0026388018604065421 0 0.057488452025465389 -0.0019608857474731024 0 0.057758459024283525 -0.0010753995930368684 0 0.057488452025465389 -0.0019608857474731024 0 0.057701503164970837 -0.00087524427187342911 0 0.057532710378648474 -0.0014883108775202028 0 0.05765227133680699 -0.0010839951291585362 0 0.057505521782125479 -0.0011859494416951411 0 0.057701503164970837 -0.00087524427187342911 0 0.057758459024283525 -0.0010753995930368684 0 0.057861172241941691 -0.0030779878764416223 0 0.059340776086186889 -0.0027692657104143453 0 0.058252211417400321 -0.0013518618987575228 0 0.05845131102715441 -0.0019517547364994129 0 0.057971037613249399 -0.00029956614728924127 0 0.057460358791523419 -0.00065251550145126289 0 0.058921246618795775 -0.0024082472980046818 0 0.058531191849774511 0.0005206903936624918 0 0.058890399946958355 -0.0041674372158179672 0 0.057861172241941691 -0.0030779878764416223 0 0.059340776086186889 -0.0027692657104143453 0 0.054999852236212225 -0.0007368927428225442 0 0.056660211238739731 -0.0003241876186360484 0 0.056648183268829325 -0.0022772498933579114 0 0.058148959431895006 -0.001777178039866667 0 0.058122569478132644 -0.0014863742479301076 0 0.056587223226378436 -0.0025481821898666272 0 0.058299105093100351 -0.0010084057213238654 0 0.056660211238739731 -0.0003241876186360484 0 0.056648183268829325 -0.0022772498933579114 0 0.058299105093100351 -0.0010084057213238654 0 0.057526394761763772 4.2461756496558212e-05 0 0.058021424321504651 0.00079783095573866792 0 0.058299105093100351 -0.0010084057213238654 0 0.056660211238739731 -0.0003241876186360484 0 0.057526394761763772 4.2461756496558212e-05 0 0.057758459024283525 -0.0010753995930368684 0 0.056654439895848174 -0.002401992831151392 0 0.058148959431895006 -0.001777178039866667 0 0.056587223226378436 -0.0025481821898666272 0 0.056607359322228629 -0.0036129300752888983 0 0.058148959431895006 -0.001777178039866667 0 0.056607359322228629 -0.0036129300752888983 0 0.057344184113291341 -0.0045234686805927047 0 0.057488452025465389 -0.0019608857474731024 0 0.056823564567921897 -0.0058556970241982146 0 0.056587223226378436 -0.0025481821898666272 0 0.05499998279677782 -0.003573189855129819 0 0.055794531946380579 -0.0037116269316227525 0 0.056654439895848174 -0.002401992831151392 0 0.055000339203430407 -0.0035726533127932768 0 0.056587223226378436 -0.0025481821898666272 0 0.055794531946380579 -0.0037116269316227525 0 0.056607359322228629 -0.0036129300752888983 0 0.054999852236212225 -0.0007368927428225442 0 0.056648183268829325 -0.0022772498933579114 0 0.05499999527617782 -0.0035727953243096531 0 0.055794531946380579 -0.0037116269316227525 0 0.054999999456797566 -0.0043958921297306986 0 0.055721928024733997 -0.0045802614186075327 0 0.05499998279677782 -0.003573189855129819 0 0.055794531946380579 -0.0037116269316227525 0 0.054999999456797566 -0.0043958921297306986 0 0.055828072696763882 -0.0050809944525629681 0 0.056823564567921897 -0.0058556970241982146 0 0.055794531946380579 -0.0037116269316227525 0 0.055721928024733997 -0.0045802614186075327 0 0.056607359322228629 -0.0036129300752888983 0 0.055828072696763882 -0.0050809944525629681 0 0.05652913863794836 -0.0072404441182274196 0 0.054999993788228695 -0.0043961910172222668 0 0.055785355133981078 -0.0046453383403214669 0 0.055882394970038711 -0.0059016774251640916 0 0.05500039191074662 -0.0043967318242282196 0 0.055828072696763882 -0.0050809944525629681 0 0.055893831795812261 -0.0058472590193990436 0 0.056475614471670738 -0.0060310022165541242 0 0.056532621727709412 -0.0058398649692992452 0 0.05767917395776951 -0.0063315108438464955 0 0.057328734004273109 -0.002402818921983537 0 0.056170785901102499 -0.006298848401388368 0 0.055721928024733997 -0.0045802614186075327 0 0.056607359322228629 -0.0036129300752888983 0 0.057344184113291341 -0.0045234686805927047 0 0.05652913863794836 -0.0072404441182274196 0 0.056823564567921897 -0.0058556970241982146 0 0.057217818559306875 -0.0076387194239325336 0 0.056617750581466009 -0.0078629643215348474 0 0.056689169649970519 -0.0076227842997689853 0 0.057256414037329201 -0.0080663475630494298 0 0.057217818559306875 -0.0076387194239325336 0 0.056617750581466009 -0.0078629643215348474 0 0.056934617293022974 -0.0074147280417282734 0 0.056823564567921897 -0.0058556970241982146 0 0.056550611255821184 -0.010076999444964183 0 0.056792208798972808 -0.010824940880986815 0 0.056208803690590864 -0.011282406497155246 0 0.05652913863794836 -0.0072404441182274196 0 0.056461388913356857 -0.0096520106845305442 0 0.057216298565256084 -0.010269422258884659 0 0.056550611255821184 -0.010076999444964183 0 0.056792208798972808 -0.010824940880986815 0 0.057450639521358079 -0.010132620330888052 0 0.05652913863794836 -0.0072404441182274196 0 0.057436090091816175 -0.0051636714748036997 0 0.055882394970038711 -0.0059016774251640916 0 0.056628754806647516 -0.0078945348763280014 0 0.054999993788228695 -0.0043961910172222668 0 0.055882394970038711 -0.0059016774251640916 0 0.054999991326359472 -0.0073915661326088783 0 0.055785355133981078 -0.0046453383403214669 0 0.057436090091816175 -0.0051636714748036997 0 0.055882394970038711 -0.0059016774251640916 0 0.055882394970038711 -0.0059016774251640916 0 0.054999991326359472 -0.0073915661326088783 0 0.056628754806647516 -0.0078945348763280014 0 0.054999991326359472 -0.0073915661326088783 0 0.056628754806647516 -0.0078945348763280014 0 0.054999995893242594 -0.010386965951841277 0 0.056461388913356857 -0.0096520106845305442 0 0.055771253693797616 -0.01147328956412471 0 0.056628754806647516 -0.0078945348763280014 0 0.054999995893242594 -0.010386965951841277 0 0.055816067524302487 -0.010636776532437281 0 0.056208803690590864 -0.011282406497155246 0 0.057144714878222536 -0.012283653912557932 0 0.055772056110638485 -0.01229979678058339 0 0.056208803690590864 -0.011282406497155246 0 0.057287362912228947 -0.011448374514495084 0 0.057144714878222536 -0.012283653912557932 0 0.056792208798972808 -0.010824940880986815 0 0.056208803690590864 -0.011282406497155246 0 0.057287362912228947 -0.011448374514495084 0 0.057268651256182884 -0.010805685455687232 0 0.057287362912228947 -0.011448374514495084 0 0.057668097221288912 -0.0112723811830073 0 0.058135619427413472 -0.011153214179834109 0 0.057668097221288912 -0.0112723811830073 0 0.057956365905164023 -0.011716802789961107 0 0.057287362912228947 -0.011448374514495084 0 0.057668097221288912 -0.0112723811830073 0 0.057956365905164023 -0.011716802789961107 0 0.057956365905164023 -0.011716802789961107 0 0.057144714878222536 -0.012283653912557932 0 0.05821033155745315 -0.012464278268861494 0 0.057287362912228947 -0.011448374514495084 0 0.057956365905164023 -0.011716802789961107 0 0.057144714878222536 -0.012283653912557932 0 0.057144714878222536 -0.012283653912557932 0 0.05821033155745315 -0.012464278268861494 0 0.057588938668389905 -0.013506288949234134 0 0.057482096215071644 -0.016195687077031798 0 0.057756824793937511 -0.016109207325824337 0 0.057219212415094027 -0.018700127337775149 0 0.057078443115417939 -0.019512838939181244 0 0.057715674794361779 -0.01884052200801746 0 0.057144714878222536 -0.012283653912557932 0 0.057588938668389905 -0.013506288949234134 0 0.056446099751916168 -0.013640146341966225 0 0.056446099751916168 -0.013640146341966225 0 0.055000724771715664 -0.013383987647742842 0 0.055772056110638485 -0.01229979678058339 0 0.054999997726695712 -0.013382362065565999 0 0.054999995893242594 -0.010386965951841277 0 0.055816067524302487 -0.010636776532437281 0 0.055000174996810612 -0.013382101987584145 0 0.055771253693797616 -0.01147328956412471 0 0.057144714878222536 -0.012283653912557932 0 0.056446099751916168 -0.013640146341966225 0 0.055772056110638485 -0.01229979678058339 0 0.023785551618274992 -0.010820423953900279 0 0.022610228302768848 -0.012942237991562702 0 0.022179513675853944 -0.010117176787455774 0 0.022222394454656028 -0.010494230566041211 0 0.026643856551834155 -0.013903372256263005 0 0.023785551618274992 -0.010820423953900279 0 0.02480519215180671 -0.01088863424128338 0 0.024958424666257861 -0.009787135615811177 0 0.023785551618274992 -0.010820423953900279 0 0.02480519215180671 -0.01088863424128338 0 0.025069219493450687 -0.012664709512660157 0 0.02480519215180671 -0.01088863424128338 0 0.025069219493450687 -0.012664709512660157 0 0.024560100610895551 -0.010225904903855963 0 0.02480519215180671 -0.01088863424128338 0 0.024958424666257861 -0.009787135615811177 0 0.024560100610895551 -0.010225904903855963 0 0.022290678572639507 -0.011226385666765804 0 0.024560100610895551 -0.010225904903855963 0 0.023176886915370103 -0.012171933511145285 0 0.023478845273565585 -0.012111175171773413 0 0.024500536765452201 -0.010488239220536339 0 0.023785551618274992 -0.010820423953900279 0 0.025069219493450687 -0.012664709512660157 0 0.022610228302768848 -0.012942237991562702 0 0.025069219493450687 -0.012664709512660157 0 0.022610228302768848 -0.012942237991562702 0 0.022951502200718541 -0.016627795512257813 0 0.023478845273565585 -0.012111175171773413 0 0.022128402309405416 -0.014033780457861684 0 0.022610228302768848 -0.012942237991562702 0 0.020309948751579682 -0.016354139115556103 0 0.022951502200718541 -0.016627795512257813 0 0.022610228302768848 -0.012942237991562702 0 0.020148439616803022 -0.011953448999012453 0 0.020309948751579682 -0.016354139115556103 0 0.017615651348935234 -0.01433327857834229 0 0.020148439616803022 -0.011953448999012453 0 0.020309948751579682 -0.016354139115556103 0 0.027195741565984397 -0.024519156149859098 0 0.025477646251278085 -0.018799973350130079 0 0.030017750081366392 -0.026152575302816065 0 0.031121417364442672 -0.025274418592606707 0 0.031440031915539624 -0.024161784565345255 0 0.027195741565984397 -0.024519156149859098 0 0.032069626004077333 -0.025182185766196588 0 0.029161019230408258 -0.025478545630242894 0 0.031440031915539624 -0.024161784565345255 0 0.030020326203375008 -0.024140515837941051 0 0.029781757637404857 -0.028104180351960755 0 0.029161019230408258 -0.025478545630242894 0 0.031440031915539624 -0.024161784565345255 0 0.022610228302768848 -0.012942237991562702 0 0.020148439616803022 -0.011953448999012453 0 0.022179513675853944 -0.010117176787455774 0 0.025477646251278085 -0.018799973350130079 0 0.026643856551834155 -0.013903372256263005 0 0.031121417364442672 -0.025274418592606707 0 0.032275721194884248 -0.024365135624478767 0 0.031440031915539624 -0.024161784565345255 0 0.028328227675972345 -0.0050482083662089635 0 0.028349766275791312 -0.0060152963761635906 0 0.029348782880203105 -0.0056248466699433059 0 0.028349766275791312 -0.0060152963761635906 0 0.029348782880203105 -0.0056248466699433059 0 0.028801147599842952 -0.006717273918388454 0 0.032275721194884248 -0.024365135624478767 0 0.031440031915539624 -0.024161784565345255 0 0.030886013869603646 -0.023833265910829626 0 0.026643856551834155 -0.013903372256263005 0 0.030492842531995648 -0.014756371798666531 0 0.029348782880203105 -0.0056248466699433059 0 0.028801147599842952 -0.006717273918388454 0 0.030168164098992756 -0.0059987454622481987 0 0.029161019230408258 -0.025478545630242894 0 0.030020326203375008 -0.024140515837941051 0 0.029010540213073234 -0.022927838939974229 0 0.030020326203375008 -0.024140515837941051 0 0.030886013869603646 -0.023833265910829626 0 0.029010540213073234 -0.022927838939974229 0 0.031440031915539624 -0.024161784565345255 0 0.030020326203375008 -0.024140515837941051 0 0.030886013869603646 -0.023833265910829626 0 0.030492842531995648 -0.014756371798666531 0 0.032652661796556536 -0.010357627769643392 0 0.028547383418722812 -0.0052199485064310762 0 0.032652661796556536 -0.010357627769643392 0 0.028801147599842952 -0.006717273918388454 0 0.03125757293618657 -0.0047002244118839057 0 0.031883875027239258 -0.0060698971672367786 0 0.028349766275791312 -0.0060152963761635906 0 0.028801147599842952 -0.006717273918388454 0 0.027483870006854184 -0.0068255829797751796 0 0.028801147599842952 -0.006717273918388454 0 0.027483870006854184 -0.0068255829797751796 0 0.027034918591061129 -0.0076028840012851767 0 0.027483870006854184 -0.0068255829797751796 0 0.025487240334004437 -0.0077087328434939078 0 0.027034918591061129 -0.0076028840012851767 0 0.027483870006854184 -0.0068255829797751796 0 0.027162560501250772 -0.0057336068076028332 0 0.025487240334004437 -0.0077087328434939078 0 0.028349766275791312 -0.0060152963761635906 0 0.027483870006854184 -0.0068255829797751796 0 0.027162560501250772 -0.0057336068076028332 0 0.025987323564872586 -0.0073182652082929307 0 0.025363331894654874 -0.0077164197297029044 0 0.023785551618274992 -0.010820423953900279 0 0.023704477113069972 -0.0090620088945628126 0 0.024958424666257861 -0.009787135615811177 0 0.023785551618274992 -0.010820423953900279 0 0.022458186870415328 -0.010238255842813963 0 0.023704477113069972 -0.0090620088945628126 0 0.026643856551834155 -0.013903372256263005 0 0.025987323564872586 -0.0073182652082929307 0 0.028328227675972345 -0.0050482083662089635 0 0.028349766275791312 -0.0060152963761635906 0 0.027162560501250772 -0.0057336068076028332 0 0.023704477113069972 -0.0090620088945628126 0 0.024958424666257861 -0.009787135615811177 0 0.025487240334004437 -0.0077087328434939078 0 0.024958424666257861 -0.009787135615811177 0 0.025487240334004437 -0.0077087328434939078 0 0.025223996758710635 -0.0089531885306931343 0 0.025487240334004437 -0.0077087328434939078 0 0.025463007833602475 -0.0082828793375009386 0 0.025223996758710635 -0.0089531885306931343 0 0.025487240334004437 -0.0077087328434939078 0 0.025911538097082073 -0.0079924519953278299 0 0.027034918591061129 -0.0076028840012851767 0 0.025487240334004437 -0.0077087328434939078 0 0.025463007833602475 -0.0082828793375009386 0 0.025911538097082073 -0.0079924519953278299 0 0.025463007833602475 -0.0082828793375009386 0 0.025185521665108627 -0.0086898833947048459 0 0.025643111580394517 -0.008369772894559379 0 0.025463007833602475 -0.0082828793375009386 0 0.025185521665108627 -0.0086898833947048459 0 0.025223996758710635 -0.0089531885306931343 0 0.025185521665108627 -0.0086898833947048459 0 0.024950575456123832 -0.008976572855844564 0 0.024945711384670798 -0.0092608197646569541 0 0.025185521665108627 -0.0086898833947048459 0 0.024950575456123832 -0.008976572855844564 0 0.024979141381069343 -0.0088371762271538829 0 0.024945711384670798 -0.0092608197646569541 0 0.024816219634193035 -0.0093026414061591119 0 0.024662453973327027 -0.010046843779886495 0 0.024950575456123832 -0.008976572855844564 0 0.024945711384670798 -0.0092608197646569541 0 0.024816219634193035 -0.0093026414061591119 0 0.025185521665108627 -0.0086898833947048459 0 0.024945711384670798 -0.0092608197646569541 0 0.025223996758710635 -0.0089531885306931343 0 0.024958424666257861 -0.009787135615811177 0 0.025223996758710635 -0.0089531885306931343 0 0.024560100610895551 -0.010225904903855963 0 0.024945711384670798 -0.0092608197646569541 0 0.025223996758710635 -0.0089531885306931343 0 0.024560100610895551 -0.010225904903855963 0 0.024510981345945745 -0.0091105591842660753 0 0.024738857055011852 -0.0089994681505175013 0 0.024673962217965785 -0.0093365642493748058 0 0.024521086851925306 -0.0093429743718537114 0 0.024510981345945745 -0.0091105591842660753 0 0.024673962217965785 -0.0093365642493748058 0 0.024950575456123832 -0.008976572855844564 0 0.024738857055011852 -0.0089994681505175013 0 0.024816219634193035 -0.0093026414061591119 0 0.024738857055011852 -0.0089994681505175013 0 0.024816219634193035 -0.0093026414061591119 0 0.024673962217965785 -0.0093365642493748058 0 0.024950575456123832 -0.008976572855844564 0 0.024738857055011852 -0.0089994681505175013 0 0.024979141381069343 -0.0088371762271538829 0 0.024816219634193035 -0.0093026414061591119 0 0.024673962217965785 -0.0093365642493748058 0 0.024704995969099565 -0.0099894788112316127 0 0.024691196758324711 -0.0097459845242701369 0 0.024673962217965785 -0.0093365642493748058 0 0.024704995969099565 -0.0099894788112316127 0 0.024521086851925306 -0.0093429743718537114 0 0.024691196758324711 -0.0097459845242701369 0 0.024673962217965785 -0.0093365642493748058 0 0.024691196758324711 -0.0097459845242701369 0 0.024848070943421636 -0.010625981022998913 0 0.024704995969099565 -0.0099894788112316127 0 0.024704995969099565 -0.0099894788112316127 0 0.024503221862018774 -0.010988268712089725 0 0.024662453973327027 -0.010046843779886495 0 0.024816219634193035 -0.0093026414061591119 0 0.024704995969099565 -0.0099894788112316127 0 0.024662453973327027 -0.010046843779886495 0 0.024848070943421636 -0.010625981022998913 0 0.024704995969099565 -0.0099894788112316127 0 0.024503221862018774 -0.010988268712089725 0 0.024848070943421636 -0.010625981022998913 0 0.024503221862018774 -0.010988268712089725 0 0.024574429756287833 -0.011923938542435253 0 0.024560100610895551 -0.010225904903855963 0 0.024662453973327027 -0.010046843779886495 0 0.024141048940279228 -0.01140292658345048 0 0.024945711384670798 -0.0092608197646569541 0 0.024560100610895551 -0.010225904903855963 0 0.024662453973327027 -0.010046843779886495 0 0.024503221862018774 -0.010988268712089725 0 0.024662453973327027 -0.010046843779886495 0 0.024141048940279228 -0.01140292658345048 0 0.024560100610895551 -0.010225904903855963 0 0.024141048940279228 -0.01140292658345048 0 0.023176886915370103 -0.012171933511145285 0 0.024141048940279228 -0.01140292658345048 0 0.023176886915370103 -0.012171933511145285 0 0.023584387361761914 -0.013004185924304728 0 0.024503221862018774 -0.010988268712089725 0 0.024141048940279228 -0.01140292658345048 0 0.024200260456327175 -0.012393955652569935 0 0.024141048940279228 -0.01140292658345048 0 0.023584387361761914 -0.013004185924304728 0 0.024200260456327175 -0.012393955652569935 0 0.023584387361761914 -0.013004185924304728 0 0.024200260456327175 -0.012393955652569935 0 0.023920289028479778 -0.01382833084748741 0 0.023584387361761914 -0.013004185924304728 0 0.023336556290480988 -0.014358098003443041 0 0.023920289028479778 -0.01382833084748741 0 0.023584387361761914 -0.013004185924304728 0 0.023336556290480988 -0.014358098003443041 0 0.022737964903263519 -0.01357202204714927 0 0.023176886915370103 -0.012171933511145285 0 0.023584387361761914 -0.013004185924304728 0 0.022737964903263519 -0.01357202204714927 0 0.024848070943421636 -0.010625981022998913 0 0.024881471993677615 -0.012612429201765713 0 0.024574429756287833 -0.011923938542435253 0 0.024503221862018774 -0.010988268712089725 0 0.024574429756287833 -0.011923938542435253 0 0.024200260456327175 -0.012393955652569935 0 0.024200260456327175 -0.012393955652569935 0 0.02440431267941575 -0.013436317158244161 0 0.023920289028479778 -0.01382833084748741 0 0.024574429756287833 -0.011923938542435253 0 0.024200260456327175 -0.012393955652569935 0 0.02440431267941575 -0.013436317158244161 0 0.024881471993677615 -0.012612429201765713 0 0.024574429756287833 -0.011923938542435253 0 0.02440431267941575 -0.013436317158244161 0 0.024881471993677615 -0.012612429201765713 0 0.02440431267941575 -0.013436317158244161 0 0.024719657043924724 -0.014580212043800198 0 0.02440431267941575 -0.013436317158244161 0 0.024719657043924724 -0.014580212043800198 0 0.024248068724143177 -0.014916254891574573 0 0.024248068724143177 -0.014916254891574573 0 0.023920289028479778 -0.01382833084748741 0 0.02382240917467077 -0.014961906335485902 0 0.02440431267941575 -0.013436317158244161 0 0.024248068724143177 -0.014916254891574573 0 0.023920289028479778 -0.01382833084748741 0 0.024599796948559082 -0.016084069016249838 0 0.024076977759715984 -0.01625434251206687 0 0.024248068724143177 -0.014916254891574573 0 0.024076977759715984 -0.01625434251206687 0 0.024248068724143177 -0.014916254891574573 0 0.02382240917467077 -0.014961906335485902 0 0.024599796948559082 -0.016084069016249838 0 0.024719657043924724 -0.014580212043800198 0 0.024248068724143177 -0.014916254891574573 0 0.023336556290480988 -0.014358098003443041 0 0.022594493411729529 -0.015103196653183637 0 0.022737964903263519 -0.01357202204714927 0 0.023336556290480988 -0.014358098003443041 0 0.023920289028479778 -0.01382833084748741 0 0.02382240917467077 -0.014961906335485902 0 0.024076977759715984 -0.01625434251206687 0 0.02382240917467077 -0.014961906335485902 0 0.023438928037197597 -0.015730772838651427 0 0.023336556290480988 -0.014358098003443041 0 0.02382240917467077 -0.014961906335485902 0 0.023438928037197597 -0.015730772838651427 0 0.022772798781035102 -0.017031520509998153 0 0.023438928037197597 -0.015730772838651427 0 0.022594493411729529 -0.015103196653183637 0 0.023336556290480988 -0.014358098003443041 0 0.023438928037197597 -0.015730772838651427 0 0.022594493411729529 -0.015103196653183637 0 0.022772798781035102 -0.017031520509998153 0 0.021591496055171307 -0.015884523297334738 0 0.022594493411729529 -0.015103196653183637 0 0.019717304098131921 -0.023904842744229028 0 0.018715478485807464 -0.022405075725224634 0 0.021591496055171307 -0.015884523297334738 0 0.021699205894517598 -0.01429581888702861 0 0.020556527276509265 -0.014740331898228197 0 0.021699205894517598 -0.01429581888702861 0 0.020612591593362165 -0.013519256467528202 0 0.020556527276509265 -0.014740331898228197 0 0.021591496055171307 -0.015884523297334738 0 0.021699205894517598 -0.01429581888702861 0 0.022594493411729529 -0.015103196653183637 0 0.021699205894517598 -0.01429581888702861 0 0.022594493411729529 -0.015103196653183637 0 0.022737964903263519 -0.01357202204714927 0 0.021699205894517598 -0.01429581888702861 0 0.022737964903263519 -0.01357202204714927 0 0.021990180839628996 -0.012594200818701601 0 0.021699205894517598 -0.01429581888702861 0 0.021990180839628996 -0.012594200818701601 0 0.020612591593362165 -0.013519256467528202 0 0.022290678572639507 -0.011226385666765804 0 0.021990180839628996 -0.012594200818701601 0 0.020837777517607813 -0.012328036421291232 0 0.021990180839628996 -0.012594200818701601 0 0.020837777517607813 -0.012328036421291232 0 0.020612591593362165 -0.013519256467528202 0 0.023176886915370103 -0.012171933511145285 0 0.022737964903263519 -0.01357202204714927 0 0.021990180839628996 -0.012594200818701601 0 0.022290678572639507 -0.011226385666765804 0 0.023176886915370103 -0.012171933511145285 0 0.021990180839628996 -0.012594200818701601 0 0.018387631177143073 -0.019772519272097708 0 0.020309948751579682 -0.016354139115556103 0 0.0194876351773394 -0.020948236199762531 0 0.017615651348935234 -0.01433327857834229 0 0.018387631177143073 -0.019772519272097708 0 0.020309948751579682 -0.016354139115556103 0 0.022128402309405416 -0.014033780457861684 0 0.018511399269704232 -0.020406978855419929 0 0.020309948751579682 -0.016354139115556103 0 0.022951502200718541 -0.016627795512257813 0 0.0194876351773394 -0.020948236199762531 0 0.020837777517607813 -0.012328036421291232 0 0.020612591593362165 -0.013519256467528202 0 0.019413983665935185 -0.013419923480351037 0 0.018511399269704232 -0.020406978855419929 0 0.018715478485807464 -0.022405075725224634 0 0.020612591593362165 -0.013519256467528202 0 0.019413983665935185 -0.013419923480351037 0 0.020556527276509265 -0.014740331898228197 0 0.016078808678101724 -0.028371023482096587 0 0.015657004878831 -0.029805675330493903 0 0.014048763411172839 -0.029089005115589359 0 0.018387631177143073 -0.019772519272097708 0 0.020449580213322726 -0.022314338297462807 0 0.013954810734428716 -0.020938275076729608 0 0.018793523097856212 -0.020481368073882629 0 0.018511399269704232 -0.020406978855419929 0 0.016078808678101724 -0.028371023482096587 0 0.015657004878831 -0.029805675330493903 0 0.017094711979736919 -0.030045316546068266 0 0.015657004878831 -0.029805675330493903 0 0.01560338690109952 -0.031517077302165394 0 0.014794311061595729 -0.031043043808595135 0 0.015657004878831 -0.029805675330493903 0 0.017094711979736919 -0.030045316546068266 0 0.01663652457895208 -0.031407567863459197 0 0.017859299135905671 -0.031921325219788806 0 0.017094711979736919 -0.030045316546068266 0 0.01663652457895208 -0.031407567863459197 0 0.016409988747040288 -0.032857703497491328 0 0.017859299135905671 -0.031921325219788806 0 0.01663652457895208 -0.031407567863459197 0 0.01475216272211978 -0.03283661254313202 0 0.016409988747040288 -0.032857703497491328 0 0.01560338690109952 -0.031517077302165394 0 0.015657004878831 -0.029805675330493903 0 0.01663652457895208 -0.031407567863459197 0 0.01560338690109952 -0.031517077302165394 0 0.016409988747040288 -0.032857703497491328 0 0.01663652457895208 -0.031407567863459197 0 0.01560338690109952 -0.031517077302165394 0 0.01475216272211978 -0.03283661254313202 0 0.01560338690109952 -0.031517077302165394 0 0.014794311061595729 -0.031043043808595135 0 0.01475216272211978 -0.03283661254313202 0 0.013483687899022203 -0.03175475932076488 0 0.014794311061595729 -0.031043043808595135 0 0.013483687899022203 -0.03175475932076488 0 0.014794311061595729 -0.031043043808595135 0 0.014048763411172839 -0.029089005115589359 0 0.015657004878831 -0.029805675330493903 0 0.014794311061595729 -0.031043043808595135 0 0.014048763411172839 -0.029089005115589359 0 0.013483687899022203 -0.03175475932076488 0 0.014048763411172839 -0.029089005115589359 0 0.01167314585895614 -0.029364150300017138 0 0.025604691942151328 -0.035315419282156139 0 0.023780111217792756 -0.03585098544345796 0 0.024058760960545541 -0.034238687790464538 0 0.013483687899022203 -0.03175475932076488 0 0.01167314585895614 -0.029364150300017138 0 0.011941123384973419 -0.032870510766870691 0 0.018742590069152781 -0.032199795444140984 0 0.017650684936843734 -0.035451715608478117 0 0.013970938718371444 -0.034119580129727711 0 0.013483687899022203 -0.03175475932076488 0 0.011941123384973419 -0.032870510766870691 0 0.023278375738569942 -0.038276173264473558 0 0.020589131965656239 -0.037938753759083212 0 0.022219004436465344 -0.035479955777514241 0 0.020589131965656239 -0.037938753759083212 0 0.020459834497605672 -0.035436405075652641 0 0.022219004436465344 -0.035479955777514241 0 0.020589131965656239 -0.037938753759083212 0 0.020459834497605672 -0.035436405075652641 0 0.019460390456094923 -0.03659005215901897 0 0.020459834497605672 -0.035436405075652641 0 0.022219004436465344 -0.035479955777514241 0 0.02133219327963904 -0.033314840769318996 0 0.023278375738569942 -0.038276173264473558 0 0.023780111217792756 -0.03585098544345796 0 0.022219004436465344 -0.035479955777514241 0 0.025604691942151328 -0.035315419282156139 0 0.023278375738569942 -0.038276173264473558 0 0.023780111217792756 -0.03585098544345796 0 0.023780111217792756 -0.03585098544345796 0 0.022219004436465344 -0.035479955777514241 0 0.024058760960545541 -0.034238687790464538 0 0.024058760960545541 -0.034238687790464538 0 0.022823293261335718 -0.033537945202145703 0 0.024372320146735325 -0.032785254875967514 0 0.022219004436465344 -0.035479955777514241 0 0.024058760960545541 -0.034238687790464538 0 0.022823293261335718 -0.033537945202145703 0 0.022823293261335718 -0.033537945202145703 0 0.02133219327963904 -0.033314840769318996 0 0.023283742380276917 -0.031913890233077627 0 0.022823293261335718 -0.033537945202145703 0 0.024372320146735325 -0.032785254875967514 0 0.023283742380276917 -0.031913890233077627 0 0.024372320146735325 -0.032785254875967514 0 0.023283742380276917 -0.031913890233077627 0 0.02465737936021346 -0.031598627634792119 0 0.022219004436465344 -0.035479955777514241 0 0.022823293261335718 -0.033537945202145703 0 0.02133219327963904 -0.033314840769318996 0 0.021703853350143597 -0.031088521190652509 0 0.022909307902225774 -0.030095106068045319 0 0.021303575549222235 -0.028022231027051637 0 0.021703853350143597 -0.031088521190652509 0 0.01966858930445383 -0.031483203946990307 0 0.021303575549222235 -0.028022231027051637 0 0.020244955890434624 -0.033239656658032718 0 0.029019689466357201 -0.021969111769042721 0 0.02133219327963904 -0.033314840769318996 0 0.021703853350143597 -0.031088521190652509 0 0.01966858930445383 -0.031483203946990307 0 0.02133219327963904 -0.033314840769318996 0 0.021703853350143597 -0.031088521190652509 0 0.023283742380276917 -0.031913890233077627 0 0.023283742380276917 -0.031913890233077627 0 0.024165132128291373 -0.030415943766101964 0 0.02465737936021346 -0.031598627634792119 0 0.021703853350143597 -0.031088521190652509 0 0.023283742380276917 -0.031913890233077627 0 0.022909307902225774 -0.030095106068045319 0 0.023283742380276917 -0.031913890233077627 0 0.022909307902225774 -0.030095106068045319 0 0.024165132128291373 -0.030415943766101964 0 0.022909307902225774 -0.030095106068045319 0 0.024165132128291373 -0.030415943766101964 0 0.023598428141181765 -0.02904016312604956 0 0.024165132128291373 -0.030415943766101964 0 0.025670484967466184 -0.030711317428414934 0 0.024803918615533632 -0.029165674280656927 0 0.025670484967466184 -0.030711317428414934 0 0.026293400524673809 -0.029380199449339377 0 0.024803918615533632 -0.029165674280656927 0 0.025670484967466184 -0.030711317428414934 0 0.02465737936021346 -0.031598627634792119 0 0.025372623489833452 -0.032155066361725652 0 0.024165132128291373 -0.030415943766101964 0 0.025670484967466184 -0.030711317428414934 0 0.02465737936021346 -0.031598627634792119 0 0.025670484967466184 -0.030711317428414934 0 0.026341301971518842 -0.031862096264069523 0 0.027308299984710495 -0.030722622371988081 0 0.025670484967466184 -0.030711317428414934 0 0.026341301971518842 -0.031862096264069523 0 0.025372623489833452 -0.032155066361725652 0 0.025670484967466184 -0.030711317428414934 0 0.027308299984710495 -0.030722622371988081 0 0.026293400524673809 -0.029380199449339377 0 0.027195741565984397 -0.024519156149859098 0 0.020703909121945519 -0.025923726375547192 0 0.017615651348935234 -0.01433327857834229 0 0.018387631177143073 -0.019772519272097708 0 0.013954810734428716 -0.020938275076729608 0 0.030036573125693581 -0.028066661155344209 0 0.027308299984710495 -0.030722622371988081 0 0.027880176055939156 -0.031814147663739779 0 0.027195741565984397 -0.024519156149859098 0 0.027828453436084789 -0.031166662626648925 0 0.026341301971518842 -0.031862096264069523 0 0.027308299984710495 -0.030722622371988081 0 0.027880176055939156 -0.031814147663739779 0 0.020449580213322726 -0.022314338297462807 0 0.014048763411172839 -0.029089005115589359 0 0.013954810734428716 -0.020938275076729608 0 0.018511399269704232 -0.020406978855419929 0 0.013579394185305802 -0.030529170688316631 0 0.014048763411172839 -0.029089005115589359 0 0.01167314585895614 -0.029364150300017138 0 0.013954810734428716 -0.020938275076729608 0 0.018742590069152781 -0.032199795444140984 0 0.020703909121945519 -0.025923726375547192 0 0.025604691942151328 -0.035315419282156139 0 0.027880176055939156 -0.031814147663739779 0 0.025604037104365707 -0.033037190193096574 0 0.025604691942151328 -0.035315419282156139 0 0.024058760960545541 -0.034238687790464538 0 0.025604037104365707 -0.033037190193096574 0 0.024058760960545541 -0.034238687790464538 0 0.024372320146735325 -0.032785254875967514 0 0.025604037104365707 -0.033037190193096574 0 0.024372320146735325 -0.032785254875967514 0 0.025604037104365707 -0.033037190193096574 0 0.025372623489833452 -0.032155066361725652 0 0.024372320146735325 -0.032785254875967514 0 0.02465737936021346 -0.031598627634792119 0 0.025372623489833452 -0.032155066361725652 0 0.026341301971518842 -0.031862096264069523 0 0.027880176055939156 -0.031814147663739779 0 0.025604037104365707 -0.033037190193096574 0 0.026341301971518842 -0.031862096264069523 0 0.025604037104365707 -0.033037190193096574 0 0.025372623489833452 -0.032155066361725652 0 0.027604843029803126 -0.029256032052867115 0 0.024559951148427819 -0.025898905360649219 0 0.015041921090215706 -0.036496092000640426 0 0.016170813698951722 -0.03647766880740904 0 0.016085737405002631 -0.038065491534998754 0 0.015041921090215706 -0.036496092000640426 0 0.016170813698951722 -0.03647766880740904 0 0.016370440032345838 -0.035165079336342074 0 0.016170813698951722 -0.03647766880740904 0 0.017268505758689382 -0.035880410966379443 0 0.016370440032345838 -0.035165079336342074 0 0.016170813698951722 -0.03647766880740904 0 0.016085737405002631 -0.038065491534998754 0 0.017035859412548735 -0.036900762197260309 0 0.017143598934465282 -0.038453454477974554 0 0.016085737405002631 -0.038065491534998754 0 0.01757988152329348 -0.037730067156042955 0 0.016085737405002631 -0.038065491534998754 0 0.01757988152329348 -0.037730067156042955 0 0.017035859412548735 -0.036900762197260309 0 0.017952281028248439 -0.038468179936322712 0 0.017143598934465282 -0.038453454477974554 0 0.01757988152329348 -0.037730067156042955 0 0.01757988152329348 -0.037730067156042955 0 0.017754111760634215 -0.036906566916530062 0 0.017035859412548735 -0.036900762197260309 0 0.017754111760634215 -0.036906566916530062 0 0.017035859412548735 -0.036900762197260309 0 0.017268505758689382 -0.035880410966379443 0 0.016170813698951722 -0.03647766880740904 0 0.017035859412548735 -0.036900762197260309 0 0.017268505758689382 -0.035880410966379443 0 0.017754111760634215 -0.036906566916530062 0 0.017268505758689382 -0.035880410966379443 0 0.018402049334373959 -0.035917799446229644 0 0.018402049334373959 -0.035917799446229644 0 0.018267360223149755 -0.037556484908794423 0 0.020490961325854436 -0.035390409966977225 0 0.018308140520346058 -0.037416261561325263 0 0.019718608460326064 -0.034755540994393049 0 0.017754111760634215 -0.036906566916530062 0 0.018402049334373959 -0.035917799446229644 0 0.018267360223149755 -0.037556484908794423 0 0.018267360223149755 -0.037556484908794423 0 0.01854666656912678 -0.037723216729565037 0 0.018455548273712614 -0.034889252960595245 0 0.01757988152329348 -0.037730067156042955 0 0.017754111760634215 -0.036906566916530062 0 0.018267360223149755 -0.037556484908794423 0 0.017928168048208157 -0.038921158573102348 0 0.018539043881000451 -0.037909780993770827 0 0.017952281028248439 -0.038468179936322712 0 0.018267360223149755 -0.037556484908794423 0 0.01854666656912678 -0.037723216729565037 0 0.017952281028248439 -0.038468179936322712 0 0.01757988152329348 -0.037730067156042955 0 0.018267360223149755 -0.037556484908794423 0 0.01861173487742622 -0.039267889031935968 0 0.017744703284320634 -0.039579524607333903 0 0.01854666656912678 -0.037723216729565037 0 0.019299968740464281 -0.039751516372600222 0 0.020589131965656239 -0.037938753759083212 0 0.019286234647891736 -0.03828223996106881 0 0.01854666656912678 -0.037723216729565037 0 0.019286234647891736 -0.03828223996106881 0 0.019460390456094923 -0.03659005215901897 0 0.01861173487742622 -0.039267889031935968 0 0.01854666656912678 -0.037723216729565037 0 0.019286234647891736 -0.03828223996106881 0 0.020589131965656239 -0.037938753759083212 0 0.019286234647891736 -0.03828223996106881 0 0.019460390456094923 -0.03659005215901897 0 0.01854666656912678 -0.037723216729565037 0 0.019460390456094923 -0.03659005215901897 0 0.018455548273712614 -0.034889252960595245 0 0.020459834497605672 -0.035436405075652641 0 0.019460390456094923 -0.03659005215901897 0 0.018455548273712614 -0.034889252960595245 0 0.019718608460326064 -0.034755540994393049 0 0.020244955890434624 -0.033239656658032718 0 0.020459834497605672 -0.035436405075652641 0 0.02133219327963904 -0.033314840769318996 0 0.018455548273712614 -0.034889252960595245 0 0.02133219327963904 -0.033314840769318996 0 0.018455548273712614 -0.034889252960595245 0 0.01966858930445383 -0.031483203946990307 0 0.020490961325854436 -0.035390409966977225 0 0.020424599933944999 -0.033238689824593041 0 0.022773197063665172 -0.032278725267541546 0 0.022773197063665172 -0.032278725267541546 0 0.021205451452140107 -0.030799550344765197 0 0.025183277584392132 -0.028124362217584492 0 0.020424599933944999 -0.033238689824593041 0 0.022773197063665172 -0.032278725267541546 0 0.021205451452140107 -0.030799550344765197 0 0.034789466330769354 -0.015372080652694957 0 0.03358899919609161 -0.015415753360247624 0 0.033440981531649719 -0.016703778385409058 0 0.028373759482322802 -0.022875669014547885 0 0.025839202296544111 -0.025019524200084471 0 0.020424599933944999 -0.033238689824593041 0 0.021205451452140107 -0.030799550344765197 0 0.018232750306451682 -0.033257817468332278 0 0.018402049334373959 -0.035917799446229644 0 0.020490961325854436 -0.035390409966977225 0 0.018232750306451682 -0.033257817468332278 0 0.020490961325854436 -0.035390409966977225 0 0.020424599933944999 -0.033238689824593041 0 0.018232750306451682 -0.033257817468332278 0 0.033440981531649719 -0.016703778385409058 0 0.033080649976422911 -0.016701697014268074 0 0.03325018167815548 -0.017207048495282404 0 0.017268505758689382 -0.035880410966379443 0 0.018402049334373959 -0.035917799446229644 0 0.018232750306451682 -0.033257817468332278 0 0.017268505758689382 -0.035880410966379443 0 0.018232750306451682 -0.033257817468332278 0 0.016370440032345838 -0.035165079336342074 0 0.025839202296544111 -0.025019524200084471 0 0.024559951148427819 -0.025898905360649219 0 0.03358899919609161 -0.015415753360247624 0 0.033440981531649719 -0.016703778385409058 0 0.033080649976422911 -0.016701697014268074 0 0.03358899919609161 -0.015415753360247624 0 0.033080649976422911 -0.016701697014268074 0 0.032160377602382204 -0.015283127328421693 0 0.035328615122324054 -0.018935980566256151 0 0.033803394212222712 -0.017665875307911121 0 0.034209262748559156 -0.01924428008181114 0 0.033719760959532302 -0.017475277954250065 0 0.033332738568132451 -0.017033867570748429 0 0.033080649976422911 -0.016701697014268074 0 0.033803394212222712 -0.017665875307911121 0 0.032160377602382204 -0.015283127328421693 0 0.034694911487902401 -0.017538830954512939 0 0.033803394212222712 -0.017665875307911121 0 0.03325018167815548 -0.017207048495282404 0 0.033080649976422911 -0.016701697014268074 0 0.033803394212222712 -0.017665875307911121 0 0.03325018167815548 -0.017207048495282404 0 0.034897784181227381 -0.016204813047804113 0 0.034694911487902401 -0.017538830954512939 0 0.03325018167815548 -0.017207048495282404 0 0.035449853097864067 -0.020147754382394766 0 0.034209262748559156 -0.01924428008181114 0 0.0347560010723666 -0.020494091991537795 0 0.035678679991725352 -0.019505851784701767 0 0.035449853097864067 -0.020147754382394766 0 0.034209262748559156 -0.01924428008181114 0 0.03358899919609161 -0.015415753360247624 0 0.032160377602382204 -0.015283127328421693 0 0.033421037624432701 -0.013676517897293732 0 0.033332738568132451 -0.017033867570748429 0 0.032897138787011032 -0.016767366650102564 0 0.034209262748559156 -0.01924428008181114 0 0.034039664069314482 -0.020273641857596642 0 0.0347560010723666 -0.020494091991537795 0 0.032160377602382204 -0.015283127328421693 0 0.032185109124637262 -0.012339044298119989 0 0.033421037624432701 -0.013676517897293732 0 0.032185109124637262 -0.012339044298119989 0 0.033609624288386326 -0.012128201634517933 0 0.033421037624432701 -0.013676517897293732 0 0.033609624288386326 -0.012128201634517933 0 0.034367058833310406 -0.012744045886871674 0 0.034348550601338103 -0.011359414238999594 0 0.033421037624432701 -0.013676517897293732 0 0.034267918110467345 -0.014129183667700537 0 0.034367058833310406 -0.012744045886871674 0 0.033609624288386326 -0.012128201634517933 0 0.033421037624432701 -0.013676517897293732 0 0.034367058833310406 -0.012744045886871674 0 0.03358899919609161 -0.015415753360247624 0 0.033421037624432701 -0.013676517897293732 0 0.034267918110467345 -0.014129183667700537 0 0.034789466330769354 -0.015372080652694957 0 0.03358899919609161 -0.015415753360247624 0 0.034267918110467345 -0.014129183667700537 0 0.034789466330769354 -0.015372080652694957 0 0.035206788504471856 -0.013318353113788981 0 0.036426372600556492 -0.013809189886483027 0 0.034789466330769354 -0.015372080652694957 0 0.034267918110467345 -0.014129183667700537 0 0.035206788504471856 -0.013318353113788981 0 0.028373759482322802 -0.022875669014547885 0 0.029019689466357201 -0.021969111769042721 0 0.035206788504471856 -0.013318353113788981 0 0.034367058833310406 -0.012744045886871674 0 0.035028889343710248 -0.011743392482781776 0 0.034267918110467345 -0.014129183667700537 0 0.035206788504471856 -0.013318353113788981 0 0.034367058833310406 -0.012744045886871674 0 0.034367058833310406 -0.012744045886871674 0 0.035028889343710248 -0.011743392482781776 0 0.034348550601338103 -0.011359414238999594 0 0.035206788504471856 -0.013318353113788981 0 0.035028889343710248 -0.011743392482781776 0 0.035932203798080105 -0.012008345761192127 0 0.035028889343710248 -0.011743392482781776 0 0.034348550601338103 -0.011359414238999594 0 0.03509692114851394 -0.010507786501900485 0 0.035028889343710248 -0.011743392482781776 0 0.03509692114851394 -0.010507786501900485 0 0.035547519076202773 -0.011160392445758343 0 0.034348550601338103 -0.011359414238999594 0 0.034393630863249335 -0.010265754923114613 0 0.03509692114851394 -0.010507786501900485 0 0.03509692114851394 -0.010507786501900485 0 0.035097667235380818 -0.0089766688181072175 0 0.035787954066226965 -0.010218378239412292 0 0.034393630863249335 -0.010265754923114613 0 0.03509692114851394 -0.010507786501900485 0 0.035097667235380818 -0.0089766688181072175 0 0.035097667235380818 -0.0089766688181072175 0 0.034010177648716541 -0.00883320152474815 0 0.034852939737641982 -0.0081853146432994614 0 0.035097667235380818 -0.0089766688181072175 0 0.034143424289578464 -0.0095693077161514793 0 0.034010177648716541 -0.00883320152474815 0 0.034393630863249335 -0.010265754923114613 0 0.035097667235380818 -0.0089766688181072175 0 0.034143424289578464 -0.0095693077161514793 0 0.034143424289578464 -0.0095693077161514793 0 0.033266485810632185 -0.0097227227633620312 0 0.033865534932418076 -0.010137712574668809 0 0.035773416107989973 -0.0074185719809912289 0 0.035764435315539321 -0.0073393220921546742 0 0.035770212625729617 -0.007273422816506071 0 0.034010177648716541 -0.00883320152474815 0 0.033057413410183346 -0.0094824972951217962 0 0.034225762041762448 -0.0079548731129763829 0 0.034143424289578464 -0.0095693077161514793 0 0.034010177648716541 -0.00883320152474815 0 0.033266485810632185 -0.0097227227633620312 0 0.034616467643142357 -0.013262368471850181 0 0.03526120623179798 -0.0068929005579078063 0 0.034010177648716541 -0.00883320152474815 0 0.033057413410183346 -0.0094824972951217962 0 0.033266485810632185 -0.0097227227633620312 0 0.034616467643142357 -0.013262368471850181 0 0.03395156151343947 -0.012449833931801043 0 0.032185109124637262 -0.012339044298119989 0 0.032997517628175294 -0.0094819255020670949 0 0.033266485810632185 -0.0097227227633620312 0 0.032185109124637262 -0.012339044298119989 0 0.033266485810632185 -0.0097227227633620312 0 0.033604728066972386 -0.010969798304901095 0 0.033266485810632185 -0.0097227227633620312 0 0.033865534932418076 -0.010137712574668809 0 0.033604728066972386 -0.010969798304901095 0 0.034393630863249335 -0.010265754923114613 0 0.033865534932418076 -0.010137712574668809 0 0.033604728066972386 -0.010969798304901095 0 0.034393630863249335 -0.010265754923114613 0 0.034143424289578464 -0.0095693077161514793 0 0.033865534932418076 -0.010137712574668809 0 0.033609624288386326 -0.012128201634517933 0 0.034348550601338103 -0.011359414238999594 0 0.033604728066972386 -0.010969798304901095 0 0.034348550601338103 -0.011359414238999594 0 0.034393630863249335 -0.010265754923114613 0 0.033604728066972386 -0.010969798304901095 0 0.032185109124637262 -0.012339044298119989 0 0.033609624288386326 -0.012128201634517933 0 0.033604728066972386 -0.010969798304901095 0 0.034039664069314482 -0.020273641857596642 0 0.034357301785657358 -0.021408609521057147 0 0.034763491544644157 -0.02114619893959559 0 0.034039664069314482 -0.020273641857596642 0 0.033595204463110047 -0.021362991394890035 0 0.034357301785657358 -0.021408609521057147 0 0.032897138787011032 -0.016767366650102564 0 0.034616467643142357 -0.013262368471850181 0 0.033595204463110047 -0.021362991394890035 0 0.034357301785657358 -0.021408609521057147 0 0.034806477354813126 -0.02241594487343512 0 0.034616467643142357 -0.013262368471850181 0 0.034955298246976352 -0.016058014159067761 0 0.034357301785657358 -0.021408609521057147 0 0.034865294296790632 -0.021774050818019856 0 0.034806477354813126 -0.02241594487343512 0 0.034357301785657358 -0.021408609521057147 0 0.034865294296790632 -0.021774050818019856 0 0.034763491544644157 -0.02114619893959559 0 0.034865294296790632 -0.021774050818019856 0 0.035388350236945504 -0.021606640343049811 0 0.035192904069175156 -0.022175899230473403 0 0.034865294296790632 -0.021774050818019856 0 0.035388350236945504 -0.021606640343049811 0 0.034763491544644157 -0.02114619893959559 0 0.035493408050507234 -0.02091800280581211 0 0.035388350236945504 -0.021606640343049811 0 0.034763491544644157 -0.02114619893959559 0 0.034039664069314482 -0.020273641857596642 0 0.034763491544644157 -0.02114619893959559 0 0.0347560010723666 -0.020494091991537795 0 0.035493408050507234 -0.02091800280581211 0 0.034763491544644157 -0.02114619893959559 0 0.0347560010723666 -0.020494091991537795 0 0.035449853097864067 -0.020147754382394766 0 0.035493408050507234 -0.02091800280581211 0 0.0347560010723666 -0.020494091991537795 0 0.026878426024077827 -0.026189825367231689 0 0.025494933925493818 -0.027279304807823344 0 0.023969597420500966 -0.026200007348754856 0 0.026878426024077827 -0.026189825367231689 0 0.023969597420500966 -0.026200007348754856 0 0.026581555402422949 -0.024487688829309791 0 0.036919021917666502 -0.014418128480084964 0 0.03759848206371081 -0.012098243748583121 0 0.039900802636814614 -0.012154050027893482 0 0.030120781364033729 -0.020446148744199002 0 0.033346907146689739 -0.01869312271951825 0 0.029161019230408258 -0.025478545630242894 0 0.026878426024077827 -0.026189825367231689 0 0.027304477815437142 -0.027910742134123985 0 0.029161019230408258 -0.025478545630242894 0 0.026878426024077827 -0.026189825367231689 0 0.026581555402422949 -0.024487688829309791 0 0.029781757637404857 -0.028104180351960755 0 0.029161019230408258 -0.025478545630242894 0 0.027304477815437142 -0.027910742134123985 0 0.027308299984710495 -0.030722622371988081 0 0.027304477815437142 -0.027910742134123985 0 0.026293400524673809 -0.029380199449339377 0 0.029781757637404857 -0.028104180351960755 0 0.027308299984710495 -0.030722622371988081 0 0.027304477815437142 -0.027910742134123985 0 0.027304477815437142 -0.027910742134123985 0 0.026293400524673809 -0.029380199449339377 0 0.025811922059419963 -0.028455453567842126 0 0.026878426024077827 -0.026189825367231689 0 0.027304477815437142 -0.027910742134123985 0 0.025494933925493818 -0.027279304807823344 0 0.027304477815437142 -0.027910742134123985 0 0.025811922059419963 -0.028455453567842126 0 0.025494933925493818 -0.027279304807823344 0 0.025811922059419963 -0.028455453567842126 0 0.025494933925493818 -0.027279304807823344 0 0.024048283066176731 -0.027808823225748579 0 0.025811922059419963 -0.028455453567842126 0 0.024803918615533632 -0.029165674280656927 0 0.024048283066176731 -0.027808823225748579 0 0.026293400524673809 -0.029380199449339377 0 0.025811922059419963 -0.028455453567842126 0 0.024803918615533632 -0.029165674280656927 0 0.029019689466357201 -0.021969111769042721 0 0.030120781364033729 -0.020446148744199002 0 0.024165132128291373 -0.030415943766101964 0 0.024803918615533632 -0.029165674280656927 0 0.023598428141181765 -0.02904016312604956 0 0.024048283066176731 -0.027808823225748579 0 0.021303575549222235 -0.028022231027051637 0 0.023969597420500966 -0.026200007348754856 0 0.024803918615533632 -0.029165674280656927 0 0.023598428141181765 -0.02904016312604956 0 0.024048283066176731 -0.027808823225748579 0 0.023598428141181765 -0.02904016312604956 0 0.024048283066176731 -0.027808823225748579 0 0.021303575549222235 -0.028022231027051637 0 0.022909307902225774 -0.030095106068045319 0 0.023598428141181765 -0.02904016312604956 0 0.021303575549222235 -0.028022231027051637 0 0.025494933925493818 -0.027279304807823344 0 0.024048283066176731 -0.027808823225748579 0 0.023969597420500966 -0.026200007348754856 0 0.035206788504471856 -0.013318353113788981 0 0.036426372600556492 -0.013809189886483027 0 0.035932203798080105 -0.012008345761192127 0 0.029019689466357201 -0.021969111769042721 0 0.037129308633451777 -0.010988206111706755 0 0.036426372600556492 -0.013809189886483027 0 0.035932203798080105 -0.012008345761192127 0 0.037070356985802397 -0.011757272824064444 0 0.035932203798080105 -0.012008345761192127 0 0.037070356985802397 -0.011757272824064444 0 0.0362689868822655 -0.011151418068348582 0 0.035932203798080105 -0.012008345761192127 0 0.035547519076202773 -0.011160392445758343 0 0.0362689868822655 -0.011151418068348582 0 0.035028889343710248 -0.011743392482781776 0 0.035932203798080105 -0.012008345761192127 0 0.035547519076202773 -0.011160392445758343 0 0.033125526023881316 -0.016929382820878733 0 0.036919021917666502 -0.014418128480084964 0 0.03536207402988107 -0.013059728065617872 0 0.036919021917666502 -0.014418128480084964 0 0.03536207402988107 -0.013059728065617872 0 0.03759848206371081 -0.012098243748583121 0 0.03536207402988107 -0.013059728065617872 0 0.03759848206371081 -0.012098243748583121 0 0.037581413784618573 -0.0099039093012865224 0 0.037129308633451777 -0.010988206111706755 0 0.037120064045017366 -0.010727504833625086 0 0.037070356985802397 -0.011757272824064444 0 0.036555902187325226 -0.010459735800312309 0 0.037581413784618573 -0.0099039093012865224 0 0.037070356985802397 -0.011757272824064444 0 0.036555902187325226 -0.010459735800312309 0 0.0362689868822655 -0.011151418068348582 0 0.036555902187325226 -0.010459735800312309 0 0.037581413784618573 -0.0099039093012865224 0 0.03601159765951948 -0.0092218877685336792 0 0.03509692114851394 -0.010507786501900485 0 0.035547519076202773 -0.011160392445758343 0 0.035787954066226965 -0.010218378239412292 0 0.035547519076202773 -0.011160392445758343 0 0.0362689868822655 -0.011151418068348582 0 0.035787954066226965 -0.010218378239412292 0 0.036555902187325226 -0.010459735800312309 0 0.0362689868822655 -0.011151418068348582 0 0.035787954066226965 -0.010218378239412292 0 0.036555902187325226 -0.010459735800312309 0 0.035787954066226965 -0.010218378239412292 0 0.03601159765951948 -0.0092218877685336792 0 0.035097667235380818 -0.0089766688181072175 0 0.03601159765951948 -0.0092218877685336792 0 0.035790936596381467 -0.0074592335358004656 0 0.035097667235380818 -0.0089766688181072175 0 0.035790936596381467 -0.0074592335358004656 0 0.035441087858039469 -0.0075572683006104547 0 0.035097667235380818 -0.0089766688181072175 0 0.035787954066226965 -0.010218378239412292 0 0.03601159765951948 -0.0092218877685336792 0 0.037581413784618573 -0.0099039093012865224 0 0.035790936596381467 -0.0074592335358004656 0 0.039160505084252215 -0.0088482631039648631 0 0.035554998664169953 -0.0073267600175044483 0 0.036959188379641537 -0.0071456440775198452 0 0.037581413784618573 -0.0099039093012865224 0 0.03601159765951948 -0.0092218877685336792 0 0.035790936596381467 -0.0074592335358004656 0 0.033406047633990833 -0.0055862543307183422 0 0.031883875027239258 -0.0060698971672367786 0 0.033695953912831603 -0.0070499053325170742 0 0.035790936596381467 -0.0074592335358004656 0 0.033406047633990833 -0.0055862543307183422 0 0.033695953912831603 -0.0070499053325170742 0 0.03759848206371081 -0.012098243748583121 0 0.037581413784618573 -0.0099039093012865224 0 0.039256532251051628 -0.010594574319896412 0 0.037581413784618573 -0.0099039093012865224 0 0.039160505084252215 -0.0088482631039648631 0 0.039256532251051628 -0.010594574319896412 0 0.03759848206371081 -0.012098243748583121 0 0.039256532251051628 -0.010594574319896412 0 0.039900802636814614 -0.012154050027893482 0 0.029161019230408258 -0.025478545630242894 0 0.026581555402422949 -0.024487688829309791 0 0.029010540213073234 -0.022927838939974229 0 0.039160505084252215 -0.0088482631039648631 0 0.039256532251051628 -0.010594574319896412 0 0.042462800592397341 -0.010378323617973417 0 0.033346907146689739 -0.01869312271951825 0 0.032652661796556536 -0.010357627769643392 0 0.039256532251051628 -0.010594574319896412 0 0.039900802636814614 -0.012154050027893482 0 0.042462800592397341 -0.010378323617973417 0 0.036959188379641537 -0.0071456440775198452 0 0.032652661796556536 -0.010357627769643392 0 0.033406047633990833 -0.0055862543307183422 0 0.03125757293618657 -0.0047002244118839057 0 0.031883875027239258 -0.0060698971672367786 0 0.031883875027239258 -0.0060698971672367786 0 0.031653735807835121 -0.0072517070832303094 0 0.033695953912831603 -0.0070499053325170742 0 0.031653735807835121 -0.0072517070832303094 0 0.033738119543424851 -0.0076967928082691713 0 0.031699882849546328 -0.007923115391909416 0 0.031653735807835121 -0.0072517070832303094 0 0.033738119543424851 -0.0076967928082691713 0 0.033695953912831603 -0.0070499053325170742 0 0.033738119543424851 -0.0076967928082691713 0 0.033695953912831603 -0.0070499053325170742 0 0.035194894169594794 -0.0074286740251992911 0 0.035790936596381467 -0.0074592335358004656 0 0.033695953912831603 -0.0070499053325170742 0 0.035194894169594794 -0.0074286740251992911 0 0.035790936596381467 -0.0074592335358004656 0 0.035441087858039469 -0.0075572683006104547 0 0.035194894169594794 -0.0074286740251992911 0 0.035441087858039469 -0.0075572683006104547 0 0.035595426775737057 -0.0073478584163950708 0 0.035194894169594794 -0.0074286740251992911 0 0.035595426775737057 -0.0073478584163950708 0 0.035194894169594794 -0.0074286740251992911 0 0.035579196449610113 -0.0075941883453709757 0 0.033738119543424851 -0.0076967928082691713 0 0.035194894169594794 -0.0074286740251992911 0 0.035579196449610113 -0.0075941883453709757 0 0.033821800774060065 -0.0075785626373204244 0 0.034597597766127891 -0.0073602139663242463 0 0.033699240981993568 -0.0072031284370187463 0 0.033428243584749315 -0.0073227186233200984 0 0.032699096284113362 -0.0079567473452508523 0 0.033738119543424851 -0.0076967928082691713 0 0.033699240981993568 -0.0072031284370187463 0 0.032699096284113362 -0.0079567473452508523 0 0.035595426775737057 -0.0073478584163950708 0 0.035579196449610113 -0.0075941883453709757 0 0.035917713551072962 -0.0071394232970398474 0 0.034597597766127891 -0.0073602139663242463 0 0.035217746114249888 -0.0063972500171205282 0 0.033699240981993568 -0.0072031284370187463 0 0.034024945081217332 -0.006106361218724079 0 0.033735260857603436 -0.0065242190101552772 0 0.033699240981993568 -0.0072031284370187463 0 0.033428243584749315 -0.0073227186233200984 0 0.033735260857603436 -0.0065242190101552772 0 0.032699096284113362 -0.0079567473452508523 0 0.031647898301925562 -0.0088308275855233202 0 0.03023237793386473 -0.0086590712593565735 0 0.032699096284113362 -0.0079567473452508523 0 0.031699882849546328 -0.007923115391909416 0 0.03023237793386473 -0.0086590712593565735 0 0.033738119543424851 -0.0076967928082691713 0 0.032699096284113362 -0.0079567473452508523 0 0.031699882849546328 -0.007923115391909416 0 0.035608479074557352 -0.0072009869350509129 0 0.035713227770251245 -0.0073856684735172633 0 0.035739134935900779 -0.0072471890398729142 0 0.035341444884163971 -0.0071955463976276206 0 0.035608479074557352 -0.0072009869350509129 0 0.035546402392467043 -0.00699010750208364 0 0.035341444884163971 -0.0071955463976276206 0 0.035608479074557352 -0.0072009869350509129 0 0.035713227770251245 -0.0073856684735172633 0 0.035479749858027911 -0.0225785249332222 0 0.035030807243585135 -0.022465538434787071 0 0.034806477354813126 -0.02241594487343512 0 0.03872150747532125 -0.0085033601092780204 0 0.034955298246976352 -0.016058014159067761 0 0.035608479074557352 -0.0072009869350509129 0 0.0357598159039259 -0.007077059538297896 0 0.035546402392467043 -0.00699010750208364 0 0.035608479074557352 -0.0072009869350509129 0 0.035739134935900779 -0.0072471890398729142 0 0.0357598159039259 -0.007077059538297896 0 0.03567492564344224 -0.02244816819908773 0 0.035030807243585135 -0.022465538434787071 0 0.035192904069175156 -0.022175899230473403 0 0.035030807243585135 -0.022465538434787071 0 0.035192904069175156 -0.022175899230473403 0 0.034806477354813126 -0.02241594487343512 0 0.034865294296790632 -0.021774050818019856 0 0.035192904069175156 -0.022175899230473403 0 0.034806477354813126 -0.02241594487343512 0 0.035713227770251245 -0.0073856684735172633 0 0.035771215531809272 -0.0072916617412936953 0 0.035739134935900779 -0.0072471890398729142 0 0.035773416107989973 -0.0074185719809912289 0 0.035713227770251245 -0.0073856684735172633 0 0.035764435315539321 -0.0073393220921546742 0 0.035713227770251245 -0.0073856684735172633 0 0.035764435315539321 -0.0073393220921546742 0 0.035771215531809272 -0.0072916617412936953 0 0.035764435315539321 -0.0073393220921546742 0 0.035771215531809272 -0.0072916617412936953 0 0.03577837234554377 -0.0072483305064929672 0 0.035771215531809272 -0.0072916617412936953 0 0.035835634334963923 -0.0072087699008080526 0 0.03577837234554377 -0.0072483305064929672 0 0.035835634334963923 -0.0072087699008080526 0 0.035964845546927554 -0.0070610285261389627 0 0.0357598159039259 -0.007077059538297896 0 0.035771215531809272 -0.0072916617412936953 0 0.035835634334963923 -0.0072087699008080526 0 0.035739134935900779 -0.0072471890398729142 0 0.035835634334963923 -0.0072087699008080526 0 0.035739134935900779 -0.0072471890398729142 0 0.0357598159039259 -0.007077059538297896 0 0.035835634334963923 -0.0072087699008080526 0 0.03554310282252203 -0.0071984375506322874 0 0.035964845546927554 -0.0070610285261389627 0 0.035835634334963923 -0.0072087699008080526 0 0.03577837234554377 -0.0072483305064929672 0 0.03554310282252203 -0.0071984375506322874 0 0.03577837234554377 -0.0072483305064929672 0 0.035770212625729617 -0.007273422816506071 0 0.03554310282252203 -0.0071984375506322874 0 0.03526120623179798 -0.0068929005579078063 0 0.035283972841872513 -0.0075593898561977782 0 0.035764435315539321 -0.0073393220921546742 0 0.03577837234554377 -0.0072483305064929672 0 0.035770212625729617 -0.007273422816506071 0 0.034010177648716541 -0.00883320152474815 0 0.034225762041762448 -0.0079548731129763829 0 0.034852939737641982 -0.0081853146432994614 0 0.034225762041762448 -0.0079548731129763829 0 0.034852939737641982 -0.0081853146432994614 0 0.03554310282252203 -0.0071984375506322874 0 0.035097667235380818 -0.0089766688181072175 0 0.035441087858039469 -0.0075572683006104547 0 0.034852939737641982 -0.0081853146432994614 0 0.035441087858039469 -0.0075572683006104547 0 0.034852939737641982 -0.0081853146432994614 0 0.03554310282252203 -0.0071984375506322874 0 0.035441087858039469 -0.0075572683006104547 0 0.035595426775737057 -0.0073478584163950708 0 0.03554310282252203 -0.0071984375506322874 0 0.035595426775737057 -0.0073478584163950708 0 0.03554310282252203 -0.0071984375506322874 0 0.035917713551072962 -0.0071394232970398474 0 0.035917713551072962 -0.0071394232970398474 0 0.036322570656184459 -0.0067117166021922999 0 0.036239407067380783 -0.0067236516471949745 0 0.035579196449610113 -0.0075941883453709757 0 0.035917713551072962 -0.0071394232970398474 0 0.036322570656184459 -0.0067117166021922999 0 0.036239407067380783 -0.0067236516471949745 0 0.035964845546927554 -0.0070610285261389627 0 0.036093147695103071 -0.0064516635377934511 0 0.035917713551072962 -0.0071394232970398474 0 0.036239407067380783 -0.0067236516471949745 0 0.035964845546927554 -0.0070610285261389627 0 0.03554310282252203 -0.0071984375506322874 0 0.035917713551072962 -0.0071394232970398474 0 0.035964845546927554 -0.0070610285261389627 0 0.0357598159039259 -0.007077059538297896 0 0.036093147695103071 -0.0064516635377934511 0 0.03566058600480717 -0.0067811843249569129 0 0.035964845546927554 -0.0070610285261389627 0 0.0357598159039259 -0.007077059538297896 0 0.036093147695103071 -0.0064516635377934511 0 0.035300309167454851 -0.0065568573063341821 0 0.036093147695103071 -0.0064516635377934511 0 0.03566058600480717 -0.0067811843249569129 0 0.035300309167454851 -0.0065568573063341821 0 0.036093147695103071 -0.0064516635377934511 0 0.035560454822366618 -0.0053706757304499714 0 0.035300309167454851 -0.0065568573063341821 0 0.03566058600480717 -0.0067811843249569129 0 0.035546402392467043 -0.00699010750208364 0 0.0357598159039259 -0.007077059538297896 0 0.03566058600480717 -0.0067811843249569129 0 0.035546402392467043 -0.00699010750208364 0 0.037504348360857476 -0.0029459761355210955 0 0.037544640310610347 -0.002874491250378352 0 0.04078824920262282 -0.0019338747261495022 0 0.039550249110389721 0.00022593407313237495 0 0.037572107778778868 -0.0029194468273968746 0 0.035560454822366618 -0.0053706757304499714 0 0.036772450715316068 -0.0046971020679041405 0 0.037572107778778868 -0.0029194468273968746 0 0.038173704683789209 -0.00082078076543622841 0 0.037504348360857476 -0.0029459761355210955 0 0.036093147695103071 -0.0064516635377934511 0 0.035560454822366618 -0.0053706757304499714 0 0.036772450715316068 -0.0046971020679041405 0 0.036093147695103071 -0.0064516635377934511 0 0.036772450715316068 -0.0046971020679041405 0 0.036944332542549328 -0.0053744818790105462 0 0.03609702062009925 -0.005037405899945703 0 0.037534324671224792 -0.0034418618330704248 0 0.035214103838749622 -0.0047723775372664852 0 0.036461415371625207 -0.0043127464866567792 0 0.03742905742228287 -0.0037749213365367356 0 0.036772450715316068 -0.0046971020679041405 0 0.036944332542549328 -0.0053744818790105462 0 0.037399802013292759 -0.0029838978434166556 0 0.036772450715316068 -0.0046971020679041405 0 0.037399802013292759 -0.0029838978434166556 0 0.037572107778778868 -0.0029194468273968746 0 0.035214103838749622 -0.0047723775372664852 0 0.035736242913936928 -0.0046991186875649299 0 0.036461415371625207 -0.0043127464866567792 0 0.035214103838749622 -0.0047723775372664852 0 0.034842847483048035 -0.0051519046835970649 0 0.035736242913936928 -0.0046991186875649299 0 0.035217746114249888 -0.0063972500171205282 0 0.03609702062009925 -0.005037405899945703 0 0.036322570656184459 -0.0067117166021922999 0 0.036239407067380783 -0.0067236516471949745 0 0.036944332542549328 -0.0053744818790105462 0 0.036239407067380783 -0.0067236516471949745 0 0.036093147695103071 -0.0064516635377934511 0 0.036944332542549328 -0.0053744818790105462 0 0.034024945081217332 -0.006106361218724079 0 0.035214103838749622 -0.0047723775372664852 0 0.034196163391581928 -0.0056648919694985986 0 0.034842847483048035 -0.0051519046835970649 0 0.034196163391581928 -0.0056648919694985986 0 0.034105014233235843 -0.0055294123879469099 0 0.035214103838749622 -0.0047723775372664852 0 0.034842847483048035 -0.0051519046835970649 0 0.034196163391581928 -0.0056648919694985986 0 0.034842847483048035 -0.0051519046835970649 0 0.034707993972145731 -0.0053252313385737556 0 0.034105014233235843 -0.0055294123879469099 0 0.034842847483048035 -0.0051519046835970649 0 0.035289926489089136 -0.005066185496956789 0 0.034707993972145731 -0.0053252313385737556 0 0.035289926489089136 -0.005066185496956789 0 0.034707993972145731 -0.0053252313385737556 0 0.035017055735732709 -0.0053578358666222237 0 0.034707993972145731 -0.0053252313385737556 0 0.035017055735732709 -0.0053578358666222237 0 0.034443305793980937 -0.005584361764573359 0 0.034925841142674927 -0.0055898392584695332 0 0.035017055735732709 -0.0053578358666222237 0 0.034443305793980937 -0.005584361764573359 0 0.034925841142674927 -0.0055898392584695332 0 0.034624708491137191 -0.0057263786645937566 0 0.034443305793980937 -0.005584361764573359 0 0.034925841142674927 -0.0055898392584695332 0 0.035313818240659087 -0.0056631496902729145 0 0.034873127142163937 -0.0058287857732559857 0 0.034925841142674927 -0.0055898392584695332 0 0.034624708491137191 -0.0057263786645937566 0 0.034873127142163937 -0.0058287857732559857 0 0.035313818240659087 -0.0056631496902729145 0 0.03531110693996499 -0.0054222406042604612 0 0.035788823638858096 -0.0053564081007899641 0 0.034925841142674927 -0.0055898392584695332 0 0.035313818240659087 -0.0056631496902729145 0 0.03531110693996499 -0.0054222406042604612 0 0.034925841142674927 -0.0055898392584695332 0 0.03531110693996499 -0.0054222406042604612 0 0.035017055735732709 -0.0053578358666222237 0 0.035289926489089136 -0.005066185496956789 0 0.035017055735732709 -0.0053578358666222237 0 0.035549958277028795 -0.0051786486323184399 0 0.03531110693996499 -0.0054222406042604612 0 0.035017055735732709 -0.0053578358666222237 0 0.035549958277028795 -0.0051786486323184399 0 0.035289926489089136 -0.005066185496956789 0 0.035549958277028795 -0.0051786486323184399 0 0.035938616789521406 -0.0048801837895299013 0 0.035966616166947581 -0.0050816716597218902 0 0.035549958277028795 -0.0051786486323184399 0 0.035938616789521406 -0.0048801837895299013 0 0.035966616166947581 -0.0050816716597218902 0 0.035549958277028795 -0.0051786486323184399 0 0.035788823638858096 -0.0053564081007899641 0 0.035788823638858096 -0.0053564081007899641 0 0.036468677446995328 -0.0053960631825603241 0 0.035799971654705484 -0.005673962275858562 0 0.03531110693996499 -0.0054222406042604612 0 0.035549958277028795 -0.0051786486323184399 0 0.035788823638858096 -0.0053564081007899641 0 0.035966616166947581 -0.0050816716597218902 0 0.035788823638858096 -0.0053564081007899641 0 0.036307548676134616 -0.0051236639300433259 0 0.035313818240659087 -0.0056631496902729145 0 0.035788823638858096 -0.0053564081007899641 0 0.035799971654705484 -0.005673962275858562 0 0.036831880180680732 -0.0049813467069093125 0 0.037232014544206549 -0.0051547008792231968 0 0.036468677446995328 -0.0053960631825603241 0 0.036307548676134616 -0.0051236639300433259 0 0.036831880180680732 -0.0049813467069093125 0 0.036468677446995328 -0.0053960631825603241 0 0.035788823638858096 -0.0053564081007899641 0 0.036307548676134616 -0.0051236639300433259 0 0.036468677446995328 -0.0053960631825603241 0 0.036307548676134616 -0.0051236639300433259 0 0.036464052775190881 -0.0048634676464080076 0 0.036831880180680732 -0.0049813467069093125 0 0.036464052775190881 -0.0048634676464080076 0 0.035938616789521406 -0.0048801837895299013 0 0.036768901367065565 -0.0044773642282222763 0 0.035966616166947581 -0.0050816716597218902 0 0.036307548676134616 -0.0051236639300433259 0 0.036464052775190881 -0.0048634676464080076 0 0.035966616166947581 -0.0050816716597218902 0 0.036464052775190881 -0.0048634676464080076 0 0.035938616789521406 -0.0048801837895299013 0 0.035938616789521406 -0.0048801837895299013 0 0.035736242913936928 -0.0046991186875649299 0 0.036768901367065565 -0.0044773642282222763 0 0.035289926489089136 -0.005066185496956789 0 0.035938616789521406 -0.0048801837895299013 0 0.035736242913936928 -0.0046991186875649299 0 0.034842847483048035 -0.0051519046835970649 0 0.035289926489089136 -0.005066185496956789 0 0.035736242913936928 -0.0046991186875649299 0 0.035736242913936928 -0.0046991186875649299 0 0.036461415371625207 -0.0043127464866567792 0 0.036768901367065565 -0.0044773642282222763 0 0.036461415371625207 -0.0043127464866567792 0 0.03742905742228287 -0.0037749213365367356 0 0.037034557910523201 -0.0041871557246356246 0 0.03742905742228287 -0.0037749213365367356 0 0.037507729792867261 -0.0042128565473470748 0 0.03865645044374736 -0.0041014525851917772 0 0.03742905742228287 -0.0037749213365367356 0 0.037507729792867261 -0.0042128565473470748 0 0.037034557910523201 -0.0041871557246356246 0 0.037507729792867261 -0.0042128565473470748 0 0.036768901367065565 -0.0044773642282222763 0 0.037316808964659699 -0.0044585390586357595 0 0.037507729792867261 -0.0042128565473470748 0 0.037034557910523201 -0.0041871557246356246 0 0.036768901367065565 -0.0044773642282222763 0 0.036461415371625207 -0.0043127464866567792 0 0.037034557910523201 -0.0041871557246356246 0 0.036768901367065565 -0.0044773642282222763 0 0.036464052775190881 -0.0048634676464080076 0 0.036768901367065565 -0.0044773642282222763 0 0.037079317817379623 -0.0046900321268851129 0 0.036768901367065565 -0.0044773642282222763 0 0.037316808964659699 -0.0044585390586357595 0 0.037079317817379623 -0.0046900321268851129 0 0.036464052775190881 -0.0048634676464080076 0 0.037079317817379623 -0.0046900321268851129 0 0.036831880180680732 -0.0049813467069093125 0 0.037079317817379623 -0.0046900321268851129 0 0.036831880180680732 -0.0049813467069093125 0 0.037564592124092827 -0.0048173809915029809 0 0.036831880180680732 -0.0049813467069093125 0 0.037564592124092827 -0.0048173809915029809 0 0.037232014544206549 -0.0051547008792231968 0 0.037564592124092827 -0.0048173809915029809 0 0.03834872931612595 -0.0049121144733466106 0 0.037232014544206549 -0.0051547008792231968 0 0.037564592124092827 -0.0048173809915029809 0 0.037936980172223592 -0.0044803626433951365 0 0.03834872931612595 -0.0049121144733466106 0 0.037507729792867261 -0.0042128565473470748 0 0.037936980172223592 -0.0044803626433951365 0 0.03865645044374736 -0.0041014525851917772 0 0.037079317817379623 -0.0046900321268851129 0 0.037564592124092827 -0.0048173809915029809 0 0.037936980172223592 -0.0044803626433951365 0 0.037507729792867261 -0.0042128565473470748 0 0.037316808964659699 -0.0044585390586357595 0 0.037936980172223592 -0.0044803626433951365 0 0.037316808964659699 -0.0044585390586357595 0 0.037079317817379623 -0.0046900321268851129 0 0.037936980172223592 -0.0044803626433951365 0 0.037936980172223592 -0.0044803626433951365 0 0.039454479331926882 -0.0044384659459534032 0 0.03834872931612595 -0.0049121144733466106 0 0.037936980172223592 -0.0044803626433951365 0 0.03865645044374736 -0.0041014525851917772 0 0.039454479331926882 -0.0044384659459534032 0 0.040809024534208892 -0.0036868024513763598 0 0.03865645044374736 -0.0041014525851917772 0 0.039454479331926882 -0.0044384659459534032 0 0.040809024534208892 -0.0036868024513763598 0 0.03742905742228287 -0.0037749213365367356 0 0.03865645044374736 -0.0041014525851917772 0 0.04078824920262282 -0.0019338747261495022 0 0.040809024534208892 -0.0036868024513763598 0 0.037572107778778868 -0.0029194468273968746 0 0.040809024534208892 -0.0036868024513763598 0 0.037399802013292759 -0.0029838978434166556 0 0.037572107778778868 -0.0029194468273968746 0 0.040445213946050065 -0.003852642388939839 0 0.037534324671224792 -0.0034418618330704248 0 0.033349964881313601 -0.0076161973352536529 0 0.033460065019623252 -0.0061030208840293374 0 0.03338879912338643 -0.0061738854699525123 0 0.033983136178211339 -0.0064469013375301554 0 0.033349964881313601 -0.0076161973352536529 0 0.03338879912338643 -0.0061738854699525123 0 0.03281237313540656 -0.0085587009398843429 0 0.033237460765363151 -0.0077672358850963295 0 0.031763381693416103 -0.010342514377280888 0 0.031647898301925562 -0.0088308275855233202 0 0.033349964881313601 -0.0076161973352536529 0 0.031763381693416103 -0.010342514377280888 0 0.031647898301925562 -0.0088308275855233202 0 0.030575210514083042 -0.010301853717498248 0 0.032699096284113362 -0.0079567473452508523 0 0.031647898301925562 -0.0088308275855233202 0 0.033349964881313601 -0.0076161973352536529 0 0.033428243584749315 -0.0073227186233200984 0 0.032699096284113362 -0.0079567473452508523 0 0.033349964881313601 -0.0076161973352536529 0 0.033428243584749315 -0.0073227186233200984 0 0.033349964881313601 -0.0076161973352536529 0 0.033735260857603436 -0.0065242190101552772 0 0.034024945081217332 -0.006106361218724079 0 0.033735260857603436 -0.0065242190101552772 0 0.034196163391581928 -0.0056648919694985986 0 0.034196163391581928 -0.0056648919694985986 0 0.033460065019623252 -0.0061030208840293374 0 0.034105014233235843 -0.0055294123879469099 0 0.033735260857603436 -0.0065242190101552772 0 0.034196163391581928 -0.0056648919694985986 0 0.033460065019623252 -0.0061030208840293374 0 0.033349964881313601 -0.0076161973352536529 0 0.033735260857603436 -0.0065242190101552772 0 0.033460065019623252 -0.0061030208840293374 0 0.033460065019623252 -0.0061030208840293374 0 0.033591092516606774 -0.0056644604416763297 0 0.034105014233235843 -0.0055294123879469099 0 0.033460065019623252 -0.0061030208840293374 0 0.033591092516606774 -0.0056644604416763297 0 0.033192201219821804 -0.0055250022611873463 0 0.033460065019623252 -0.0061030208840293374 0 0.033192201219821804 -0.0055250022611873463 0 0.03338879912338643 -0.0061738854699525123 0 0.033591092516606774 -0.0056644604416763297 0 0.034105014233235843 -0.0055294123879469099 0 0.033968760409352053 -0.0056865743584909954 0 0.034707993972145731 -0.0053252313385737556 0 0.034105014233235843 -0.0055294123879469099 0 0.034443305793980937 -0.005584361764573359 0 0.034105014233235843 -0.0055294123879469099 0 0.034443305793980937 -0.005584361764573359 0 0.033968760409352053 -0.0056865743584909954 0 0.034443305793980937 -0.005584361764573359 0 0.033968760409352053 -0.0056865743584909954 0 0.034084750831438408 -0.0058040064439325778 0 0.033968760409352053 -0.0056865743584909954 0 0.034084750831438408 -0.0058040064439325778 0 0.033703014760271349 -0.0058690994409580782 0 0.034084750831438408 -0.0058040064439325778 0 0.033703014760271349 -0.0058690994409580782 0 0.034068179600144535 -0.005995013311523383 0 0.034084750831438408 -0.0058040064439325778 0 0.034344763072749925 -0.005892038281138808 0 0.034068179600144535 -0.005995013311523383 0 0.034443305793980937 -0.005584361764573359 0 0.034084750831438408 -0.0058040064439325778 0 0.034344763072749925 -0.005892038281138808 0 0.034624708491137191 -0.0057263786645937566 0 0.034443305793980937 -0.005584361764573359 0 0.034344763072749925 -0.005892038281138808 0 0.033591092516606774 -0.0056644604416763297 0 0.033192201219821804 -0.0055250022611873463 0 0.033703014760271349 -0.0058690994409580782 0 0.033591092516606774 -0.0056644604416763297 0 0.033968760409352053 -0.0056865743584909954 0 0.033703014760271349 -0.0058690994409580782 0 0.033192201219821804 -0.0055250022611873463 0 0.032813469521320825 -0.0051158144641845578 0 0.03311574465573467 -0.0050026912729401333 0 0.03312790753765698 -0.0053670281872478564 0 0.033453718789420286 -0.0058621264933423041 0 0.032968243541418529 -0.0044589052705443282 0 0.031105015595172605 -0.0034757163395321188 0 0.033192201219821804 -0.0055250022611873463 0 0.032959759305323411 -0.0044438799413642014 0 0.03311574465573467 -0.0050026912729401333 0 0.033192201219821804 -0.0055250022611873463 0 0.03338879912338643 -0.0061738854699525123 0 0.033516256247447557 -0.0055591160070429984 0 0.033192201219821804 -0.0055250022611873463 0 0.033516256247447557 -0.0055591160070429984 0 0.032959759305323411 -0.0044438799413642014 0 0.033983136178211339 -0.0064469013375301554 0 0.03338879912338643 -0.0061738854699525123 0 0.033516256247447557 -0.0055591160070429984 0 0.033983136178211339 -0.0064469013375301554 0 0.033516256247447557 -0.0055591160070429984 0 0.034495731135871094 -0.0055409585813857689 0 0.033516256247447557 -0.0055591160070429984 0 0.034476380790388603 -0.0047033981356869913 0 0.034495731135871094 -0.0055409585813857689 0 0.033516256247447557 -0.0055591160070429984 0 0.032959759305323411 -0.0044438799413642014 0 0.034476380790388603 -0.0047033981356869913 0 0.032959759305323411 -0.0044438799413642014 0 0.034476380790388603 -0.0047033981356869913 0 0.033601980030395669 -0.0027223603749192415 0 0.034476380790388603 -0.0047033981356869913 0 0.035303658587296394 -0.0039012910918696073 0 0.033601980030395669 -0.0027223603749192415 0 0.035303658587296394 -0.0039012910918696073 0 0.035794604328336421 -0.0029009679691603374 0 0.033601980030395669 -0.0027223603749192415 0 0.034476380790388603 -0.0047033981356869913 0 0.035529939930203813 -0.0045291441704061013 0 0.035185923786977158 -0.0051263896064706162 0 0.034476380790388603 -0.0047033981356869913 0 0.035529939930203813 -0.0045291441704061013 0 0.035303658587296394 -0.0039012910918696073 0 0.035529939930203813 -0.0045291441704061013 0 0.035303658587296394 -0.0039012910918696073 0 0.035992431573736175 -0.0040293096866313898 0 0.035303658587296394 -0.0039012910918696073 0 0.035992431573736175 -0.0040293096866313898 0 0.035794604328336421 -0.0029009679691603374 0 0.03019993067125102 0.0027311765651989142 0 0.031781570541186438 0.0016967647506217036 0 0.031837501837350984 0.0020541227872199704 0 0.030708081776114896 0.0030078725864651577 0 0.03019993067125102 0.0027311765651989142 0 0.031837501837350984 0.0020541227872199704 0 0.02513190966923173 0.0013977850546232184 0 0.033676932748032296 0.0017710392964919251 0 0.030225769944530242 -0.0030799834379206916 0 0.034157353125865451 -0.00034710041917349445 0 0.035992431573736175 -0.0040293096866313898 0 0.037370432052143722 -0.0049509150382297043 0 0.035794604328336421 -0.0029009679691603374 0 0.030812480526583828 0.0026242513241550697 0 0.031191517258630473 0.0020005994241651787 0 0.031781570541186438 0.0016967647506217036 0 0.035992431573736175 -0.0040293096866313898 0 0.036194641827600127 -0.004614251559130097 0 0.037370432052143722 -0.0049509150382297043 0 0.035529939930203813 -0.0045291441704061013 0 0.035992431573736175 -0.0040293096866313898 0 0.036194641827600127 -0.004614251559130097 0 0.035529939930203813 -0.0045291441704061013 0 0.036194641827600127 -0.004614251559130097 0 0.035893779376540633 -0.0051499508388846626 0 0.035893779376540633 -0.0051499508388846626 0 0.037370432052143722 -0.0049509150382297043 0 0.035697812101849087 -0.0058074963430936469 0 0.036194641827600127 -0.004614251559130097 0 0.035893779376540633 -0.0051499508388846626 0 0.037370432052143722 -0.0049509150382297043 0 0.032424012306078102 -0.0071839051913756904 0 0.028314286076749347 -0.0083611209484606777 0 0.028914382106388369 -0.0073897590605923645 0 0.031325574466506204 -0.0060589911442258957 0 0.028042948063469034 -0.0047383489424481428 0 0.030225769944530242 -0.0030799834379206916 0 0.032424012306078102 -0.0071839051913756904 0 0.033983136178211339 -0.0064469013375301554 0 0.035573242821601743 -0.0057655487945262535 0 0.03542300941256845 -0.0056966817024923077 0 0.033983136178211339 -0.0064469013375301554 0 0.034495731135871094 -0.0055409585813857689 0 0.03542300941256845 -0.0056966817024923077 0 0.03281237313540656 -0.0085587009398843429 0 0.032424012306078102 -0.0071839051913756904 0 0.032424012306078102 -0.0071839051913756904 0 0.032820593433535779 -0.0072222236807924344 0 0.034476380790388603 -0.0047033981356869913 0 0.034495731135871094 -0.0055409585813857689 0 0.035185923786977158 -0.0051263896064706162 0 0.034495731135871094 -0.0055409585813857689 0 0.035185923786977158 -0.0051263896064706162 0 0.03542300941256845 -0.0056966817024923077 0 0.035529939930203813 -0.0045291441704061013 0 0.035893779376540633 -0.0051499508388846626 0 0.035185923786977158 -0.0051263896064706162 0 0.035893779376540633 -0.0051499508388846626 0 0.035697812101849087 -0.0058074963430936469 0 0.03542300941256845 -0.0056966817024923077 0 0.035893779376540633 -0.0051499508388846626 0 0.035185923786977158 -0.0051263896064706162 0 0.03542300941256845 -0.0056966817024923077 0 0.01357007420259755 0.0034518654331720891 0 0.013930532144588495 0.00351648182613276 0 0.014064278932649183 0.0040016000133948687 0 0.013628533909651082 0.0033067891729365007 0 0.013643067466345858 0.0031328635450194745 0 0.013386653729914743 0.0033011912192208873 0 0.013828865820993234 0.0033429155875107693 0 0.013901742558462148 0.0031101243562550326 0 0.014140228512873108 0.0031520427620188502 0 0.013828865820993234 0.0033429155875107693 0 0.013643067466345858 0.0031328635450194745 0 0.013901742558462148 0.0031101243562550326 0 0.013828865820993234 0.0033429155875107693 0 0.013628533909651082 0.0033067891729365007 0 0.013643067466345858 0.0031328635450194745 0 0.013828865820993234 0.0033429155875107693 0 0.01357007420259755 0.0034518654331720891 0 0.013930532144588495 0.00351648182613276 0 0.017024796327678997 0.0034942517635452993 0 0.015961903350488374 0.003972668527015096 0 0.013828865820993234 0.0033429155875107693 0 0.01357007420259755 0.0034518654331720891 0 0.013628533909651082 0.0033067891729365007 0 0.017024796327678997 0.0034942517635452993 0 0.02513190966923173 0.0013977850546232184 0 0.013598977847878802 0.0033918831035486688 0 0.013628533909651082 0.0033067891729365007 0 0.013386653729914743 0.0033011912192208873 0 0.030272403535001411 0.0023131574580713301 0 0.030812480526583828 0.0026242513241550697 0 0.030789894059413674 0.0021051159702172341 0 0.030812480526583828 0.0026242513241550697 0 0.030789894059413674 0.0021051159702172341 0 0.031191517258630473 0.0020005994241651787 0 0.030225769944530242 -0.0030799834379206916 0 0.02513190966923173 0.0013977850546232184 0 0.022701562081671126 -0.0042569778416011918 0 0.022060867379087797 -0.0022190179435918039 0 0.019936539999525188 -0.0023663222347794725 0 0.02368712553540377 -0.0037203708943978845 0 0.022701562081671126 -0.0042569778416011918 0 0.022060867379087797 -0.0022190179435918039 0 0.028914382106388369 -0.0073897590605923645 0 0.026835682728988869 -0.0054079176323202794 0 0.028042948063469034 -0.0047383489424481428 0 0.030225769944530242 -0.0030799834379206916 0 0.023928464512681762 -0.0033373506133167969 0 0.013643067466345858 0.0031328635450194745 0 0.013386653729914743 0.0033011912192208873 0 0.013598973962621084 0.002555998456951516 0 0.02513190966923173 0.0013977850546232184 0 0.015572219095928905 0.00015213094149469619 0 0.013598973962621084 0.002555998456951516 0 0.013901742558462148 0.0031101243562550326 0 0.014095544477132996 0.0029573786259352495 0 0.013643067466345858 0.0031328635450194745 0 0.013598973962621084 0.002555998456951516 0 0.013901742558462148 0.0031101243562550326 0 0.019936539999525188 -0.0023663222347794725 0 0.020526544488112849 -0.00073305227323287338 0 0.017859467638512674 0.00013917108843887927 0 0.022060867379087797 -0.0022190179435918039 0 0.019936539999525188 -0.0023663222347794725 0 0.020526544488112849 -0.00073305227323287338 0 0.026584533364461729 -0.010945412502101286 0 0.026797367214186223 -0.010265775678443455 0 0.026075747391773246 -0.010430473732697986 0 0.023928464512681762 -0.0033373506133167969 0 0.024099039279033726 -0.0049997153787439781 0 0.024099039279033726 -0.0049997153787439781 0 0.028314286076749347 -0.0083611209484606777 0 0.026835682728988869 -0.0054079176323202794 0 0.024758201025738676 -0.0034458183732259916 0 0.028042948063469034 -0.0047383489424481428 0 0.028345625904085778 -0.011320190521866134 0 0.027588472567559943 -0.010055964277063199 0 0.028835587812876266 -0.0097113041197480088 0 0.026584533364461729 -0.010945412502101286 0 0.028345625904085778 -0.011320190521866134 0 0.027588472567559943 -0.010055964277063199 0 0.027588472567559943 -0.010055964277063199 0 0.028835587812876266 -0.0097113041197480088 0 0.028059984070870417 -0.00914209623097555 0 0.027588472567559943 -0.010055964277063199 0 0.028059984070870417 -0.00914209623097555 0 0.026625502540050184 -0.0095965116148905693 0 0.026584533364461729 -0.010945412502101286 0 0.027588472567559943 -0.010055964277063199 0 0.026797367214186223 -0.010265775678443455 0 0.027588472567559943 -0.010055964277063199 0 0.026797367214186223 -0.010265775678443455 0 0.026625502540050184 -0.0095965116148905693 0 0.026797367214186223 -0.010265775678443455 0 0.026034490348959723 -0.01012720571271312 0 0.026625502540050184 -0.0095965116148905693 0 0.026034490348959723 -0.01012720571271312 0 0.026625502540050184 -0.0095965116148905693 0 0.025636519773655737 -0.0098776677356456032 0 0.026797367214186223 -0.010265775678443455 0 0.026034490348959723 -0.01012720571271312 0 0.026075747391773246 -0.010430473732697986 0 0.030020945417693561 -0.011771906808152153 0 0.030575210514083042 -0.010301853717498248 0 0.029538052608369929 -0.010493807460322453 0 0.031763381693416103 -0.010342514377280888 0 0.030020945417693561 -0.011771906808152153 0 0.030575210514083042 -0.010301853717498248 0 0.030575210514083042 -0.010301853717498248 0 0.029538052608369929 -0.010493807460322453 0 0.030117385579346186 -0.0095930377422364446 0 0.028345625904085778 -0.011320190521866134 0 0.029538052608369929 -0.010493807460322453 0 0.028835587812876266 -0.0097113041197480088 0 0.030020945417693561 -0.011771906808152153 0 0.028345625904085778 -0.011320190521866134 0 0.029538052608369929 -0.010493807460322453 0 0.028835587812876266 -0.0097113041197480088 0 0.030117385579346186 -0.0095930377422364446 0 0.03023237793386473 -0.0086590712593565735 0 0.029538052608369929 -0.010493807460322453 0 0.028835587812876266 -0.0097113041197480088 0 0.030117385579346186 -0.0095930377422364446 0 0.031647898301925562 -0.0088308275855233202 0 0.030575210514083042 -0.010301853717498248 0 0.030117385579346186 -0.0095930377422364446 0 0.031647898301925562 -0.0088308275855233202 0 0.030117385579346186 -0.0095930377422364446 0 0.03023237793386473 -0.0086590712593565735 0 0.031699882849546328 -0.007923115391909416 0 0.03023237793386473 -0.0086590712593565735 0 0.029833170976397639 -0.0079403624210654337 0 0.03023237793386473 -0.0086590712593565735 0 0.028875154860184778 -0.0085216798990903585 0 0.029833170976397639 -0.0079403624210654337 0 0.03023237793386473 -0.0086590712593565735 0 0.028875154860184778 -0.0085216798990903585 0 0.028059984070870417 -0.00914209623097555 0 0.028835587812876266 -0.0097113041197480088 0 0.03023237793386473 -0.0086590712593565735 0 0.028059984070870417 -0.00914209623097555 0 0.028059984070870417 -0.00914209623097555 0 0.026625502540050184 -0.0095965116148905693 0 0.026811986770942788 -0.0091220785970725707 0 0.026625502540050184 -0.0095965116148905693 0 0.026811986770942788 -0.0091220785970725707 0 0.026136060356125989 -0.009501625141392217 0 0.026811986770942788 -0.0091220785970725707 0 0.026220244291301712 -0.0090997582852953372 0 0.026136060356125989 -0.009501625141392217 0 0.026811986770942788 -0.0091220785970725707 0 0.026522831083011567 -0.0087907291790706478 0 0.026220244291301712 -0.0090997582852953372 0 0.026811986770942788 -0.0091220785970725707 0 0.026522831083011567 -0.0087907291790706478 0 0.027523438495376699 -0.0085984705476460487 0 0.028059984070870417 -0.00914209623097555 0 0.026811986770942788 -0.0091220785970725707 0 0.027523438495376699 -0.0085984705476460487 0 0.028875154860184778 -0.0085216798990903585 0 0.028059984070870417 -0.00914209623097555 0 0.027523438495376699 -0.0085984705476460487 0 0.028875154860184778 -0.0085216798990903585 0 0.027523438495376699 -0.0085984705476460487 0 0.027744980804451935 -0.0080595316128900755 0 0.027523438495376699 -0.0085984705476460487 0 0.027744980804451935 -0.0080595316128900755 0 0.026821546768168145 -0.0084391802922254219 0 0.027744980804451935 -0.0080595316128900755 0 0.026821546768168145 -0.0084391802922254219 0 0.02638090763685929 -0.0081868075744535567 0 0.026522831083011567 -0.0087907291790706478 0 0.026821546768168145 -0.0084391802922254219 0 0.026107860797855896 -0.0085501681144184837 0 0.026522831083011567 -0.0087907291790706478 0 0.027523438495376699 -0.0085984705476460487 0 0.026821546768168145 -0.0084391802922254219 0 0.026821546768168145 -0.0084391802922254219 0 0.02638090763685929 -0.0081868075744535567 0 0.026107860797855896 -0.0085501681144184837 0 0.02638090763685929 -0.0081868075744535567 0 0.025643111580394517 -0.008369772894559379 0 0.026107860797855896 -0.0085501681144184837 0 0.02638090763685929 -0.0081868075744535567 0 0.025911538097082073 -0.0079924519953278299 0 0.027034918591061129 -0.0076028840012851767 0 0.02638090763685929 -0.0081868075744535567 0 0.025911538097082073 -0.0079924519953278299 0 0.025643111580394517 -0.008369772894559379 0 0.027744980804451935 -0.0080595316128900755 0 0.02638090763685929 -0.0081868075744535567 0 0.027034918591061129 -0.0076028840012851767 0 0.028801147599842952 -0.006717273918388454 0 0.027744980804451935 -0.0080595316128900755 0 0.027034918591061129 -0.0076028840012851767 0 0.028801147599842952 -0.006717273918388454 0 0.027744980804451935 -0.0080595316128900755 0 0.029833170976397639 -0.0079403624210654337 0 0.028801147599842952 -0.006717273918388454 0 0.031653735807835121 -0.0072517070832303094 0 0.029833170976397639 -0.0079403624210654337 0 0.028801147599842952 -0.006717273918388454 0 0.031883875027239258 -0.0060698971672367786 0 0.031653735807835121 -0.0072517070832303094 0 0.031653735807835121 -0.0072517070832303094 0 0.031699882849546328 -0.007923115391909416 0 0.029833170976397639 -0.0079403624210654337 0 0.028875154860184778 -0.0085216798990903585 0 0.027744980804451935 -0.0080595316128900755 0 0.029833170976397639 -0.0079403624210654337 0 0.02496631694089994 -0.0089052609796547357 0 0.024682509470561404 -0.0091425624162870308 0 0.024579400182103243 -0.0090313557348520555 0 0.02496631694089994 -0.0089052609796547357 0 0.025012432613621089 -0.0090470273451011933 0 0.024682509470561404 -0.0091425624162870308 0 0.024682509470561404 -0.0091425624162870308 0 0.024363649280626072 -0.009193786578671188 0 0.024579400182103243 -0.0090313557348520555 0 0.024363649280626072 -0.009193786578671188 0 0.02433874487622362 -0.0091287039452161069 0 0.024579400182103243 -0.0090313557348520555 0 0.024300530053661906 -0.0091091303957415333 0 0.024510981345945745 -0.0091105591842660753 0 0.024579400182103243 -0.0090313557348520555 0 0.024300530053661906 -0.0091091303957415333 0 0.02433874487622362 -0.0091287039452161069 0 0.024579400182103243 -0.0090313557348520555 0 0.024510981345945745 -0.0091105591842660753 0 0.024738857055011852 -0.0089994681505175013 0 0.024579400182103243 -0.0090313557348520555 0 0.024738857055011852 -0.0089994681505175013 0 0.024579400182103243 -0.0090313557348520555 0 0.024813363830171974 -0.0089349923569882819 0 0.024738857055011852 -0.0089994681505175013 0 0.024813363830171974 -0.0089349923569882819 0 0.024979141381069343 -0.0088371762271538829 0 0.02496631694089994 -0.0089052609796547357 0 0.024579400182103243 -0.0090313557348520555 0 0.024813363830171974 -0.0089349923569882819 0 0.02496631694089994 -0.0089052609796547357 0 0.024813363830171974 -0.0089349923569882819 0 0.024979141381069343 -0.0088371762271538829 0 0.025185521665108627 -0.0086898833947048459 0 0.024979141381069343 -0.0088371762271538829 0 0.025267025855612753 -0.0086875230208702005 0 0.02496631694089994 -0.0089052609796547357 0 0.024979141381069343 -0.0088371762271538829 0 0.025267025855612753 -0.0086875230208702005 0 0.025185521665108627 -0.0086898833947048459 0 0.025267025855612753 -0.0086875230208702005 0 0.025643111580394517 -0.008369772894559379 0 0.025463007833602475 -0.0082828793375009386 0 0.025911538097082073 -0.0079924519953278299 0 0.025643111580394517 -0.008369772894559379 0 0.025267025855612753 -0.0086875230208702005 0 0.025643111580394517 -0.008369772894559379 0 0.025603309888969864 -0.0087117090997277085 0 0.025643111580394517 -0.008369772894559379 0 0.026107860797855896 -0.0085501681144184837 0 0.025603309888969864 -0.0087117090997277085 0 0.025603309888969864 -0.0087117090997277085 0 0.025356696755251148 -0.0090270301308050024 0 0.025914445189927023 -0.0088979430307989226 0 0.026107860797855896 -0.0085501681144184837 0 0.025603309888969864 -0.0087117090997277085 0 0.025914445189927023 -0.0088979430307989226 0 0.026522831083011567 -0.0087907291790706478 0 0.026107860797855896 -0.0085501681144184837 0 0.025914445189927023 -0.0088979430307989226 0 0.02496631694089994 -0.0089052609796547357 0 0.025267025855612753 -0.0086875230208702005 0 0.025258577854230805 -0.0088501423922982096 0 0.025267025855612753 -0.0086875230208702005 0 0.025603309888969864 -0.0087117090997277085 0 0.025258577854230805 -0.0088501423922982096 0 0.025603309888969864 -0.0087117090997277085 0 0.025258577854230805 -0.0088501423922982096 0 0.025356696755251148 -0.0090270301308050024 0 0.02496631694089994 -0.0089052609796547357 0 0.025012432613621089 -0.0090470273451011933 0 0.025258577854230805 -0.0088501423922982096 0 0.025012432613621089 -0.0090470273451011933 0 0.025258577854230805 -0.0088501423922982096 0 0.025356696755251148 -0.0090270301308050024 0 0.025012432613621089 -0.0090470273451011933 0 0.025356696755251148 -0.0090270301308050024 0 0.024949086349879631 -0.0092891498713550402 0 0.025356696755251148 -0.0090270301308050024 0 0.025305766040170253 -0.0093152596165157926 0 0.025756986672262096 -0.0092358299520581329 0 0.025356696755251148 -0.0090270301308050024 0 0.025305766040170253 -0.0093152596165157926 0 0.024949086349879631 -0.0092891498713550402 0 0.025305766040170253 -0.0093152596165157926 0 0.025089714949180896 -0.0094881386685618709 0 0.024949086349879631 -0.0092891498713550402 0 0.026522831083011567 -0.0087907291790706478 0 0.025914445189927023 -0.0088979430307989226 0 0.026220244291301712 -0.0090997582852953372 0 0.025356696755251148 -0.0090270301308050024 0 0.025914445189927023 -0.0088979430307989226 0 0.025756986672262096 -0.0092358299520581329 0 0.025914445189927023 -0.0088979430307989226 0 0.025756986672262096 -0.0092358299520581329 0 0.026220244291301712 -0.0090997582852953372 0 0.025756986672262096 -0.0092358299520581329 0 0.026136060356125989 -0.009501625141392217 0 0.025351715571903282 -0.0096474254614605445 0 0.026136060356125989 -0.009501625141392217 0 0.025351715571903282 -0.0096474254614605445 0 0.025825123033721434 -0.0099901859028906793 0 0.026625502540050184 -0.0095965116148905693 0 0.026136060356125989 -0.009501625141392217 0 0.025825123033721434 -0.0099901859028906793 0 0.025756986672262096 -0.0092358299520581329 0 0.026220244291301712 -0.0090997582852953372 0 0.026136060356125989 -0.009501625141392217 0 0.025351715571903282 -0.0096474254614605445 0 0.024769035658017271 -0.0097090907449679624 0 0.025108333694469034 -0.010132980163852603 0 0.025089714949180896 -0.0094881386685618709 0 0.025351715571903282 -0.0096474254614605445 0 0.024769035658017271 -0.0097090907449679624 0 0.025305766040170253 -0.0093152596165157926 0 0.025089714949180896 -0.0094881386685618709 0 0.025351715571903282 -0.0096474254614605445 0 0.025305766040170253 -0.0093152596165157926 0 0.025756986672262096 -0.0092358299520581329 0 0.025351715571903282 -0.0096474254614605445 0 0.024769035658017271 -0.0097090907449679624 0 0.024221148836165652 -0.0097331463422659428 0 0.025108333694469034 -0.010132980163852603 0 0.024769035658017271 -0.0097090907449679624 0 0.024949086349879631 -0.0092891498713550402 0 0.024562647479894284 -0.0094233291537025015 0 0.024769035658017271 -0.0097090907449679624 0 0.024562647479894284 -0.0094233291537025015 0 0.024468349224503614 -0.0095939180252479304 0 0.025089714949180896 -0.0094881386685618709 0 0.024769035658017271 -0.0097090907449679624 0 0.024949086349879631 -0.0092891498713550402 0 0.024682509470561404 -0.0091425624162870308 0 0.024949086349879631 -0.0092891498713550402 0 0.024562647479894284 -0.0094233291537025015 0 0.025012432613621089 -0.0090470273451011933 0 0.024682509470561404 -0.0091425624162870308 0 0.024949086349879631 -0.0092891498713550402 0 0.024130850812014361 -0.009344033523623535 0 0.024363649280626072 -0.009193786578671188 0 0.02434121392330222 -0.0093539966926063627 0 0.024682509470561404 -0.0091425624162870308 0 0.024562647479894284 -0.0094233291537025015 0 0.02434121392330222 -0.0093539966926063627 0 0.024682509470561404 -0.0091425624162870308 0 0.024363649280626072 -0.009193786578671188 0 0.02434121392330222 -0.0093539966926063627 0 0.024562647479894284 -0.0094233291537025015 0 0.02434121392330222 -0.0093539966926063627 0 0.024341306976698344 -0.0095200070872895875 0 0.024133970394040014 -0.0094927703992649642 0 0.02434121392330222 -0.0093539966926063627 0 0.024341306976698344 -0.0095200070872895875 0 0.024133970394040014 -0.0094927703992649642 0 0.024130850812014361 -0.009344033523623535 0 0.02434121392330222 -0.0093539966926063627 0 0.024133970394040014 -0.0094927703992649642 0 0.024341306976698344 -0.0095200070872895875 0 0.024221148836165652 -0.0097331463422659428 0 0.024769035658017271 -0.0097090907449679624 0 0.024468349224503614 -0.0095939180252479304 0 0.024221148836165652 -0.0097331463422659428 0 0.024341306976698344 -0.0095200070872895875 0 0.024468349224503614 -0.0095939180252479304 0 0.024221148836165652 -0.0097331463422659428 0 0.024562647479894284 -0.0094233291537025015 0 0.024341306976698344 -0.0095200070872895875 0 0.024468349224503614 -0.0095939180252479304 0 0.012517824253217458 0.00061355260751507412 0 0.012588284636462039 -0.0011166449855672419 0 0.010436337460971593 0.00015182052883666597 0 0.016179303462688838 -0.0033066177335484889 0 0.017212972943939694 -0.0027935298406857249 0 0.017681514157946051 -0.0042363323110531205 0 0.014323555069185687 -0.0022170562148544925 0 0.015537530479215302 -0.00036200974057419441 0 0.0133021744354363 0.0010997203319005155 0 0.015537530479215302 -0.00036200974057419441 0 0.018722384574505636 -0.00029894381473437109 0 0.017918392915806308 -0.00035991891967378529 0 0.01786218718750408 -0.00014221138730444364 0 0.020903154615596675 -0.0064375928356265278 0 0.021735321026590017 -0.0061192059174948804 0 0.017212972943939694 -0.0027935298406857249 0 0.017681514157946051 -0.0042363323110531205 0 0.019818260102091884 -0.0038261164441989065 0 0.015537530479215302 -0.00036200974057419441 0 0.021735321026590017 -0.0061192059174948804 0 0.014536690827899514 0.0021393339769287872 0 0.014470593149185787 0.0025974017736862661 0 0.014268933927314858 0.0027385885808064356 0 0.014470593149185787 0.0025974017736862661 0 0.014268933927314858 0.0027385885808064356 0 0.01439794438187539 0.0029557105645105467 0 0.015537530479215302 -0.00036200974057419441 0 0.016320002209548493 0.0017366995234824334 0 0.018722384574505636 -0.00029894381473437109 0 0.01786218718750408 -0.00014221138730444364 0 0.018143740131245638 0.00039145760642071578 0 0.014536690827899514 0.0021393339769287872 0 0.014470593149185787 0.0025974017736862661 0 0.014649565968582306 0.0023137275828898542 0 0.014470593149185787 0.0025974017736862661 0 0.014649565968582306 0.0023137275828898542 0 0.014597779200024592 0.0028817095610033832 0 0.014720567750250766 0.0019552832281133211 0 0.014536690827899514 0.0021393339769287872 0 0.014649565968582306 0.0023137275828898542 0 0.026323340490458608 -0.0096177478077012681 0 0.025661356371958953 -0.0097234534620660659 0 0.026625502540050184 -0.0095965116148905693 0 0.025636519773655737 -0.0098776677356456032 0 0.024898048684222254 -0.0094752028971919477 0 0.026034490348959723 -0.01012720571271312 0 0.026075747391773246 -0.010430473732697986 0 0.024921225082015001 -0.010463928646805891 0 0.026034490348959723 -0.01012720571271312 0 0.025636519773655737 -0.0098776677356456032 0 0.024921225082015001 -0.010463928646805891 0 0.025636519773655737 -0.0098776677356456032 0 0.024898048684222254 -0.0094752028971919477 0 0.024921225082015001 -0.010463928646805891 0 0.025351715571903282 -0.0096474254614605445 0 0.025825123033721434 -0.0099901859028906793 0 0.025108333694469034 -0.010132980163852603 0 0.017859467638512674 0.00013917108843887927 0 0.017918392915806308 -0.00035991891967378529 0 0.01786218718750408 -0.00014221138730444364 0 0.024898048684222254 -0.0094752028971919477 0 0.024921225082015001 -0.010463928646805891 0 0.023252929208936783 -0.0097592891190176577 0 0.021181735587689848 -0.0050991691381769982 0 0.021735321026590017 -0.0061192059174948804 0 0.025661356371958953 -0.0097234534620660659 0 0.021735321026590017 -0.0061192059174948804 0 0.016320002209548493 0.0017366995234824334 0 0.014612868410463027 0.0026879941124728379 0 0.017859467638512674 0.00013917108843887927 0 0.01786218718750408 -0.00014221138730444364 0 0.017276051067722533 -0.00014279201907512485 0 0.018143740131245638 0.00039145760642071578 0 0.017276051067722533 -0.00014279201907512485 0 0.014589642731761563 0.0028182316455603977 0 0.01786218718750408 -0.00014221138730444364 0 0.018143740131245638 0.00039145760642071578 0 0.017276051067722533 -0.00014279201907512485 0 0.019936539999525188 -0.0023663222347794725 0 0.017859467638512674 0.00013917108843887927 0 0.017276051067722533 -0.00014279201907512485 0 0.026584533364461729 -0.010945412502101286 0 0.026075747391773246 -0.010430473732697986 0 0.024921225082015001 -0.010463928646805891 0 0.024099039279033726 -0.0049997153787439781 0 0.021181735587689848 -0.0050991691381769982 0 0.015572219095928905 0.00015213094149469619 0 0.017691147443729436 -0.00027504657051477115 0 0.013598973962621084 0.002555998456951516 0 0.017276051067722533 -0.00014279201907512485 0 0.014589642731761563 0.0028182316455603977 0 0.014140228512873108 0.0031520427620188502 0 0.014589642731761563 0.0028182316455603977 0 0.014362673714491219 0.0030038882576613598 0 0.014140228512873108 0.0031520427620188502 0 0.014095544477132996 0.0029573786259352495 0 0.014589642731761563 0.0028182316455603977 0 0.013901742558462148 0.0031101243562550326 0 0.014140228512873108 0.0031520427620188502 0 0.014095544477132996 0.0029573786259352495 0 0.013598973962621084 0.002555998456951516 0 0.014095544477132996 0.0029573786259352495 0 0.014589642731761563 0.0028182316455603977 0 0.014589642731761563 0.0028182316455603977 0 0.014362673714491219 0.0030038882576613598 0 0.014355680099163916 0.0028765258523040368 0 0.014362673714491219 0.0030038882576613598 0 0.014355680099163916 0.0028765258523040368 0 0.014255124697542207 0.0032948213767474495 0 0.014268933927314858 0.0027385885808064356 0 0.014589642731761563 0.0028182316455603977 0 0.014355680099163916 0.0028765258523040368 0 0.014268933927314858 0.0027385885808064356 0 0.014355680099163916 0.0028765258523040368 0 0.01439794438187539 0.0029557105645105467 0 0.014355680099163916 0.0028765258523040368 0 0.014359180018862416 0.0032898926767291718 0 0.01439794438187539 0.0029557105645105467 0 0.014355680099163916 0.0028765258523040368 0 0.014359180018862416 0.0032898926767291718 0 0.014255124697542207 0.0032948213767474495 0 0.014359180018862416 0.0032898926767291718 0 0.014255124697542207 0.0032948213767474495 0 0.014329873755016131 0.0038942130545773913 0 0.014255124697542207 0.0032948213767474495 0 0.013930532144588495 0.00351648182613276 0 0.014064278932649183 0.0040016000133948687 0 0.014140228512873108 0.0031520427620188502 0 0.014362673714491219 0.0030038882576613598 0 0.014255124697542207 0.0032948213767474495 0 0.014140228512873108 0.0031520427620188502 0 0.014255124697542207 0.0032948213767474495 0 0.013930532144588495 0.00351648182613276 0 0.013828865820993234 0.0033429155875107693 0 0.014140228512873108 0.0031520427620188502 0 0.013930532144588495 0.00351648182613276 0 0.014837308969596379 0.0026240942863827478 0 0.014649565968582306 0.0023137275828898542 0 0.014597779200024592 0.0028817095610033832 0 0.014837308969596379 0.0026240942863827478 0 0.014597779200024592 0.0028817095610033832 0 0.014811942390562964 0.0033823898717035839 0 0.014597779200024592 0.0028817095610033832 0 0.01439794438187539 0.0029557105645105467 0 0.014586308723468605 0.003652207621815172 0 0.014470593149185787 0.0025974017736862661 0 0.014597779200024592 0.0028817095610033832 0 0.01439794438187539 0.0029557105645105467 0 0.014359180018862416 0.0032898926767291718 0 0.01439794438187539 0.0029557105645105467 0 0.014586308723468605 0.003652207621815172 0 0.014359180018862416 0.0032898926767291718 0 0.014586308723468605 0.003652207621815172 0 0.014329873755016131 0.0038942130545773913 0 0.014597779200024592 0.0028817095610033832 0 0.014586308723468605 0.003652207621815172 0 0.014811942390562964 0.0033823898717035839 0 0.014586308723468605 0.003652207621815172 0 0.014811942390562964 0.0033823898717035839 0 0.014982912839332601 0.0040738878494937462 0 0.014586308723468605 0.003652207621815172 0 0.01490389739436724 0.0046989965680363181 0 0.014982912839332601 0.0040738878494937462 0 0.014586308723468605 0.003652207621815172 0 0.014586101989957943 0.0045429906294539441 0 0.01490389739436724 0.0046989965680363181 0 0.014586308723468605 0.003652207621815172 0 0.014586101989957943 0.0045429906294539441 0 0.014329873755016131 0.0038942130545773913 0 0.014586101989957943 0.0045429906294539441 0 0.01490389739436724 0.0046989965680363181 0 0.0148502042482165 0.0054276690562981098 0 0.014586101989957943 0.0045429906294539441 0 0.014067185435922754 0.0045071226411065408 0 0.0148502042482165 0.0054276690562981098 0 0.014064278932649183 0.0040016000133948687 0 0.014067185435922754 0.0045071226411065408 0 0.013913422872402884 0.0040824189305206536 0 0.014255124697542207 0.0032948213767474495 0 0.014064278932649183 0.0040016000133948687 0 0.014329873755016131 0.0038942130545773913 0 0.014064278932649183 0.0040016000133948687 0 0.014329873755016131 0.0038942130545773913 0 0.014067185435922754 0.0045071226411065408 0 0.014586101989957943 0.0045429906294539441 0 0.014329873755016131 0.0038942130545773913 0 0.014067185435922754 0.0045071226411065408 0 0.014067185435922754 0.0045071226411065408 0 0.01411767500221346 0.0054600693214944844 0 0.013811142629178156 0.0046421548158546138 0 0.015833621367550621 0.00643908383171987 0 0.015108080055495722 0.0061186345241783817 0 0.014067185435922754 0.0045071226411065408 0 0.01411767500221346 0.0054600693214944844 0 0.0148502042482165 0.0054276690562981098 0 0.017037868417862496 0.0073810512398725181 0 0.015141607630505535 0.0065254027861478851 0 0.016605825043908791 0.0064349421444971616 0 0.015833621367550621 0.00643908383171987 0 0.015113349216514976 0.0064821305408764096 0 0.017037868417862496 0.0073810512398725181 0 0.016605825043908791 0.0064349421444971616 0 0.018017904291499104 0.0065864439105617918 0 0.017037868417862496 0.0073810512398725181 0 0.018017904291499104 0.0065864439105617918 0 0.018618361743724096 0.0074499214836829591 0 0.01490389739436724 0.0046989965680363181 0 0.0148502042482165 0.0054276690562981098 0 0.015216945593591401 0.0056552865829942759 0 0.0148502042482165 0.0054276690562981098 0 0.015166426513106575 0.0061692575858688656 0 0.015216945593591401 0.0056552865829942759 0 0.01411767500221346 0.0054600693214944844 0 0.0148502042482165 0.0054276690562981098 0 0.015141607630505535 0.0065254027861478851 0 0.0148502042482165 0.0054276690562981098 0 0.015141607630505535 0.0065254027861478851 0 0.015166426513106575 0.0061692575858688656 0 0.015141607630505535 0.0065254027861478851 0 0.015166426513106575 0.0061692575858688656 0 0.015202457955753854 0.006559524607611519 0 0.015141607630505535 0.0065254027861478851 0 0.015202457955753854 0.006559524607611519 0 0.015266172712743976 0.0067282501915681449 0 0.015202457955753854 0.006559524607611519 0 0.015266172712743976 0.0067282501915681449 0 0.015189932074817442 0.0067859715139923739 0 0.015266172712743976 0.0067282501915681449 0 0.015478043434901662 0.0066456948067552916 0 0.015223393762206222 0.0067961427326316765 0 0.015266172712743976 0.0067282501915681449 0 0.015478043434901662 0.0066456948067552916 0 0.016168257668938101 0.0067119170802826967 0 0.015411930994196379 0.0066968657068119377 0 0.016349915771674391 0.0065344212358757108 0 0.015266172712743976 0.0067282501915681449 0 0.016504859831043248 0.0073517829511948376 0 0.016168257668938101 0.0067119170802826967 0 0.015141607630505535 0.0065254027861478851 0 0.015266172712743976 0.0067282501915681449 0 0.016045615354082922 0.0057111683392711398 0 0.015141607630505535 0.0065254027861478851 0 0.016605825043908791 0.0064349421444971616 0 0.016045615354082922 0.0057111683392711398 0 0.016605825043908791 0.0064349421444971616 0 0.017264654592313633 0.0060230716008002286 0 0.016045615354082922 0.0057111683392711398 0 0.016605825043908791 0.0064349421444971616 0 0.018017904291499104 0.0065864439105617918 0 0.017264654592313633 0.0060230716008002286 0 0.018017904291499104 0.0065864439105617918 0 0.017264654592313633 0.0060230716008002286 0 0.018206275800729147 0.0059692205003471673 0 0.017264654592313633 0.0060230716008002286 0 0.017830337312091361 0.0052819110853476164 0 0.018206275800729147 0.0059692205003471673 0 0.018085167441903558 0.0063723918825566092 0 0.016349915771674391 0.0065344212358757108 0 0.017264654592313633 0.0060230716008002286 0 0.017830337312091361 0.0052819110853476164 0 0.016045615354082922 0.0057111683392711398 0 0.018356315965636191 0.0074453535194533675 0 0.016504859831043248 0.0073517829511948376 0 0.017274692724430343 0.0068908996588442637 0 0.016504859831043248 0.0073517829511948376 0 0.017274692724430343 0.0068908996588442637 0 0.016168257668938101 0.0067119170802826967 0 0.017274692724430343 0.0068908996588442637 0 0.017119666968557434 0.0063714570972567266 0 0.016168257668938101 0.0067119170802826967 0 0.017274692724430343 0.0068908996588442637 0 0.017119666968557434 0.0063714570972567266 0 0.017981850195274159 0.0065448325691618145 0 0.017119666968557434 0.0063714570972567266 0 0.016553503708673405 0.0060324184957630976 0 0.016168257668938101 0.0067119170802826967 0 0.017981850195274159 0.0065448325691618145 0 0.018289684352460606 0.0056880257725474533 0 0.019082553571042809 0.0070615924162925892 0 0.018356315965636191 0.0074453535194533675 0 0.017981850195274159 0.0065448325691618145 0 0.019082553571042809 0.0070615924162925892 0 0.018356315965636191 0.0074453535194533675 0 0.017274692724430343 0.0068908996588442637 0 0.017981850195274159 0.0065448325691618145 0 0.017119666968557434 0.0063714570972567266 0 0.017981850195274159 0.0065448325691618145 0 0.017671302403330136 0.0059936969398092076 0 0.017671302403330136 0.0059936969398092076 0 0.018289684352460606 0.0056880257725474533 0 0.017330289921978981 0.0055078550042527942 0 0.017981850195274159 0.0065448325691618145 0 0.017671302403330136 0.0059936969398092076 0 0.018289684352460606 0.0056880257725474533 0 0.017119666968557434 0.0063714570972567266 0 0.017330289921978981 0.0055078550042527942 0 0.016553503708673405 0.0060324184957630976 0 0.017330289921978981 0.0055078550042527942 0 0.016553503708673405 0.0060324184957630976 0 0.016418715421123029 0.0052483196875246626 0 0.017119666968557434 0.0063714570972567266 0 0.017671302403330136 0.0059936969398092076 0 0.017330289921978981 0.0055078550042527942 0 0.016553503708673405 0.0060324184957630976 0 0.0158201963476341 0.0062503700630329 0 0.016418715421123029 0.0052483196875246626 0 0.013876686967019769 0.013590461787049575 0 0.015211477683110656 0.011842997876281656 0 0.0158201963476341 0.0062503700630329 0 0.015295664284925696 0.0060786484268001159 0 0.016418715421123029 0.0052483196875246626 0 0.014742406721160457 0.018069407008506039 0 0.014157902288059547 0.018622156029837258 0 0.014872009726646389 0.018215807982889722 0 0.013876686967019769 0.013590461787049575 0 0.011868380542172305 0.017627065571964601 0 0.015295664284925696 0.0060786484268001159 0 0.015330524240629265 0.006303230827454649 0 0.015247110041539808 0.0064499512575884477 0 0.015295664284925696 0.0060786484268001159 0 0.015330524240629265 0.006303230827454649 0 0.015478761202062773 0.0063539499981204286 0 0.015330524240629265 0.006303230827454649 0 0.015345749826281511 0.0064945847317398799 0 0.015247110041539808 0.0064499512575884477 0 0.015330524240629265 0.006303230827454649 0 0.015478761202062773 0.0063539499981204286 0 0.015345749826281511 0.0064945847317398799 0 0.0158201963476341 0.0062503700630329 0 0.015295664284925696 0.0060786484268001159 0 0.015478761202062773 0.0063539499981204286 0 0.0158201963476341 0.0062503700630329 0 0.015478761202062773 0.0063539499981204286 0 0.015478043434901662 0.0066456948067552916 0 0.015345749826281511 0.0064945847317398799 0 0.015478043434901662 0.0066456948067552916 0 0.015228530761441652 0.0066567463585894609 0 0.015478761202062773 0.0063539499981204286 0 0.015345749826281511 0.0064945847317398799 0 0.015478043434901662 0.0066456948067552916 0 0.015478043434901662 0.0066456948067552916 0 0.015228530761441652 0.0066567463585894609 0 0.015223393762206222 0.0067961427326316765 0 0.0158201963476341 0.0062503700630329 0 0.015478043434901662 0.0066456948067552916 0 0.016168257668938101 0.0067119170802826967 0 0.016553503708673405 0.0060324184957630976 0 0.0158201963476341 0.0062503700630329 0 0.016168257668938101 0.0067119170802826967 0 0.019928261234431862 0.0065005465212550021 0 0.019828345691300205 0.0063177744663926493 0 0.019771610689173418 0.0064765885091859826 0 0.019928261234431862 0.0065005465212550021 0 0.019797606549293249 0.0069964654867017469 0 0.019771610689173418 0.0064765885091859826 0 0.019928261234431862 0.0065005465212550021 0 0.019797606549293249 0.0069964654867017469 0 0.019978563579477825 0.007038950448572133 0 0.019797606549293249 0.0069964654867017469 0 0.019978563579477825 0.007038950448572133 0 0.019920722310287683 0.0074578903547462983 0 0.019928261234431862 0.0065005465212550021 0 0.019978563579477825 0.007038950448572133 0 0.020022921328496226 0.0068689767038258203 0 0.019978563579477825 0.007038950448572133 0 0.020045462311331901 0.0070664613200530661 0 0.020022921328496226 0.0068689767038258203 0 0.020045462311331901 0.0070664613200530661 0 0.020049363399418995 0.0070151598844426909 0 0.020022921328496226 0.0068689767038258203 0 0.020049363399418995 0.0070151598844426909 0 0.020022921328496226 0.0068689767038258203 0 0.019723605351480353 0.006859718057348454 0 0.019555518780969162 0.0072092509662715501 0 0.019601536586693235 0.0069565391608641253 0 0.019300892414962294 0.0074442741058652704 0 0.019601536586693235 0.0069565391608641253 0 0.019723605351480353 0.006859718057348454 0 0.019300892414962294 0.0074442741058652704 0 0.019737030045653286 0.0069577066673658702 0 0.019601536586693235 0.0069565391608641253 0 0.019082553571042809 0.0070615924162925892 0 0.020049363399418995 0.0070151598844426909 0 0.019723605351480353 0.006859718057348454 0 0.020359255362824177 0.0072108005583806723 0 0.019771596329539721 0.0071212744386573998 0 0.019758637385739915 0.0069520509789685412 0 0.019737030045653286 0.0069577066673658702 0 0.019555518780969162 0.0072092509662715501 0 0.019601536586693235 0.0069565391608641253 0 0.018356315965636191 0.0074453535194533675 0 0.019082553571042809 0.0070615924162925892 0 0.019955718760983343 0.0070707056720489114 0 0.019151403347034211 0.0055304378694109009 0 0.019139745513853751 0.0073822730074917338 0 0.019601536586693235 0.0069565391608641253 0 0.019723605351480353 0.006859718057348454 0 0.019082553571042809 0.0070615924162925892 0 0.019723605351480353 0.006859718057348454 0 0.019082553571042809 0.0070615924162925892 0 0.019955718760983343 0.0070707056720489114 0 0.019834116522788301 0.0064787686895545335 0 0.01952239994528869 0.0063614818565488488 0 0.019928261234431862 0.0065005465212550021 0 0.019273732663705072 0.0056225060661898021 0 0.01947075909428251 0.0059684883772945091 0 0.019928261234431862 0.0065005465212550021 0 0.020022921328496226 0.0068689767038258203 0 0.019955718760983343 0.0070707056720489114 0 0.020022921328496226 0.0068689767038258203 0 0.019723605351480353 0.006859718057348454 0 0.019955718760983343 0.0070707056720489114 0 0.019273732663705072 0.0056225060661898021 0 0.01947075909428251 0.0059684883772945091 0 0.018797744000939823 0.0057988755609577301 0 0.01947075909428251 0.0059684883772945091 0 0.018797744000939823 0.0057988755609577301 0 0.019087178704445755 0.0061327392565427843 0 0.01947075909428251 0.0059684883772945091 0 0.019695742459199708 0.0065337185862487969 0 0.019773448683908897 0.0061636592915530319 0 0.018797744000939823 0.0057988755609577301 0 0.018206275800729147 0.0059692205003471673 0 0.019087178704445755 0.0061327392565427843 0 0.018085167441903558 0.0063723918825566092 0 0.01952239994528869 0.0063614818565488488 0 0.017830337312091361 0.0052819110853476164 0 0.019273732663705072 0.0056225060661898021 0 0.018797744000939823 0.0057988755609577301 0 0.017830337312091361 0.0052819110853476164 0 0.018797744000939823 0.0057988755609577301 0 0.018206275800729147 0.0059692205003471673 0 0.018017904291499104 0.0065864439105617918 0 0.019087178704445755 0.0061327392565427843 0 0.019132828170204591 0.006645231745003242 0 0.018017904291499104 0.0065864439105617918 0 0.018206275800729147 0.0059692205003471673 0 0.019087178704445755 0.0061327392565427843 0 0.019087178704445755 0.0061327392565427843 0 0.019657010900318433 0.0062370455109984077 0 0.019132828170204591 0.006645231745003242 0 0.01947075909428251 0.0059684883772945091 0 0.019087178704445755 0.0061327392565427843 0 0.019695742459199708 0.0065337185862487969 0 0.01941122968410158 0.0062720288102209613 0 0.018977064862731319 0.0060490473281296381 0 0.019657010900318433 0.0062370455109984077 0 0.020130536303502696 0.0063970726582984793 0 0.019634863587914213 0.00659899272813738 0 0.019695742459199708 0.0065337185862487969 0 0.020113033988659271 0.0064274302854043465 0 0.02032360832201029 0.0068319878185289238 0 0.018977064862731319 0.0060490473281296381 0 0.026035620375120801 0.0044535352095879908 0 0.019695742459199708 0.0065337185862487969 0 0.020113033988659271 0.0064274302854043465 0 0.019773448683908897 0.0061636592915530319 0 0.019928261234431862 0.0065005465212550021 0 0.019828345691300205 0.0063177744663926493 0 0.019773448683908897 0.0061636592915530319 0 0.019928261234431862 0.0065005465212550021 0 0.01947075909428251 0.0059684883772945091 0 0.019773448683908897 0.0061636592915530319 0 0.020113033988659271 0.0064274302854043465 0 0.019773448683908897 0.0061636592915530319 0 0.020695931421113395 0.0061134114119170864 0 0.018732283127950212 0.0063082595727668193 0 0.023081490197771462 0.0051050878182664263 0 0.019828345691300205 0.0063177744663926493 0 0.019773448683908897 0.0061636592915530319 0 0.019813047004445479 0.0063228668874382851 0 0.023081490197771462 0.0051050878182664263 0 0.019300768723430377 0.0070933345480070614 0 0.019828345691300205 0.0063177744663926493 0 0.019813047004445479 0.0063228668874382851 0 0.019771610689173418 0.0064765885091859826 0 0.030260655113188536 0.003446873739030955 0 0.030539086892615648 0.0029605134126384877 0 0.030092066974907645 0.0030847960570221677 0 0.023081490197771462 0.0051050878182664263 0 0.026035620375120801 0.0044535352095879908 0 0.020113033988659271 0.0064274302854043465 0 0.020695931421113395 0.0061134114119170864 0 0.02032360832201029 0.0068319878185289238 0 0.031738597148854922 0.0021718312813737511 0 0.031685708951639448 0.0018339280084740998 0 0.031724377529913604 0.0018438565256398258 0 0.031738597148854922 0.0021718312813737511 0 0.031685708951639448 0.0018339280084740998 0 0.031315061444183633 0.0022583236820223345 0 0.030539086892615648 0.0029605134126384877 0 0.030112380086347996 0.0026405890768666693 0 0.030092066974907645 0.0030847960570221677 0 0.026035620375120801 0.0044535352095879908 0 0.031506259021640629 0.0025084199223854692 0 0.020130536303502696 0.0063970726582984793 0 0.019942481872762107 0.0067350086050774645 0 0.019634863587914213 0.00659899272813738 0 0.026035620375120801 0.0044535352095879908 0 0.025938958130022564 0.0042615081672706398 0 0.019942481872762107 0.0067350086050774645 0 0.019634863587914213 0.00659899272813738 0 0.019456967926904368 0.0069443682325374106 0 0.031724377529913604 0.0018438565256398258 0 0.031412616633806546 0.0016251714639982041 0 0.031440269092979499 0.0014974896510460008 0 0.025938958130022564 0.0042615081672706398 0 0.022618592321923963 0.0033941272463319321 0 0.019942481872762107 0.0067350086050774645 0 0.019456967926904368 0.0069443682325374106 0 0.019773685773783314 0.0071511916138565805 0 0.031724377529913604 0.0018438565256398258 0 0.031736193054228513 0.0014959682029925981 0 0.031440269092979499 0.0014974896510460008 0 0.031685708951639448 0.0018339280084740998 0 0.031724377529913604 0.0018438565256398258 0 0.031736193054228513 0.0014959682029925981 0 0.031736193054228513 0.0014959682029925981 0 0.031893605459767917 0.0010794220909302807 0 0.031659022758561368 0.0013904297871644431 0 0.031685708951639448 0.0018339280084740998 0 0.031315061444183633 0.0022583236820223345 0 0.031659022758561368 0.0013904297871644431 0 0.031685708951639448 0.0018339280084740998 0 0.031736193054228513 0.0014959682029925981 0 0.031659022758561368 0.0013904297871644431 0 0.018017904291499104 0.0065864439105617918 0 0.019132828170204591 0.006645231745003242 0 0.018618361743724096 0.0074499214836829591 0 0.019132828170204591 0.006645231745003242 0 0.019456967926904368 0.0069443682325374106 0 0.018618361743724096 0.0074499214836829591 0 0.019657010900318433 0.0062370455109984077 0 0.019132828170204591 0.006645231745003242 0 0.019634863587914213 0.00659899272813738 0 0.019132828170204591 0.006645231745003242 0 0.019634863587914213 0.00659899272813738 0 0.019456967926904368 0.0069443682325374106 0 0.013811142629178156 0.0046421548158546138 0 0.013854735451963902 0.0042781521005571567 0 0.01393512873470161 0.0040671958841705666 0 0.019456967926904368 0.0069443682325374106 0 0.018618361743724096 0.0074499214836829591 0 0.019773685773783314 0.0071511916138565805 0 0.015108080055495722 0.0061186345241783817 0 0.022618592321923963 0.0033941272463319321 0 0.014067185435922754 0.0045071226411065408 0 0.013811142629178156 0.0046421548158546138 0 0.013854735451963902 0.0042781521005571567 0 0.013854735451963902 0.0042781521005571567 0 0.01390600270700704 0.0040419598655940595 0 0.013913422872402884 0.0040824189305206536 0 0.014067185435922754 0.0045071226411065408 0 0.013854735451963902 0.0042781521005571567 0 0.013913422872402884 0.0040824189305206536 0 0.022618592321923963 0.0033941272463319321 0 0.0227080978641379 0.002472769321020642 0 0.031239717864771071 0.0014888924642738864 0 0.030757069557759049 0.0017447567907174942 0 0.031284546826963862 0.0015486066779598457 0 0.013854735451963902 0.0042781521005571567 0 0.01393512873470161 0.0040671958841705666 0 0.01390600270700704 0.0040419598655940595 0 0.017024796327678997 0.0034942517635452993 0 0.0227080978641379 0.002472769321020642 0 0.030272403535001411 0.0023131574580713301 0 0.030789894059413674 0.0021051159702172341 0 0.030757069557759049 0.0017447567907174942 0 0.030757069557759049 0.0017447567907174942 0 0.031284546826963862 0.0015486066779598457 0 0.031161900561096766 0.0017457666150187865 0 0.030789894059413674 0.0021051159702172341 0 0.031161900561096766 0.0017457666150187865 0 0.031191517258630473 0.0020005994241651787 0 0.030789894059413674 0.0021051159702172341 0 0.030757069557759049 0.0017447567907174942 0 0.031161900561096766 0.0017457666150187865 0 0.017024796327678997 0.0034942517635452993 0 0.012857681240833863 0.0037759412135670257 0 0.013895981839214136 0.0039883077503386991 0 0.01390600270700704 0.0040419598655940595 0 0.013913422872402884 0.0040824189305206536 0 0.013895981839214136 0.0039883077503386991 0 0.014064278932649183 0.0040016000133948687 0 0.013913422872402884 0.0040824189305206536 0 0.031893605459767917 0.0010794220909302807 0 0.032443314393270806 0.00033974871053940857 0 0.031659022758561368 0.0013904297871644431 0 0.031893605459767917 0.0010794220909302807 0 0.031616503118157745 0.001344856025658781 0 0.031729681223166488 0.0012815825472927769 0 0.031893605459767917 0.0010794220909302807 0 0.031729681223166488 0.0012815825472927769 0 0.03199977336183548 0.0010571967403063339 0 0.031893605459767917 0.0010794220909302807 0 0.03199977336183548 0.0010571967403063339 0 0.032443314393270806 0.00033974871053940857 0 0.031736193054228513 0.0014959682029925981 0 0.031440269092979499 0.0014974896510460008 0 0.031616503118157745 0.001344856025658781 0 0.031736193054228513 0.0014959682029925981 0 0.031893605459767917 0.0010794220909302807 0 0.031616503118157745 0.001344856025658781 0 0.031239717864771071 0.0014888924642738864 0 0.031440269092979499 0.0014974896510460008 0 0.031284546826963862 0.0015486066779598457 0 0.031440269092979499 0.0014974896510460008 0 0.031284546826963862 0.0015486066779598457 0 0.031616503118157745 0.001344856025658781 0 0.022618592321923963 0.0033941272463319321 0 0.026613418310400681 0.004075754646580841 0 0.031284546826963862 0.0015486066779598457 0 0.031616503118157745 0.001344856025658781 0 0.031478277287707856 0.0015000159371108626 0 0.031616503118157745 0.001344856025658781 0 0.031729681223166488 0.0012815825472927769 0 0.031478277287707856 0.0015000159371108626 0 0.031437180062473549 0.0016762035378239211 0 0.031642492799806986 0.001482747229460937 0 0.031781570541186438 0.0016967647506217036 0 0.031729681223166488 0.0012815825472927769 0 0.031478277287707856 0.0015000159371108626 0 0.031642492799806986 0.001482747229460937 0 0.031478277287707856 0.0015000159371108626 0 0.031437180062473549 0.0016762035378239211 0 0.031642492799806986 0.001482747229460937 0 0.031284546826963862 0.0015486066779598457 0 0.031478277287707856 0.0015000159371108626 0 0.031161900561096766 0.0017457666150187865 0 0.031478277287707856 0.0015000159371108626 0 0.031437180062473549 0.0016762035378239211 0 0.031161900561096766 0.0017457666150187865 0 0.031437180062473549 0.0016762035378239211 0 0.031161900561096766 0.0017457666150187865 0 0.031191517258630473 0.0020005994241651787 0 0.031437180062473549 0.0016762035378239211 0 0.031191517258630473 0.0020005994241651787 0 0.031781570541186438 0.0016967647506217036 0 0.031781570541186438 0.0016967647506217036 0 0.031837501837350984 0.0020541227872199704 0 0.03199977336183548 0.0010571967403063339 0 0.034157353125865451 -0.00034710041917349445 0 0.03244086500073242 0.00039386277311474635 0 0.031837501837350984 0.0020541227872199704 0 0.03199977336183548 0.0010571967403063339 0 0.032443314393270806 0.00033974871053940857 0 0.035794604328336421 -0.0029009679691603374 0 0.033601980030395669 -0.0027223603749192415 0 0.032443314393270806 0.00033974871053940857 0 0.031642492799806986 0.001482747229460937 0 0.031781570541186438 0.0016967647506217036 0 0.03199977336183548 0.0010571967403063339 0 0.031729681223166488 0.0012815825472927769 0 0.031642492799806986 0.001482747229460937 0 0.03199977336183548 0.0010571967403063339 0 0.032959759305323411 -0.0044438799413642014 0 0.033601980030395669 -0.0027223603749192415 0 0.030787494864902724 -0.00054240797893819197 0 0.033601980030395669 -0.0027223603749192415 0 0.032443314393270806 0.00033974871053940857 0 0.030787494864902724 -0.00054240797893819197 0 0.032443314393270806 0.00033974871053940857 0 0.030648925877956746 0.0010077443761424875 0 0.031659022758561368 0.0013904297871644431 0 0.032443314393270806 0.00033974871053940857 0 0.030648925877956746 0.0010077443761424875 0 0.030787494864902724 -0.00054240797893819197 0 0.030648925877956746 0.0010077443761424875 0 0.030787494864902724 -0.00054240797893819197 0 0.029409799597234821 0.00062940626863128085 0 0.030787494864902724 -0.00054240797893819197 0 0.029192174441356213 -0.00044229797479802829 0 0.029409799597234821 0.00062940626863128085 0 0.030787494864902724 -0.00054240797893819197 0 0.029419535158398256 -0.0022288597695381026 0 0.029192174441356213 -0.00044229797479802829 0 0.032959759305323411 -0.0044438799413642014 0 0.030787494864902724 -0.00054240797893819197 0 0.029419535158398256 -0.0022288597695381026 0 0.031105015595172605 -0.0034757163395321188 0 0.031363317902370839 -0.0035940096146057773 0 0.029419535158398256 -0.0022288597695381026 0 0.028677804951023522 -0.00081334249248323398 0 0.02782084537261573 -0.00080624472237672876 0 0.032813469521320825 -0.0051158144641845578 0 0.03311574465573467 -0.0050026912729401333 0 0.032566601942136959 -0.0047052106217802363 0 0.033453718789420286 -0.0058621264933423041 0 0.031363317902370839 -0.0035940096146057773 0 0.028677804951023522 -0.00081334249248323398 0 0.02782084537261573 -0.00080624472237672876 0 0.028334365112115494 4.8155809585583599e-05 0 0.029419535158398256 -0.0022288597695381026 0 0.028677804951023522 -0.00081334249248323398 0 0.029192174441356213 -0.00044229797479802829 0 0.034482369719690403 -0.0061147543598034908 0 0.034620802453859671 -0.0059357091411459872 0 0.034787872849436907 -0.0061073925309436724 0 0.034482369719690403 -0.0061147543598034908 0 0.034620802453859671 -0.0059357091411459872 0 0.034344763072749925 -0.005892038281138808 0 0.034624708491137191 -0.0057263786645937566 0 0.034620802453859671 -0.0059357091411459872 0 0.034344763072749925 -0.005892038281138808 0 0.034482369719690403 -0.0061147543598034908 0 0.034344763072749925 -0.005892038281138808 0 0.034224874777169449 -0.0061766224769320647 0 0.033703014760271349 -0.0058690994409580782 0 0.034068179600144535 -0.005995013311523383 0 0.034033815107761489 -0.006291285570222036 0 0.034068179600144535 -0.005995013311523383 0 0.034033815107761489 -0.006291285570222036 0 0.034224874777169449 -0.0061766224769320647 0 0.034344763072749925 -0.005892038281138808 0 0.034068179600144535 -0.005995013311523383 0 0.034224874777169449 -0.0061766224769320647 0 0.031955527853062028 -0.003901234603246435 0 0.031219836043987113 -0.0035489985003341411 0 0.031014756761000791 -0.0023085821225066294 0 0.031363317902370839 -0.0035940096146057773 0 0.032505767371746534 -0.0041891437291624025 0 0.034033815107761489 -0.006291285570222036 0 0.034217602378788112 -0.0063994635871560185 0 0.034224874777169449 -0.0061766224769320647 0 0.034217602378788112 -0.0063994635871560185 0 0.03456351194167178 -0.0062903472102222727 0 0.035025473921435686 -0.0065470221915659805 0 0.034482369719690403 -0.0061147543598034908 0 0.034224874777169449 -0.0061766224769320647 0 0.03456351194167178 -0.0062903472102222727 0 0.034217602378788112 -0.0063994635871560185 0 0.034224874777169449 -0.0061766224769320647 0 0.03456351194167178 -0.0062903472102222727 0 0.034482369719690403 -0.0061147543598034908 0 0.03456351194167178 -0.0062903472102222727 0 0.034787872849436907 -0.0061073925309436724 0 0.030624510584722105 -0.0017390669953334238 0 0.02905432282284107 0.00024245059564260269 0 0.032290319995731828 -0.0034216696009981319 0 0.032347374035667821 -0.0037584662807822276 0 0.033058174367089674 -0.0038067876878602551 0 0.032505767371746534 -0.0041891437291624025 0 0.030624510584722105 -0.0017390669953334238 0 0.031363317902370839 -0.0035940096146057773 0 0.030624510584722105 -0.0017390669953334238 0 0.02782084537261573 -0.00080624472237672876 0 0.027469513295440156 8.0853785119871209e-05 0 0.028334365112115494 4.8155809585583599e-05 0 0.027469513295440156 8.0853785119871209e-05 0 0.028334365112115494 4.8155809585583599e-05 0 0.028344045370063409 0.001147934467278462 0 0.030624510584722105 -0.0017390669953334238 0 0.031831590409272775 -0.0029921838284830671 0 0.028677804951023522 -0.00081334249248323398 0 0.029192174441356213 -0.00044229797479802829 0 0.028334365112115494 4.8155809585583599e-05 0 0.029192174441356213 -0.00044229797479802829 0 0.028334365112115494 4.8155809585583599e-05 0 0.029409799597234821 0.00062940626863128085 0 0.028334365112115494 4.8155809585583599e-05 0 0.029409799597234821 0.00062940626863128085 0 0.028344045370063409 0.001147934467278462 0 0.029409799597234821 0.00062940626863128085 0 0.028344045370063409 0.001147934467278462 0 0.029818333199724958 0.0020807905253974759 0 0.028344045370063409 0.001147934467278462 0 0.028472259179974112 0.0021925855479663558 0 0.029818333199724958 0.0020807905253974759 0 0.030806831665687918 -0.0013891330995044551 0 0.030820373685368704 -0.0014021153180870452 0 0.030831963254603734 -0.0014017416279292548 0 0.027469513295440156 8.0853785119871209e-05 0 0.028344045370063409 0.001147934467278462 0 0.027436222425107081 0.0014872825478418554 0 0.028344045370063409 0.001147934467278462 0 0.027436222425107081 0.0014872825478418554 0 0.028472259179974112 0.0021925855479663558 0 0.027436222425107081 0.0014872825478418554 0 0.027360581525013073 0.0026475662053563847 0 0.028472259179974112 0.0021925855479663558 0 0.029602504949473647 0.00069392817275710074 0 0.028038675396433028 0.0032923180492868513 0 0.02905432282284107 0.00024245059564260269 0 0.029602504949473647 0.00069392817275710074 0 0.030820373685368704 -0.0014021153180870452 0 0.030827194632148811 -0.0014307369733027413 0 0.03083625380846567 -0.0014169347329134625 0 0.027360581525013073 0.0026475662053563847 0 0.028472259179974112 0.0021925855479663558 0 0.028720223498718424 0.0031015415449291983 0 0.029160892834431608 0.0026079826412364238 0 0.028472259179974112 0.0021925855479663558 0 0.028720223498718424 0.0031015415449291983 0 0.029160892834431608 0.0026079826412364238 0 0.028472259179974112 0.0021925855479663558 0 0.029818333199724958 0.0020807905253974759 0 0.029160892834431608 0.0026079826412364238 0 0.029818333199724958 0.0020807905253974759 0 0.029559173861182654 0.0029430403225413665 0 0.030112380086347996 0.0026405890768666693 0 0.029818333199724958 0.0020807905253974759 0 0.029559173861182654 0.0029430403225413665 0 0.031506259021640629 0.0025084199223854692 0 0.029543627034918581 0.0019948746123636357 0 0.031315061444183633 0.0022583236820223345 0 0.031659022758561368 0.0013904297871644431 0 0.029818333199724958 0.0020807905253974759 0 0.030648925877956746 0.0010077443761424875 0 0.031659022758561368 0.0013904297871644431 0 0.029818333199724958 0.0020807905253974759 0 0.030648925877956746 0.0010077443761424875 0 0.029409799597234821 0.00062940626863128085 0 0.029818333199724958 0.0020807905253974759 0 0.039496515182209958 -0.0060461326682920962 0 0.041198564160510362 -0.004785600721787739 0 0.041248455447272306 -0.0065081108850138123 0 0.039496515182209958 -0.0060461326682920962 0 0.03962681773905103 -0.0072466294181598957 0 0.041248455447272306 -0.0065081108850138123 0 0.039496515182209958 -0.0060461326682920962 0 0.03837870670997446 -0.0070721570358755013 0 0.03962681773905103 -0.0072466294181598957 0 0.040809024534208892 -0.0036868024513763598 0 0.039454479331926882 -0.0044384659459534032 0 0.041198564160510362 -0.004785600721787739 0 0.039496515182209958 -0.0060461326682920962 0 0.039359565237121301 -0.0050969501278141796 0 0.041198564160510362 -0.004785600721787739 0 0.039454479331926882 -0.0044384659459534032 0 0.039359565237121301 -0.0050969501278141796 0 0.041198564160510362 -0.004785600721787739 0 0.039454479331926882 -0.0044384659459534032 0 0.039359565237121301 -0.0050969501278141796 0 0.03834872931612595 -0.0049121144733466106 0 0.039496515182209958 -0.0060461326682920962 0 0.039359565237121301 -0.0050969501278141796 0 0.038284895591437634 -0.0055577694974892414 0 0.039359565237121301 -0.0050969501278141796 0 0.038284895591437634 -0.0055577694974892414 0 0.03834872931612595 -0.0049121144733466106 0 0.038284895591437634 -0.0055577694974892414 0 0.03834872931612595 -0.0049121144733466106 0 0.037180063768057714 -0.0056924885875818789 0 0.03834872931612595 -0.0049121144733466106 0 0.037232014544206549 -0.0051547008792231968 0 0.037180063768057714 -0.0056924885875818789 0 0.038284895591437634 -0.0055577694974892414 0 0.037180063768057714 -0.0056924885875818789 0 0.037606423820370098 -0.0060955018914493151 0 0.037180063768057714 -0.0056924885875818789 0 0.037606423820370098 -0.0060955018914493151 0 0.036782242895875394 -0.0062277952992599046 0 0.037606423820370098 -0.0060955018914493151 0 0.038394427972798621 -0.0063109299490292864 0 0.037462420155842696 -0.0067359568904425543 0 0.037606423820370098 -0.0060955018914493151 0 0.037462420155842696 -0.0067359568904425543 0 0.036782242895875394 -0.0062277952992599046 0 0.038284895591437634 -0.0055577694974892414 0 0.037606423820370098 -0.0060955018914493151 0 0.038394427972798621 -0.0063109299490292864 0 0.039496515182209958 -0.0060461326682920962 0 0.038284895591437634 -0.0055577694974892414 0 0.038394427972798621 -0.0063109299490292864 0 0.038394427972798621 -0.0063109299490292864 0 0.03837870670997446 -0.0070721570358755013 0 0.037462420155842696 -0.0067359568904425543 0 0.039496515182209958 -0.0060461326682920962 0 0.038394427972798621 -0.0063109299490292864 0 0.03837870670997446 -0.0070721570358755013 0 0.037462420155842696 -0.0067359568904425543 0 0.036810882452326929 -0.0070822492396061939 0 0.037375012498815509 -0.0075723761646427105 0 0.03837870670997446 -0.0070721570358755013 0 0.037462420155842696 -0.0067359568904425543 0 0.037375012498815509 -0.0075723761646427105 0 0.036810882452326929 -0.0070822492396061939 0 0.03548841374501488 -0.0069273671691764144 0 0.037375012498815509 -0.0075723761646427105 0 0.035194766289284848 -0.006340672252361958 0 0.037261845922562167 -0.0075966606830422181 0 0.036810882452326929 -0.0070822492396061939 0 0.036095349969087476 -0.0068763009547374489 0 0.036737050819050508 -0.0067114618249765976 0 0.037462420155842696 -0.0067359568904425543 0 0.036810882452326929 -0.0070822492396061939 0 0.036737050819050508 -0.0067114618249765976 0 0.036810882452326929 -0.0070822492396061939 0 0.036095349969087476 -0.0068763009547374489 0 0.03548841374501488 -0.0069273671691764144 0 0.036314957754373246 -0.0065025913145646888 0 0.036782242895875394 -0.0062277952992599046 0 0.036067736357898297 -0.006175159167354928 0 0.036095349969087476 -0.0068763009547374489 0 0.036314957754373246 -0.0065025913145646888 0 0.036737050819050508 -0.0067114618249765976 0 0.036095349969087476 -0.0068763009547374489 0 0.035756711432043155 -0.0067562848892946418 0 0.03548841374501488 -0.0069273671691764144 0 0.036095349969087476 -0.0068763009547374489 0 0.035854902247778583 -0.0065414943661998848 0 0.035756711432043155 -0.0067562848892946418 0 0.036095349969087476 -0.0068763009547374489 0 0.035854902247778583 -0.0065414943661998848 0 0.036314957754373246 -0.0065025913145646888 0 0.035854902247778583 -0.0065414943661998848 0 0.036314957754373246 -0.0065025913145646888 0 0.036067736357898297 -0.006175159167354928 0 0.037462420155842696 -0.0067359568904425543 0 0.036737050819050508 -0.0067114618249765976 0 0.036782242895875394 -0.0062277952992599046 0 0.036314957754373246 -0.0065025913145646888 0 0.036737050819050508 -0.0067114618249765976 0 0.036782242895875394 -0.0062277952992599046 0 0.036782242895875394 -0.0062277952992599046 0 0.036324953019029819 -0.0058457300379780299 0 0.036067736357898297 -0.006175159167354928 0 0.037180063768057714 -0.0056924885875818789 0 0.036782242895875394 -0.0062277952992599046 0 0.036324953019029819 -0.0058457300379780299 0 0.037232014544206549 -0.0051547008792231968 0 0.037180063768057714 -0.0056924885875818789 0 0.036468677446995328 -0.0053960631825603241 0 0.037180063768057714 -0.0056924885875818789 0 0.036324953019029819 -0.0058457300379780299 0 0.036468677446995328 -0.0053960631825603241 0 0.036324953019029819 -0.0058457300379780299 0 0.036468677446995328 -0.0053960631825603241 0 0.035799971654705484 -0.005673962275858562 0 0.036324953019029819 -0.0058457300379780299 0 0.035799971654705484 -0.005673962275858562 0 0.035756373092681558 -0.0059813964848588821 0 0.035799971654705484 -0.005673962275858562 0 0.035756373092681558 -0.0059813964848588821 0 0.0354827637777917 -0.0058773403558551726 0 0.036324953019029819 -0.0058457300379780299 0 0.035756373092681558 -0.0059813964848588821 0 0.036067736357898297 -0.006175159167354928 0 0.035756373092681558 -0.0059813964848588821 0 0.036067736357898297 -0.006175159167354928 0 0.035708370906502834 -0.0062773111739507052 0 0.035854902247778583 -0.0065414943661998848 0 0.036067736357898297 -0.006175159167354928 0 0.035708370906502834 -0.0062773111739507052 0 0.035708370906502834 -0.0062773111739507052 0 0.035422984276330699 -0.006121172836524056 0 0.035417755637649734 -0.0064549661763980389 0 0.035422984276330699 -0.006121172836524056 0 0.035099953887581158 -0.0062548441991299875 0 0.035417755637649734 -0.0064549661763980389 0 0.035422984276330699 -0.006121172836524056 0 0.035145362785275143 -0.0059700543978189234 0 0.035099953887581158 -0.0062548441991299875 0 0.035756373092681558 -0.0059813964848588821 0 0.035422984276330699 -0.006121172836524056 0 0.0354827637777917 -0.0058773403558551726 0 0.035756373092681558 -0.0059813964848588821 0 0.035708370906502834 -0.0062773111739507052 0 0.035422984276330699 -0.006121172836524056 0 0.035422984276330699 -0.006121172836524056 0 0.0354827637777917 -0.0058773403558551726 0 0.035145362785275143 -0.0059700543978189234 0 0.035313818240659087 -0.0056631496902729145 0 0.0354827637777917 -0.0058773403558551726 0 0.035145362785275143 -0.0059700543978189234 0 0.035313818240659087 -0.0056631496902729145 0 0.035799971654705484 -0.005673962275858562 0 0.0354827637777917 -0.0058773403558551726 0 0.034624708491137191 -0.0057263786645937566 0 0.034620802453859671 -0.0059357091411459872 0 0.034873127142163937 -0.0058287857732559857 0 0.035313818240659087 -0.0056631496902729145 0 0.035145362785275143 -0.0059700543978189234 0 0.034873127142163937 -0.0058287857732559857 0 0.035145362785275143 -0.0059700543978189234 0 0.034873127142163937 -0.0058287857732559857 0 0.034787872849436907 -0.0061073925309436724 0 0.034620802453859671 -0.0059357091411459872 0 0.034873127142163937 -0.0058287857732559857 0 0.034787872849436907 -0.0061073925309436724 0 0.034787872849436907 -0.0061073925309436724 0 0.035099953887581158 -0.0062548441991299875 0 0.034859520724818883 -0.0063173486714856045 0 0.03456351194167178 -0.0062903472102222727 0 0.034787872849436907 -0.0061073925309436724 0 0.034859520724818883 -0.0063173486714856045 0 0.035145362785275143 -0.0059700543978189234 0 0.034787872849436907 -0.0061073925309436724 0 0.035099953887581158 -0.0062548441991299875 0 0.035099953887581158 -0.0062548441991299875 0 0.034859520724818883 -0.0063173486714856045 0 0.035025473921435686 -0.0065470221915659805 0 0.035099953887581158 -0.0062548441991299875 0 0.035025473921435686 -0.0065470221915659805 0 0.035417755637649734 -0.0064549661763980389 0 0.03456351194167178 -0.0062903472102222727 0 0.034859520724818883 -0.0063173486714856045 0 0.035025473921435686 -0.0065470221915659805 0 0.032347374035667821 -0.0037584662807822276 0 0.033058174367089674 -0.0038067876878602551 0 0.032749934946579663 -0.004421497939486296 0 0.032505767371746534 -0.0041891437291624025 0 0.034276449505519335 -0.0056552247141451123 0 0.034217602378788112 -0.0063994635871560185 0 0.035025473921435686 -0.0065470221915659805 0 0.035270760455423482 -0.0068409653972672652 0 0.035025473921435686 -0.0065470221915659805 0 0.035379158290076214 -0.0066554895490593411 0 0.035417755637649734 -0.0064549661763980389 0 0.035379158290076214 -0.0066554895490593411 0 0.035417755637649734 -0.0064549661763980389 0 0.035590700902809462 -0.0066895920310579967 0 0.035854902247778583 -0.0065414943661998848 0 0.035417755637649734 -0.0064549661763980389 0 0.035590700902809462 -0.0066895920310579967 0 0.035854902247778583 -0.0065414943661998848 0 0.035708370906502834 -0.0062773111739507052 0 0.035417755637649734 -0.0064549661763980389 0 0.035379158290076214 -0.0066554895490593411 0 0.035590700902809462 -0.0066895920310579967 0 0.03548841374501488 -0.0069273671691764144 0 0.035854902247778583 -0.0065414943661998848 0 0.035590700902809462 -0.0066895920310579967 0 0.035756711432043155 -0.0067562848892946418 0 0.035590700902809462 -0.0066895920310579967 0 0.035756711432043155 -0.0067562848892946418 0 0.03548841374501488 -0.0069273671691764144 0 0.035025473921435686 -0.0065470221915659805 0 0.035270760455423482 -0.0068409653972672652 0 0.03548841374501488 -0.0069273671691764144 0 0.035025473921435686 -0.0065470221915659805 0 0.035379158290076214 -0.0066554895490593411 0 0.03548841374501488 -0.0069273671691764144 0 0.034276449505519335 -0.0056552247141451123 0 0.035194766289284848 -0.006340672252361958 0 0.034652129703401431 -0.0062087184141036119 0 0.035021249198681596 -0.0063929308969623063 0 0.03575972060349987 -0.0077443745860394106 0 0.034652129703401431 -0.0062087184141036119 0 0.035212631622261813 -0.0094032751293991676 0 0.03575972060349987 -0.0077443745860394106 0 0.033058174367089674 -0.0038067876878602551 0 0.032749934946579663 -0.004421497939486296 0 0.033273786460706722 -0.0050306438178838375 0 0.034276449505519335 -0.0056552247141451123 0 0.034453718691014185 -0.0060441154557751226 0 0.032749934946579663 -0.004421497939486296 0 0.033273786460706722 -0.0050306438178838375 0 0.03314919308933189 -0.0050826690323778154 0 0.031831590409272775 -0.0029921838284830671 0 0.03315212367536953 -0.0033735038679876539 0 0.030831963254603734 -0.0014017416279292548 0 0.03083625380846567 -0.0014169347329134625 0 0.030863148784407848 -0.0014322783563216141 0 0.030820373685368704 -0.0014021153180870452 0 0.030831963254603734 -0.0014017416279292548 0 0.03083625380846567 -0.0014169347329134625 0 0.030827194632148811 -0.0014307369733027413 0 0.03083625380846567 -0.0014169347329134625 0 0.030863148784407848 -0.0014322783563216141 0 0.029602504949473647 0.00069392817275710074 0 0.03315212367536953 -0.0033735038679876539 0 0.031931965604470314 -2.1843960971293426e-05 0 0.031704862355719718 -4.1517675874050502e-05 0 0.031672813232079981 -0.00015541593983450005 0 0.031931965604470314 -2.1843960971293426e-05 0 0.031780064114456018 4.9058837479038189e-05 0 0.031704862355719718 -4.1517675874050502e-05 0 0.031780064114456018 4.9058837479038189e-05 0 0.031704862355719718 -4.1517675874050502e-05 0 0.031604004915701499 -3.1445680065501351e-05 0 0.03212366600171479 -0.0016902141419059581 0 0.03515182088222038 -0.0029834683380722845 0 0.031780064114456018 4.9058837479038189e-05 0 0.031586520286366049 -1.5048132834849263e-05 0 0.031562806673377845 2.4109147723520712e-05 0 0.03515182088222038 -0.0029834683380722845 0 0.035516654378971613 -0.0019830642882910556 0 0.031704862355719718 -4.1517675874050502e-05 0 0.031604004915701499 -3.1445680065501351e-05 0 0.031672813232079981 -0.00015541593983450005 0 0.03515182088222038 -0.0029834683380722845 0 0.03315212367536953 -0.0033735038679876539 0 0.034854759994953778 -0.0034160011498755444 0 0.034927469966969035 -0.0043127295945742912 0 0.035287288056641365 -0.0041537948211764425 0 0.03515182088222038 -0.0029834683380722845 0 0.034453718691014185 -0.0060441154557751226 0 0.034453718691014185 -0.0060441154557751226 0 0.03315212367536953 -0.0033735038679876539 0 0.036019035258467863 -0.0087956910977719967 0 0.037726712680163615 -0.0081028792652208526 0 0.037584325822211738 -0.009033180043124452 0 0.036074720768498041 -0.0094104299054344216 0 0.036019035258467863 -0.0087956910977719967 0 0.037584325822211738 -0.009033180043124452 0 0.03515182088222038 -0.0029834683380722845 0 0.038725886580999465 -0.0059308674176445399 0 0.039290586991696352 -0.0029213026601205803 0 0.039733205524858359 -0.0030765614920735835 0 0.040014635388966047 -0.002730320569499246 0 0.039290586991696352 -0.0029213026601205803 0 0.039334219655575646 -0.0029899421875969174 0 0.039733205524858359 -0.0030765614920735835 0 0.039733205524858359 -0.0030765614920735835 0 0.040014635388966047 -0.002730320569499246 0 0.040227639124142546 -0.0030957809730878466 0 0.034453718691014185 -0.0060441154557751226 0 0.037620498038709566 -0.0084528666053662257 0 0.035021249198681596 -0.0063929308969623063 0 0.03575972060349987 -0.0077443745860394106 0 0.037375012498815509 -0.0075723761646427105 0 0.035212631622261813 -0.0094032751293991676 0 0.036621508092368867 -0.0080253837375369747 0 0.03736431592190359 -0.0085065698333031611 0 0.035212631622261813 -0.0094032751293991676 0 0.03575972060349987 -0.0077443745860394106 0 0.036621508092368867 -0.0080253837375369747 0 0.036621508092368867 -0.0080253837375369747 0 0.037375012498815509 -0.0075723761646427105 0 0.03736431592190359 -0.0085065698333031611 0 0.03575972060349987 -0.0077443745860394106 0 0.036621508092368867 -0.0080253837375369747 0 0.037375012498815509 -0.0075723761646427105 0 0.037620498038709566 -0.0084528666053662257 0 0.039443738534554469 -0.0073438344390229036 0 0.037726712680163615 -0.0081028792652208526 0 0.03915700201190743 -0.0086828251663951406 0 0.039414882989696809 -0.0083997662960386774 0 0.03837870670997446 -0.0070721570358755013 0 0.03736431592190359 -0.0085065698333031611 0 0.03962681773905103 -0.0072466294181598957 0 0.037726712680163615 -0.0081028792652208526 0 0.039414882989696809 -0.0083997662960386774 0 0.03962681773905103 -0.0072466294181598957 0 0.03837870670997446 -0.0070721570358755013 0 0.037375012498815509 -0.0075723761646427105 0 0.03736431592190359 -0.0085065698333031611 0 0.038725886580999465 -0.0059308674176445399 0 0.042001938520079295 -0.0048720776163979074 0 0.040014635388966047 -0.002730320569499246 0 0.040227639124142546 -0.0030957809730878466 0 0.040700946748847146 -0.0025598386339486271 0 0.046882444509144819 -0.0025456345667263392 0 0.047110572027646867 -0.002322526549651642 0 0.047235110835882332 -0.0025339590538847375 0 0.037726712680163615 -0.0081028792652208526 0 0.037584325822211738 -0.009033180043124452 0 0.03915700201190743 -0.0086828251663951406 0 0.04388343706834117 -0.0024542514931547438 0 0.042001938520079295 -0.0048720776163979074 0 0.047110572027646867 -0.002322526549651642 0 0.047460896125472045 -0.0024600671915198024 0 0.047816408675056862 -0.0024252974705682153 0 0.047110572027646867 -0.002322526549651642 0 0.047235110835882332 -0.0025339590538847375 0 0.047460896125472045 -0.0024600671915198024 0 0.047235110835882332 -0.0025339590538847375 0 0.047349901616517094 -0.0026495267948101302 0 0.04744238505540567 -0.0025533687895101659 0 0.047235110835882332 -0.0025339590538847375 0 0.047460896125472045 -0.0024600671915198024 0 0.04744238505540567 -0.0025533687895101659 0 0.042001938520079295 -0.0048720776163979074 0 0.04527677385685857 -0.0050113690354720462 0 0.039061958645412051 -0.0088646625682765861 0 0.039414882989696809 -0.0083997662960386774 0 0.042480519023153911 -0.0076420944361744519 0 0.042001938520079295 -0.0048720776163979074 0 0.040684345383856506 -0.0065545264545482174 0 0.039414882989696809 -0.0083997662960386774 0 0.03962681773905103 -0.0072466294181598957 0 0.041248455447272306 -0.0065081108850138123 0 0.04723097077624349 -0.0029187585242911192 0 0.047194449043017749 -0.0030226745006112755 0 0.047533210456633501 -0.0028850366100249408 0 0.047194449043017749 -0.0030226745006112755 0 0.047097797745983223 -0.0032224047815248408 0 0.047533210456633501 -0.0028850366100249408 0 0.04723097077624349 -0.0029187585242911192 0 0.047194449043017749 -0.0030226745006112755 0 0.046969715191986131 -0.002983205369251589 0 0.04723097077624349 -0.0029187585242911192 0 0.04726053092290948 -0.0027546135492314129 0 0.046978907990606292 -0.002750871792918282 0 0.04723097077624349 -0.0029187585242911192 0 0.046978907990606292 -0.002750871792918282 0 0.046969715191986131 -0.002983205369251589 0 0.04723097077624349 -0.0029187585242911192 0 0.04726053092290948 -0.0027546135492314129 0 0.047398185826618318 -0.002833582530296442 0 0.04726053092290948 -0.0027546135492314129 0 0.047442099161676868 -0.0027609438984693133 0 0.047398185826618318 -0.002833582530296442 0 0.04726053092290948 -0.0027546135492314129 0 0.047349901616517094 -0.0026495267948101302 0 0.047116141421869283 -0.002652865895702444 0 0.04726053092290948 -0.0027546135492314129 0 0.047349901616517094 -0.0026495267948101302 0 0.047442099161676868 -0.0027609438984693133 0 0.047235110835882332 -0.0025339590538847375 0 0.047349901616517094 -0.0026495267948101302 0 0.047116141421869283 -0.002652865895702444 0 0.04726053092290948 -0.0027546135492314129 0 0.047116141421869283 -0.002652865895702444 0 0.046978907990606292 -0.002750871792918282 0 0.046882444509144819 -0.0025456345667263392 0 0.047235110835882332 -0.0025339590538847375 0 0.047116141421869283 -0.002652865895702444 0 0.046882444509144819 -0.0025456345667263392 0 0.046978907990606292 -0.002750871792918282 0 0.046692886999719206 -0.0027672975760686474 0 0.047890057898640523 -0.0026846294444605717 0 0.043583811645798241 -0.0020829166638707671 0 0.046882444509144819 -0.0025456345667263392 0 0.047116141421869283 -0.002652865895702444 0 0.046978907990606292 -0.002750871792918282 0 0.046978907990606292 -0.002750871792918282 0 0.046665633856662003 -0.0028835825376965067 0 0.046540725733940448 -0.0026888755861503469 0 0.046978907990606292 -0.002750871792918282 0 0.046969715191986131 -0.002983205369251589 0 0.046665633856662003 -0.0028835825376965067 0 0.046969715191986131 -0.002983205369251589 0 0.046665633856662003 -0.0028835825376965067 0 0.046724721355227462 -0.0031677547679979387 0 0.03607119572942058 0.0006107276496345453 0 0.039411799345586154 -0.00076676752569363881 0 0.0462847366149629 -0.0027466952289325643 0 0.046452241590395432 -0.0027619029250701716 0 0.046408237125998633 -0.0031837684188508303 0 0.046665633856662003 -0.0028835825376965067 0 0.046452241590395432 -0.0027619029250701716 0 0.046408237125998633 -0.0031837684188508303 0 0.03607119572942058 0.0006107276496345453 0 0.034395866056278604 0.00069411877695324347 0 0.037267846857096283 -0.00035853173131354134 0 0.036947175102123503 -0.00077050727241570493 0 0.037339969640345451 -0.00075410135180286415 0 0.0462847366149629 -0.0027466952289325643 0 0.046452241590395432 -0.0027619029250701716 0 0.046397456481682191 -0.0025961986130144925 0 0.03607119572942058 0.0006107276496345453 0 0.040469425225043806 -0.00092040819601856591 0 0.046047895579009832 -0.0034424285371509617 0 0.043583811645798241 -0.0020829166638707671 0 0.046665633856662003 -0.0028835825376965067 0 0.046452241590395432 -0.0027619029250701716 0 0.046476101759019395 -0.0025915387217938452 0 0.046452241590395432 -0.0027619029250701716 0 0.046397456481682191 -0.0025961986130144925 0 0.046476101759019395 -0.0025915387217938452 0 0.035516654378971613 -0.0019830642882910556 0 0.034395866056278604 0.00069411877695324347 0 0.046882444509144819 -0.0025456345667263392 0 0.046692886999719206 -0.0027672975760686474 0 0.04667520558336586 -0.0027410434644168716 0 0.035516654378971613 -0.0019830642882910556 0 0.041514741982958986 -0.0015457580785682306 0 0.039334219655575646 -0.0029899421875969174 0 0.039733205524858359 -0.0030765614920735835 0 0.039764409231361882 -0.0036491200223100926 0 0.037044812903193343 -0.0013408824934370801 0 0.036610949431473867 -0.00055223971847761914 0 0.036907812487130771 -0.00045617473233566661 0 0.042447232926374256 2.7167224083243368e-05 0 0.040098326919311117 -5.8045098023052617e-05 0 0.041066954609808561 -0.0016863174120736902 0 0.040469425225043806 -0.00092040819601856591 0 0.043583811645798241 -0.0020829166638707671 0 0.040469425225043806 -0.00092040819601856591 0 0.041514741982958986 -0.0015457580785682306 0 0.043583811645798241 -0.0020829166638707671 0 0.041514741982958986 -0.0015457580785682306 0 0.04388343706834117 -0.0024542514931547438 0 0.041514741982958986 -0.0015457580785682306 0 0.039733205524858359 -0.0030765614920735835 0 0.040227639124142546 -0.0030957809730878466 0 0.039764409231361882 -0.0036491200223100926 0 0.036678792626200253 -0.00046528613044700804 0 0.036610949431473867 -0.00055223971847761914 0 0.036907812487130771 -0.00045617473233566661 0 0.040469425225043806 -0.00092040819601856591 0 0.034395866056278604 0.00069411877695324347 0 0.031780064114456018 4.9058837479038189e-05 0 0.031657672349786746 0.00026020883406940593 0 0.031834638613379866 0.0004863922879249167 0 0.031562806673377845 2.4109147723520712e-05 0 0.031480135357558336 0.00046234748394325032 0 0.031657672349786746 0.00026020883406940593 0 0.031931965604470314 -2.1843960971293426e-05 0 0.031780064114456018 4.9058837479038189e-05 0 0.031834638613379866 0.0004863922879249167 0 0.031480135357558336 0.00046234748394325032 0 0.031657672349786746 0.00026020883406940593 0 0.031834638613379866 0.0004863922879249167 0 0.029602504949473647 0.00069392817275710074 0 0.025775069489780714 0.0036490764347060578 0 0.031780064114456018 4.9058837479038189e-05 0 0.031562806673377845 2.4109147723520712e-05 0 0.031657672349786746 0.00026020883406940593 0 0.034395866056278604 0.00069411877695324347 0 0.025775069489780714 0.0036490764347060578 0 0.029621147944393897 0.0032773330233058194 0 0.027857701934712809 0.00371140631437892 0 0.02819562825133972 0.0015940952427158242 0 0.029621147944393897 0.0032773330233058194 0 0.029536582276715472 0.0037596733117389613 0 0.027857701934712809 0.00371140631437892 0 0.03607119572942058 0.0006107276496345453 0 0.023545180151010984 0.0044921379338840701 0 0.025775069489780714 0.0036490764347060578 0 0.023545180151010984 0.0044921379338840701 0 0.023545180151010984 0.0044921379338840701 0 0.017692325972711608 0.0058117212484632514 0 0.017796558569301801 0.006759570647055786 0 0.016887562003125016 0.0075634618908349185 0 0.017392295467964884 0.0074612815424154365 0 0.023545180151010984 0.0044921379338840701 0 0.02538665006400603 0.0049338812089687175 0 0.031879512801320203 0.0025196421156684079 0 0.032326392898821416 0.0021685947005821685 0 0.031956715608712681 0.0019741350474345646 0 0.017326457285713279 0.0060940005802069749 0 0.017796558569301801 0.006759570647055786 0 0.016887562003125016 0.0075634618908349185 0 0.041602033161991035 0.001170830528000042 0 0.02538665006400603 0.0049338812089687175 0 0.041602033161991035 0.001170830528000042 0 0.044249942884650985 0.00412622103141642 0 0.041602033161991035 0.001170830528000042 0 0.039411799345586154 -0.00076676752569363881 0 0.031879512801320203 0.0025196421156684079 0 0.032326392898821416 0.0021685947005821685 0 0.032261656771271005 0.0024997977454024505 0 0.03220944652524288 0.0028300935828797619 0 0.031879512801320203 0.0025196421156684079 0 0.032261656771271005 0.0024997977454024505 0 0.046471748703062442 -0.0035702957931273167 0 0.046408237125998633 -0.0031837684188508303 0 0.046724721355227462 -0.0031677547679979387 0 0.046665633856662003 -0.0028835825376965067 0 0.046408237125998633 -0.0031837684188508303 0 0.046724721355227462 -0.0031677547679979387 0 0.046471748703062442 -0.0035702957931273167 0 0.046724721355227462 -0.0031677547679979387 0 0.047097797745983223 -0.0032224047815248408 0 0.046969715191986131 -0.002983205369251589 0 0.046724721355227462 -0.0031677547679979387 0 0.047097797745983223 -0.0032224047815248408 0 0.056977031286017416 0.0041010431986530918 0 0.057015103383194779 0.0050501883452322965 0 0.058723028185350683 0.0056473458219536733 0 0.049703885923296894 -0.00030918868525506293 0 0.051150950745295548 -7.2165569500792524e-05 0 0.051107094498112564 0.00041930514886495636 0 0.049703885923296894 -0.00030918868525506293 0 0.051150950745295548 -7.2165569500792524e-05 0 0.049820455308549581 -0.0010321067796973248 0 0.055888004342427064 0.002149956988640114 0 0.044249942884650985 0.00412622103141642 0 0.041602033161991035 0.001170830528000042 0 0.050215049337224447 -0.0016190662183648966 0 0.056977031286017416 0.0041010431986530918 0 0.057015103383194779 0.0050501883452322965 0 0.056262604300354936 0.004375403524653371 0 0.057015103383194779 0.0050501883452322965 0 0.056262604300354936 0.004375403524653371 0 0.056171688157371648 0.0052031857519207053 0 0.056977031286017416 0.0041010431986530918 0 0.056262604300354936 0.004375403524653371 0 0.05587891956853925 0.0036173529240360745 0 0.051150950745295548 -7.2165569500792524e-05 0 0.051107094498112564 0.00041930514886495636 0 0.052285985685522104 0.00065474471444491086 0 0.050215049337224447 -0.0016190662183648966 0 0.049715177965648928 -0.0010732872419869997 0 0.055888004342427064 0.002149956988640114 0 0.05338086927411307 0.0014275555229298421 0 0.056977031286017416 0.0041010431986530918 0 0.055213626134169788 0.0024448265685397415 0 0.05587891956853925 0.0036173529240360745 0 0.047194449043017749 -0.0030226745006112755 0 0.046969715191986131 -0.002983205369251589 0 0.047097797745983223 -0.0032224047815248408 0 0.019458272838201399 0.0058116083910394311 0 0.018810202682983286 0.0061878592392825378 0 0.019309635124646764 0.006392838757905887 0 0.025112073574697722 0.0046276751117672659 0 0.022881958069845533 0.0047411893330538794 0 0.019458272838201399 0.0058116083910394311 0 0.019309635124646764 0.006392838757905887 0 0.019771610689173418 0.0064765885091859826 0 0.023081490197771462 0.0051050878182664263 0 0.025112073574697722 0.0046276751117672659 0 0.020250781807983058 0.0058543394622181761 0 0.019458272838201399 0.0058116083910394311 0 0.019771610689173418 0.0064765885091859826 0 0.030112380086347996 0.0026405890768666693 0 0.030092066974907645 0.0030847960570221677 0 0.029559173861182654 0.0029430403225413665 0 0.030260655113188536 0.003446873739030955 0 0.029629033358659657 0.0035151934113428858 0 0.030092066974907645 0.0030847960570221677 0 0.029629033358659657 0.0035151934113428858 0 0.030092066974907645 0.0030847960570221677 0 0.029559173861182654 0.0029430403225413665 0 0.029629033358659657 0.0035151934113428858 0 0.029559173861182654 0.0029430403225413665 0 0.02863366704778374 0.0036546830814093859 0 0.029559173861182654 0.0029430403225413665 0 0.028720223498718424 0.0031015415449291983 0 0.02863366704778374 0.0036546830814093859 0 0.029160892834431608 0.0026079826412364238 0 0.029559173861182654 0.0029430403225413665 0 0.028720223498718424 0.0031015415449291983 0 0.028720223498718424 0.0031015415449291983 0 0.028126018015510533 0.0032925292729621622 0 0.02863366704778374 0.0036546830814093859 0 0.027518488886875771 0.0036484611483604003 0 0.028126018015510533 0.0032925292729621622 0 0.02863366704778374 0.0036546830814093859 0 0.027699829084808694 0.0026116151956964962 0 0.027518488886875771 0.0036484611483604003 0 0.028126018015510533 0.0032925292729621622 0 0.027699829084808694 0.0026116151956964962 0 0.028720223498718424 0.0031015415449291983 0 0.028126018015510533 0.0032925292729621622 0 0.025775069489780714 0.0036490764347060578 0 0.022881958069845533 0.0047411893330538794 0 0.017806704705297962 0.005622323827160455 0 0.018637292477463756 0.0056845814114168886 0 0.018182523795287533 0.0061985747873208171 0 0.017806704705297962 0.005622323827160455 0 0.01761576015111483 0.0063670881197561398 0 0.018182523795287533 0.0061985747873208171 0 0.018637292477463756 0.0056845814114168886 0 0.018810202682983286 0.0061878592392825378 0 0.018182523795287533 0.0061985747873208171 0 0.019458272838201399 0.0058116083910394311 0 0.018637292477463756 0.0056845814114168886 0 0.018810202682983286 0.0061878592392825378 0 0.018810202682983286 0.0061878592392825378 0 0.018475375754089626 0.006575337580008265 0 0.018182523795287533 0.0061985747873208171 0 0.018810202682983286 0.0061878592392825378 0 0.018475375754089626 0.006575337580008265 0 0.018942047119130882 0.0066870255498818199 0 0.018475375754089626 0.006575337580008265 0 0.018182523795287533 0.0061985747873208171 0 0.017796558569301801 0.006759570647055786 0 0.01761576015111483 0.0063670881197561398 0 0.018182523795287533 0.0061985747873208171 0 0.017796558569301801 0.006759570647055786 0 0.018475375754089626 0.006575337580008265 0 0.017796558569301801 0.006759570647055786 0 0.01840170921749771 0.007042720157839447 0 0.017796558569301801 0.006759570647055786 0 0.01840170921749771 0.007042720157839447 0 0.017859028943363924 0.0073853765050305963 0 0.017796558569301801 0.006759570647055786 0 0.017859028943363924 0.0073853765050305963 0 0.017392295467964884 0.0074612815424154365 0 0.018942047119130882 0.0066870255498818199 0 0.01840170921749771 0.007042720157839447 0 0.019126077707507766 0.0073859132974010422 0 0.018475375754089626 0.006575337580008265 0 0.018942047119130882 0.0066870255498818199 0 0.01840170921749771 0.007042720157839447 0 0.018942047119130882 0.0066870255498818199 0 0.0194663966230465 0.0067872710034449345 0 0.019126077707507766 0.0073859132974010422 0 0.0194663966230465 0.0067872710034449345 0 0.019561871657813396 0.0072795678609506032 0 0.019126077707507766 0.0073859132974010422 0 0.018942047119130882 0.0066870255498818199 0 0.019309635124646764 0.006392838757905887 0 0.0194663966230465 0.0067872710034449345 0 0.018810202682983286 0.0061878592392825378 0 0.018942047119130882 0.0066870255498818199 0 0.019309635124646764 0.006392838757905887 0 0.019309635124646764 0.006392838757905887 0 0.0194663966230465 0.0067872710034449345 0 0.019771610689173418 0.0064765885091859826 0 0.019797606549293249 0.0069964654867017469 0 0.0194663966230465 0.0067872710034449345 0 0.019771610689173418 0.0064765885091859826 0 0.019797606549293249 0.0069964654867017469 0 0.0194663966230465 0.0067872710034449345 0 0.019561871657813396 0.0072795678609506032 0 0.019797606549293249 0.0069964654867017469 0 0.019561871657813396 0.0072795678609506032 0 0.019693479635748086 0.0076849562207126484 0 0.019561871657813396 0.0072795678609506032 0 0.019693479635748086 0.0076849562207126484 0 0.019525191994405732 0.008148449668050152 0 0.019693479635748086 0.0076849562207126484 0 0.019525191994405732 0.008148449668050152 0 0.019598759835541237 0.0079986329266252994 0 0.019963535310672964 0.0087135551355058752 0 0.019926868033883625 0.0074555765422104521 0 0.019561871657813396 0.0072795678609506032 0 0.019525191994405732 0.008148449668050152 0 0.019126077707507766 0.0073859132974010422 0 0.019525191994405732 0.008148449668050152 0 0.019126077707507766 0.0073859132974010422 0 0.01828304480295883 0.007812385175422985 0 0.01840170921749771 0.007042720157839447 0 0.019126077707507766 0.0073859132974010422 0 0.01828304480295883 0.007812385175422985 0 0.01840170921749771 0.007042720157839447 0 0.01828304480295883 0.007812385175422985 0 0.017859028943363924 0.0073853765050305963 0 0.017859028943363924 0.0073853765050305963 0 0.017481123851122726 0.0078197409627552509 0 0.017392295467964884 0.0074612815424154365 0 0.01828304480295883 0.007812385175422985 0 0.017859028943363924 0.0073853765050305963 0 0.017481123851122726 0.0078197409627552509 0 0.01828304480295883 0.007812385175422985 0 0.017481123851122726 0.0078197409627552509 0 0.017435851936023688 0.0083945831627923531 0 0.01828304480295883 0.007812385175422985 0 0.017435851936023688 0.0083945831627923531 0 0.018350879429457102 0.0088090381729718642 0 0.017435851936023688 0.0083945831627923531 0 0.018350879429457102 0.0088090381729718642 0 0.017438442064480489 0.010004574351924716 0 0.019525191994405732 0.008148449668050152 0 0.018350879429457102 0.0088090381729718642 0 0.019368616317617854 0.010787047894880332 0 0.019525191994405732 0.008148449668050152 0 0.01828304480295883 0.007812385175422985 0 0.018350879429457102 0.0088090381729718642 0 0.018350879429457102 0.0088090381729718642 0 0.019368616317617854 0.010787047894880332 0 0.017438442064480489 0.010004574351924716 0 0.019368616317617854 0.010787047894880332 0 0.017438442064480489 0.010004574351924716 0 0.016791071689305801 0.012231644096862082 0 0.019368616317617854 0.010787047894880332 0 0.016791071689305801 0.012231644096862082 0 0.018534794060434182 0.013806961710224407 0 0.019368616317617854 0.010787047894880332 0 0.020806963974204274 0.01278911834896808 0 0.018534794060434182 0.013806961710224407 0 0.019368616317617854 0.010787047894880332 0 0.021517367062193666 0.0099849072721075755 0 0.020806963974204274 0.01278911834896808 0 0.02138964589481163 0.027750111247605246 0 0.021292713465718229 0.019862218375744582 0 0.021517367062193666 0.0099849072721075755 0 0.020806963974204274 0.01278911834896808 0 0.023213581211406736 0.011844617740007052 0 0.022831884142916703 0.041777216289426822 0 0.021550928782796609 0.041301024813367185 0 0.023973667083468431 0.040163783635981824 0 0.019926868033883625 0.0074555765422104521 0 0.021292713465718229 0.019862218375744582 0 0.019525191994405732 0.008148449668050152 0 0.019368616317617854 0.010787047894880332 0 0.021517367062193666 0.0099849072721075755 0 0.056616373580766204 0.0074587644125352825 0 0.056953355325539336 0.006028021254967833 0 0.057676398277685052 0.0068368078344246772 0 0.056616373580766204 0.0074587644125352825 0 0.056953355325539336 0.006028021254967833 0 0.055457056816672866 0.0063172601648243997 0 0.056171688157371648 0.0052031857519207053 0 0.056953355325539336 0.006028021254967833 0 0.055457056816672866 0.0063172601648243997 0 0.057015103383194779 0.0050501883452322965 0 0.056171688157371648 0.0052031857519207053 0 0.056953355325539336 0.006028021254967833 0 0.057015103383194779 0.0050501883452322965 0 0.056953355325539336 0.006028021254967833 0 0.058723028185350683 0.0056473458219536733 0 0.056953355325539336 0.006028021254967833 0 0.057676398277685052 0.0068368078344246772 0 0.058723028185350683 0.0056473458219536733 0 0.057676398277685052 0.0068368078344246772 0 0.058723028185350683 0.0056473458219536733 0 0.058436759831866844 0.0082670045173978673 0 0.056616373580766204 0.0074587644125352825 0 0.057676398277685052 0.0068368078344246772 0 0.058436759831866844 0.0082670045173978673 0 0.044249942884650985 0.00412622103141642 0 0.043810346298370252 0.0081980618367060928 0 0.030283884791540056 0.0024921615568974653 0 0.033185334138943978 0.0050876439414174052 0 0.029114217803635292 0.0079311399950925485 0 0.035055645296528708 0.0042212816908490458 0 0.03130112156911255 0.0047900517492529384 0 0.031822558390269311 0.0015086161190859962 0 0.034572056566374132 0.0069626709983182274 0 0.035055645296528708 0.0042212816908490458 0 0.03130112156911255 0.0047900517492529384 0 0.044249942884650985 0.00412622103141642 0 0.022976391266798919 0.0057761874627955002 0 0.02538665006400603 0.0049338812089687175 0 0.022976391266798919 0.0057761874627955002 0 0.016853305900260681 0.007546837790450866 0 0.017012550173217754 0.0080829356332172593 0 0.016550343888045122 0.0084158869581487522 0 0.016853305900260681 0.007546837790450866 0 0.017010481742413378 0.0076655574473558658 0 0.017012550173217754 0.0080829356332172593 0 0.02538665006400603 0.0049338812089687175 0 0.023051646333951445 0.0044197077266209892 0 0.016887562003125016 0.0075634618908349185 0 0.017392295467964884 0.0074612815424154365 0 0.017010481742413378 0.0076655574473558658 0 0.017481123851122726 0.0078197409627552509 0 0.017392295467964884 0.0074612815424154365 0 0.017010481742413378 0.0076655574473558658 0 0.017481123851122726 0.0078197409627552509 0 0.017435851936023688 0.0083945831627923531 0 0.017012550173217754 0.0080829356332172593 0 0.017481123851122726 0.0078197409627552509 0 0.017010481742413378 0.0076655574473558658 0 0.017012550173217754 0.0080829356332172593 0 0.017435851936023688 0.0083945831627923531 0 0.017012550173217754 0.0080829356332172593 0 0.016550343888045122 0.0084158869581487522 0 0.022976391266798919 0.0057761874627955002 0 0.023503074706407574 0.010894177154515128 0 0.017435851936023688 0.0083945831627923531 0 0.017438442064480489 0.010004574351924716 0 0.016550343888045122 0.0084158869581487522 0 0.014967683061335292 0.010188078228802909 0 0.022976391266798919 0.0057761874627955002 0 0.017438442064480489 0.010004574351924716 0 0.016791071689305801 0.012231644096862082 0 0.014586071259928873 0.010571463423774782 0 0.017438442064480489 0.010004574351924716 0 0.015102403509531393 0.0078977500368334497 0 0.014586071259928873 0.010571463423774782 0 0.016791071689305801 0.012231644096862082 0 0.014586071259928873 0.010571463423774782 0 0.01407332061682013 0.013322407572540728 0 0.023503074706407574 0.010894177154515128 0 0.023389140750024667 0.01221621374080294 0 0.030427800614144455 0.012285623515371847 0 0.032372925429122908 0.010047000563844706 0 0.031645507046143301 0.015353855019397646 0 0.030427800614144455 0.012285623515371847 0 0.027589855580146556 0.013983295216732906 0 0.031645507046143301 0.015353855019397646 0 0.033185334138943978 0.0050876439414174052 0 0.032372925429122908 0.010047000563844706 0 0.029114217803635292 0.0079311399950925485 0 0.030427800614144455 0.012285623515371847 0 0.032372925429122908 0.010047000563844706 0 0.029114217803635292 0.0079311399950925485 0 0.056616373580766204 0.0074587644125352825 0 0.058436759831866844 0.0082670045173978673 0 0.056973908789235188 0.0094799340697109772 0 0.058436759831866844 0.0082670045173978673 0 0.057783985806376698 0.011318344913837118 0 0.056973908789235188 0.0094799340697109772 0 0.030427800614144455 0.012285623515371847 0 0.029114217803635292 0.0079311399950925485 0 0.027589855580146556 0.013983295216732906 0 0.043810346298370252 0.0081980618367060928 0 0.042436845901394085 0.012238240948203119 0 0.057783985806376698 0.011318344913837118 0 0.056184026359049899 0.01225182409518168 0 0.055356951832617636 0.010379998514128038 0 0.057783985806376698 0.011318344913837118 0 0.056973908789235188 0.0094799340697109772 0 0.055356951832617636 0.010379998514128038 0 0.056579204811048812 0.0075942937640057079 0 0.05575458929553051 0.0097246133981212408 0 0.056616373580766204 0.0074587644125352825 0 0.056973908789235188 0.0094799340697109772 0 0.055356951832617636 0.010379998514128038 0 0.056184026359049899 0.01225182409518168 0 0.057037247127596134 0.013550102443317058 0 0.05557106753121243 0.014095740229722062 0 0.027589855580146556 0.013983295216732906 0 0.028958546291711754 0.017121022594560061 0 0.028056760349629603 0.019452839578767738 0 0.057783985806376698 0.011318344913837118 0 0.056184026359049899 0.01225182409518168 0 0.057037247127596134 0.013550102443317058 0 0.042436845901394085 0.012238240948203119 0 0.044022963632528694 0.018811353893075776 0 0.027589855580146556 0.013983295216732906 0 0.028056760349629603 0.019452839578767738 0 0.026621200719497171 0.02019115831638486 0 0.028958546291711754 0.017121022594560061 0 0.028056760349629603 0.019452839578767738 0 0.027466298526980758 0.022210075748281117 0 0.028958546291711754 0.017121022594560061 0 0.030468139771750006 0.02311956689222882 0 0.025035356069588732 0.025337281698930018 0 0.028728533868971978 0.015051006575864626 0 0.028161957976072349 0.030404741912924853 0 0.030508448806833833 0.022584056304124338 0 0.044022963632528694 0.018811353893075776 0 0.028056760349629603 0.019452839578767738 0 0.026818836394795098 0.020222663034552689 0 0.027466298526980758 0.022210075748281117 0 0.01360474911549516 0.016229944743949124 0 0.01407332061682013 0.013322407572540728 0 0.016203215473618932 0.014994551810381458 0 0.018582018766320509 0.029458247790415216 0 0.023389140750024667 0.01221621374080294 0 0.028958546291711754 0.017121022594560061 0 0.030468139771750006 0.02311956689222882 0 0.031645507046143301 0.015353855019397646 0 0.027589855580146556 0.013983295216732906 0 0.028958546291711754 0.017121022594560061 0 0.031645507046143301 0.015353855019397646 0 0.016791071689305801 0.012231644096862082 0 0.01407332061682013 0.013322407572540728 0 0.016203215473618932 0.014994551810381458 0 0.018582018766320509 0.029458247790415216 0 0.015627817857648219 0.02954430986651279 0 0.014675736162481526 0.044473165822670128 0 0.016956139721176676 0.043528640536658399 0 0.017087577933436019 0.045214455383598681 0 0.014675736162481526 0.044473165822670128 0 0.017087577933436019 0.045214455383598681 0 0.016155086940200399 0.046443099284340268 0 0.017087577933436019 0.045214455383598681 0 0.016155086940200399 0.046443099284340268 0 0.017794449829711963 0.046787709404066999 0 0.016155086940200399 0.046443099284340268 0 0.015803073264411396 0.047911919653134336 0 0.016893442755720134 0.048225176894866405 0 0.016155086940200399 0.046443099284340268 0 0.017794449829711963 0.046787709404066999 0 0.016893442755720134 0.048225176894866405 0 0.016155086940200399 0.046443099284340268 0 0.015803073264411396 0.047911919653134336 0 0.014347602549864403 0.047363352680429516 0 0.014675736162481526 0.044473165822670128 0 0.016155086940200399 0.046443099284340268 0 0.014347602549864403 0.047363352680429516 0 0.018582018766320509 0.029458247790415216 0 0.017767790930819222 0.046013770333673785 0 0.035125173618381828 0.032212173627681848 0 0.037903909150907571 0.031073271537624878 0 0.03311595761790604 0.043910724031786232 0 0.023148506265377251 0.03355573631222112 0 0.021399707087219371 0.040600335117716699 0 0.018976089462417488 0.035234948887583925 0 0.018582018766320509 0.029458247790415216 0 0.028161957976072349 0.030404741912924853 0 0.026818836394795098 0.020222663034552689 0 0.026487909445759929 0.022644296702720161 0 0.027466298526980758 0.022210075748281117 0 0.044022963632528694 0.018811353893075776 0 0.042200675938484158 0.031940431273157821 0 0.042200675938484158 0.031940431273157821 0 0.028161957976072349 0.030404741912924853 0 0.028161957976072349 0.030404741912924853 0 0.036424414565293967 0.045733773306431774 0 0.021399707087219371 0.040600335117716699 0 0.018976089462417488 0.035234948887583925 0 0.016596936493766156 0.041288807192469398 0 0.042200675938484158 0.031940431273157821 0 0.036424414565293967 0.045733773306431774 0 0.048316518708381731 0.045370755769482879 0 0.048283348072159255 0.045738487093947608 0 0.048145700560594931 0.045619286890047864 0 0.042200675938484158 0.031940431273157821 0 0.05114978567552278 0.036947111490572233 0 0.044022963632528694 0.018811353893075776 0 0.055594937079333259 0.020447068522680498 0 0.052381875441492594 0.02669725562701878 0 0.052293847115408999 0.027301627327492251 0 0.051393461189815533 0.027384643158939619 0 0.052293847115408999 0.027301627327492251 0 0.051393461189815533 0.027384643158939619 0 0.051320469430192132 0.027872334674604045 0 0.020499655998006357 0.043430096189378813 0 0.022013749647334737 0.043415546388338 0 0.02102880421179204 0.044895141765396239 0 0.022013749647334737 0.043415546388338 0 0.022559924300521304 0.045471650722134993 0 0.023885703842066876 0.043859362989008145 0 0.022013749647334737 0.043415546388338 0 0.022831884142916703 0.041777216289426822 0 0.023885703842066876 0.043859362989008145 0 0.022013749647334737 0.043415546388338 0 0.022831884142916703 0.041777216289426822 0 0.021550928782796609 0.041301024813367185 0 0.02138964589481163 0.027750111247605246 0 0.019057106289164693 0.02798095303395965 0 0.020499655998006357 0.043430096189378813 0 0.022013749647334737 0.043415546388338 0 0.021550928782796609 0.041301024813367185 0 0.020499655998006357 0.043430096189378813 0 0.021550928782796609 0.041301024813367185 0 0.019217052696377402 0.042440167605263042 0 0.015627817857648219 0.02954430986651279 0 0.019057106289164693 0.02798095303395965 0 0.016791071689305801 0.012231644096862082 0 0.016203215473618932 0.014994551810381458 0 0.018534794060434182 0.013806961710224407 0 0.016956139721176676 0.043528640536658399 0 0.019217052696377402 0.042440167605263042 0 0.018861010354707206 0.045021427255994388 0 0.016956139721176676 0.043528640536658399 0 0.017087577933436019 0.045214455383598681 0 0.018861010354707206 0.045021427255994388 0 0.020499655998006357 0.043430096189378813 0 0.019217052696377402 0.042440167605263042 0 0.018861010354707206 0.045021427255994388 0 0.020499655998006357 0.043430096189378813 0 0.018861010354707206 0.045021427255994388 0 0.02102880421179204 0.044895141765396239 0 0.017087577933436019 0.045214455383598681 0 0.018861010354707206 0.045021427255994388 0 0.017794449829711963 0.046787709404066999 0 0.017794449829711963 0.046787709404066999 0 0.01930916140330766 0.047343998841155352 0 0.018260536778275306 0.048538566316937849 0 0.017794449829711963 0.046787709404066999 0 0.018260536778275306 0.048538566316937849 0 0.016893442755720134 0.048225176894866405 0 0.018861010354707206 0.045021427255994388 0 0.017794449829711963 0.046787709404066999 0 0.01930916140330766 0.047343998841155352 0 0.018861010354707206 0.045021427255994388 0 0.01930916140330766 0.047343998841155352 0 0.020877223185847442 0.046726093143148746 0 0.020877223185847442 0.046726093143148746 0 0.022337817835587383 0.047648449277500095 0 0.020685465487566234 0.048256045082023018 0 0.01930916140330766 0.047343998841155352 0 0.020877223185847442 0.046726093143148746 0 0.020685465487566234 0.048256045082023018 0 0.020877223185847442 0.046726093143148746 0 0.02102880421179204 0.044895141765396239 0 0.022559924300521304 0.045471650722134993 0 0.018861010354707206 0.045021427255994388 0 0.020877223185847442 0.046726093143148746 0 0.02102880421179204 0.044895141765396239 0 0.022013749647334737 0.043415546388338 0 0.02102880421179204 0.044895141765396239 0 0.022559924300521304 0.045471650722134993 0 0.022559924300521304 0.045471650722134993 0 0.022337817835587383 0.047648449277500095 0 0.024560001363464749 0.046283556455339533 0 0.020877223185847442 0.046726093143148746 0 0.022559924300521304 0.045471650722134993 0 0.022337817835587383 0.047648449277500095 0 0.022337817835587383 0.047648449277500095 0 0.024191835688861407 0.047906286850906941 0 0.024560001363464749 0.046283556455339533 0 0.024560001363464749 0.046283556455339533 0 0.026030762815845807 0.046000366971971803 0 0.026636410565069296 0.048014299023775991 0 0.024191835688861407 0.047906286850906941 0 0.024560001363464749 0.046283556455339533 0 0.026636410565069296 0.048014299023775991 0 0.026030762815845807 0.046000366971971803 0 0.025583860528108567 0.044608187739338452 0 0.027343308896860367 0.04508845578001127 0 0.024560001363464749 0.046283556455339533 0 0.026030762815845807 0.046000366971971803 0 0.025583860528108567 0.044608187739338452 0 0.024560001363464749 0.046283556455339533 0 0.025583860528108567 0.044608187739338452 0 0.023885703842066876 0.043859362989008145 0 0.022559924300521304 0.045471650722134993 0 0.024560001363464749 0.046283556455339533 0 0.023885703842066876 0.043859362989008145 0 0.025583860528108567 0.044608187739338452 0 0.023885703842066876 0.043859362989008145 0 0.025250527817068467 0.043238848374459772 0 0.023885703842066876 0.043859362989008145 0 0.025250527817068467 0.043238848374459772 0 0.024301771025658812 0.042565282820211991 0 0.025583860528108567 0.044608187739338452 0 0.026589993872211136 0.043698809404128507 0 0.027343308896860367 0.04508845578001127 0 0.025583860528108567 0.044608187739338452 0 0.025250527817068467 0.043238848374459772 0 0.026589993872211136 0.043698809404128507 0 0.02606171321096996 0.042467076104003215 0 0.026796724078096867 0.042462056005417456 0 0.026589993872211136 0.043698809404128507 0 0.025250527817068467 0.043238848374459772 0 0.02606171321096996 0.042467076104003215 0 0.026589993872211136 0.043698809404128507 0 0.025101191989204786 0.042263116727632999 0 0.02606171321096996 0.042467076104003215 0 0.024934042075583557 0.041255719793200175 0 0.025250527817068467 0.043238848374459772 0 0.025101191989204786 0.042263116727632999 0 0.02606171321096996 0.042467076104003215 0 0.02606171321096996 0.042467076104003215 0 0.026460744423967255 0.041565691597730423 0 0.026796724078096867 0.042462056005417456 0 0.023035403696757512 0.027077318991423811 0 0.020597805449380127 0.026311033254611014 0 0.022086300545381899 0.025413385228971842 0 0.02606171321096996 0.042467076104003215 0 0.026460744423967255 0.041565691597730423 0 0.024627741943234482 0.040959298631211095 0 0.026649735632416873 0.042963097445216571 0 0.023838190972642174 0.037586270908584608 0 0.024980661076164024 0.034608452973527749 0 0.023838190972642174 0.037586270908584608 0 0.025101191989204786 0.042263116727632999 0 0.024278689813790263 0.041666971199980543 0 0.024934042075583557 0.041255719793200175 0 0.024278689813790263 0.041666971199980543 0 0.024934042075583557 0.041255719793200175 0 0.023973462171446906 0.040917307057364932 0 0.022831884142916703 0.041777216289426822 0 0.023885703842066876 0.043859362989008145 0 0.024301771025658812 0.042565282820211991 0 0.022831884142916703 0.041777216289426822 0 0.024278689813790263 0.041666971199980543 0 0.023973462171446906 0.040917307057364932 0 0.022831884142916703 0.041777216289426822 0 0.024278689813790263 0.041666971199980543 0 0.024301771025658812 0.042565282820211991 0 0.025250527817068467 0.043238848374459772 0 0.025101191989204786 0.042263116727632999 0 0.024301771025658812 0.042565282820211991 0 0.025101191989204786 0.042263116727632999 0 0.024278689813790263 0.041666971199980543 0 0.024301771025658812 0.042565282820211991 0 0.023366065638206451 0.032798569920056614 0 0.01733139373473977 0.030990287382046226 0 0.022362972696216166 0.024930695328560359 0 0.018219981995154368 0.032764963255400868 0 0.019330744693778885 0.023748654089271581 0 0.022089621988430522 0.035155641120501922 0 0.02272478639256631 0.023969050274812189 0 0.018219981995154368 0.032764963255400868 0 0.022089621988430522 0.035155641120501922 0 0.024980661076164024 0.034608452973527749 0 0.022089621988430522 0.035155641120501922 0 0.023035403696757512 0.027077318991423811 0 0.025504913780680823 0.027862455060150938 0 0.024188006028804623 0.025698013233681875 0 0.026460744423967255 0.041565691597730423 0 0.026796724078096867 0.042462056005417456 0 0.028060131349382945 0.042082058748967741 0 0.022089621988430522 0.035155641120501922 0 0.021046478854487228 0.043564999140931433 0 0.028060131349382945 0.042082058748967741 0 0.026589993872211136 0.043698809404128507 0 0.027343308896860367 0.04508845578001127 0 0.015642624096095837 0.036493414442971266 0 0.016685947713466209 0.039182119592627171 0 0.014665659093912814 0.040447453553002402 0 0.026796724078096867 0.042462056005417456 0 0.028060131349382945 0.042082058748967741 0 0.026589993872211136 0.043698809404128507 0 0.018026971158336787 0.037224618099025719 0 0.016685947713466209 0.039182119592627171 0 0.018455682623853151 0.04067129049278452 0 0.018026971158336787 0.037224618099025719 0 0.015642624096095837 0.036493414442971266 0 0.016685947713466209 0.039182119592627171 0 0.016685947713466209 0.039182119592627171 0 0.014665659093912814 0.040447453553002402 0 0.01693294395211559 0.042130384565776315 0 0.016685947713466209 0.039182119592627171 0 0.01693294395211559 0.042130384565776315 0 0.018455682623853151 0.04067129049278452 0 0.01693294395211559 0.042130384565776315 0 0.018845578764162828 0.04273456201076762 0 0.018455682623853151 0.04067129049278452 0 0.021046478854487228 0.043564999140931433 0 0.01909591606587226 0.046369806088457963 0 0.014665659093912814 0.040447453553002402 0 0.01693294395211559 0.042130384565776315 0 0.013814935408421849 0.044264864701264922 0 0.026030762815845807 0.046000366971971803 0 0.027343308896860367 0.04508845578001127 0 0.026636410565069296 0.048014299023775991 0 0.014867109134265276 0.042130213385236946 0 0.01909591606587226 0.046369806088457963 0 0.01693294395211559 0.042130384565776315 0 0.016386439280338009 0.044958247614467789 0 0.01329678392917821 0.044705707205747604 0 0.018845578764162828 0.04273456201076762 0 0.018890692825058068 0.04517082317406941 0 0.016386439280338009 0.044958247614467789 0 0.01693294395211559 0.042130384565776315 0 0.018845578764162828 0.04273456201076762 0 0.016386439280338009 0.044958247614467789 0 0.020620355584688943 0.043229370146389806 0 0.018546811748930674 0.045275711739941729 0 0.018845578764162828 0.04273456201076762 0 0.021046312514101082 0.042331937988876384 0 0.018890692825058068 0.04517082317406941 0 0.018845578764162828 0.04273456201076762 0 0.021046312514101082 0.042331937988876384 0 0.019709308822945564 0.041427190975031405 0 0.019886587847031324 0.042967937550592777 0 0.020867645852622872 0.045237569888977668 0 0.018206966325151518 0.045502731989169203 0 0.019886587847031324 0.042967937550592777 0 0.022599329926257537 0.043645549254312674 0 0.020867645852622872 0.045237569888977668 0 0.020620355584688943 0.043229370146389806 0 0.018357784342757661 0.034366166368424142 0 0.021046312514101082 0.042331937988876384 0 0.021736140437828785 0.039699076266967059 0 0.020518589086745611 0.039939700927591699 0 0.021046312514101082 0.042331937988876384 0 0.021736140437828785 0.039699076266967059 0 0.023241926286423666 0.039375005181202294 0 0.019886587847031324 0.042967937550592777 0 0.022599329926257537 0.043645549254312674 0 0.021696282082416661 0.040394504088973424 0 0.021736140437828785 0.039699076266967059 0 0.020518589086745611 0.039939700927591699 0 0.021272522405516945 0.038669016336966268 0 0.020518589086745611 0.039939700927591699 0 0.018455682623853151 0.04067129049278452 0 0.019709585767477219 0.038608677661818511 0 0.018845578764162828 0.04273456201076762 0 0.018455682623853151 0.04067129049278452 0 0.019709308822945564 0.041427190975031405 0 0.021046312514101082 0.042331937988876384 0 0.020518589086745611 0.039939700927591699 0 0.019709308822945564 0.041427190975031405 0 0.020518589086745611 0.039939700927591699 0 0.018455682623853151 0.04067129049278452 0 0.019709308822945564 0.041427190975031405 0 0.0094832570060629281 0.02585161713789693 0 0.011407772804871914 0.025280836857397491 0 0.010417146625665105 0.026550149733255202 0 0.0094832570060629281 0.02585161713789693 0 0.0099543829163022332 0.024606398696789419 0 0.011407772804871914 0.025280836857397491 0 0.0094832570060629281 0.02585161713789693 0 0.009219752567134594 0.025093193684581832 0 0.0087013842423183992 0.02533041215851177 0 0.0094832570060629281 0.02585161713789693 0 0.009219752567134594 0.025093193684581832 0 0.0099543829163022332 0.024606398696789419 0 0.009219752567134594 0.025093193684581832 0 0.0099543829163022332 0.024606398696789419 0 0.0087435984289138766 0.024590868587067535 0 0.011055558843546283 0.027066439902459029 0 0.0090982306938294927 0.027262534084429961 0 0.011682350138118348 0.028144066934249101 0 0.016773265774136476 0.034282318289713815 0 0.018357784342757661 0.034366166368424142 0 0.011407772804871914 0.025280836857397491 0 0.01215517369511899 0.027531181450748295 0 0.011055558843546283 0.027066439902459029 0 0.011407772804871914 0.025280836857397491 0 0.011055558843546283 0.027066439902459029 0 0.010417146625665105 0.026550149733255202 0 0.01215517369511899 0.027531181450748295 0 0.011055558843546283 0.027066439902459029 0 0.011682350138118348 0.028144066934249101 0 0.011055558843546283 0.027066439902459029 0 0.010417146625665105 0.026550149733255202 0 0.0090982306938294927 0.027262534084429961 0 0.0094832570060629281 0.02585161713789693 0 0.010417146625665105 0.026550149733255202 0 0.0090982306938294927 0.027262534084429961 0 0.010641405696664956 0.027295405509256798 0 0.014538650775353785 0.028910274193030102 0 0.012961701406477575 0.027643060307123032 0 0.013345266350299834 0.028108756587633572 0 0.014076215691389364 0.028072874257801615 0 0.01294656279121216 0.028253368049048593 0 0.013345266350299834 0.028108756587633572 0 0.013155320472470207 0.028663450934168548 0 0.01294656279121216 0.028253368049048593 0 0.013155320472470207 0.028663450934168548 0 0.012604044418655804 0.028538635875313256 0 0.012961701406477575 0.027643060307123032 0 0.012974117953951765 0.028002486303505228 0 0.013345266350299834 0.028108756587633572 0 0.01294656279121216 0.028253368049048593 0 0.012974117953951765 0.028002486303505228 0 0.012594770922254573 0.02798956043732469 0 0.01294656279121216 0.028253368049048593 0 0.012974117953951765 0.028002486303505228 0 0.013345266350299834 0.028108756587633572 0 0.012961701406477575 0.027643060307123032 0 0.012974117953951765 0.028002486303505228 0 0.012594770922254573 0.02798956043732469 0 0.013345266350299834 0.028108756587633572 0 0.013888843444326469 0.028307703762768709 0 0.013155320472470207 0.028663450934168548 0 0.014396593662516903 0.024955728159181779 0 0.013380893096319712 0.025254141072170944 0 0.013345266350299834 0.028108756587633572 0 0.013888843444326469 0.028307703762768709 0 0.014076215691389364 0.028072874257801615 0 0.015138478592320911 0.027053717990959923 0 0.01493879505588671 0.027335805862891489 0 0.014740887896230419 0.027279546850737916 0 0.017012268356005372 0.031156742027778524 0 0.017643883952827701 0.030302047687229848 0 0.017061434446689328 0.030126858659464059 0 0.018357784342757661 0.034366166368424142 0 0.014538650775353785 0.028910274193030102 0 0.014538650775353785 0.028910274193030102 0 0.016751788246282692 0.028737352559133258 0 0.013835119302447034 0.02131761657200365 0 0.013569645391081492 0.021490723031572172 0 0.013655949060916156 0.021089140223719251 0 0.013569645391081492 0.021490723031572172 0 0.013655949060916156 0.021089140223719251 0 0.013481060037381599 0.021465703529821537 0 0.014396593662516903 0.024955728159181779 0 0.016751788246282692 0.028737352559133258 0 0.014396593662516903 0.024955728159181779 0 0.014538650775353785 0.028910274193030102 0 0.013655949060916156 0.021089140223719251 0 0.013296676405951892 0.020779833521514812 0 0.013775109716157946 0.020639593710086737 0 0.013655949060916156 0.021089140223719251 0 0.013943565451232799 0.020881005235473388 0 0.013775109716157946 0.020639593710086737 0 0.013943565451232799 0.020881005235473388 0 0.013986283388295483 0.020626263726358215 0 0.013775109716157946 0.020639593710086737 0 0.013835119302447034 0.02131761657200365 0 0.013655949060916156 0.021089140223719251 0 0.013943565451232799 0.020881005235473388 0 0.013835119302447034 0.02131761657200365 0 0.013943565451232799 0.020881005235473388 0 0.014205227854007348 0.020579076200346644 0 0.014396593662516903 0.024955728159181779 0 0.014156900739294081 0.019600931725103223 0 0.012994029829831192 0.022186560743473333 0 0.014221816125757335 0.020771469622781601 0 0.014147793263758493 0.021570984040281068 0 0.012994029829831192 0.022186560743473333 0 0.014221816125757335 0.020771469622781601 0 0.014205227854007348 0.020579076200346644 0 0.013943565451232799 0.020881005235473388 0 0.014058484746497317 0.020651724810638542 0 0.014205227854007348 0.020579076200346644 0 0.013943565451232799 0.020881005235473388 0 0.014058484746497317 0.020651724810638542 0 0.013986283388295483 0.020626263726358215 0 0.014221816125757335 0.020771469622781601 0 0.014147793263758493 0.021570984040281068 0 0.015289091556197575 0.020980240185068371 0 0.017840401200266965 0.036464187371377459 0 0.018455682623853151 0.04067129049278452 0 0.019709585767477219 0.038608677661818511 0 0.018219981995154368 0.032764963255400868 0 0.018478082047928553 0.042084219017878635 0 0.017840401200266965 0.036464187371377459 0 0.02039716275653981 0.037262258042504 0 0.019709585767477219 0.038608677661818511 0 0.018219981995154368 0.032764963255400868 0 0.020435138866423598 0.032458135110369137 0 0.02039716275653981 0.037262258042504 0 0.019709585767477219 0.038608677661818511 0 0.021272522405516945 0.038669016336966268 0 0.020518589086745611 0.039939700927591699 0 0.019709585767477219 0.038608677661818511 0 0.021272522405516945 0.038669016336966268 0 0.02039716275653981 0.037262258042504 0 0.021272522405516945 0.038669016336966268 0 0.022849840422357409 0.038004688402982024 0 0.019379832406153968 0.0275024300175357 0 0.021939767796109684 0.028272459342829463 0 0.020974842609727012 0.024794399320533438 0 0.021272522405516945 0.038669016336966268 0 0.022849840422357409 0.038004688402982024 0 0.022942699537732116 0.038328379568677524 0 0.021736140437828785 0.039699076266967059 0 0.021272522405516945 0.038669016336966268 0 0.022942699537732116 0.038328379568677524 0 0.021736140437828785 0.039699076266967059 0 0.023241926286423666 0.039375005181202294 0 0.022942699537732116 0.038328379568677524 0 0.017012268356005372 0.031156742027778524 0 0.017061434446689328 0.030126858659464059 0 0.016761430843411283 0.030284427345672008 0 0.018357784342757661 0.034366166368424142 0 0.01816148213450822 0.030153324444102212 0 0.018572290696776295 0.028784358989142795 0 0.01816148213450822 0.030153324444102212 0 0.018170039160963956 0.028526530520055986 0 0.018772766785585353 0.028706212317911404 0 0.018649378496970848 0.028280884700792965 0 0.016751788246282692 0.028737352559133258 0 0.018572290696776295 0.028784358989142795 0 0.016751788246282692 0.028737352559133258 0 0.01816148213450822 0.030153324444102212 0 0.020435138866423598 0.032458135110369137 0 0.018572290696776295 0.028784358989142795 0 0.019379832406153968 0.0275024300175357 0 0.020974842609727012 0.024794399320533438 0 0.018686925848248284 0.024650199521212206 0 0.018572290696776295 0.028784358989142795 0 0.016914965603488707 0.021952547867402809 0 0.013655949060916156 0.021089140223719251 0 0.013481060037381599 0.021465703529821537 0 0.013296676405951892 0.020779833521514812 0 0.016788674326456678 0.026742537725769597 0 0.019379832406153968 0.0275024300175357 0 0.018686925848248284 0.024650199521212206 0 0.016788674326456678 0.026742537725769597 0 0.018686925848248284 0.024650199521212206 0 0.016284184269698552 0.022907649550219792 0 0.018686925848248284 0.024650199521212206 0 0.019995947396829392 0.021282716147437836 0 0.016284184269698552 0.022907649550219792 0 0.013296676405951892 0.020779833521514812 0 0.013497235244049843 0.020373636260685966 0 0.013775109716157946 0.020639593710086737 0 0.020974842609727012 0.024794399320533438 0 0.018686925848248284 0.024650199521212206 0 0.019995947396829392 0.021282716147437836 0 0.016914965603488707 0.021952547867402809 0 0.016641135028670945 0.021269232038688204 0 0.013296676405951892 0.020779833521514812 0 0.013497235244049843 0.020373636260685966 0 0.013136744903426225 0.020144310713667613 0 0.013497235244049843 0.020373636260685966 0 0.013136744903426225 0.020144310713667613 0 0.013467996006572803 0.020064858077633207 0 0.013136744903426225 0.020144310713667613 0 0.013467996006572803 0.020064858077633207 0 0.013305818858033103 0.019656579306005721 0 0.013136744903426225 0.020144310713667613 0 0.013305818858033103 0.019656579306005721 0 0.012965975124512807 0.019486430761592934 0 0.013467996006572803 0.020064858077633207 0 0.013305818858033103 0.019656579306005721 0 0.013592338976716484 0.01972555634260497 0 0.019995947396829392 0.021282716147437836 0 0.018995651216019819 0.017765171282903433 0 0.015792113696377286 0.01906264007327817 0 0.019995947396829392 0.021282716147437836 0 0.016284184269698552 0.022907649550219792 0 0.015792113696377286 0.01906264007327817 0 0.016641135028670945 0.021269232038688204 0 0.016806203460321877 0.016231505647907651 0 0.014351481699166084 0.020164996963235572 0 0.014271388094271434 0.020290462051120225 0 0.014416743665495869 0.020326397150771683 0 0.014351481699166084 0.020164996963235572 0 0.014271388094271434 0.020290462051120225 0 0.01416135247555844 0.020164484463629492 0 0.014271388094271434 0.020290462051120225 0 0.014275546463357051 0.020442453603330427 0 0.014141828545515789 0.020376944510446904 0 0.014271388094271434 0.020290462051120225 0 0.014141828545515789 0.020376944510446904 0 0.01416135247555844 0.020164484463629492 0 0.014271388094271434 0.020290462051120225 0 0.014275546463357051 0.020442453603330427 0 0.014416743665495869 0.020326397150771683 0 0.014275546463357051 0.020442453603330427 0 0.014418569955105718 0.020565475773000309 0 0.014416743665495869 0.020326397150771683 0 0.014221816125757335 0.020771469622781601 0 0.014205227854007348 0.020579076200346644 0 0.014418569955105718 0.020565475773000309 0 0.014275546463357051 0.020442453603330427 0 0.014205227854007348 0.020579076200346644 0 0.014418569955105718 0.020565475773000309 0 0.014275546463357051 0.020442453603330427 0 0.014205227854007348 0.020579076200346644 0 0.014180499657830189 0.020482141800201609 0 0.014275546463357051 0.020442453603330427 0 0.014180499657830189 0.020482141800201609 0 0.014141828545515789 0.020376944510446904 0 0.014180499657830189 0.020482141800201609 0 0.014098594157847356 0.020525273725917569 0 0.014141828545515789 0.020376944510446904 0 0.014205227854007348 0.020579076200346644 0 0.014180499657830189 0.020482141800201609 0 0.014098594157847356 0.020525273725917569 0 0.014058484746497317 0.020651724810638542 0 0.014205227854007348 0.020579076200346644 0 0.014098594157847356 0.020525273725917569 0 0.014098594157847356 0.020525273725917569 0 0.013986283388295483 0.020626263726358215 0 0.01398476791763369 0.020458320543500309 0 0.014058484746497317 0.020651724810638542 0 0.014098594157847356 0.020525273725917569 0 0.013986283388295483 0.020626263726358215 0 0.014098594157847356 0.020525273725917569 0 0.01398476791763369 0.020458320543500309 0 0.014141828545515789 0.020376944510446904 0 0.01398476791763369 0.020458320543500309 0 0.014021867272238088 0.020279795982126009 0 0.014141828545515789 0.020376944510446904 0 0.014021867272238088 0.020279795982126009 0 0.014141828545515789 0.020376944510446904 0 0.01416135247555844 0.020164484463629492 0 0.014021867272238088 0.020279795982126009 0 0.01416135247555844 0.020164484463629492 0 0.013998898346407726 0.020120199491070925 0 0.014021867272238088 0.020279795982126009 0 0.013798013504402355 0.02024322662268244 0 0.013998898346407726 0.020120199491070925 0 0.01398476791763369 0.020458320543500309 0 0.014021867272238088 0.020279795982126009 0 0.013798013504402355 0.02024322662268244 0 0.013986283388295483 0.020626263726358215 0 0.01398476791763369 0.020458320543500309 0 0.013775109716157946 0.020639593710086737 0 0.01398476791763369 0.020458320543500309 0 0.013798013504402355 0.02024322662268244 0 0.013775109716157946 0.020639593710086737 0 0.013497235244049843 0.020373636260685966 0 0.013798013504402355 0.02024322662268244 0 0.013775109716157946 0.020639593710086737 0 0.013497235244049843 0.020373636260685966 0 0.013467996006572803 0.020064858077633207 0 0.013798013504402355 0.02024322662268244 0 0.013467996006572803 0.020064858077633207 0 0.013718765498975737 0.019964914985658819 0 0.013592338976716484 0.01972555634260497 0 0.013467996006572803 0.020064858077633207 0 0.013798013504402355 0.02024322662268244 0 0.013718765498975737 0.019964914985658819 0 0.013718765498975737 0.019964914985658819 0 0.013592338976716484 0.01972555634260497 0 0.013842688374112688 0.019674253393062245 0 0.013842688374112688 0.019674253393062245 0 0.01392176568990496 0.019954034176508761 0 0.01409757287855189 0.019737117836114471 0 0.013718765498975737 0.019964914985658819 0 0.013842688374112688 0.019674253393062245 0 0.01392176568990496 0.019954034176508761 0 0.013798013504402355 0.02024322662268244 0 0.013718765498975737 0.019964914985658819 0 0.01392176568990496 0.019954034176508761 0 0.013798013504402355 0.02024322662268244 0 0.01392176568990496 0.019954034176508761 0 0.013998898346407726 0.020120199491070925 0 0.01416135247555844 0.020164484463629492 0 0.013998898346407726 0.020120199491070925 0 0.014119848741608534 0.019954076960226951 0 0.01392176568990496 0.019954034176508761 0 0.013998898346407726 0.020120199491070925 0 0.014119848741608534 0.019954076960226951 0 0.01392176568990496 0.019954034176508761 0 0.014119848741608534 0.019954076960226951 0 0.01409757287855189 0.019737117836114471 0 0.014119848741608534 0.019954076960226951 0 0.01429635943875532 0.019759676087107235 0 0.014327345979386258 0.019967892601224915 0 0.014119848741608534 0.019954076960226951 0 0.01409757287855189 0.019737117836114471 0 0.01429635943875532 0.019759676087107235 0 0.01416135247555844 0.020164484463629492 0 0.014119848741608534 0.019954076960226951 0 0.014327345979386258 0.019967892601224915 0 0.014351481699166084 0.020164996963235572 0 0.01416135247555844 0.020164484463629492 0 0.014327345979386258 0.019967892601224915 0 0.014292925807189404 0.019286650478951173 0 0.014246312695368149 0.019584633165086546 0 0.01406440552549431 0.019465195210512515 0 0.01409757287855189 0.019737117836114471 0 0.01429635943875532 0.019759676087107235 0 0.014246312695368149 0.019584633165086546 0 0.014292925807189404 0.019286650478951173 0 0.014246312695368149 0.019584633165086546 0 0.014474067128707212 0.019683855406946983 0 0.01429635943875532 0.019759676087107235 0 0.014246312695368149 0.019584633165086546 0 0.014474067128707212 0.019683855406946983 0 0.013842688374112688 0.019674253393062245 0 0.01409757287855189 0.019737117836114471 0 0.01406440552549431 0.019465195210512515 0 0.01409757287855189 0.019737117836114471 0 0.014246312695368149 0.019584633165086546 0 0.01406440552549431 0.019465195210512515 0 0.01406440552549431 0.019465195210512515 0 0.0138335928028889 0.019351962263610297 0 0.014026683129493739 0.019215884562480398 0 0.014292925807189404 0.019286650478951173 0 0.01406440552549431 0.019465195210512515 0 0.014026683129493739 0.019215884562480398 0 0.0138335928028889 0.019351962263610297 0 0.013874799742440934 0.019178642429977879 0 0.014026683129493739 0.019215884562480398 0 0.0138335928028889 0.019351962263610297 0 0.01372673878007253 0.019162652325641516 0 0.013874799742440934 0.019178642429977879 0 0.013842688374112688 0.019674253393062245 0 0.0138335928028889 0.019351962263610297 0 0.013678623275745148 0.019510529581468761 0 0.013842688374112688 0.019674253393062245 0 0.01406440552549431 0.019465195210512515 0 0.0138335928028889 0.019351962263610297 0 0.013592338976716484 0.01972555634260497 0 0.013842688374112688 0.019674253393062245 0 0.013678623275745148 0.019510529581468761 0 0.013592338976716484 0.01972555634260497 0 0.013678623275745148 0.019510529581468761 0 0.013537669990764507 0.019492565209287206 0 0.013678623275745148 0.019510529581468761 0 0.01362467924782345 0.019293363224847666 0 0.013537669990764507 0.019492565209287206 0 0.0138335928028889 0.019351962263610297 0 0.01362467924782345 0.019293363224847666 0 0.01372673878007253 0.019162652325641516 0 0.01362467924782345 0.019293363224847666 0 0.01372673878007253 0.019162652325641516 0 0.013456508785225984 0.019032973057343899 0 0.0138335928028889 0.019351962263610297 0 0.013678623275745148 0.019510529581468761 0 0.01362467924782345 0.019293363224847666 0 0.01445652648429443 0.018733795968889556 0 0.013336078678602096 0.019082548152325487 0 0.01372673878007253 0.019162652325641516 0 0.013910119909014529 0.019009422416266974 0 0.013456508785225984 0.019032973057343899 0 0.014742406721160457 0.018069407008506039 0 0.013778779011935869 0.01863546078430885 0 0.014157902288059547 0.018622156029837258 0 0.013778779011935869 0.01863546078430885 0 0.014157902288059547 0.018622156029837258 0 0.013456508785225984 0.019032973057343899 0 0.013910119909014529 0.019009422416266974 0 0.013874799742440934 0.019178642429977879 0 0.014026683129493739 0.019215884562480398 0 0.01372673878007253 0.019162652325641516 0 0.013910119909014529 0.019009422416266974 0 0.013874799742440934 0.019178642429977879 0 0.014292925807189404 0.019286650478951173 0 0.014144451531454829 0.019080719499494532 0 0.014346828155706256 0.018816014837617339 0 0.013910119909014529 0.019009422416266974 0 0.014144451531454829 0.019080719499494532 0 0.014346828155706256 0.018816014837617339 0 0.01445652648429443 0.018733795968889556 0 0.011868380542172305 0.017627065571964601 0 0.013910119909014529 0.019009422416266974 0 0.014144451531454829 0.019080719499494532 0 0.014026683129493739 0.019215884562480398 0 0.014292925807189404 0.019286650478951173 0 0.014144451531454829 0.019080719499494532 0 0.014026683129493739 0.019215884562480398 0 0.016806203460321877 0.016231505647907651 0 0.020120346033601778 0.015916582675010536 0 0.019783866809223841 0.0087833870877431046 0 0.020457340141187514 0.0088960488534920272 0 0.019202710405816472 0.0094117915344613876 0 0.020140588882748132 0.0081830276428295733 0 0.019783866809223841 0.0087833870877431046 0 0.019623391547738973 0.0075663270896276537 0 0.020243274467256336 0.0081399662695648047 0 0.020140588882748132 0.0081830276428295733 0 0.020457340141187514 0.0088960488534920272 0 0.016156192174280073 0.010942622010669964 0 0.016806203460321877 0.016231505647907651 0 0.012880347330238939 0.019111493901002467 0 0.013010289111576043 0.019423734705950872 0 0.013186059207688535 0.019219364165101113 0 0.016156192174280073 0.010942622010669964 0 0.01656911184138745 0.010736209664771106 0 0.020140588882748132 0.0081830276428295733 0 0.019783866809223841 0.0087833870877431046 0 0.020457340141187514 0.0088960488534920272 0 0.012880347330238939 0.019111493901002467 0 0.013186059207688535 0.019219364165101113 0 0.013456508785225984 0.019032973057343899 0 0.016806203460321877 0.016231505647907651 0 0.011990651007560341 0.019816271584233786 0 0.013305818858033103 0.019656579306005721 0 0.012965975124512807 0.019486430761592934 0 0.013469172283043037 0.019282616677631217 0 0.013305818858033103 0.019656579306005721 0 0.013537669990764507 0.019492565209287206 0 0.013469172283043037 0.019282616677631217 0 0.013305818858033103 0.019656579306005721 0 0.013592338976716484 0.01972555634260497 0 0.013537669990764507 0.019492565209287206 0 0.013469172283043037 0.019282616677631217 0 0.013186059207688535 0.019219364165101113 0 0.013456508785225984 0.019032973057343899 0 0.01362467924782345 0.019293363224847666 0 0.013537669990764507 0.019492565209287206 0 0.013469172283043037 0.019282616677631217 0 0.01362467924782345 0.019293363224847666 0 0.013469172283043037 0.019282616677631217 0 0.013456508785225984 0.019032973057343899 0 0.013010289111576043 0.019423734705950872 0 0.013469172283043037 0.019282616677631217 0 0.013186059207688535 0.019219364165101113 0 0.015211477683110656 0.011842997876281656 0 0.016156192174280073 0.010942622010669964 0 0.013778779011935869 0.01863546078430885 0 0.012880347330238939 0.019111493901002467 0 0.013456508785225984 0.019032973057343899 0 0.017330289921978981 0.0055078550042527942 0 0.016418715421123029 0.0052483196875246626 0 0.017843029142294194 0.0045833896160084753 0 0.018289684352460606 0.0056880257725474533 0 0.017330289921978981 0.0055078550042527942 0 0.017843029142294194 0.0045833896160084753 0 0.019151403347034211 0.0055304378694109009 0 0.016156192174280073 0.010942622010669964 0 0.019737030045653286 0.0069577066673658702 0 0.020225028902340941 0.0081251310556158651 0 0.019623391547738973 0.0075663270896276537 0 0.020225028902340941 0.0081251310556158651 0 0.020140588882748132 0.0081830276428295733 0 0.019623391547738973 0.0075663270896276537 0 0.019623391547738973 0.0075663270896276537 0 0.019300892414962294 0.0074442741058652704 0 0.019428127500784504 0.0084974824634972447 0 0.019555518780969162 0.0072092509662715501 0 0.019623391547738973 0.0075663270896276537 0 0.019300892414962294 0.0074442741058652704 0 0.019737030045653286 0.0069577066673658702 0 0.019555518780969162 0.0072092509662715501 0 0.019623391547738973 0.0075663270896276537 0 0.020359255362824177 0.0072108005583806723 0 0.020341690620230574 0.007516321015071833 0 0.020157652143575667 0.0072754919566583205 0 0.019783866809223841 0.0087833870877431046 0 0.019623391547738973 0.0075663270896276537 0 0.019159684947055708 0.0090677424245815923 0 0.019758637385739915 0.0069520509789685412 0 0.0204528129729196 0.0099949796047167604 0 0.020359255362824177 0.0072108005583806723 0 0.020341690620230574 0.007516321015071833 0 0.020531137039600914 0.0077894048760722952 0 0.019460407546538376 0.0072559949450494345 0 0.0204528129729196 0.0099949796047167604 0 0.020341690620230574 0.007516321015071833 0 0.02035634116060853 0.0077114692119389077 0 0.020531137039600914 0.0077894048760722952 0 0.02035634116060853 0.0077114692119389077 0 0.020491873212672967 0.0079136681056279582 0 0.020238169638455077 0.0078178649193787683 0 0.02035634116060853 0.0077114692119389077 0 0.020531137039600914 0.0077894048760722952 0 0.020491873212672967 0.0079136681056279582 0 0.019783866809223841 0.0087833870877431046 0 0.019159684947055708 0.0090677424245815923 0 0.019202710405816472 0.0094117915344613876 0 0.020148875915740987 0.0075635706804702222 0 0.020042304686293221 0.0077576067933187581 0 0.020238169638455077 0.0078178649193787683 0 0.02035634116060853 0.0077114692119389077 0 0.020148875915740987 0.0075635706804702222 0 0.020238169638455077 0.0078178649193787683 0 0.020341690620230574 0.007516321015071833 0 0.02035634116060853 0.0077114692119389077 0 0.020148875915740987 0.0075635706804702222 0 0.020148875915740987 0.0075635706804702222 0 0.020157652143575667 0.0072754919566583205 0 0.020044416729312405 0.0073231304917454583 0 0.020341690620230574 0.007516321015071833 0 0.020148875915740987 0.0075635706804702222 0 0.020157652143575667 0.0072754919566583205 0 0.020045462311331901 0.0070664613200530661 0 0.020049363399418995 0.0070151598844426909 0 0.020157652143575667 0.0072754919566583205 0 0.020049363399418995 0.0070151598844426909 0 0.020359255362824177 0.0072108005583806723 0 0.020157652143575667 0.0072754919566583205 0 0.020045462311331901 0.0070664613200530661 0 0.020157652143575667 0.0072754919566583205 0 0.020044416729312405 0.0073231304917454583 0 0.020148875915740987 0.0075635706804702222 0 0.019920722310287683 0.0074578903547462983 0 0.020044416729312405 0.0073231304917454583 0 0.019978563579477825 0.007038950448572133 0 0.019920722310287683 0.0074578903547462983 0 0.020044416729312405 0.0073231304917454583 0 0.019978563579477825 0.007038950448572133 0 0.020045462311331901 0.0070664613200530661 0 0.020044416729312405 0.0073231304917454583 0 0.019797606549293249 0.0069964654867017469 0 0.019693479635748086 0.0076849562207126484 0 0.019920722310287683 0.0074578903547462983 0 0.019693479635748086 0.0076849562207126484 0 0.019920722310287683 0.0074578903547462983 0 0.019844787259010462 0.007881986914176034 0 0.019693479635748086 0.0076849562207126484 0 0.019598759835541237 0.0079986329266252994 0 0.019844787259010462 0.007881986914176034 0 0.019920722310287683 0.0074578903547462983 0 0.020042304686293221 0.0077576067933187581 0 0.019844787259010462 0.007881986914176034 0 0.020148875915740987 0.0075635706804702222 0 0.019920722310287683 0.0074578903547462983 0 0.020042304686293221 0.0077576067933187581 0 0.020042304686293221 0.0077576067933187581 0 0.020090984095301325 0.0080795520323565621 0 0.019844787259010462 0.007881986914176034 0 0.020090984095301325 0.0080795520323565621 0 0.019844787259010462 0.007881986914176034 0 0.019784917078766139 0.0082628064779261771 0 0.019598759835541237 0.0079986329266252994 0 0.019844787259010462 0.007881986914176034 0 0.019784917078766139 0.0082628064779261771 0 0.020597805449380127 0.026311033254611014 0 0.019091484019481585 0.024690212032067848 0 0.022086300545381899 0.025413385228971842 0 0.024904110936464424 0.041176660878049845 0 0.023973667083468431 0.040163783635981824 0 0.023973462171446906 0.040917307057364932 0 0.023838190972642174 0.037586270908584608 0 0.02475674255750878 0.039721147480973079 0 0.023838190972642174 0.037586270908584608 0 0.021292713465718229 0.019862218375744582 0 0.022831884142916703 0.041777216289426822 0 0.023973667083468431 0.040163783635981824 0 0.023973462171446906 0.040917307057364932 0 0.021621056895090598 0.015013933761984991 0 0.021292713465718229 0.019862218375744582 0 0.023019913007247483 0.023053062316171699 0 0.019091484019481585 0.024690212032067848 0 0.022086300545381899 0.025413385228971842 0 0.023019913007247483 0.023053062316171699 0 0.022086300545381899 0.025413385228971842 0 0.024188006028804623 0.025698013233681875 0 0.023035403696757512 0.027077318991423811 0 0.022086300545381899 0.025413385228971842 0 0.024188006028804623 0.025698013233681875 0 0.025504913780680823 0.027862455060150938 0 0.024188006028804623 0.025698013233681875 0 0.026272000005758221 0.024611317334611669 0 0.023019913007247483 0.023053062316171699 0 0.024188006028804623 0.025698013233681875 0 0.026272000005758221 0.024611317334611669 0 0.01733139373473977 0.030990287382046226 0 0.018964866138041853 0.024156902090519829 0 0.022362972696216166 0.024930695328560359 0 0.018964866138041853 0.024156902090519829 0 0.022362972696216166 0.024930695328560359 0 0.020620199396366088 0.017267924890158968 0 0.019330744693778885 0.023748654089271581 0 0.020120346033601778 0.015916582675010536 0 0.022362972696216166 0.024930695328560359 0 0.021339484306312131 0.016976624787219036 0 0.020620199396366088 0.017267924890158968 0 0.02272478639256631 0.023969050274812189 0 0.022392858424420934 0.01584071670053281 0 0.02130485597948888 0.01176623612039022 0 0.021805872635511959 0.015535144172498133 0 0.0202513947093007 0.016163204746073502 0 0.0204528129729196 0.0099949796047167604 0 0.020120346033601778 0.015916582675010536 0 0.0204528129729196 0.0099949796047167604 0 0.022392858424420934 0.01584071670053281 0 0.020120346033601778 0.015916582675010536 0 0.022392858424420934 0.01584071670053281 0 0.023019913007247483 0.023053062316171699 0 0.026272000005758221 0.024611317334611669 0 0.027014031326221401 0.021363675421851042 0 0.020042304686293221 0.0077576067933187581 0 0.020090984095301325 0.0080795520323565621 0 0.020238169638455077 0.0078178649193787683 0 0.021621056895090598 0.015013933761984991 0 0.022392858424420934 0.01584071670053281 0 0.020090984095301325 0.0080795520323565621 0 0.020491873212672967 0.0079136681056279582 0 0.020238169638455077 0.0078178649193787683 0 0.057913069219373073 0.010721682183493749 0 0.05630891671191985 0.011238497342125188 0 0.05619040535574682 0.010143793277264408 0 0.057160284364999696 0.012763120182018703 0 0.055940696398763305 0.013509957407916322 0 0.057913069219373073 0.010721682183493749 0 0.05630891671191985 0.011238497342125188 0 0.056493891791187814 0.012588218516631786 0 0.054999935905240251 0.011420722371455187 0 0.05630891671191985 0.011238497342125188 0 0.05619040535574682 0.010143793277264408 0 0.054999935905240251 0.011420722371455187 0 0.05630891671191985 0.011238497342125188 0 0.056493891791187814 0.012588218516631786 0 0.055940696398763305 0.013509957407916322 0 0.05500021688426332 0.014468349185037867 0 0.054999935905240251 0.011420722371455187 0 0.056493891791187814 0.012588218516631786 0 0.055000004641785692 0.014468467832327348 0 0.055789968608224869 0.014288144960836392 0 0.055491370489853808 0.014449415858439944 0 0.055970182294526757 0.014712740451331719 0 0.055491370489853808 0.014449415858439944 0 0.055970182294526757 0.014712740451331719 0 0.056113190819713291 0.015641277849369545 0 0.055970182294526757 0.014712740451331719 0 0.056206024025434849 0.014959424257856522 0 0.056044737916263902 0.01434998562254367 0 0.056206024025434849 0.014959424257856522 0 0.056111312122420286 0.01433145969235727 0 0.056044737916263902 0.01434998562254367 0 0.056111312122420286 0.01433145969235727 0 0.056044737916263902 0.01434998562254367 0 0.056072025143929179 0.014203685224897854 0 0.055789968608224869 0.014288144960836392 0 0.055970182294526757 0.014712740451331719 0 0.056044737916263902 0.01434998562254367 0 0.053187111319601493 0.0079407425447691748 0 0.05474137099719309 0.0061176295596233835 0 0.057160284364999696 0.012763120182018703 0 0.053187111319601493 0.0079407425447691748 0 0.055789968608224869 0.014288144960836392 0 0.056044737916263902 0.01434998562254367 0 0.05593295805434971 0.014111056388886118 0 0.057913069219373073 0.010721682183493749 0 0.059269197434919596 0.0089523585932826492 0 0.057664448907758271 0.0085178187417425926 0 0.053187111319601493 0.0079407425447691748 0 0.052257217124367192 0.010152579518063445 0 0.056044737916263902 0.01434998562254367 0 0.05593295805434971 0.014111056388886118 0 0.056072025143929179 0.014203685224897854 0 0.048522955543281371 0.0054556198386867096 0 0.048786197242806105 0.0053377891716594964 0 0.048800923447501435 0.0055712332288694825 0 0.048522955543281371 0.0054556198386867096 0 0.048786197242806105 0.0053377891716594964 0 0.048814822793742135 0.0049549013094317591 0 0.053187111319601493 0.0079407425447691748 0 0.048086209795628672 0.0041100193289763777 0 0.0501467625348197 0.003244622967158179 0 0.0498014912300032 0.004390528139296827 0 0.048814822793742135 0.0049549013094317591 0 0.0501467625348197 0.003244622967158179 0 0.051010057386750421 0.0047801762153568952 0 0.051718434232194473 0.0035999129334748654 0 0.051010057386750421 0.0047801762153568952 0 0.0498014912300032 0.004390528139296827 0 0.048851164297443926 0.0051076678155917302 0 0.0501467625348197 0.003244622967158179 0 0.051010057386750421 0.0047801762153568952 0 0.0498014912300032 0.004390528139296827 0 0.05474137099719309 0.0061176295596233835 0 0.055147793739758734 0.0067402875848061213 0 0.057848791933026035 0.0065631066406360676 0 0.055919676268164312 0.0077300907093748143 0 0.055919520301472188 0.0063057049260477832 0 0.054336242312530522 0.0055817206254677862 0 0.055147793739758734 0.0067402875848061213 0 0.051010057386750421 0.0047801762153568952 0 0.051718434232194473 0.0035999129334748654 0 0.053367167539274583 0.0040488744018653908 0 0.057664448907758271 0.0085178187417425926 0 0.056621734323377491 0.009061649029938711 0 0.056013177872694379 0.0080461589781627377 0 0.057913069219373073 0.010721682183493749 0 0.057664448907758271 0.0085178187417425926 0 0.056621734323377491 0.009061649029938711 0 0.057913069219373073 0.010721682183493749 0 0.05619040535574682 0.010143793277264408 0 0.056621734323377491 0.009061649029938711 0 0.054999935905240251 0.011420722371455187 0 0.05619040535574682 0.010143793277264408 0 0.054999964342981281 0.008373350606694599 0 0.05619040535574682 0.010143793277264408 0 0.056621734323377491 0.009061649029938711 0 0.054999964342981281 0.008373350606694599 0 0.055147793739758734 0.0067402875848061213 0 0.055000774978253314 0.0077137142074438381 0 0.054999997891312193 0.0083731267441878188 0 0.05605266584556319 0.0079808842231974264 0 0.0549999948742479 0.0077142423780604749 0 0.055000249722828798 0.0083720820475605973 0 0.055147793739758734 0.0067402875848061213 0 0.056621734323377491 0.009061649029938711 0 0.054999964342981281 0.008373350606694599 0 0.056013177872694379 0.0080461589781627377 0 0.055919676268164312 0.0077300907093748143 0 0.054999873572500677 0.0077131327394434415 0 0.055919520301472188 0.0063057049260477832 0 0.055919520301472188 0.0063057049260477832 0 0.056874422023891064 0.0051606620510754389 0 0.054999925281350254 0.0049352846449115502 0 0.054999873572500677 0.0077131327394434415 0 0.055919520301472188 0.0063057049260477832 0 0.054999925281350254 0.0049352846449115502 0 0.057848791933026035 0.0065631066406360676 0 0.055919520301472188 0.0063057049260477832 0 0.056874422023891064 0.0051606620510754389 0 0.056900739361559032 0.0049557237084080687 0 0.058501516675242018 0.0048855156571105014 0 0.057008501031766703 0.0047828352217086489 0 0.056599341045057518 0.0032697196029953233 0 0.058022932331200296 0.0037622206038008602 0 0.055000016974514655 0.0049340526305040938 0 0.054999876173103805 0.0020990219552465064 0 0.056599341045057518 0.0032697196029953233 0 0.056900739361559032 0.0049557237084080687 0 0.055000424256980852 0.0049346328183499421 0 0.057008501031766703 0.0047828352217086489 0 0.055000016974514655 0.0049340526305040938 0 0.056599341045057518 0.0032697196029953233 0 0.054999876173103805 0.0020990219552465064 0 0.056599341045057518 0.0032697196029953233 0 0.056590003463054768 0.0014472195557606504 0 0.056599341045057518 0.0032697196029953233 0 0.057678022510985645 0.0026504307337174228 0 0.056590003463054768 0.0014472195557606504 0 0.056599341045057518 0.0032697196029953233 0 0.057678022510985645 0.0026504307337174228 0 0.058022932331200296 0.0037622206038008602 0 0.057678022510985645 0.0026504307337174228 0 0.056590003463054768 0.0014472195557606504 0 0.057877245373884327 0.0016376518926499476 0 0.056660211238739731 -0.0003241876186360484 0 0.056590003463054768 0.0014472195557606504 0 0.057281064597555609 0.00071665613840611738 0 0.056590003463054768 0.0014472195557606504 0 0.057877245373884327 0.0016376518926499476 0 0.057281064597555609 0.00071665613840611738 0 0.057877245373884327 0.0016376518926499476 0 0.058021424321504651 0.00079783095573866792 0 0.057281064597555609 0.00071665613840611738 0 0.057526394761763772 4.2461756496558212e-05 0 0.058021424321504651 0.00079783095573866792 0 0.057281064597555609 0.00071665613840611738 0 0.056660211238739731 -0.0003241876186360484 0 0.057526394761763772 4.2461756496558212e-05 0 0.057281064597555609 0.00071665613840611738 0 0.054999852236212225 -0.0007368927428225442 0 0.054999876173103805 0.0020990219552465064 0 0.056590003463054768 0.0014472195557606504 0 0.054999852236212225 -0.0007368927428225442 0 0.056660211238739731 -0.0003241876186360484 0 0.056590003463054768 0.0014472195557606504 0 0.059071331668393796 0.0023653788076753914 0 0.059362152818676739 0.0025974424862869566 0 0.059303944089215743 0.0021603386687950718 0 0.059071331668393796 0.0023653788076753914 0 0.059362152818676739 0.0025974424862869566 0 0.05906353622993895 0.0026882416000059413 0 0.059679740472953588 0.002438803220134989 0 0.059362152818676739 0.0025974424862869566 0 0.059303944089215743 0.0021603386687950718 0 0.059679740472953588 0.002438803220134989 0 0.059362152818676739 0.0025974424862869566 0 0.059747619786551312 0.0029539024552822594 0 0.059640956608443735 0.0023074358084242616 0 0.059033058961570253 0.0017370368469905397 0 0.059679740472953588 0.002438803220134989 0 0.0592250071826304 0.0021354776782775164 0 0.059973226892014599 0.0022281808137729199 0 0.059071331668393796 0.0023653788076753914 0 0.059295321899714031 0.0021554642130368483 0 0.059080995967755963 0.0020068959899319401 0 0.059033058961570253 0.0017370368469905397 0 0.058531191849774511 0.0005206903936624918 0 0.058969548643066971 0.0020314207379863165 0 0.059033058961570253 0.0017370368469905397 0 0.059224827535062759 0.0018555447327774325 0 0.058571347834375495 0.0022682035360429842 0 0.058698139688352337 0.0024684707821404778 0 0.058531191849774511 0.0005206903936624918 0 0.05848473429683855 0.0023737236589444865 0 0.058282280322930972 -0.00055461898391224681 0 0.058021424321504651 0.00079783095573866792 0 0.058735614483419275 0.001108595620214936 0 0.059071331668393796 0.0023653788076753914 0 0.059080995967755963 0.0020068959899319401 0 0.058698139688352337 0.0024684707821404778 0 0.058221078953476203 0.001131366799213126 0 0.059224827535062759 0.0018555447327774325 0 0.058571347834375495 0.0022682035360429842 0 0.058571347834375495 0.0022682035360429842 0 0.058698139688352337 0.0024684707821404778 0 0.058868576119079849 0.0030705923973601808 0 0.057877245373884327 0.0016376518926499476 0 0.058735614483419275 0.001108595620214936 0 0.058868576119079849 0.0030705923973601808 0 0.057877245373884327 0.0016376518926499476 0 0.058021424321504651 0.00079783095573866792 0 0.058735614483419275 0.001108595620214936 0 0.059071331668393796 0.0023653788076753914 0 0.058698139688352337 0.0024684707821404778 0 0.05906353622993895 0.0026882416000059413 0 0.058698139688352337 0.0024684707821404778 0 0.058868576119079849 0.0030705923973601808 0 0.05906353622993895 0.0026882416000059413 0 0.05869829367033292 0.0019252080822872995 0 0.058848735053702333 0.002795866662212538 0 0.057678022510985645 0.0026504307337174228 0 0.057877245373884327 0.0016376518926499476 0 0.058868576119079849 0.0030705923973601808 0 0.057678022510985645 0.0026504307337174228 0 0.058868576119079849 0.0030705923973601808 0 0.058022932331200296 0.0037622206038008602 0 0.058868576119079849 0.0030705923973601808 0 0.059292241173824804 0.0034170161331224564 0 0.059337488112116706 0.0029628724648735295 0 0.058868576119079849 0.0030705923973601808 0 0.05906353622993895 0.0026882416000059413 0 0.059337488112116706 0.0029628724648735295 0 0.059362152818676739 0.0025974424862869566 0 0.05906353622993895 0.0026882416000059413 0 0.059337488112116706 0.0029628724648735295 0 0.059362152818676739 0.0025974424862869566 0 0.059337488112116706 0.0029628724648735295 0 0.059747619786551312 0.0029539024552822594 0 0.059292241173824804 0.0034170161331224564 0 0.059337488112116706 0.0029628724648735295 0 0.059729303937874359 0.0035085740852428184 0 0.059337488112116706 0.0029628724648735295 0 0.059729303937874359 0.0035085740852428184 0 0.059747619786551312 0.0029539024552822594 0 0.059188323594962733 0.0040305877082911553 0 0.058553309914245413 0.0046363281276814352 0 0.059653865341199999 0.0047965614931148029 0 0.059292241173824804 0.0034170161331224564 0 0.059188323594962733 0.0040305877082911553 0 0.059627651415696176 0.0041523040718217524 0 0.059292241173824804 0.0034170161331224564 0 0.059729303937874359 0.0035085740852428184 0 0.059627651415696176 0.0041523040718217524 0 0.058868576119079849 0.0030705923973601808 0 0.059292241173824804 0.0034170161331224564 0 0.059188323594962733 0.0040305877082911553 0 0.059188323594962733 0.0040305877082911553 0 0.059627651415696176 0.0041523040718217524 0 0.059653865341199999 0.0047965614931148029 0 0.057008501031766703 0.0047828352217086489 0 0.058022932331200296 0.0037622206038008602 0 0.058553309914245413 0.0046363281276814352 0 0.058868576119079849 0.0030705923973601808 0 0.059188323594962733 0.0040305877082911553 0 0.058022932331200296 0.0037622206038008602 0 0.059188323594962733 0.0040305877082911553 0 0.058022932331200296 0.0037622206038008602 0 0.058553309914245413 0.0046363281276814352 0 0.054336242312530522 0.0055817206254677862 0 0.054082793054372955 0.0052388761382262013 0 0.057848791933026035 0.0065631066406360676 0 0.056874422023891064 0.0051606620510754389 0 0.058408859022228046 0.0051270282036668339 0 0.057848791933026035 0.0065631066406360676 0 0.058408859022228046 0.0051270282036668339 0 0.059331215781620102 0.005414056665438682 0 0.058408859022228046 0.0051270282036668339 0 0.059653865341199999 0.0047965614931148029 0 0.059331215781620102 0.005414056665438682 0 0.058501516675242018 0.0048855156571105014 0 0.059589632335347739 0.0048357543336430657 0 0.0498014912300032 0.004390528139296827 0 0.048851164297443926 0.0051076678155917302 0 0.048814822793742135 0.0049549013094317591 0 0.048851164297443926 0.0051076678155917302 0 0.048814822793742135 0.0049549013094317591 0 0.049116874208108785 0.0048691616238165387 0 0.054082793054372955 0.0052388761382262013 0 0.055386960412950201 0.0045441256868963718 0 0.059653865341199999 0.0047965614931148029 0 0.059331215781620102 0.005414056665438682 0 0.060535392025814025 0.0044847507525979848 0 0.048851164297443926 0.0051076678155917302 0 0.049116874208108785 0.0048691616238165387 0 0.049539610323892522 0.0041963921612936097 0 0.049116874208108785 0.0048691616238165387 0 0.049744994324015149 0.0048180795869532502 0 0.049539610323892522 0.0041963921612936097 0 0.049744994324015149 0.0048180795869532502 0 0.051056084264489848 0.0035788921081741452 0 0.050426830168803345 0.0050864686293882987 0 0.049744994324015149 0.0048180795869532502 0 0.049539610323892522 0.0041963921612936097 0 0.051056084264489848 0.0035788921081741452 0 0.060746580834723819 0.0037873745409697022 0 0.061293453620596509 0.0034255921745109095 0 0.061564219218692234 0.0039631392666794746 0 0.055386960412950201 0.0045441256868963718 0 0.054256807639122072 0.0016786455631428892 0 0.060535392025814025 0.0044847507525979848 0 0.060746580834723819 0.0037873745409697022 0 0.061564219218692234 0.0039631392666794746 0 0.059653865341199999 0.0047965614931148029 0 0.060535392025814025 0.0044847507525979848 0 0.060092989277437427 0.0040828540536733465 0 0.059627651415696176 0.0041523040718217524 0 0.059653865341199999 0.0047965614931148029 0 0.060092989277437427 0.0040828540536733465 0 0.060535392025814025 0.0044847507525979848 0 0.060746580834723819 0.0037873745409697022 0 0.060092989277437427 0.0040828540536733465 0 0.060746580834723819 0.0037873745409697022 0 0.060092989277437427 0.0040828540536733465 0 0.060199442701741677 0.0034363199708246695 0 0.059729303937874359 0.0035085740852428184 0 0.060092989277437427 0.0040828540536733465 0 0.060199442701741677 0.0034363199708246695 0 0.059729303937874359 0.0035085740852428184 0 0.059627651415696176 0.0041523040718217524 0 0.060092989277437427 0.0040828540536733465 0 0.059729303937874359 0.0035085740852428184 0 0.059747619786551312 0.0029539024552822594 0 0.060199442701741677 0.0034363199708246695 0 0.059679740472953588 0.002438803220134989 0 0.059747619786551312 0.0029539024552822594 0 0.060196152706443865 0.0028223509116896603 0 0.059747619786551312 0.0029539024552822594 0 0.060196152706443865 0.0028223509116896603 0 0.060199442701741677 0.0034363199708246695 0 0.060196152706443865 0.0028223509116896603 0 0.060199442701741677 0.0034363199708246695 0 0.060716336455180875 0.003297862327515797 0 0.060746580834723819 0.0037873745409697022 0 0.060199442701741677 0.0034363199708246695 0 0.060716336455180875 0.003297862327515797 0 0.060716336455180875 0.003297862327515797 0 0.061327777422915383 0.0024631991760594735 0 0.061293453620596509 0.0034255921745109095 0 0.060716336455180875 0.003297862327515797 0 0.060675980163041598 0.0027060276110692167 0 0.061327777422915383 0.0024631991760594735 0 0.060746580834723819 0.0037873745409697022 0 0.060716336455180875 0.003297862327515797 0 0.061293453620596509 0.0034255921745109095 0 0.060196152706443865 0.0028223509116896603 0 0.060716336455180875 0.003297862327515797 0 0.060675980163041598 0.0027060276110692167 0 0.060769378698501589 0.0017496472662452247 0 0.060459651100757808 0.0022432163278001955 0 0.061327777422915383 0.0024631991760594735 0 0.056378609517997391 -0.0033288574171878214 0 0.054824180357617117 -0.0029932580912032315 0 0.055928957668941362 -0.0016563243753301194 0 0.060675980163041598 0.0027060276110692167 0 0.060459651100757808 0.0022432163278001955 0 0.061327777422915383 0.0024631991760594735 0 0.058325441605198647 -0.00095262102011343052 0 0.059042811904018812 0.00090328290012500615 0 0.058325441605198647 -0.00095262102011343052 0 0.059617871446681237 0.0016973893121643002 0 0.060211128397236344 0.0017149684534701057 0 0.060822702733552357 0.0016752545205239936 0 0.060459651100757808 0.0022432163278001955 0 0.060211128397236344 0.0017149684534701057 0 0.060459651100757808 0.0022432163278001955 0 0.059973226892014599 0.0022281808137729199 0 0.060211128397236344 0.0017149684534701057 0 0.0592250071826304 0.0021354776782775164 0 0.059973226892014599 0.0022281808137729199 0 0.059679740472953588 0.002438803220134989 0 0.060196152706443865 0.0028223509116896603 0 0.059973226892014599 0.0022281808137729199 0 0.060196152706443865 0.0028223509116896603 0 0.060459651100757808 0.0022432163278001955 0 0.059973226892014599 0.0022281808137729199 0 0.060196152706443865 0.0028223509116896603 0 0.060675980163041598 0.0027060276110692167 0 0.060459651100757808 0.0022432163278001955 0 0.051599209252656777 -0.0032701999614932848 0 0.051481632735030231 -0.0043377034473958513 0 0.052314455023594053 -0.0053615867913467691 0 0.053612680915764203 -0.0037061558565716747 0 0.056221469926304217 -0.0010171896367965553 0 0.051481632735030231 -0.0043377034473958513 0 0.050987092822077675 -0.0050658376023536384 0 0.050816713147491241 -0.0044245617532225993 0 0.050716927109932648 -0.0035648318704174162 0 0.051481632735030231 -0.0043377034473958513 0 0.050816713147491241 -0.0044245617532225993 0 0.050716927109932648 -0.0035648318704174162 0 0.051546010251289999 -0.0033704791188663057 0 0.051481632735030231 -0.0043377034473958513 0 0.053612680915764203 -0.0037061558565716747 0 0.051767036007167352 -0.0041639585514921997 0 0.057962773812026504 -0.0031118396359345745 0 0.055928957668941362 -0.0016563243753301194 0 0.05702515249481583 -0.00032320797708634006 0 0.061327777422915383 0.0024631991760594735 0 0.061293453620596509 0.0034255921745109095 0 0.061854426478424443 0.0031690864174669714 0 0.059042811904018812 0.00090328290012500615 0 0.056221469926304217 -0.0010171896367965553 0 0.061293453620596509 0.0034255921745109095 0 0.061854426478424443 0.0031690864174669714 0 0.061564219218692234 0.0039631392666794746 0 0.056221469926304217 -0.0010171896367965553 0 0.051539979484037671 -0.0027519426592388773 0 0.052314455023594053 -0.0053615867913467691 0 0.050987092822077675 -0.0050658376023536384 0 0.05166596745992081 -0.0061433960942590821 0 0.051481632735030231 -0.0043377034473958513 0 0.052314455023594053 -0.0053615867913467691 0 0.050987092822077675 -0.0050658376023536384 0 0.051539979484037671 -0.0027519426592388773 0 0.051287373749547144 0.00053362061545865968 0 0.051768146515687515 0.00014058107090751237 0 0.050861466378343254 0.00047886822770761521 0 0.051479277922643528 0.0016181050329484555 0 0.056221469926304217 -0.0010171896367965553 0 0.054256807639122072 0.0016786455631428892 0 0.051539979484037671 -0.0027519426592388773 0 0.054256807639122072 0.0016786455631428892 0 0.054143772904669443 -0.00071724030161876388 0 0.054202493553368952 -0.00063458207625457261 0 0.054094162174981281 -0.00057978583930753437 0 0.054256807639122072 0.0016786455631428892 0 0.049667168170283139 0.0039663075337374541 0 0.050861466378343254 0.00047886822770761521 0 0.051479277922643528 0.0016181050329484555 0 0.050319223680635891 0.0020666893164159551 0 0.051647662268400181 0.0021002526992900099 0 0.049667168170283139 0.0039663075337374541 0 0.051432284980585434 0.0026703223496912678 0 0.052250666522355618 0.0028522888911332025 0 0.052281602852356779 0.0024857510309901384 0 0.051647662268400181 0.0021002526992900099 0 0.051287373749547144 0.00053362061545865968 0 0.051768146515687515 0.00014058107090751237 0 0.051479277922643528 0.0016181050329484555 0 0.052615741588162894 0.0011793807053381363 0 0.051432284980585434 0.0026703223496912678 0 0.052357258362398698 0.0034647636044782817 0 0.052250666522355618 0.0028522888911332025 0 0.051432284980585434 0.0026703223496912678 0 0.052357258362398698 0.0034647636044782817 0 0.051107855389325239 0.0037854341835420182 0 0.052357258362398698 0.0034647636044782817 0 0.051110369211233797 0.0050002162117392642 0 0.051107855389325239 0.0037854341835420182 0 0.052357258362398698 0.0034647636044782817 0 0.053211749174085984 0.0062247658363261509 0 0.051110369211233797 0.0050002162117392642 0 0.053211749174085984 0.0062247658363261509 0 0.051110369211233797 0.0050002162117392642 0 0.049198943032361997 0.0069303924850807668 0 0.051110369211233797 0.0050002162117392642 0 0.049559422351449743 0.0054563746340133765 0 0.049198943032361997 0.0069303924850807668 0 0.049559422351449743 0.0054563746340133765 0 0.050189606670981213 0.0045888440758286141 0 0.049150995489863215 0.0050979485378719307 0 0.051110369211233797 0.0050002162117392642 0 0.049559422351449743 0.0054563746340133765 0 0.050189606670981213 0.0045888440758286141 0 0.051432284980585434 0.0026703223496912678 0 0.051107855389325239 0.0037854341835420182 0 0.049520646757075293 0.0034136482356136662 0 0.050189606670981213 0.0045888440758286141 0 0.049520646757075293 0.0034136482356136662 0 0.049150995489863215 0.0050979485378719307 0 0.051110369211233797 0.0050002162117392642 0 0.050189606670981213 0.0045888440758286141 0 0.051107855389325239 0.0037854341835420182 0 0.050189606670981213 0.0045888440758286141 0 0.051107855389325239 0.0037854341835420182 0 0.049520646757075293 0.0034136482356136662 0 0.049744994324015149 0.0048180795869532502 0 0.050426830168803345 0.0050864686293882987 0 0.049003077092348551 0.005301464823953995 0 0.049181796971301324 0.0050004391018355675 0 0.049150995489863215 0.0050979485378719307 0 0.049003077092348551 0.005301464823953995 0 0.049667168170283139 0.0039663075337374541 0 0.049065119773915283 0.0055025121331443759 0 0.049667168170283139 0.0039663075337374541 0 0.049197457747664777 0.0049773415993664537 0 0.049150995489863215 0.0050979485378719307 0 0.049003077092348551 0.005301464823953995 0 0.048980097733108956 0.0055797202205649012 0 0.048814822793742135 0.0049549013094317591 0 0.049116874208108785 0.0048691616238165387 0 0.049003077092348551 0.005301464823953995 0 0.048786197242806105 0.0053377891716594964 0 0.048814822793742135 0.0049549013094317591 0 0.049003077092348551 0.005301464823953995 0 0.049116874208108785 0.0048691616238165387 0 0.049744994324015149 0.0048180795869532502 0 0.049003077092348551 0.005301464823953995 0 0.048786197242806105 0.0053377891716594964 0 0.049003077092348551 0.005301464823953995 0 0.048800923447501435 0.0055712332288694825 0 0.049003077092348551 0.005301464823953995 0 0.048800923447501435 0.0055712332288694825 0 0.048980097733108956 0.0055797202205649012 0 0.048800923447501435 0.0055712332288694825 0 0.048980097733108956 0.0055797202205649012 0 0.049198943032361997 0.0069303924850807668 0 0.052257217124367192 0.010152579518063445 0 0.052719973494090466 0.010288111251001332 0 0.049559422351449743 0.0054563746340133765 0 0.049150995489863215 0.0050979485378719307 0 0.048980097733108956 0.0055797202205649012 0 0.049559422351449743 0.0054563746340133765 0 0.048980097733108956 0.0055797202205649012 0 0.049198943032361997 0.0069303924850807668 0 0.056072025143929179 0.014203685224897854 0 0.056023547798991158 0.014132944588108249 0 0.055688090414279391 0.013760535607321484 0 0.056023547798991158 0.014132944588108249 0 0.055807994901021278 0.013696346776635105 0 0.055688090414279391 0.013760535607321484 0 0.056111312122420286 0.01433145969235727 0 0.056072025143929179 0.014203685224897854 0 0.056023547798991158 0.014132944588108249 0 0.056206024025434849 0.014959424257856522 0 0.056023547798991158 0.014132944588108249 0 0.056208715181468243 0.015298620423417049 0 0.056206024025434849 0.014959424257856522 0 0.056111312122420286 0.01433145969235727 0 0.056023547798991158 0.014132944588108249 0 0.055807994901021278 0.013696346776635105 0 0.055897330682290768 0.014089975581344054 0 0.056208715181468243 0.015298620423417049 0 0.056023547798991158 0.014132944588108249 0 0.055807994901021278 0.013696346776635105 0 0.056208715181468243 0.015298620423417049 0 0.055807994901021278 0.013696346776635105 0 0.055897330682290768 0.014089975581344054 0 0.055201704559658789 0.012548821934170722 0 0.055201704559658789 0.012548821934170722 0 0.056377746166300487 0.012564094807857621 0 0.056578127253592493 0.013946686771560871 0 0.055897330682290768 0.014089975581344054 0 0.055201704559658789 0.012548821934170722 0 0.056578127253592493 0.013946686771560871 0 0.054440936252733552 0.010403124921290037 0 0.055201704559658789 0.012548821934170722 0 0.056377746166300487 0.012564094807857621 0 0.053211749174085984 0.0062247658363261509 0 0.054440936252733552 0.010403124921290037 0 0.049198943032361997 0.0069303924850807668 0 0.055807994901021278 0.013696346776635105 0 0.055201704559658789 0.012548821934170722 0 0.055688090414279391 0.013760535607321484 0 0.054535997386331657 0.010535160768776745 0 0.052719973494090466 0.010288111251001332 0 0.054440936252733552 0.010403124921290037 0 0.055201704559658789 0.012548821934170722 0 0.055688090414279391 0.013760535607321484 0 0.05115987714242122 0.003287288675497939 0 0.050874089378620882 0.0035757119425221706 0 0.051269573120193285 0.003254120340209994 0 0.050635927272654375 0.0029225105672761559 0 0.051133665645424042 0.0027747477101121819 0 0.050832027439933501 0.003240516346681366 0 0.051269573120193285 0.003254120340209994 0 0.050732329892037083 0.0041965674278505683 0 0.051269573120193285 0.003254120340209994 0 0.050732329892037083 0.0041965674278505683 0 0.051066057787392975 0.0042045205085653597 0 0.053211749174085984 0.0062247658363261509 0 0.054440936252733552 0.010403124921290037 0 0.058034662431320674 0.01132668563765216 0 0.054440936252733552 0.010403124921290037 0 0.058034662431320674 0.01132668563765216 0 0.056377746166300487 0.012564094807857621 0 0.050832027439933501 0.003240516346681366 0 0.051269573120193285 0.003254120340209994 0 0.053518583756640377 0.0040917683644856005 0 0.054370065147368314 0.0074199774538169878 0 0.053683736336984776 0.0045634585545147313 0 0.056377746166300487 0.012564094807857621 0 0.059100757070753483 0.014782206035803325 0 0.056578127253592493 0.013946686771560871 0 0.058034662431320674 0.01132668563765216 0 0.056377746166300487 0.012564094807857621 0 0.059100757070753483 0.014782206035803325 0 0.050832027439933501 0.003240516346681366 0 0.050732329892037083 0.0041965674278505683 0 0.049751020130119228 0.0054885402299278728 0 0.054370065147368314 0.0074199774538169878 0 0.054475952772875855 0.010181373646656501 0 0.050732329892037083 0.0041965674278505683 0 0.051066057787392975 0.0042045205085653597 0 0.050950244340723531 0.0055525146941724467 0 0.050635927272654375 0.0029225105672761559 0 0.050879627164846807 0.0027317630625524202 0 0.051315563905823348 0.0040905573228768284 0 0.051066057787392975 0.0042045205085653597 0 0.052355602181563918 0.004947694290555151 0 0.050950244340723531 0.0055525146941724467 0 0.050874089378620882 0.0035757119425221706 0 0.051903725151588899 0.0045281970032118339 0 0.050635927272654375 0.0029225105672761559 0 0.050879627164846807 0.0027317630625524202 0 0.05063745689977836 0.002156899482065783 0 0.050635927272654375 0.0029225105672761559 0 0.05063745689977836 0.002156899482065783 0 0.051133665645424042 0.0027747477101121819 0 0.05063745689977836 0.002156899482065783 0 0.050963410301572559 0.0020083774228953043 0 0.051133665645424042 0.0027747477101121819 0 0.050879627164846807 0.0027317630625524202 0 0.05063745689977836 0.002156899482065783 0 0.050863940520215728 0.001585791598023538 0 0.05063745689977836 0.002156899482065783 0 0.050326732337838291 0.0010086828736851484 0 0.050863940520215728 0.001585791598023538 0 0.050326732337838291 0.0010086828736851484 0 0.050963410301572559 0.0020083774228953043 0 0.050255678945839315 0.00061553784198002334 0 0.05063745689977836 0.002156899482065783 0 0.050326732337838291 0.0010086828736851484 0 0.050963410301572559 0.0020083774228953043 0 0.050963410301572559 0.0020083774228953043 0 0.051941254872328417 0.0029572101861146385 0 0.051133665645424042 0.0027747477101121819 0 0.050963410301572559 0.0020083774228953043 0 0.051941254872328417 0.0029572101861146385 0 0.051591646844269749 0.0022370614212574138 0 0.051941254872328417 0.0029572101861146385 0 0.05246547500937853 0.003018669257820589 0 0.051591646844269749 0.0022370614212574138 0 0.051269573120193285 0.003254120340209994 0 0.051133665645424042 0.0027747477101121819 0 0.053518583756640377 0.0040917683644856005 0 0.051941254872328417 0.0029572101861146385 0 0.051133665645424042 0.0027747477101121819 0 0.053518583756640377 0.0040917683644856005 0 0.053211749174085984 0.0062247658363261509 0 0.058034662431320674 0.01132668563765216 0 0.053518583756640377 0.0040917683644856005 0 0.052357258362398698 0.0034647636044782817 0 0.053211749174085984 0.0062247658363261509 0 0.053518583756640377 0.0040917683644856005 0 0.052357258362398698 0.0034647636044782817 0 0.053518583756640377 0.0040917683644856005 0 0.05246547500937853 0.003018669257820589 0 0.051941254872328417 0.0029572101861146385 0 0.053518583756640377 0.0040917683644856005 0 0.05246547500937853 0.003018669257820589 0 0.052357258362398698 0.0034647636044782817 0 0.05246547500937853 0.003018669257820589 0 0.052250666522355618 0.0028522888911332025 0 0.052161144992337719 0.0025902250732914526 0 0.052245148127620065 0.002690447616126853 0 0.050990843464134988 0.0016711430555603705 0 0.05246547500937853 0.003018669257820589 0 0.052250666522355618 0.0028522888911332025 0 0.052161144992337719 0.0025902250732914526 0 0.052250666522355618 0.0028522888911332025 0 0.052161144992337719 0.0025902250732914526 0 0.052281602852356779 0.0024857510309901384 0 0.05246547500937853 0.003018669257820589 0 0.052161144992337719 0.0025902250732914526 0 0.051591646844269749 0.0022370614212574138 0 0.052301661837134812 0.0021353401752847142 0 0.051287373749547144 0.00053362061545865968 0 0.052161144992337719 0.0025902250732914526 0 0.051591646844269749 0.0022370614212574138 0 0.050990843464134988 0.0016711430555603705 0 0.051591646844269749 0.0022370614212574138 0 0.050990843464134988 0.0016711430555603705 0 0.050886391457464097 0.001538673890368798 0 0.050963410301572559 0.0020083774228953043 0 0.051591646844269749 0.0022370614212574138 0 0.050886391457464097 0.001538673890368798 0 0.049794316244123837 -0.0039033993987905792 0 0.048794646814033955 -0.0035683364954399634 0 0.049215479099959374 -0.0033795614747241924 0 0.051287373749547144 0.00053362061545865968 0 0.049958933920058103 -0.00115758069544726 0 0.048794646814033955 -0.0035683364954399634 0 0.049215479099959374 -0.0033795614747241924 0 0.04863297505159668 -0.0031177162309771493 0 0.05031970627738154 -0.0032852429947067578 0 0.049641056940316605 -0.0033796664267842771 0 0.049225531682827922 -0.0029391798120801281 0 0.05031970627738154 -0.0032852429947067578 0 0.049794316244123837 -0.0039033993987905792 0 0.049641056940316605 -0.0033796664267842771 0 0.049794316244123837 -0.0039033993987905792 0 0.049215479099959374 -0.0033795614747241924 0 0.049641056940316605 -0.0033796664267842771 0 0.049215479099959374 -0.0033795614747241924 0 0.049641056940316605 -0.0033796664267842771 0 0.049225531682827922 -0.0029391798120801281 0 0.051539979484037671 -0.0027519426592388773 0 0.049353122781542552 -0.0045047395130347109 0 0.050987092822077675 -0.0050658376023536384 0 0.05166596745992081 -0.0061433960942590821 0 0.049615489942163873 -0.0055150205788046906 0 0.050987092822077675 -0.0050658376023536384 0 0.050076310704144825 -0.00475608612109672 0 0.049615489942163873 -0.0055150205788046906 0 0.050076310704144825 -0.00475608612109672 0 0.049615489942163873 -0.0055150205788046906 0 0.049581650174268674 -0.004904524056816217 0 0.049353122781542552 -0.0045047395130347109 0 0.047922893008455897 -0.0037861136305569446 0 0.049225531682827922 -0.0029391798120801281 0 0.048167735566625985 -0.0026712931811485822 0 0.04863297505159668 -0.0031177162309771493 0 0.049215479099959374 -0.0033795614747241924 0 0.049225531682827922 -0.0029391798120801281 0 0.04863297505159668 -0.0031177162309771493 0 0.049615489942163873 -0.0055150205788046906 0 0.048978741560047986 -0.0047482806817852928 0 0.047645492765975149 -0.005002055885366276 0 0.049615489942163873 -0.0055150205788046906 0 0.049581650174268674 -0.004904524056816217 0 0.048978741560047986 -0.0047482806817852928 0 0.049626145183565687 -0.0046473397924643358 0 0.048978741560047986 -0.0047482806817852928 0 0.049316521640950337 -0.0042511976510984945 0 0.049581650174268674 -0.004904524056816217 0 0.049626145183565687 -0.0046473397924643358 0 0.048978741560047986 -0.0047482806817852928 0 0.048609651675393856 -0.0037891466046982621 0 0.048978741560047986 -0.0047482806817852928 0 0.048234824284083391 -0.0043789678287699148 0 0.048609651675393856 -0.0037891466046982621 0 0.048978741560047986 -0.0047482806817852928 0 0.049316521640950337 -0.0042511976510984945 0 0.049626145183565687 -0.0046473397924643358 0 0.049316521640950337 -0.0042511976510984945 0 0.050081969118675115 -0.0045445989330839508 0 0.049152452924755771 -0.0035604624886706707 0 0.049316521640950337 -0.0042511976510984945 0 0.050081969118675115 -0.0045445989330839508 0 0.049840272221241599 -0.0047980813413087218 0 0.050076310704144825 -0.00475608612109672 0 0.050081969118675115 -0.0045445989330839508 0 0.050716927109932648 -0.0035648318704174162 0 0.050076310704144825 -0.00475608612109672 0 0.050816713147491241 -0.0044245617532225993 0 0.050220960431291442 -0.0042340935421753901 0 0.050086957397934506 -0.0046958216748050133 0 0.050987092822077675 -0.0050658376023536384 0 0.050076310704144825 -0.00475608612109672 0 0.050816713147491241 -0.0044245617532225993 0 0.050076310704144825 -0.00475608612109672 0 0.049626145183565687 -0.0046473397924643358 0 0.050081969118675115 -0.0045445989330839508 0 0.050076310704144825 -0.00475608612109672 0 0.049581650174268674 -0.004904524056816217 0 0.049626145183565687 -0.0046473397924643358 0 0.046868295592365661 -0.0038323776190564668 0 0.047645492765975149 -0.005002055885366276 0 0.045600660721805256 -0.0041818977959949587 0 0.047922893008455897 -0.0037861136305569446 0 0.046406868478978056 -0.0034311352934403537 0 0.048167735566625985 -0.0026712931811485822 0 0.047600835155074211 -0.0028556582432647032 0 0.047243888595597881 -0.0025539386765846702 0 0.048978741560047986 -0.0047482806817852928 0 0.047645492765975149 -0.005002055885366276 0 0.048234824284083391 -0.0043789678287699148 0 0.047755018060484919 -0.0037275477938867123 0 0.046868295592365661 -0.0038323776190564668 0 0.047645492765975149 -0.005002055885366276 0 0.047755018060484919 -0.0037275477938867123 0 0.047645492765975149 -0.005002055885366276 0 0.048234824284083391 -0.0043789678287699148 0 0.047755018060484919 -0.0037275477938867123 0 0.048609651675393856 -0.0037891466046982621 0 0.048234824284083391 -0.0043789678287699148 0 0.048167735566625985 -0.0026712931811485822 0 0.04863297505159668 -0.0031177162309771493 0 0.047843096684511741 -0.0032204756173237468 0 0.048167735566625985 -0.0026712931811485822 0 0.047600835155074211 -0.0028556582432647032 0 0.047843096684511741 -0.0032204756173237468 0 0.049577068079550562 -0.00032378684871172363 0 0.050255678945839315 0.00061553784198002334 0 0.049626106599130922 -0.0010823982525151247 0 0.049958933920058103 -0.00115758069544726 0 0.04879762936210974 -0.0018562473561957891 0 0.048794646814033955 -0.0035683364954399634 0 0.04863297505159668 -0.0031177162309771493 0 0.047843096684511741 -0.0032204756173237468 0 0.050990843464134988 0.0016711430555603705 0 0.049577068079550562 -0.00032378684871172363 0 0.050255678945839315 0.00061553784198002334 0 0.050990843464134988 0.0016711430555603705 0 0.050255678945839315 0.00061553784198002334 0 0.050886391457464097 0.001538673890368798 0 0.050963410301572559 0.0020083774228953043 0 0.050255678945839315 0.00061553784198002334 0 0.050886391457464097 0.001538673890368798 0 0.050326732337838291 0.0010086828736851484 0 0.050255678945839315 0.00061553784198002334 0 0.049626106599130922 -0.0010823982525151247 0 0.049626106599130922 -0.0010823982525151247 0 0.047911333803866155 -0.0022433760885167894 0 0.047844181678680271 -0.0029284155102801287 0 0.049626106599130922 -0.0010823982525151247 0 0.047911333803866155 -0.0022433760885167894 0 0.047640176852488128 -0.0023094538469219943 0 0.049714191368500221 -0.0011496381951939306 0 0.050453227578249972 -0.0010503144744819462 0 0.04705678297641705 -0.003572057185620421 0 0.048292012872144949 -0.001899958831443706 0 0.04727144978579733 -0.0029243505574542512 0 0.049626106599130922 -0.0010823982525151247 0 0.047640176852488128 -0.0023094538469219943 0 0.048292012872144949 -0.001899958831443706 0 0.047640176852488128 -0.0023094538469219943 0 0.04705678297641705 -0.003572057185620421 0 0.048292012872144949 -0.001899958831443706 0 0.049577068079550562 -0.00032378684871172363 0 0.049626106599130922 -0.0010823982525151247 0 0.048292012872144949 -0.001899958831443706 0 0.04879762936210974 -0.0018562473561957891 0 0.04758114873937791 -0.0027308634551894942 0 0.047600835155074211 -0.0028556582432647032 0 0.047843096684511741 -0.0032204756173237468 0 0.04727144978579733 -0.0029243505574542512 0 0.047600835155074211 -0.0028556582432647032 0 0.04727144978579733 -0.0029243505574542512 0 0.047243888595597881 -0.0025539386765846702 0 0.049577068079550562 -0.00032378684871172363 0 0.048292012872144949 -0.001899958831443706 0 0.04727144978579733 -0.0029243505574542512 0 0.04727144978579733 -0.0029243505574542512 0 0.045933884967416648 -0.0031173642414211609 0 0.0451160776489078 -0.0036637101113666938 0 0.04705678297641705 -0.003572057185620421 0 0.04727144978579733 -0.0029243505574542512 0 0.0451160776489078 -0.0036637101113666938 0 0.044000024155880835 -0.0031445369504880414 0 0.045933884967416648 -0.0031173642414211609 0 0.0451160776489078 -0.0036637101113666938 0 0.044000024155880835 -0.0031445369504880414 0 0.045933884967416648 -0.0031173642414211609 0 0.047243888595597881 -0.0025539386765846702 0 0.04727144978579733 -0.0029243505574542512 0 0.045933884967416648 -0.0031173642414211609 0 0.047243888595597881 -0.0025539386765846702 0 0.044255798804431382 -0.0031174845263313641 0 0.046406868478978056 -0.0034311352934403537 0 0.041198564160510362 -0.004785600721787739 0 0.042940269843230711 -0.003946133780327335 0 0.043418428219288013 -0.0048236415466289184 0 0.040809024534208892 -0.0036868024513763598 0 0.041198564160510362 -0.004785600721787739 0 0.042940269843230711 -0.003946133780327335 0 0.042940269843230711 -0.003946133780327335 0 0.0451160776489078 -0.0036637101113666938 0 0.043418428219288013 -0.0048236415466289184 0 0.044000024155880835 -0.0031445369504880414 0 0.042940269843230711 -0.003946133780327335 0 0.0451160776489078 -0.0036637101113666938 0 0.04705678297641705 -0.003572057185620421 0 0.0451160776489078 -0.0036637101113666938 0 0.043418428219288013 -0.0048236415466289184 0 0.041198564160510362 -0.004785600721787739 0 0.043418428219288013 -0.0048236415466289184 0 0.041248455447272306 -0.0065081108850138123 0 0.043418428219288013 -0.0048236415466289184 0 0.041248455447272306 -0.0065081108850138123 0 0.042480519023153911 -0.0076420944361744519 0 0.039414882989696809 -0.0083997662960386774 0 0.041248455447272306 -0.0065081108850138123 0 0.042480519023153911 -0.0076420944361744519 0 0.04705678297641705 -0.003572057185620421 0 0.043418428219288013 -0.0048236415466289184 0 0.042480519023153911 -0.0076420944361744519 0 0.046707971796958861 -0.0038337269202719329 0 0.04527677385685857 -0.0050113690354720462 0 0.047640176852488128 -0.0023094538469219943 0 0.04705678297641705 -0.003572057185620421 0 0.047816408675056862 -0.0024252974705682153 0 0.047640176852488128 -0.0023094538469219943 0 0.047816408675056862 -0.0024252974705682153 0 0.04771373467847459 -0.0023741804168030275 0 0.047911333803866155 -0.0022433760885167894 0 0.047640176852488128 -0.0023094538469219943 0 0.04771373467847459 -0.0023741804168030275 0 0.04771373467847459 -0.0023741804168030275 0 0.047614782208452777 -0.0024791811396569401 0 0.047634110394943106 -0.0025794322013272301 0 0.04771373467847459 -0.0023741804168030275 0 0.047634110394943106 -0.0025794322013272301 0 0.047720785472614838 -0.0025527061504386833 0 0.047911333803866155 -0.0022433760885167894 0 0.04771373467847459 -0.0023741804168030275 0 0.047720785472614838 -0.0025527061504386833 0 0.047911333803866155 -0.0022433760885167894 0 0.047720785472614838 -0.0025527061504386833 0 0.047793850938128539 -0.0026172201044584458 0 0.047460896125472045 -0.0024600671915198024 0 0.047816408675056862 -0.0024252974705682153 0 0.047614782208452777 -0.0024791811396569401 0 0.047816408675056862 -0.0024252974705682153 0 0.04771373467847459 -0.0023741804168030275 0 0.047614782208452777 -0.0024791811396569401 0 0.047614782208452777 -0.0024791811396569401 0 0.047525614771022316 -0.002644912567095925 0 0.047634110394943106 -0.0025794322013272301 0 0.047460896125472045 -0.0024600671915198024 0 0.047614782208452777 -0.0024791811396569401 0 0.04744238505540567 -0.0025533687895101659 0 0.047614782208452777 -0.0024791811396569401 0 0.04744238505540567 -0.0025533687895101659 0 0.047525614771022316 -0.002644912567095925 0 0.047349901616517094 -0.0026495267948101302 0 0.047525614771022316 -0.002644912567095925 0 0.047442099161676868 -0.0027609438984693133 0 0.047349901616517094 -0.0026495267948101302 0 0.04744238505540567 -0.0025533687895101659 0 0.047525614771022316 -0.002644912567095925 0 0.047525614771022316 -0.002644912567095925 0 0.047607959209938301 -0.0027333089697479844 0 0.047634110394943106 -0.0025794322013272301 0 0.047525614771022316 -0.002644912567095925 0 0.047543618253878143 -0.0027755293851053965 0 0.047607959209938301 -0.0027333089697479844 0 0.047543618253878143 -0.0027755293851053965 0 0.047618046443572884 -0.0028241761393343191 0 0.047607959209938301 -0.0027333089697479844 0 0.047543618253878143 -0.0027755293851053965 0 0.04750429285835301 -0.0028384795802613026 0 0.047559650275731627 -0.0028351150182015293 0 0.047543618253878143 -0.0027755293851053965 0 0.047559650275731627 -0.0028351150182015293 0 0.047618046443572884 -0.0028241761393343191 0 0.047525614771022316 -0.002644912567095925 0 0.047543618253878143 -0.0027755293851053965 0 0.047442099161676868 -0.0027609438984693133 0 0.047543618253878143 -0.0027755293851053965 0 0.047442099161676868 -0.0027609438984693133 0 0.04750429285835301 -0.0028384795802613026 0 0.04723097077624349 -0.0029187585242911192 0 0.047398185826618318 -0.002833582530296442 0 0.047533210456633501 -0.0028850366100249408 0 0.047398185826618318 -0.002833582530296442 0 0.04750429285835301 -0.0028384795802613026 0 0.047533210456633501 -0.0028850366100249408 0 0.051107094498112564 0.00041930514886495636 0 0.052318722896325311 0.00085222492496119732 0 0.052285985685522104 0.00065474471444491086 0 0.047442099161676868 -0.0027609438984693133 0 0.047398185826618318 -0.002833582530296442 0 0.04750429285835301 -0.0028384795802613026 0 0.047559650275731627 -0.0028351150182015293 0 0.047533210456633501 -0.0028850366100249408 0 0.047618046443572884 -0.0028241761393343191 0 0.04750429285835301 -0.0028384795802613026 0 0.047559650275731627 -0.0028351150182015293 0 0.047533210456633501 -0.0028850366100249408 0 0.055213626134169788 0.0024448265685397415 0 0.053867898775275355 0.0020725128309812854 0 0.053083361347301891 0.00077997040965208314 0 0.05338086927411307 0.0014275555229298421 0 0.053273048481072345 0.00092068265977056655 0 0.052318722896325311 0.00085222492496119732 0 0.052285985685522104 0.00065474471444491086 0 0.053083361347301891 0.00077997040965208314 0 0.053867898775275355 0.0020725128309812854 0 0.053318221233725586 0.002243551776770538 0 0.053876901332971509 0.0027373234603761689 0 0.053867898775275355 0.0020725128309812854 0 0.053318221233725586 0.002243551776770538 0 0.053086557296443418 0.0016321407208623724 0 0.055213626134169788 0.0024448265685397415 0 0.053867898775275355 0.0020725128309812854 0 0.054549305086871426 0.0028034093449556584 0 0.053867898775275355 0.0020725128309812854 0 0.053083361347301891 0.00077997040965208314 0 0.053086557296443418 0.0016321407208623724 0 0.047533210456633501 -0.0028850366100249408 0 0.04772208825586851 -0.0028597680355840756 0 0.047844181678680271 -0.0029284155102801287 0 0.052318722896325311 0.00085222492496119732 0 0.053083361347301891 0.00077997040965208314 0 0.053153551916078387 0.00069712533315233497 0 0.049715177965648928 -0.0010732872419869997 0 0.050453227578249972 -0.0010503144744819462 0 0.047533210456633501 -0.0028850366100249408 0 0.04772208825586851 -0.0028597680355840756 0 0.047618046443572884 -0.0028241761393343191 0 0.04772208825586851 -0.0028597680355840756 0 0.047618046443572884 -0.0028241761393343191 0 0.047666226042503014 -0.0027238026382672533 0 0.047618046443572884 -0.0028241761393343191 0 0.047607959209938301 -0.0027333089697479844 0 0.047666226042503014 -0.0027238026382672533 0 0.047666226042503014 -0.0027238026382672533 0 0.047634110394943106 -0.0025794322013272301 0 0.047720785472614838 -0.0025527061504386833 0 0.047607959209938301 -0.0027333089697479844 0 0.047666226042503014 -0.0027238026382672533 0 0.047634110394943106 -0.0025794322013272301 0 0.04772208825586851 -0.0028597680355840756 0 0.047743721147281752 -0.0027332831053241201 0 0.047844181678680271 -0.0029284155102801287 0 0.047743721147281752 -0.0027332831053241201 0 0.047793850938128539 -0.0026172201044584458 0 0.047844181678680271 -0.0029284155102801287 0 0.04772208825586851 -0.0028597680355840756 0 0.047666226042503014 -0.0027238026382672533 0 0.047743721147281752 -0.0027332831053241201 0 0.047743721147281752 -0.0027332831053241201 0 0.047720785472614838 -0.0025527061504386833 0 0.047793850938128539 -0.0026172201044584458 0 0.047666226042503014 -0.0027238026382672533 0 0.047743721147281752 -0.0027332831053241201 0 0.047720785472614838 -0.0025527061504386833 0 0.047911333803866155 -0.0022433760885167894 0 0.047793850938128539 -0.0026172201044584458 0 0.047844181678680271 -0.0029284155102801287 0 0.049626106599130922 -0.0010823982525151247 0 0.053153551916078387 0.00069712533315233497 0 0.051893845526251078 0.0012410988940226911 0 0.053153551916078387 0.00069712533315233497 0 0.051893845526251078 0.0012410988940226911 0 0.052637696273453737 0.0011973259642339574 0 0.053083361347301891 0.00077997040965208314 0 0.053153551916078387 0.00069712533315233497 0 0.052637696273453737 0.0011973259642339574 0 0.049626106599130922 -0.0010823982525151247 0 0.051893845526251078 0.0012410988940226911 0 0.050863940520215728 0.001585791598023538 0 0.050326732337838291 0.0010086828736851484 0 0.049626106599130922 -0.0010823982525151247 0 0.050863940520215728 0.001585791598023538 0 0.051893845526251078 0.0012410988940226911 0 0.050863940520215728 0.001585791598023538 0 0.051684481320973537 0.0024551701966394309 0 0.050879627164846807 0.0027317630625524202 0 0.050863940520215728 0.001585791598023538 0 0.051684481320973537 0.0024551701966394309 0 0.051893845526251078 0.0012410988940226911 0 0.052564055132226194 0.0019487434037192284 0 0.051684481320973537 0.0024551701966394309 0 0.053083361347301891 0.00077997040965208314 0 0.052637696273453737 0.0011973259642339574 0 0.053086557296443418 0.0016321407208623724 0 0.052637696273453737 0.0011973259642339574 0 0.053086557296443418 0.0016321407208623724 0 0.052564055132226194 0.0019487434037192284 0 0.051893845526251078 0.0012410988940226911 0 0.052637696273453737 0.0011973259642339574 0 0.052564055132226194 0.0019487434037192284 0 0.053318221233725586 0.002243551776770538 0 0.053086557296443418 0.0016321407208623724 0 0.052564055132226194 0.0019487434037192284 0 0.053318221233725586 0.002243551776770538 0 0.052564055132226194 0.0019487434037192284 0 0.052867195516605521 0.0030492893197989288 0 0.052564055132226194 0.0019487434037192284 0 0.052867195516605521 0.0030492893197989288 0 0.051684481320973537 0.0024551701966394309 0 0.050879627164846807 0.0027317630625524202 0 0.051684481320973537 0.0024551701966394309 0 0.051315563905823348 0.0040905573228768284 0 0.052867195516605521 0.0030492893197989288 0 0.051684481320973537 0.0024551701966394309 0 0.051315563905823348 0.0040905573228768284 0 0.051315563905823348 0.0040905573228768284 0 0.053797616929575777 0.0041795901934484929 0 0.053675540649970606 0.0055154781123122679 0 0.052867195516605521 0.0030492893197989288 0 0.051315563905823348 0.0040905573228768284 0 0.053797616929575777 0.0041795901934484929 0 0.051903725151588899 0.0045281970032118339 0 0.053602758714757746 0.005439774574829811 0 0.053797616929575777 0.0041795901934484929 0 0.055174547898161154 0.0044335048395352716 0 0.05460261544815169 0.003453705548745281 0 0.053797616929575777 0.0041795901934484929 0 0.055174547898161154 0.0044335048395352716 0 0.053675540649970606 0.0055154781123122679 0 0.056262604300354936 0.004375403524653371 0 0.056171688157371648 0.0052031857519207053 0 0.055174547898161154 0.0044335048395352716 0 0.056262604300354936 0.004375403524653371 0 0.055174547898161154 0.0044335048395352716 0 0.05587891956853925 0.0036173529240360745 0 0.055174547898161154 0.0044335048395352716 0 0.055171825649978593 0.0032929934686590705 0 0.05460261544815169 0.003453705548745281 0 0.055171825649978593 0.0032929934686590705 0 0.054549305086871426 0.0028034093449556584 0 0.05460261544815169 0.003453705548745281 0 0.055174547898161154 0.0044335048395352716 0 0.055171825649978593 0.0032929934686590705 0 0.05587891956853925 0.0036173529240360745 0 0.055213626134169788 0.0024448265685397415 0 0.055171825649978593 0.0032929934686590705 0 0.05587891956853925 0.0036173529240360745 0 0.055213626134169788 0.0024448265685397415 0 0.055171825649978593 0.0032929934686590705 0 0.054549305086871426 0.0028034093449556584 0 0.053867898775275355 0.0020725128309812854 0 0.054549305086871426 0.0028034093449556584 0 0.053876901332971509 0.0027373234603761689 0 0.054549305086871426 0.0028034093449556584 0 0.053876901332971509 0.0027373234603761689 0 0.05460261544815169 0.003453705548745281 0 0.053797616929575777 0.0041795901934484929 0 0.053876901332971509 0.0027373234603761689 0 0.05460261544815169 0.003453705548745281 0 0.052867195516605521 0.0030492893197989288 0 0.053797616929575777 0.0041795901934484929 0 0.053876901332971509 0.0027373234603761689 0 0.053318221233725586 0.002243551776770538 0 0.052867195516605521 0.0030492893197989288 0 0.053876901332971509 0.0027373234603761689 0 0.055457056816672866 0.0063172601648243997 0 0.053675540649970606 0.0055154781123122679 0 0.054209281349874051 0.0077984222562117846 0 0.056616373580766204 0.0074587644125352825 0 0.055457056816672866 0.0063172601648243997 0 0.055572397759968514 0.0076743946461137252 0 0.055457056816672866 0.0063172601648243997 0 0.054209281349874051 0.0077984222562117846 0 0.055572397759968514 0.0076743946461137252 0 0.056171688157371648 0.0052031857519207053 0 0.055174547898161154 0.0044335048395352716 0 0.055457056816672866 0.0063172601648243997 0 0.055174547898161154 0.0044335048395352716 0 0.055457056816672866 0.0063172601648243997 0 0.053675540649970606 0.0055154781123122679 0 0.052355602181563918 0.004947694290555151 0 0.053675540649970606 0.0055154781123122679 0 0.052942248070753047 0.0066351314486449301 0 0.052355602181563918 0.004947694290555151 0 0.052942248070753047 0.0066351314486449301 0 0.051691594686813225 0.0070314683747757321 0 0.052942248070753047 0.0066351314486449301 0 0.052717792914055546 0.0082787912887563146 0 0.051691594686813225 0.0070314683747757321 0 0.053675540649970606 0.0055154781123122679 0 0.052942248070753047 0.0066351314486449301 0 0.054209281349874051 0.0077984222562117846 0 0.052942248070753047 0.0066351314486449301 0 0.052717792914055546 0.0082787912887563146 0 0.054209281349874051 0.0077984222562117846 0 0.052717792914055546 0.0082787912887563146 0 0.054135892285303515 0.0096222274922422232 0 0.054209281349874051 0.0077984222562117846 0 0.052717792914055546 0.0082787912887563146 0 0.052369073014317313 0.0099107464992054337 0 0.05101026240751777 0.0089071412250409394 0 0.052717792914055546 0.0082787912887563146 0 0.052369073014317313 0.0099107464992054337 0 0.054135892285303515 0.0096222274922422232 0 0.054135892285303515 0.0096222274922422232 0 0.054209281349874051 0.0077984222562117846 0 0.056087146833648328 0.0091284470007679964 0 0.054135892285303515 0.0096222274922422232 0 0.056087146833648328 0.0091284470007679964 0 0.055480704383255176 0.011260106198864979 0 0.056616373580766204 0.0074587644125352825 0 0.055572397759968514 0.0076743946461137252 0 0.056087146833648328 0.0091284470007679964 0 0.054209281349874051 0.0077984222562117846 0 0.055572397759968514 0.0076743946461137252 0 0.056087146833648328 0.0091284470007679964 0 0.056184026359049899 0.01225182409518168 0 0.055356951832617636 0.010379998514128038 0 0.054818970128499692 0.012612318720432102 0 0.05575458929553051 0.0097246133981212408 0 0.055136244043839835 0.011959993638832433 0 0.054135892285303515 0.0096222274922422232 0 0.055480704383255176 0.011260106198864979 0 0.053653735395938339 0.011818031073699112 0 0.055480704383255176 0.011260106198864979 0 0.054531197498714441 0.014018716333374457 0 0.053653735395938339 0.011818031073699112 0 0.055136244043839835 0.011959993638832433 0 0.054530472767712002 0.013894843342189798 0 0.056184026359049899 0.01225182409518168 0 0.054818970128499692 0.012612318720432102 0 0.05557106753121243 0.014095740229722062 0 0.054818970128499692 0.012612318720432102 0 0.05557106753121243 0.014095740229722062 0 0.054531197498714441 0.014018716333374457 0 0.051393461189815533 0.027384643158939619 0 0.051320469430192132 0.027872334674604045 0 0.050234511333908709 0.028179469235718829 0 0.05557106753121243 0.014095740229722062 0 0.054531197498714441 0.014018716333374457 0 0.054619341765795013 0.014951461988791551 0 0.055594937079333259 0.020447068522680498 0 0.051896543676217925 0.021893734851126518 0 0.054531197498714441 0.014018716333374457 0 0.054619341765795013 0.014951461988791551 0 0.053552448929663751 0.014440726861487251 0 0.051320469430192132 0.027872334674604045 0 0.050182596731377184 0.028549214036596982 0 0.050234511333908709 0.028179469235718829 0 0.05114978567552278 0.036947111490572233 0 0.048935388908992225 0.037190015586501035 0 0.048145700560594931 0.045619286890047864 0 0.048063529221418766 0.045913710433703507 0 0.048140074580052962 0.045801871802109657 0 0.048283348072159255 0.045738487093947608 0 0.048145700560594931 0.045619286890047864 0 0.048140074580052962 0.045801871802109657 0 0.051961141978680091 0.017414479495195138 0 0.052488662520910959 0.013511991490468738 0 0.049164148377243193 0.014320675916681382 0 0.054619341765795013 0.014951461988791551 0 0.051961141978680091 0.017414479495195138 0 0.053552448929663751 0.014440726861487251 0 0.048935388908992225 0.037190015586501035 0 0.048399534715722406 0.038447079386474466 0 0.050182596731377184 0.028549214036596982 0 0.050234511333908709 0.028179469235718829 0 0.048954451154413228 0.029103847730476348 0 0.050182596731377184 0.028549214036596982 0 0.048954451154413228 0.029103847730476348 0 0.048928829672307668 0.029304456494680005 0 0.051961141978680091 0.017414479495195138 0 0.053552448929663751 0.014440726861487251 0 0.052488662520910959 0.013511991490468738 0 0.051896543676217925 0.021893734851126518 0 0.050642577716949931 0.022206646285028084 0 0.054531197498714441 0.014018716333374457 0 0.053552448929663751 0.014440726861487251 0 0.053575530599203156 0.013331937142760991 0 0.053552448929663751 0.014440726861487251 0 0.053575530599203156 0.013331937142760991 0 0.052488662520910959 0.013511991490468738 0 0.052488662520910959 0.013511991490468738 0 0.051746699861964916 0.012112516956427831 0 0.051297162064561079 0.013632903993387159 0 0.052591253483986897 0.013492663924334137 0 0.049385046433591921 0.013797896360851467 0 0.052488662520910959 0.013511991490468738 0 0.051746699861964916 0.012112516956427831 0 0.053653735395938339 0.011818031073699112 0 0.053575530599203156 0.013331937142760991 0 0.052488662520910959 0.013511991490468738 0 0.053653735395938339 0.011818031073699112 0 0.054531197498714441 0.014018716333374457 0 0.053575530599203156 0.013331937142760991 0 0.053653735395938339 0.011818031073699112 0 0.052369073014317313 0.0099107464992054337 0 0.054135892285303515 0.0096222274922422232 0 0.053653735395938339 0.011818031073699112 0 0.052369073014317313 0.0099107464992054337 0 0.051746699861964916 0.012112516956427831 0 0.053653735395938339 0.011818031073699112 0 0.052369073014317313 0.0099107464992054337 0 0.051746699861964916 0.012112516956427831 0 0.050744586343942431 0.01093403401104715 0 0.050744586343942431 0.01093403401104715 0 0.049539716840725917 0.011979636760791361 0 0.049375513501463582 0.0097545842694567869 0 0.050744586343942431 0.01093403401104715 0 0.049539716840725917 0.011979636760791361 0 0.050658427285764467 0.012557753410937469 0 0.051746699861964916 0.012112516956427831 0 0.050744586343942431 0.01093403401104715 0 0.050658427285764467 0.012557753410937469 0 0.051746699861964916 0.012112516956427831 0 0.050658427285764467 0.012557753410937469 0 0.051297162064561079 0.013632903993387159 0 0.049385046433591921 0.013797896360851467 0 0.053805087540496004 0.02201074219302214 0 0.050658427285764467 0.012557753410937469 0 0.051297162064561079 0.013632903993387159 0 0.04989962076185317 0.014048693012504641 0 0.049539716840725917 0.011979636760791361 0 0.050658427285764467 0.012557753410937469 0 0.04989962076185317 0.014048693012504641 0 0.055076696981500549 0.015633474721568116 0 0.053805087540496004 0.02201074219302214 0 0.060395201528570697 0.020881298645670451 0 0.06058088739470685 0.022448788073137271 0 0.059714527925634829 0.021875964738413935 0 0.04564628787201077 0.015214525413489102 0 0.048271318863158698 0.017514661901138422 0 0.046555856005880851 0.020801312745429169 0 0.051961141978680091 0.017414479495195138 0 0.049164148377243193 0.014320675916681382 0 0.048271318863158698 0.017514661901138422 0 0.049164148377243193 0.014320675916681382 0 0.04564628787201077 0.015214525413489102 0 0.048271318863158698 0.017514661901138422 0 0.055503493329787663 0.040470302950937287 0 0.054364765988054356 0.041008256526616806 0 0.054916331110785054 0.041457606093386043 0 0.06058088739470685 0.022448788073137271 0 0.059044353514764246 0.022832805314360466 0 0.059714527925634829 0.021875964738413935 0 0.053805087540496004 0.02201074219302214 0 0.05743049660289707 0.033064489302930752 0 0.059044353514764246 0.022832805314360466 0 0.059714527925634829 0.021875964738413935 0 0.058878733183782513 0.02135473433016577 0 0.059044353514764246 0.022832805314360466 0 0.058878733183782513 0.02135473433016577 0 0.058015703336485591 0.022001015865313969 0 0.060395201528570697 0.020881298645670451 0 0.059714527925634829 0.021875964738413935 0 0.058878733183782513 0.02135473433016577 0 0.060395201528570697 0.020881298645670451 0 0.058878733183782513 0.02135473433016577 0 0.058774667625268666 0.019790714763853186 0 0.060395201528570697 0.020881298645670451 0 0.058774667625268666 0.019790714763853186 0 0.060205665430810434 0.019147091340197642 0 0.055076696981500549 0.015633474721568116 0 0.054799384462284696 0.014631236662172462 0 0.058878733183782513 0.02135473433016577 0 0.058774667625268666 0.019790714763853186 0 0.057601399528479223 0.020557485315834345 0 0.059807035719636546 0.01711705631241419 0 0.060205665430810434 0.019147091340197642 0 0.057931230760267217 0.018263299394201588 0 0.058774667625268666 0.019790714763853186 0 0.060205665430810434 0.019147091340197642 0 0.057931230760267217 0.018263299394201588 0 0.059807035719636546 0.01711705631241419 0 0.057715794369668873 0.016134595606028274 0 0.057931230760267217 0.018263299394201588 0 0.05462343926947915 0.012330169166981406 0 0.054799384462284696 0.014631236662172462 0 0.049448229828705004 0.0075473670968275825 0 0.05101026240751777 0.0089071412250409394 0 0.051691594686813225 0.0070314683747757321 0 0.050744586343942431 0.01093403401104715 0 0.049375513501463582 0.0097545842694567869 0 0.05101026240751777 0.0089071412250409394 0 0.049448229828705004 0.0075473670968275825 0 0.049375513501463582 0.0097545842694567869 0 0.05101026240751777 0.0089071412250409394 0 0.052369073014317313 0.0099107464992054337 0 0.050744586343942431 0.01093403401104715 0 0.05101026240751777 0.0089071412250409394 0 0.052717792914055546 0.0082787912887563146 0 0.05101026240751777 0.0089071412250409394 0 0.051691594686813225 0.0070314683747757321 0 0.049448229828705004 0.0075473670968275825 0 0.051691594686813225 0.0070314683747757321 0 0.050950244340723531 0.0055525146941724467 0 0.052355602181563918 0.004947694290555151 0 0.051691594686813225 0.0070314683747757321 0 0.050950244340723531 0.0055525146941724467 0 0.050732329892037083 0.0041965674278505683 0 0.050950244340723531 0.0055525146941724467 0 0.049751020130119228 0.0054885402299278728 0 0.059100757070753483 0.014782206035803325 0 0.057715794369668873 0.016134595606028274 0 0.056578127253592493 0.013946686771560871 0 0.059807035719636546 0.01711705631241419 0 0.059100757070753483 0.014782206035803325 0 0.057715794369668873 0.016134595606028274 0 0.05462343926947915 0.012330169166981406 0 0.054475952772875855 0.010181373646656501 0 0.049448229828705004 0.0075473670968275825 0 0.050950244340723531 0.0055525146941724467 0 0.049751020130119228 0.0054885402299278728 0 0.056436811731894548 0.01644189152097748 0 0.057715794369668873 0.016134595606028274 0 0.056673081380448895 0.014970947647123783 0 0.057715794369668873 0.016134595606028274 0 0.056578127253592493 0.013946686771560871 0 0.056673081380448895 0.014970947647123783 0 0.055897330682290768 0.014089975581344054 0 0.056578127253592493 0.013946686771560871 0 0.056673081380448895 0.014970947647123783 0 0.055897330682290768 0.014089975581344054 0 0.056436811731894548 0.01644189152097748 0 0.056673081380448895 0.014970947647123783 0 0.056436811731894548 0.01644189152097748 0 0.056208715181468243 0.015298620423417049 0 0.057084403475168966 0.01719538334965617 0 0.056208715181468243 0.015298620423417049 0 0.057084403475168966 0.01719538334965617 0 0.056671297177223703 0.016463721311138758 0 0.055897330682290768 0.014089975581344054 0 0.056436811731894548 0.01644189152097748 0 0.056208715181468243 0.015298620423417049 0 0.056206024025434849 0.014959424257856522 0 0.056208715181468243 0.015298620423417049 0 0.056671297177223703 0.016463721311138758 0 0.056543210454716081 0.016605964116194867 0 0.056379095884329503 0.018142794777985836 0 0.056436811731894548 0.01644189152097748 0 0.055646323711232022 0.01912837460388658 0 0.056754060678915544 0.019186348298353865 0 0.055646323711232022 0.01912837460388658 0 0.056303991816073443 0.020891648656969242 0 0.0556314053480126 0.021064640184856102 0 0.055646323711232022 0.01912837460388658 0 0.056754060678915544 0.019186348298353865 0 0.056303991816073443 0.020891648656969242 0 0.056754060678915544 0.019186348298353865 0 0.057931230760267217 0.018263299394201588 0 0.057601399528479223 0.020557485315834345 0 0.056436811731894548 0.01644189152097748 0 0.056754060678915544 0.019186348298353865 0 0.057931230760267217 0.018263299394201588 0 0.056436811731894548 0.01644189152097748 0 0.057715794369668873 0.016134595606028274 0 0.057931230760267217 0.018263299394201588 0 0.056754060678915544 0.019186348298353865 0 0.057601399528479223 0.020557485315834345 0 0.056303991816073443 0.020891648656969242 0 0.058774667625268666 0.019790714763853186 0 0.057931230760267217 0.018263299394201588 0 0.057601399528479223 0.020557485315834345 0 0.057601399528479223 0.020557485315834345 0 0.057037288586286129 0.022076700920021904 0 0.056303991816073443 0.020891648656969242 0 0.057601399528479223 0.020557485315834345 0 0.058015703336485591 0.022001015865313969 0 0.057037288586286129 0.022076700920021904 0 0.058878733183782513 0.02135473433016577 0 0.057601399528479223 0.020557485315834345 0 0.058015703336485591 0.022001015865313969 0 0.058015703336485591 0.022001015865313969 0 0.057037288586286129 0.022076700920021904 0 0.057662747759770941 0.023050739182138111 0 0.057037288586286129 0.022076700920021904 0 0.057662747759770941 0.023050739182138111 0 0.05666664471265221 0.02314819422257133 0 0.05743049660289707 0.033064489302930752 0 0.055454943442275341 0.032225072982353511 0 0.059044353514764246 0.022832805314360466 0 0.058015703336485591 0.022001015865313969 0 0.057662747759770941 0.023050739182138111 0 0.057037288586286129 0.022076700920021904 0 0.056397225434833755 0.022643729522649137 0 0.05666664471265221 0.02314819422257133 0 0.057037288586286129 0.022076700920021904 0 0.056397225434833755 0.022643729522649137 0 0.05634761025021981 0.02195889206103363 0 0.056397225434833755 0.022643729522649137 0 0.05634761025021981 0.02195889206103363 0 0.056136127903325866 0.022599421380822934 0 0.05634761025021981 0.02195889206103363 0 0.056303991816073443 0.020891648656969242 0 0.056086552956113971 0.022127765762499165 0 0.057037288586286129 0.022076700920021904 0 0.05634761025021981 0.02195889206103363 0 0.056303991816073443 0.020891648656969242 0 0.056303991816073443 0.020891648656969242 0 0.0556314053480126 0.021064640184856102 0 0.056086552956113971 0.022127765762499165 0 0.056489182771267854 0.020092548252797028 0 0.056320659106043995 0.022260590420160212 0 0.0556314053480126 0.021064640184856102 0 0.056086552956113971 0.022127765762499165 0 0.055986144461121885 0.022571569952210661 0 0.056086552956113971 0.022127765762499165 0 0.056450215626289352 0.023023780939578856 0 0.055986144461121885 0.022571569952210661 0 0.056086552956113971 0.022127765762499165 0 0.056136127903325866 0.022599421380822934 0 0.056450215626289352 0.023023780939578856 0 0.05634761025021981 0.02195889206103363 0 0.056086552956113971 0.022127765762499165 0 0.056136127903325866 0.022599421380822934 0 0.056136127903325866 0.022599421380822934 0 0.056450215626289352 0.023023780939578856 0 0.056089976179225828 0.022807165062047038 0 0.056519268561176679 0.023737600702317532 0 0.057050045150501348 0.023531675498940779 0 0.056136127903325866 0.022599421380822934 0 0.056089976179225828 0.022807165062047038 0 0.056195907982792864 0.023095918549246707 0 0.056397225434833755 0.022643729522649137 0 0.056136127903325866 0.022599421380822934 0 0.056195907982792864 0.023095918549246707 0 0.054999222815240383 0.027275098764264854 0 0.055748562943305303 0.025807998318399885 0 0.055139859917627265 0.02475956950747445 0 0.054999222815240383 0.027275098764264854 0 0.055748562943305303 0.025807998318399885 0 0.056260820887600593 0.027799630847451066 0 0.05781838850682007 0.026484568814456259 0 0.05652096794250553 0.025450802174705547 0 0.056260820887600593 0.027799630847451066 0 0.055748562943305303 0.025807998318399885 0 0.05652096794250553 0.025450802174705547 0 0.056260820887600593 0.027799630847451066 0 0.056450215626289352 0.023023780939578856 0 0.05652096794250553 0.025450802174705547 0 0.056010966984187539 0.024198943798088384 0 0.056010966984187539 0.024198943798088384 0 0.055139859917627265 0.02475956950747445 0 0.055986144461121885 0.022571569952210661 0 0.055748562943305303 0.025807998318399885 0 0.05652096794250553 0.025450802174705547 0 0.056010966984187539 0.024198943798088384 0 0.056450215626289352 0.023023780939578856 0 0.05781838850682007 0.026484568814456259 0 0.05652096794250553 0.025450802174705547 0 0.055748562943305303 0.025807998318399885 0 0.056010966984187539 0.024198943798088384 0 0.055139859917627265 0.02475956950747445 0 0.054999222815240383 0.027275098764264854 0 0.054999496158207206 0.024072894068514265 0 0.055139859917627265 0.02475956950747445 0 0.054999496158207206 0.024072894068514265 0 0.055139859917627265 0.02475956950747445 0 0.056755675785098214 0.021876830466993381 0 0.054999496158207206 0.024072894068514265 0 0.056755675785098214 0.021876830466993381 0 0.054999288692218914 0.020871123457690061 0 0.055128419957117605 0.024538064555318935 0 0.056320659106043995 0.022260590420160212 0 0.056450215626289352 0.023023780939578856 0 0.056010966984187539 0.024198943798088384 0 0.055986144461121885 0.022571569952210661 0 0.057368881504960868 0.019097635987345121 0 0.056755675785098214 0.021876830466993381 0 0.056183223908553959 0.019585771814553191 0 0.056755675785098214 0.021876830466993381 0 0.054999288692218914 0.020871123457690061 0 0.056183223908553959 0.019585771814553191 0 0.054999288692218914 0.020871123457690061 0 0.054999244725066579 0.017668933187832168 0 0.056183223908553959 0.019585771814553191 0 0.054999244725066579 0.017668933187832168 0 0.056303958692598015 0.017479492114533222 0 0.056183223908553959 0.019585771814553191 0 0.057084403475168966 0.01719538334965617 0 0.057368881504960868 0.019097635987345121 0 0.056671297177223703 0.016463721311138758 0 0.057368881504960868 0.019097635987345121 0 0.056303958692598015 0.017479492114533222 0 0.056183223908553959 0.019585771814553191 0 0.057368881504960868 0.019097635987345121 0 0.056303958692598015 0.017479492114533222 0 0.056671297177223703 0.016463721311138758 0 0.056379095884329503 0.018142794777985836 0 0.056489182771267854 0.020092548252797028 0 0.056303958692598015 0.017479492114533222 0 0.056671297177223703 0.016463721311138758 0 0.056113190819713291 0.015641277849369545 0 0.055970182294526757 0.014712740451331719 0 0.056206024025434849 0.014959424257856522 0 0.056113190819713291 0.015641277849369545 0 0.056206024025434849 0.014959424257856522 0 0.056671297177223703 0.016463721311138758 0 0.056113190819713291 0.015641277849369545 0 0.055491370489853808 0.014449415858439944 0 0.056113190819713291 0.015641277849369545 0 0.055637965421420806 0.015831384090923616 0 0.055491370489853808 0.014449415858439944 0 0.054999484351470979 0.014472311210295293 0 0.055637965421420806 0.015831384090923616 0 0.054999244725066579 0.017668933187832168 0 0.054999484351470979 0.014472311210295293 0 0.055637965421420806 0.015831384090923616 0 0.054999244725066579 0.017668933187832168 0 0.056303958692598015 0.017479492114533222 0 0.055637965421420806 0.015831384090923616 0 0.056303958692598015 0.017479492114533222 0 0.056113190819713291 0.015641277849369545 0 0.055637965421420806 0.015831384090923616 0 0.054980403815724326 0.04089194972637545 0 0.055147132364864002 0.039146282408972631 0 0.055430906799654359 0.039302090058423056 0 0.054980403815724326 0.04089194972637545 0 0.055147132364864002 0.039146282408972631 0 0.054998648292463266 0.039424524561547394 0 0.055147132364864002 0.039146282408972631 0 0.054998648292463266 0.039424524561547394 0 0.054999279784782307 0.036444049319381312 0 0.054980403815724326 0.04089194972637545 0 0.054998648292463266 0.039424524561547394 0 0.054893056832363028 0.042714461366441039 0 0.054998648292463266 0.039424524561547394 0 0.054893056832363028 0.042714461366441039 0 0.054998474751291881 0.042405865180782536 0 0.054980403815724326 0.04089194972637545 0 0.0542647565296316 0.043249512441360105 0 0.054893056832363028 0.042714461366441039 0 0.054980403815724326 0.04089194972637545 0 0.054480744835097079 0.0415168563308356 0 0.0542647565296316 0.043249512441360105 0 0.053574166169389516 0.043245545337599688 0 0.054480744835097079 0.0415168563308356 0 0.0542647565296316 0.043249512441360105 0 0.053859612960118153 0.042026517754887145 0 0.054480744835097079 0.0415168563308356 0 0.054488254121497562 0.040689479975789457 0 0.053574166169389516 0.043245545337599688 0 0.053859612960118153 0.042026517754887145 0 0.054480744835097079 0.0415168563308356 0 0.054980403815724326 0.04089194972637545 0 0.054480744835097079 0.0415168563308356 0 0.055430906799654359 0.039302090058423056 0 0.054488254121497562 0.040689479975789457 0 0.055028351273292732 0.039603003749554735 0 0.055430906799654359 0.039302090058423056 0 0.054480744835097079 0.0415168563308356 0 0.054488254121497562 0.040689479975789457 0 0.055430906799654359 0.039302090058423056 0 0.053859612960118153 0.042026517754887145 0 0.054488254121497562 0.040689479975789457 0 0.053534015388172478 0.041952929106529452 0 0.054488254121497562 0.040689479975789457 0 0.054038233488219102 0.04093661435276208 0 0.053534015388172478 0.041952929106529452 0 0.054488254121497562 0.040689479975789457 0 0.054038233488219102 0.04093661435276208 0 0.055028351273292732 0.039603003749554735 0 0.054038233488219102 0.04093661435276208 0 0.055028351273292732 0.039603003749554735 0 0.054362451124705169 0.040528731789200308 0 0.054038233488219102 0.04093661435276208 0 0.054362451124705169 0.040528731789200308 0 0.053823052778338695 0.041299790215883446 0 0.055028351273292732 0.039603003749554735 0 0.056251316523439419 0.037812436094275863 0 0.055430906799654359 0.039302090058423056 0 0.055028351273292732 0.039603003749554735 0 0.056251316523439419 0.037812436094275863 0 0.054362451124705169 0.040528731789200308 0 0.056251316523439419 0.037812436094275863 0 0.055430906799654359 0.039302090058423056 0 0.054999279784782307 0.036444049319381312 0 0.055147132364864002 0.039146282408972631 0 0.055430906799654359 0.039302090058423056 0 0.054999279784782307 0.036444049319381312 0 0.056251316523439419 0.037812436094275863 0 0.054999279784782307 0.036444049319381312 0 0.054998832857982662 0.033461771675902641 0 0.056251316523439419 0.037812436094275863 0 0.054998832857982662 0.033461771675902641 0 0.055854237444307411 0.03248618757526333 0 0.056251316523439419 0.037812436094275863 0 0.057901208054045167 0.033041891226220782 0 0.055854237444307411 0.03248618757526333 0 0.056420545061828017 0.03726467596023051 0 0.056825394502277166 0.038012357281548247 0 0.057901208054045167 0.033041891226220782 0 0.055854237444307411 0.03248618757526333 0 0.056314202084795269 0.030584210407591635 0 0.054998832857982662 0.033461771675902641 0 0.055854237444307411 0.03248618757526333 0 0.05499967140835494 0.030478461124205283 0 0.054999873386534059 0.030476754870337318 0 0.056307141420788034 0.029784712068414008 0 0.056260820887600593 0.027799630847451066 0 0.055854237444307411 0.03248618757526333 0 0.05499967140835494 0.030478461124205283 0 0.056314202084795269 0.030584210407591635 0 0.054999953793941736 0.030477509889302676 0 0.056658807884022139 0.030122428122348638 0 0.056825394502277166 0.038012357281548247 0 0.055810686782281092 0.031357627741895204 0 0.056307141420788034 0.029784712068414008 0 0.056260820887600593 0.027799630847451066 0 0.057838142739743741 0.029276322605832735 0 0.057901208054045167 0.033041891226220782 0 0.056314202084795269 0.030584210407591635 0 0.058115983720207737 0.030378444142454733 0 0.056658807884022139 0.030122428122348638 0 0.055810686782281092 0.031357627741895204 0 0.05781838850682007 0.026484568814456259 0 0.056260820887600593 0.027799630847451066 0 0.057838142739743741 0.029276322605832735 0 0.054999222815240383 0.027275098764264854 0 0.054999873386534059 0.030476754870337318 0 0.056260820887600593 0.027799630847451066 0 0.057050045150501348 0.023531675498940779 0 0.055810686782281092 0.031357627741895204 0 0.056089976179225828 0.022807165062047038 0 0.056195907982792864 0.023095918549246707 0 0.055984269743782449 0.023198464078046613 0 0.055868702399017964 0.04095170167781241 0 0.055527915402779328 0.042116324660316881 0 0.054472693979967235 0.041717971167692734 0 0.055128064611679843 0.032947216105165669 0 0.055810686782281092 0.031357627741895204 0 0.054125419672842033 0.042473115152542845 0 0.055527915402779328 0.042116324660316881 0 0.054472693979967235 0.041717971167692734 0 0.054125419672842033 0.042473115152542845 0 0.054472693979967235 0.041717971167692734 0 0.05351184072723885 0.042198667544933247 0 0.054472693979967235 0.041717971167692734 0 0.054362451124705169 0.040528731789200308 0 0.05374821449680766 0.041644954250538491 0 0.055868702399017964 0.04095170167781241 0 0.054472693979967235 0.041717971167692734 0 0.054362451124705169 0.040528731789200308 0 0.056251316523439419 0.037812436094275863 0 0.055868702399017964 0.04095170167781241 0 0.054362451124705169 0.040528731789200308 0 0.054362451124705169 0.040528731789200308 0 0.053823052778338695 0.041299790215883446 0 0.05374821449680766 0.041644954250538491 0 0.053823052778338695 0.041299790215883446 0 0.053497684055152851 0.041846811049178603 0 0.05353797977552844 0.041682703772819407 0 0.053823052778338695 0.041299790215883446 0 0.053497684055152851 0.041846811049178603 0 0.05374821449680766 0.041644954250538491 0 0.053370742202816727 0.042095603705546818 0 0.053497684055152851 0.041846811049178603 0 0.053311263417457698 0.042352303257475105 0 0.053370742202816727 0.042095603705546818 0 0.053497684055152851 0.041846811049178603 0 0.05353797977552844 0.041682703772819407 0 0.053497684055152851 0.041846811049178603 0 0.053396401576952579 0.042120102588750825 0 0.053311263417457698 0.042352303257475105 0 0.053396401576952579 0.042120102588750825 0 0.05351184072723885 0.042198667544933247 0 0.053277186292033991 0.042349357412341436 0 0.053396401576952579 0.042120102588750825 0 0.053287823074826539 0.042440547090506126 0 0.053311263417457698 0.042352303257475105 0 0.053396401576952579 0.042120102588750825 0 0.053277186292033991 0.042349357412341436 0 0.053287823074826539 0.042440547090506126 0 0.053396401576952579 0.042120102588750825 0 0.05374821449680766 0.041644954250538491 0 0.05351184072723885 0.042198667544933247 0 0.053497684055152851 0.041846811049178603 0 0.053396401576952579 0.042120102588750825 0 0.05374821449680766 0.041644954250538491 0 0.054472693979967235 0.041717971167692734 0 0.05374821449680766 0.041644954250538491 0 0.05351184072723885 0.042198667544933247 0 0.05351184072723885 0.042198667544933247 0 0.053277186292033991 0.042349357412341436 0 0.053272408053700183 0.042262774467304934 0 0.05351184072723885 0.042198667544933247 0 0.053311360757564437 0.042304034018441045 0 0.053272408053700183 0.042262774467304934 0 0.055128064611679843 0.032947216105165669 0 0.055070777773289947 0.032695250197699761 0 0.056397225434833755 0.022643729522649137 0 0.056195907982792864 0.023095918549246707 0 0.05666664471265221 0.02314819422257133 0 0.054125419672842033 0.042473115152542845 0 0.05351184072723885 0.042198667544933247 0 0.053311360757564437 0.042304034018441045 0 0.053423870367862912 0.041668159758140678 0 0.053334652589059138 0.042344108908152461 0 0.05370022646603035 0.042207707259301085 0 0.053423870367862912 0.041668159758140678 0 0.05370022646603035 0.042207707259301085 0 0.0542577578667017 0.041845900820066388 0 0.055454943442275341 0.032225072982353511 0 0.055070777773289947 0.032695250197699761 0 0.053423870367862912 0.041668159758140678 0 0.053334652589059138 0.042344108908152461 0 0.053272408053700183 0.042262774467304934 0 0.053423870367862912 0.041668159758140678 0 0.053311360757564437 0.042304034018441045 0 0.053272408053700183 0.042262774467304934 0 0.053277186292033991 0.042349357412341436 0 0.053334652589059138 0.042344108908152461 0 0.053272408053700183 0.042262774467304934 0 0.053277186292033991 0.042349357412341436 0 0.053334652589059138 0.042344108908152461 0 0.053279181745623176 0.042593783675618946 0 0.053334652589059138 0.042344108908152461 0 0.053398040289469109 0.042601679218231568 0 0.053279181745623176 0.042593783675618946 0 0.053398040289469109 0.042601679218231568 0 0.053780618419638826 0.04255064005174778 0 0.05335857600722 0.042979235716947062 0 0.053334652589059138 0.042344108908152461 0 0.053398040289469109 0.042601679218231568 0 0.05370022646603035 0.042207707259301085 0 0.05370022646603035 0.042207707259301085 0 0.053780618419638826 0.04255064005174778 0 0.054090614820931728 0.042234219157236144 0 0.053398040289469109 0.042601679218231568 0 0.05370022646603035 0.042207707259301085 0 0.053780618419638826 0.04255064005174778 0 0.053398040289469109 0.042601679218231568 0 0.053299037552042086 0.042818398472766188 0 0.05335857600722 0.042979235716947062 0 0.053299037552042086 0.042818398472766188 0 0.05335857600722 0.042979235716947062 0 0.053291699689532956 0.043051769728560799 0 0.05335857600722 0.042979235716947062 0 0.053291699689532956 0.043051769728560799 0 0.053376284008556971 0.043252304730725707 0 0.053299037552042086 0.042818398472766188 0 0.053291699689532956 0.043051769728560799 0 0.053276191576901971 0.042735567343694873 0 0.053291699689532956 0.043051769728560799 0 0.053276191576901971 0.042735567343694873 0 0.053191679372652609 0.043057462229651559 0 0.053016951975807684 0.043516234313600834 0 0.053376284008556971 0.043252304730725707 0 0.052801527493602625 0.043962180886671011 0 0.053195458385096803 0.04327143997016647 0 0.053016951975807684 0.043516234313600834 0 0.053376284008556971 0.043252304730725707 0 0.053291699689532956 0.043051769728560799 0 0.053195458385096803 0.04327143997016647 0 0.053376284008556971 0.043252304730725707 0 0.053277186292033991 0.042349357412341436 0 0.053279181745623176 0.042593783675618946 0 0.053287823074826539 0.042440547090506126 0 0.053398040289469109 0.042601679218231568 0 0.053299037552042086 0.042818398472766188 0 0.053279181745623176 0.042593783675618946 0 0.053299037552042086 0.042818398472766188 0 0.053279181745623176 0.042593783675618946 0 0.053276191576901971 0.042735567343694873 0 0.053279181745623176 0.042593783675618946 0 0.053276191576901971 0.042735567343694873 0 0.053287823074826539 0.042440547090506126 0 0.053276191576901971 0.042735567343694873 0 0.053287823074826539 0.042440547090506126 0 0.053311263417457698 0.042352303257475105 0 0.053276191576901971 0.042735567343694873 0 0.053248473103086807 0.042669531091565967 0 0.053191679372652609 0.043057462229651559 0 0.053276191576901971 0.042735567343694873 0 0.053311263417457698 0.042352303257475105 0 0.053248473103086807 0.042669531091565967 0 0.053248473103086807 0.042669531091565967 0 0.053255120224402569 0.04245492390234968 0 0.053183334003192174 0.042753248006251444 0 0.053370742202816727 0.042095603705546818 0 0.053311263417457698 0.042352303257475105 0 0.053255120224402569 0.04245492390234968 0 0.053311263417457698 0.042352303257475105 0 0.053248473103086807 0.042669531091565967 0 0.053255120224402569 0.04245492390234968 0 0.053195458385096803 0.04327143997016647 0 0.053191679372652609 0.043057462229651559 0 0.05291227818922032 0.043409130880810887 0 0.053191679372652609 0.043057462229651559 0 0.052939996126672814 0.043092450891958449 0 0.05291227818922032 0.043409130880810887 0 0.053195458385096803 0.04327143997016647 0 0.053016951975807684 0.043516234313600834 0 0.05291227818922032 0.043409130880810887 0 0.053291699689532956 0.043051769728560799 0 0.053195458385096803 0.04327143997016647 0 0.053191679372652609 0.043057462229651559 0 0.053248473103086807 0.042669531091565967 0 0.053191679372652609 0.043057462229651559 0 0.053183334003192174 0.042753248006251444 0 0.053191679372652609 0.043057462229651559 0 0.053183334003192174 0.042753248006251444 0 0.052939996126672814 0.043092450891958449 0 0.052939996126672814 0.043092450891958449 0 0.05306020561218508 0.042773518066035153 0 0.052891562805351178 0.042879131265359596 0 0.053183334003192174 0.042753248006251444 0 0.05306020561218508 0.042773518066035153 0 0.053164958017462446 0.042583383884774131 0 0.053183334003192174 0.042753248006251444 0 0.052939996126672814 0.043092450891958449 0 0.05306020561218508 0.042773518066035153 0 0.05306020561218508 0.042773518066035153 0 0.052891562805351178 0.042879131265359596 0 0.05305356593472127 0.042652281489717773 0 0.05306020561218508 0.042773518066035153 0 0.05305356593472127 0.042652281489717773 0 0.053164958017462446 0.042583383884774131 0 0.052891562805351178 0.042879131265359596 0 0.052904996071887991 0.042787580159489309 0 0.05305356593472127 0.042652281489717773 0 0.052904996071887991 0.042787580159489309 0 0.05305356593472127 0.042652281489717773 0 0.052876562011136101 0.042907115913153174 0 0.05305356593472127 0.042652281489717773 0 0.053056665791274576 0.042589208303374926 0 0.052876562011136101 0.042907115913153174 0 0.05305356593472127 0.042652281489717773 0 0.053056665791274576 0.042589208303374926 0 0.053237131761884167 0.042310271120286465 0 0.05305356593472127 0.042652281489717773 0 0.053237131761884167 0.042310271120286465 0 0.053164958017462446 0.042583383884774131 0 0.053255120224402569 0.04245492390234968 0 0.053183334003192174 0.042753248006251444 0 0.053164958017462446 0.042583383884774131 0 0.053370742202816727 0.042095603705546818 0 0.053255120224402569 0.04245492390234968 0 0.053237131761884167 0.042310271120286465 0 0.053255120224402569 0.04245492390234968 0 0.053237131761884167 0.042310271120286465 0 0.053164958017462446 0.042583383884774131 0 0.053370742202816727 0.042095603705546818 0 0.053237131761884167 0.042310271120286465 0 0.05353797977552844 0.041682703772819407 0 0.053237131761884167 0.042310271120286465 0 0.05353797977552844 0.041682703772819407 0 0.053255161911799541 0.042206636645017698 0 0.054038233488219102 0.04093661435276208 0 0.05353797977552844 0.041682703772819407 0 0.053534015388172478 0.041952929106529452 0 0.054038233488219102 0.04093661435276208 0 0.053823052778338695 0.041299790215883446 0 0.05353797977552844 0.041682703772819407 0 0.05353797977552844 0.041682703772819407 0 0.053534015388172478 0.041952929106529452 0 0.053255161911799541 0.042206636645017698 0 0.053534015388172478 0.041952929106529452 0 0.053255161911799541 0.042206636645017698 0 0.052767913594024649 0.043072228176681479 0 0.053056665791274576 0.042589208303374926 0 0.053255161911799541 0.042206636645017698 0 0.052767913594024649 0.043072228176681479 0 0.053056665791274576 0.042589208303374926 0 0.053237131761884167 0.042310271120286465 0 0.053255161911799541 0.042206636645017698 0 0.053534015388172478 0.041952929106529452 0 0.052767913594024649 0.043072228176681479 0 0.053033943826057174 0.043132689790179431 0 0.053574166169389516 0.043245545337599688 0 0.053859612960118153 0.042026517754887145 0 0.053033943826057174 0.043132689790179431 0 0.053859612960118153 0.042026517754887145 0 0.053534015388172478 0.041952929106529452 0 0.053033943826057174 0.043132689790179431 0 0.053574166169389516 0.043245545337599688 0 0.053033943826057174 0.043132689790179431 0 0.052256295312600502 0.044824004277965977 0 0.053033943826057174 0.043132689790179431 0 0.052349786334383225 0.044027809642927553 0 0.052256295312600502 0.044824004277965977 0 0.052767913594024649 0.043072228176681479 0 0.052349786334383225 0.044027809642927553 0 0.052206807333483304 0.044040498667740395 0 0.052349786334383225 0.044027809642927553 0 0.051709923226698776 0.045184564083887407 0 0.052256295312600502 0.044824004277965977 0 0.052767913594024649 0.043072228176681479 0 0.053033943826057174 0.043132689790179431 0 0.052349786334383225 0.044027809642927553 0 0.052349786334383225 0.044027809642927553 0 0.052206807333483304 0.044040498667740395 0 0.051709923226698776 0.045184564083887407 0 0.052206807333483304 0.044040498667740395 0 0.052876562011136101 0.042907115913153174 0 0.053322673336290892 0.043591908585813764 0 0.052206807333483304 0.044040498667740395 0 0.053322673336290892 0.043591908585813764 0 0.051225085142562202 0.046541506005825427 0 0.052876562011136101 0.042907115913153174 0 0.052871562063760001 0.042833890836615797 0 0.053322673336290892 0.043591908585813764 0 0.052904996071887991 0.042787580159489309 0 0.052876562011136101 0.042907115913153174 0 0.052871562063760001 0.042833890836615797 0 0.052767913594024649 0.043072228176681479 0 0.052206807333483304 0.044040498667740395 0 0.052876562011136101 0.042907115913153174 0 0.053056665791274576 0.042589208303374926 0 0.052767913594024649 0.043072228176681479 0 0.052876562011136101 0.042907115913153174 0 0.052261856413915973 0.042442429652158456 0 0.052871562063760001 0.042833890836615797 0 0.052404946399126399 0.04282157664155551 0 0.052261856413915973 0.042442429652158456 0 0.052871562063760001 0.042833890836615797 0 0.053322673336290892 0.043591908585813764 0 0.051893523185745902 0.044783605147757255 0 0.051917051281415091 0.045589180339254395 0 0.050801293529047616 0.047547726696059806 0 0.050937982310773074 0.047354155442196053 0 0.050931113185289312 0.047296209339597925 0 0.050801293529047616 0.047547726696059806 0 0.050714282616395004 0.04737058207205036 0 0.050931113185289312 0.047296209339597925 0 0.050714282616395004 0.04737058207205036 0 0.050534617165753394 0.04750010513174157 0 0.050511403515087629 0.047276091044954928 0 0.050801293529047616 0.047547726696059806 0 0.050714282616395004 0.04737058207205036 0 0.050534617165753394 0.04750010513174157 0 0.046448969784083693 0.050176259818995421 0 0.045719877808305893 0.051382415533948213 0 0.04262696645310915 0.052153527684530923 0 0.044519452664176548 0.052312439851942595 0 0.042751510399200408 0.0545197246873508 0 0.046448969784083693 0.050176259818995421 0 0.048624549402166359 0.046383372304407318 0 0.04262696645310915 0.052153527684530923 0 0.042432755359940198 0.049496631071796207 0 0.044274280733595558 0.050475790992898534 0 0.050801293529047616 0.047547726696059806 0 0.050534617165753394 0.04750010513174157 0 0.0505276361633255 0.047730485633582169 0 0.051893523185745902 0.044783605147757255 0 0.048624549402166359 0.046383372304407318 0 0.052261856413915973 0.042442429652158456 0 0.05108321721592457 0.042932484817536594 0 0.050297984627957225 0.042721353753896074 0 0.052261856413915973 0.042442429652158456 0 0.05108321721592457 0.042932484817536594 0 0.051705957034833501 0.043033557741374198 0 0.05108321721592457 0.042932484817536594 0 0.050297984627957225 0.042721353753896074 0 0.050101521612011493 0.043366622584772474 0 0.05108321721592457 0.042932484817536594 0 0.050878680676701662 0.04350686188012446 0 0.051705957034833501 0.043033557741374198 0 0.048624549402166359 0.046383372304407318 0 0.046040518602100962 0.046051615016449818 0 0.05006639205937545 0.042357827379233964 0 0.050101521612011493 0.043366622584772474 0 0.048380796938608257 0.043694765222950446 0 0.042432755359940198 0.049496631071796207 0 0.044143855876347469 0.048082118635525681 0 0.044274280733595558 0.050475790992898534 0 0.048624549402166359 0.046383372304407318 0 0.049488535596660173 0.04283818777295776 0 0.050101521612011493 0.043366622584772474 0 0.049307131900005505 0.044125922024429998 0 0.048380796938608257 0.043694765222950446 0 0.050101521612011493 0.043366622584772474 0 0.050126652997893859 0.044050345831726213 0 0.049307131900005505 0.044125922024429998 0 0.050126652997893859 0.044050345831726213 0 0.049307131900005505 0.044125922024429998 0 0.049364030051394669 0.044726999159167335 0 0.050878680676701662 0.04350686188012446 0 0.051523007342688776 0.043525391051932955 0 0.051705957034833501 0.043033557741374198 0 0.05108321721592457 0.042932484817536594 0 0.050101521612011493 0.043366622584772474 0 0.050878680676701662 0.04350686188012446 0 0.050101521612011493 0.043366622584772474 0 0.050126652997893859 0.044050345831726213 0 0.050878680676701662 0.04350686188012446 0 0.050126652997893859 0.044050345831726213 0 0.050878680676701662 0.04350686188012446 0 0.050782557569703714 0.044066129218799932 0 0.050878680676701662 0.04350686188012446 0 0.051523007342688776 0.043525391051932955 0 0.050782557569703714 0.044066129218799932 0 0.051523007342688776 0.043525391051932955 0 0.051366603311328737 0.043927785933680012 0 0.050782557569703714 0.044066129218799932 0 0.051523007342688776 0.043525391051932955 0 0.051366603311328737 0.043927785933680012 0 0.05196546954919852 0.043617514245297986 0 0.052157159655570995 0.043154258814745161 0 0.052540956958361112 0.043202623553713404 0 0.05196546954919852 0.043617514245297986 0 0.051523007342688776 0.043525391051932955 0 0.052157159655570995 0.043154258814745161 0 0.05196546954919852 0.043617514245297986 0 0.051523007342688776 0.043525391051932955 0 0.052157159655570995 0.043154258814745161 0 0.051705957034833501 0.043033557741374198 0 0.052261856413915973 0.042442429652158456 0 0.051705957034833501 0.043033557741374198 0 0.052404946399126399 0.04282157664155551 0 0.052157159655570995 0.043154258814745161 0 0.051705957034833501 0.043033557741374198 0 0.052404946399126399 0.04282157664155551 0 0.052904996071887991 0.042787580159489309 0 0.052871562063760001 0.042833890836615797 0 0.052623640444681957 0.042926417280216192 0 0.052871562063760001 0.042833890836615797 0 0.052404946399126399 0.04282157664155551 0 0.052623640444681957 0.042926417280216192 0 0.052157159655570995 0.043154258814745161 0 0.052404946399126399 0.04282157664155551 0 0.052623640444681957 0.042926417280216192 0 0.052891562805351178 0.042879131265359596 0 0.052904996071887991 0.042787580159489309 0 0.052623640444681957 0.042926417280216192 0 0.052891562805351178 0.042879131265359596 0 0.052623640444681957 0.042926417280216192 0 0.052540956958361112 0.043202623553713404 0 0.052157159655570995 0.043154258814745161 0 0.052623640444681957 0.042926417280216192 0 0.052540956958361112 0.043202623553713404 0 0.052939996126672814 0.043092450891958449 0 0.052891562805351178 0.042879131265359596 0 0.052540956958361112 0.043202623553713404 0 0.052939996126672814 0.043092450891958449 0 0.052479958040938482 0.043532070160733946 0 0.05291227818922032 0.043409130880810887 0 0.052939996126672814 0.043092450891958449 0 0.052540956958361112 0.043202623553713404 0 0.052479958040938482 0.043532070160733946 0 0.052540956958361112 0.043202623553713404 0 0.052479958040938482 0.043532070160733946 0 0.05196546954919852 0.043617514245297986 0 0.052479958040938482 0.043532070160733946 0 0.05220833422959751 0.043959502265994557 0 0.052531549195669297 0.043749151831379611 0 0.052479958040938482 0.043532070160733946 0 0.05220833422959751 0.043959502265994557 0 0.052049876010168826 0.043841589942176115 0 0.05220833422959751 0.043959502265994557 0 0.052531549195669297 0.043749151831379611 0 0.052362205774267756 0.044101477814248183 0 0.052531549195669297 0.043749151831379611 0 0.05291227818922032 0.043409130880810887 0 0.052675836741645173 0.043830451254114423 0 0.052479958040938482 0.043532070160733946 0 0.052531549195669297 0.043749151831379611 0 0.05291227818922032 0.043409130880810887 0 0.053016951975807684 0.043516234313600834 0 0.05291227818922032 0.043409130880810887 0 0.052675836741645173 0.043830451254114423 0 0.051366603311328737 0.043927785933680012 0 0.05196546954919852 0.043617514245297986 0 0.051520505587083813 0.044152876157256438 0 0.051366603311328737 0.043927785933680012 0 0.051520505587083813 0.044152876157256438 0 0.050985039130944737 0.044386514858093126 0 0.05196546954919852 0.043617514245297986 0 0.052049876010168826 0.043841589942176115 0 0.051520505587083813 0.044152876157256438 0 0.052479958040938482 0.043532070160733946 0 0.05196546954919852 0.043617514245297986 0 0.052049876010168826 0.043841589942176115 0 0.052049876010168826 0.043841589942176115 0 0.051789548142200992 0.044272439133019641 0 0.051520505587083813 0.044152876157256438 0 0.05220833422959751 0.043959502265994557 0 0.052049876010168826 0.043841589942176115 0 0.051789548142200992 0.044272439133019641 0 0.051789548142200992 0.044272439133019641 0 0.051520505587083813 0.044152876157256438 0 0.0511873723849917 0.044675411717861192 0 0.051520505587083813 0.044152876157256438 0 0.0511873723849917 0.044675411717861192 0 0.050985039130944737 0.044386514858093126 0 0.0511873723849917 0.044675411717861192 0 0.051540903295324798 0.044746859089618056 0 0.051022572584423546 0.04520108639650753 0 0.051789548142200992 0.044272439133019641 0 0.0511873723849917 0.044675411717861192 0 0.051540903295324798 0.044746859089618056 0 0.051540903295324798 0.044746859089618056 0 0.052010402790523429 0.044435380932681359 0 0.051766916846935088 0.044851512595247882 0 0.051789548142200992 0.044272439133019641 0 0.051540903295324798 0.044746859089618056 0 0.052010402790523429 0.044435380932681359 0 0.05220833422959751 0.043959502265994557 0 0.051789548142200992 0.044272439133019641 0 0.052010402790523429 0.044435380932681359 0 0.052010402790523429 0.044435380932681359 0 0.052027775011617684 0.044816947285271934 0 0.052189843180236048 0.044436255176504624 0 0.052010402790523429 0.044435380932681359 0 0.052027775011617684 0.044816947285271934 0 0.051766916846935088 0.044851512595247882 0 0.052027775011617684 0.044816947285271934 0 0.052341054402860944 0.044422726133504731 0 0.051906069559826212 0.045773644337186163 0 0.052027775011617684 0.044816947285271934 0 0.051686561633613536 0.045243184235176287 0 0.051906069559826212 0.045773644337186163 0 0.052027775011617684 0.044816947285271934 0 0.051686561633613536 0.045243184235176287 0 0.051766916846935088 0.044851512595247882 0 0.051686561633613536 0.045243184235176287 0 0.051323381538495617 0.045432027322432837 0 0.051556310566554693 0.045543327204907301 0 0.051686561633613536 0.045243184235176287 0 0.051766916846935088 0.044851512595247882 0 0.051502387458332806 0.045101097570520061 0 0.051540903295324798 0.044746859089618056 0 0.051766916846935088 0.044851512595247882 0 0.051502387458332806 0.045101097570520061 0 0.051540903295324798 0.044746859089618056 0 0.051502387458332806 0.045101097570520061 0 0.051022572584423546 0.04520108639650753 0 0.051502387458332806 0.045101097570520061 0 0.051323381538495617 0.045432027322432837 0 0.051022572584423546 0.04520108639650753 0 0.051686561633613536 0.045243184235176287 0 0.051502387458332806 0.045101097570520061 0 0.051323381538495617 0.045432027322432837 0 0.051022572584423546 0.04520108639650753 0 0.051051044695410892 0.045675031860893937 0 0.050703479667171723 0.04565119868748533 0 0.051323381538495617 0.045432027322432837 0 0.051022572584423546 0.04520108639650753 0 0.051051044695410892 0.045675031860893937 0 0.053376284008556971 0.043252304730725707 0 0.052801527493602625 0.043962180886671011 0 0.051906069559826212 0.045773644337186163 0 0.05335857600722 0.042979235716947062 0 0.053376284008556971 0.043252304730725707 0 0.053671692930091199 0.042916414030240831 0 0.053376284008556971 0.043252304730725707 0 0.053671692930091199 0.042916414030240831 0 0.053669027218695826 0.042919893873885145 0 0.05334473326119548 0.043177543798198527 0 0.052786678292704226 0.045140577485503416 0 0.052801527493602625 0.043962180886671011 0 0.052675836741645173 0.043830451254114423 0 0.052341054402860944 0.044422726133504731 0 0.053016951975807684 0.043516234313600834 0 0.052801527493602625 0.043962180886671011 0 0.052675836741645173 0.043830451254114423 0 0.052531549195669297 0.043749151831379611 0 0.052675836741645173 0.043830451254114423 0 0.052362205774267756 0.044101477814248183 0 0.052675836741645173 0.043830451254114423 0 0.052362205774267756 0.044101477814248183 0 0.052341054402860944 0.044422726133504731 0 0.05220833422959751 0.043959502265994557 0 0.052010402790523429 0.044435380932681359 0 0.052362205774267756 0.044101477814248183 0 0.052027775011617684 0.044816947285271934 0 0.052189843180236048 0.044436255176504624 0 0.052341054402860944 0.044422726133504731 0 0.052362205774267756 0.044101477814248183 0 0.052189843180236048 0.044436255176504624 0 0.052341054402860944 0.044422726133504731 0 0.052010402790523429 0.044435380932681359 0 0.052362205774267756 0.044101477814248183 0 0.052189843180236048 0.044436255176504624 0 0.052801527493602625 0.043962180886671011 0 0.052341054402860944 0.044422726133504731 0 0.051906069559826212 0.045773644337186163 0 0.053034864540942993 0.042912974628657369 0 0.055009709823258035 0.043033249221523573 0 0.053780618419638826 0.04255064005174778 0 0.05335857600722 0.042979235716947062 0 0.054570602436845576 0.042445878206943601 0 0.053780618419638826 0.04255064005174778 0 0.054212362843017864 0.042350472302912834 0 0.054570602436845576 0.042445878206943601 0 0.053780618419638826 0.04255064005174778 0 0.054090614820931728 0.042234219157236144 0 0.054212362843017864 0.042350472302912834 0 0.05370022646603035 0.042207707259301085 0 0.054090614820931728 0.042234219157236144 0 0.0542577578667017 0.041845900820066388 0 0.054090614820931728 0.042234219157236144 0 0.054406537735119852 0.042171752048487901 0 0.0542577578667017 0.041845900820066388 0 0.054406537735119852 0.042171752048487901 0 0.054212362843017864 0.042350472302912834 0 0.054570602436845576 0.042445878206943601 0 0.054090614820931728 0.042234219157236144 0 0.054406537735119852 0.042171752048487901 0 0.054212362843017864 0.042350472302912834 0 0.055009709823258035 0.043033249221523573 0 0.050129889846904065 0.039198252947298014 0 0.053671692930091199 0.042916414030240831 0 0.053669027218695826 0.042919893873885145 0 0.053278093426692791 0.042819364225386403 0 0.054570602436845576 0.042445878206943601 0 0.054779238660207848 0.04195951005422982 0 0.055732721515796571 0.041922449186403185 0 0.051906069559826212 0.045773644337186163 0 0.051556310566554693 0.045543327204907301 0 0.051345233275712845 0.045670184866076609 0 0.051686561633613536 0.045243184235176287 0 0.051906069559826212 0.045773644337186163 0 0.051556310566554693 0.045543327204907301 0 0.051906069559826212 0.045773644337186163 0 0.051345233275712845 0.045670184866076609 0 0.050911757770912211 0.045943590034406311 0 0.051051044695410892 0.045675031860893937 0 0.051345233275712845 0.045670184866076609 0 0.050911757770912211 0.045943590034406311 0 0.051051044695410892 0.045675031860893937 0 0.050911757770912211 0.045943590034406311 0 0.050703479667171723 0.04565119868748533 0 0.051323381538495617 0.045432027322432837 0 0.051051044695410892 0.045675031860893937 0 0.051345233275712845 0.045670184866076609 0 0.051323381538495617 0.045432027322432837 0 0.051556310566554693 0.045543327204907301 0 0.051345233275712845 0.045670184866076609 0 0.054406537735119852 0.042171752048487901 0 0.054570602436845576 0.042445878206943601 0 0.054779238660207848 0.04195951005422982 0 0.054779238660207848 0.04195951005422982 0 0.054916331110785054 0.041457606093386043 0 0.055732721515796571 0.041922449186403185 0 0.054779238660207848 0.04195951005422982 0 0.054916331110785054 0.041457606093386043 0 0.0542577578667017 0.041845900820066388 0 0.054364765988054356 0.041008256526616806 0 0.054916331110785054 0.041457606093386043 0 0.0542577578667017 0.041845900820066388 0 0.054364765988054356 0.041008256526616806 0 0.053423870367862912 0.041668159758140678 0 0.0542577578667017 0.041845900820066388 0 0.054406537735119852 0.042171752048487901 0 0.054779238660207848 0.04195951005422982 0 0.0542577578667017 0.041845900820066388 0 0.049241134122894333 0.046494560429221038 0 0.049011346273780489 0.046263164192532111 0 0.048257178173371475 0.046329271193439985 0 0.048271318863158698 0.017514661901138422 0 0.047875275706922273 0.020077904536884163 0 0.046555856005880851 0.020801312745429169 0 0.051961141978680091 0.017414479495195138 0 0.048271318863158698 0.017514661901138422 0 0.047875275706922273 0.020077904536884163 0 0.049241134122894333 0.046494560429221038 0 0.049603464764173114 0.046401282304261438 0 0.049377222776009082 0.046350040200852011 0 0.048709030316147477 0.032800340676788095 0 0.050129889846904065 0.039198252947298014 0 0.053805087540496004 0.02201074219302214 0 0.050129889846904065 0.039198252947298014 0 0.055503493329787663 0.040470302950937287 0 0.054916331110785054 0.041457606093386043 0 0.055732721515796571 0.041922449186403185 0 0.051906069559826212 0.045773644337186163 0 0.050911757770912211 0.045943590034406311 0 0.049765060793513803 0.046866150968811922 0 0.050129889846904065 0.039198252947298014 0 0.050577889054435547 0.04566420642455489 0 0.049603464764173114 0.046401282304261438 0 0.049626442110894141 0.046234117022233484 0 0.049377222776009082 0.046350040200852011 0 0.052786678292704226 0.045140577485503416 0 0.050129889846904065 0.039198252947298014 0 0.049765060793513803 0.046866150968811922 0 0.049626442110894141 0.046234117022233484 0 0.050137552370691979 0.045910488389408165 0 0.050911757770912211 0.045943590034406311 0 0.049765060793513803 0.046866150968811922 0 0.050137552370691979 0.045910488389408165 0 0.050911757770912211 0.045943590034406311 0 0.050703479667171723 0.04565119868748533 0 0.050137552370691979 0.045910488389408165 0 0.049626442110894141 0.046234117022233484 0 0.050137552370691979 0.045910488389408165 0 0.049424408382414964 0.045936203212968624 0 0.050137552370691979 0.045910488389408165 0 0.049424408382414964 0.045936203212968624 0 0.049867917587261723 0.045591984565593817 0 0.049626442110894141 0.046234117022233484 0 0.049424408382414964 0.045936203212968624 0 0.049011346273780489 0.046263164192532111 0 0.049626442110894141 0.046234117022233484 0 0.049377222776009082 0.046350040200852011 0 0.049011346273780489 0.046263164192532111 0 0.049241134122894333 0.046494560429221038 0 0.049377222776009082 0.046350040200852011 0 0.049011346273780489 0.046263164192532111 0 0.049424408382414964 0.045936203212968624 0 0.049011346273780489 0.046263164192532111 0 0.048872965881465558 0.045927968799374892 0 0.049011346273780489 0.046263164192532111 0 0.048872965881465558 0.045927968799374892 0 0.04853812237869666 0.046144000013596365 0 0.048872965881465558 0.045927968799374892 0 0.049287446710692392 0.045578718688957624 0 0.048636442370481751 0.045660514132632508 0 0.049424408382414964 0.045936203212968624 0 0.049287446710692392 0.045578718688957624 0 0.049867917587261723 0.045591984565593817 0 0.049424408382414964 0.045936203212968624 0 0.048872965881465558 0.045927968799374892 0 0.049287446710692392 0.045578718688957624 0 0.049287446710692392 0.045578718688957624 0 0.05004110633304068 0.045202978557750705 0 0.049753119422242205 0.045058518950580231 0 0.049287446710692392 0.045578718688957624 0 0.049867917587261723 0.045591984565593817 0 0.05004110633304068 0.045202978557750705 0 0.049287446710692392 0.045578718688957624 0 0.049134415198562036 0.045225416751506535 0 0.049753119422242205 0.045058518950580231 0 0.049287446710692392 0.045578718688957624 0 0.049134415198562036 0.045225416751506535 0 0.048636442370481751 0.045660514132632508 0 0.051022572584423546 0.04520108639650753 0 0.050703479667171723 0.04565119868748533 0 0.050385979306305013 0.045451946735328874 0 0.051022572584423546 0.04520108639650753 0 0.050385979306305013 0.045451946735328874 0 0.050622704156844382 0.044920709245067365 0 0.050703479667171723 0.04565119868748533 0 0.050137552370691979 0.045910488389408165 0 0.050385979306305013 0.045451946735328874 0 0.050385979306305013 0.045451946735328874 0 0.049867917587261723 0.045591984565593817 0 0.05004110633304068 0.045202978557750705 0 0.050137552370691979 0.045910488389408165 0 0.050385979306305013 0.045451946735328874 0 0.049867917587261723 0.045591984565593817 0 0.05004110633304068 0.045202978557750705 0 0.050622704156844382 0.044920709245067365 0 0.050413726499977253 0.044606405321259687 0 0.050385979306305013 0.045451946735328874 0 0.05004110633304068 0.045202978557750705 0 0.050622704156844382 0.044920709245067365 0 0.0511873723849917 0.044675411717861192 0 0.051022572584423546 0.04520108639650753 0 0.050622704156844382 0.044920709245067365 0 0.0511873723849917 0.044675411717861192 0 0.050622704156844382 0.044920709245067365 0 0.050985039130944737 0.044386514858093126 0 0.050622704156844382 0.044920709245067365 0 0.050985039130944737 0.044386514858093126 0 0.050413726499977253 0.044606405321259687 0 0.05004110633304068 0.045202978557750705 0 0.050413726499977253 0.044606405321259687 0 0.049753119422242205 0.045058518950580231 0 0.050413726499977253 0.044606405321259687 0 0.049753119422242205 0.045058518950580231 0 0.04992122683684571 0.044639377983794651 0 0.050413726499977253 0.044606405321259687 0 0.050782557569703714 0.044066129218799932 0 0.04992122683684571 0.044639377983794651 0 0.050126652997893859 0.044050345831726213 0 0.050782557569703714 0.044066129218799932 0 0.04992122683684571 0.044639377983794651 0 0.050985039130944737 0.044386514858093126 0 0.050413726499977253 0.044606405321259687 0 0.050782557569703714 0.044066129218799932 0 0.051366603311328737 0.043927785933680012 0 0.050985039130944737 0.044386514858093126 0 0.050782557569703714 0.044066129218799932 0 0.049134415198562036 0.045225416751506535 0 0.048348835998534553 0.045339752813144424 0 0.048636442370481751 0.045660514132632508 0 0.049134415198562036 0.045225416751506535 0 0.049753119422242205 0.045058518950580231 0 0.04992122683684571 0.044639377983794651 0 0.049134415198562036 0.045225416751506535 0 0.04992122683684571 0.044639377983794651 0 0.049364030051394669 0.044726999159167335 0 0.050126652997893859 0.044050345831726213 0 0.04992122683684571 0.044639377983794651 0 0.049364030051394669 0.044726999159167335 0 0.049134415198562036 0.045225416751506535 0 0.049364030051394669 0.044726999159167335 0 0.048348835998534553 0.045339752813144424 0 0.049307131900005505 0.044125922024429998 0 0.049364030051394669 0.044726999159167335 0 0.048348835998534553 0.045339752813144424 0 0.048348835998534553 0.045339752813144424 0 0.047771099872794154 0.045873493443687983 0 0.046829750456319638 0.046198224756070806 0 0.048348835998534553 0.045339752813144424 0 0.047771099872794154 0.045873493443687983 0 0.048636442370481751 0.045660514132632508 0 0.046829750456319638 0.046198224756070806 0 0.047591297318873287 0.04605988021443843 0 0.04738612675161373 0.047584078834183266 0 0.047771099872794154 0.045873493443687983 0 0.046829750456319638 0.046198224756070806 0 0.047591297318873287 0.04605988021443843 0 0.047771099872794154 0.045873493443687983 0 0.047591297318873287 0.04605988021443843 0 0.047906073453966434 0.045967374059585266 0 0.047591297318873287 0.04605988021443843 0 0.047906073453966434 0.045967374059585266 0 0.04797850639618656 0.045966204426264382 0 0.047771099872794154 0.045873493443687983 0 0.048636442370481751 0.045660514132632508 0 0.048293555348576038 0.045942825285163642 0 0.047771099872794154 0.045873493443687983 0 0.047906073453966434 0.045967374059585266 0 0.048293555348576038 0.045942825285163642 0 0.048872965881465558 0.045927968799374892 0 0.048636442370481751 0.045660514132632508 0 0.048293555348576038 0.045942825285163642 0 0.048872965881465558 0.045927968799374892 0 0.048293555348576038 0.045942825285163642 0 0.04853812237869666 0.046144000013596365 0 0.048293555348576038 0.045942825285163642 0 0.04853812237869666 0.046144000013596365 0 0.048123877868873691 0.046085584491247139 0 0.047906073453966434 0.045967374059585266 0 0.048293555348576038 0.045942825285163642 0 0.048123877868873691 0.046085584491247139 0 0.048123877868873691 0.046085584491247139 0 0.048056584137511238 0.046028004201534349 0 0.04797850639618656 0.045966204426264382 0 0.047906073453966434 0.045967374059585266 0 0.048123877868873691 0.046085584491247139 0 0.04797850639618656 0.045966204426264382 0 0.048063529221418766 0.045913710433703507 0 0.048257178173371475 0.046329271193439985 0 0.048056584137511238 0.046028004201534349 0 0.048123877868873691 0.046085584491247139 0 0.048257178173371475 0.046329271193439985 0 0.048056584137511238 0.046028004201534349 0 0.050642577716949931 0.022206646285028084 0 0.048709030316147477 0.032800340676788095 0 0.048709030316147477 0.032800340676788095 0 0.048399534715722406 0.038447079386474466 0 0.048954451154413228 0.029103847730476348 0 0.047642196954816265 0.030157038443987195 0 0.048928829672307668 0.029304456494680005 0 0.04853812237869666 0.046144000013596365 0 0.048123877868873691 0.046085584491247139 0 0.048257178173371475 0.046329271193439985 0 0.049011346273780489 0.046263164192532111 0 0.04853812237869666 0.046144000013596365 0 0.048257178173371475 0.046329271193439985 0 0.04811489333085682 0.045911203678534546 0 0.048191514779637783 0.045863481531916508 0 0.048180972866321961 0.045922473908329764 0 0.04811489333085682 0.045911203678534546 0 0.048070459367660905 0.0459496182064935 0 0.048180972866321961 0.045922473908329764 0 0.048140074580052962 0.045801871802109657 0 0.04811489333085682 0.045911203678534546 0 0.048191514779637783 0.045863481531916508 0 0.04811489333085682 0.045911203678534546 0 0.048056584137511238 0.046028004201534349 0 0.048070459367660905 0.0459496182064935 0 0.048063529221418766 0.045913710433703507 0 0.04811489333085682 0.045911203678534546 0 0.048056584137511238 0.046028004201534349 0 0.048063529221418766 0.045913710433703507 0 0.048140074580052962 0.045801871802109657 0 0.04811489333085682 0.045911203678534546 0 0.048056584137511238 0.046028004201534349 0 0.048070459367660905 0.0459496182064935 0 0.04797850639618656 0.045966204426264382 0 0.048070459367660905 0.0459496182064935 0 0.04797850639618656 0.045966204426264382 0 0.048150479459843749 0.045955313657281387 0 0.04797850639618656 0.045966204426264382 0 0.048150479459843749 0.045955313657281387 0 0.048080510058459341 0.046025766809127878 0 0.048150479459843749 0.045955313657281387 0 0.048220993507595462 0.045953195330770101 0 0.048271238225623597 0.045995903679448509 0 0.048150479459843749 0.045955313657281387 0 0.048180972866321961 0.045922473908329764 0 0.048220993507595462 0.045953195330770101 0 0.048070459367660905 0.0459496182064935 0 0.048150479459843749 0.045955313657281387 0 0.048180972866321961 0.045922473908329764 0 0.048180972866321961 0.045922473908329764 0 0.048220993507595462 0.045953195330770101 0 0.048230820973544676 0.04593567247244619 0 0.048191514779637783 0.045863481531916508 0 0.048180972866321961 0.045922473908329764 0 0.048230820973544676 0.04593567247244619 0 0.048220993507595462 0.045953195330770101 0 0.048271238225623597 0.045995903679448509 0 0.048230820973544676 0.04593567247244619 0 0.048271238225623597 0.045995903679448509 0 0.048583341028748957 0.046196444146464545 0 0.048230820973544676 0.04593567247244619 0 0.048271238225623597 0.045995903679448509 0 0.048080510058459341 0.046025766809127878 0 0.048583341028748957 0.046196444146464545 0 0.048119027315044943 0.04746217223659871 0 0.049560044278512259 0.047318095230326096 0 0.048217406567736834 0.048506425884303601 0 0.047620049219610744 0.048718235037623465 0 0.048146369924906007 0.04844259580516936 0 0.048150479459843749 0.045955313657281387 0 0.048271238225623597 0.045995903679448509 0 0.048080510058459341 0.046025766809127878 0 0.048080510058459341 0.046025766809127878 0 0.048021983959753552 0.046271202727136425 0 0.048583341028748957 0.046196444146464545 0 0.047591297318873287 0.04605988021443843 0 0.04797850639618656 0.045966204426264382 0 0.048080510058459341 0.046025766809127878 0 0.047591297318873287 0.04605988021443843 0 0.048080510058459341 0.046025766809127878 0 0.048021983959753552 0.046271202727136425 0 0.047891635185972982 0.046937678406163634 0 0.048583341028748957 0.046196444146464545 0 0.04811871372615148 0.048809988512306147 0 0.047591297318873287 0.04605988021443843 0 0.047891635185972982 0.046937678406163634 0 0.04738612675161373 0.047584078834183266 0 0.047591297318873287 0.04605988021443843 0 0.048021983959753552 0.046271202727136425 0 0.047891635185972982 0.046937678406163634 0 0.048021983959753552 0.046271202727136425 0 0.047891635185972982 0.046937678406163634 0 0.048583341028748957 0.046196444146464545 0 0.048217406567736834 0.048506425884303601 0 0.048328614766908216 0.048774926762893064 0 0.048146369924906007 0.04844259580516936 0 0.048119027315044943 0.04746217223659871 0 0.048181117227860899 0.048703502841627555 0 0.048217406567736834 0.048506425884303601 0 0.048328614766908216 0.048774926762893064 0 0.04811871372615148 0.048809988512306147 0 0.048328614766908216 0.048774926762893064 0 0.048877013705546944 0.049503846531693839 0 0.048146369924906007 0.04844259580516936 0 0.048328614766908216 0.048774926762893064 0 0.048877013705546944 0.049503846531693839 0 0.04811871372615148 0.048809988512306147 0 0.031562513347647696 0.05176357431000024 0 0.031748612174939413 0.053904633853065334 0 0.048877013705546944 0.049503846531693839 0 0.047590857618543835 0.050036808985688408 0 0.048602109987766498 0.052268769353207963 0 0.048877013705546944 0.049503846531693839 0 0.047590857618543835 0.050036808985688408 0 0.04811871372615148 0.048809988512306147 0 0.047590857618543835 0.050036808985688408 0 0.04811871372615148 0.048809988512306147 0 0.04738612675161373 0.047584078834183266 0 0.047891635185972982 0.046937678406163634 0 0.04811871372615148 0.048809988512306147 0 0.04738612675161373 0.047584078834183266 0 0.046829750456319638 0.046198224756070806 0 0.04738612675161373 0.047584078834183266 0 0.046026650939204702 0.049058451808289452 0 0.049307131900005505 0.044125922024429998 0 0.048348835998534553 0.045339752813144424 0 0.048380796938608257 0.043694765222950446 0 0.046880025136886418 0.045969900197450765 0 0.046040518602100962 0.046051615016449818 0 0.046829750456319638 0.046198224756070806 0 0.044143855876347469 0.048082118635525681 0 0.046026650939204702 0.049058451808289452 0 0.048348835998534553 0.045339752813144424 0 0.046829750456319638 0.046198224756070806 0 0.048380796938608257 0.043694765222950446 0 0.044143855876347469 0.048082118635525681 0 0.046026650939204702 0.049058451808289452 0 0.044274280733595558 0.050475790992898534 0 0.047590857618543835 0.050036808985688408 0 0.04738612675161373 0.047584078834183266 0 0.046026650939204702 0.049058451808289452 0 0.046026650939204702 0.049058451808289452 0 0.046039020262181395 0.05117703918470709 0 0.044274280733595558 0.050475790992898534 0 0.047590857618543835 0.050036808985688408 0 0.046026650939204702 0.049058451808289452 0 0.046039020262181395 0.05117703918470709 0 0.046039020262181395 0.05117703918470709 0 0.044274280733595558 0.050475790992898534 0 0.044519452664176548 0.052312439851942595 0 0.04262696645310915 0.052153527684530923 0 0.044274280733595558 0.050475790992898534 0 0.044519452664176548 0.052312439851942595 0 0.044519452664176548 0.052312439851942595 0 0.04681563395446163 0.053118233892748987 0 0.045080001878725878 0.054049924145083236 0 0.046039020262181395 0.05117703918470709 0 0.044519452664176548 0.052312439851942595 0 0.04681563395446163 0.053118233892748987 0 0.04681563395446163 0.053118233892748987 0 0.048602109987766498 0.052268769353207963 0 0.047288375715350765 0.051717054694948139 0 0.04681563395446163 0.053118233892748987 0 0.048602109987766498 0.052268769353207963 0 0.047951540166267542 0.054389475441827172 0 0.014084692954243222 0.055678463606140406 0 0.013766241552745044 0.057919706289180355 0 0.015140937527233092 0.057258967462453632 0 0.031748612174939413 0.053904633853065334 0 0.027871688079272008 0.056166874363741494 0 0.047590857618543835 0.050036808985688408 0 0.046039020262181395 0.05117703918470709 0 0.047288375715350765 0.051717054694948139 0 0.047590857618543835 0.050036808985688408 0 0.048602109987766498 0.052268769353207963 0 0.047288375715350765 0.051717054694948139 0 0.046039020262181395 0.05117703918470709 0 0.04681563395446163 0.053118233892748987 0 0.047288375715350765 0.051717054694948139 0 0.036411959003970179 0.056062600550218292 0 0.036439808164986799 0.056233911426201377 0 0.036674671242596268 0.056169777088286001 0 0.036411959003970179 0.056062600550218292 0 0.036674671242596268 0.056169777088286001 0 0.036678159502619906 0.055947608329979748 0 0.013579884367531721 0.059871081770193263 0 0.013663345281704519 0.058390136440819841 0 0.014968170031334681 0.059485804753625839 0 0.024571259039042555 0.058408782672721954 0 0.027871688079272008 0.056166874363741494 0 0.027871688079272008 0.056166874363741494 0 0.009604625095100636 0.058994683436793011 0 0.04681563395446163 0.053118233892748987 0 0.047951540166267542 0.054389475441827172 0 0.046365629581579894 0.055243157902854834 0 0.027871688079272008 0.056166874363741494 0 0.044207126847278462 0.054802716106156529 0 0.04681563395446163 0.053118233892748987 0 0.045080001878725878 0.054049924145083236 0 0.046365629581579894 0.055243157902854834 0 0.045080001878725878 0.054049924145083236 0 0.044156982003266336 0.054992491608556932 0 0.043107172825535653 0.054424326166592887 0 0.043695906139063212 0.054885742383360123 0 0.045719877808305893 0.051382415533948213 0 0.044519452664176548 0.052312439851942595 0 0.045080001878725878 0.054049924145083236 0 0.042751510399200408 0.0545197246873508 0 0.045080001878725878 0.054049924145083236 0 0.044156982003266336 0.054992491608556932 0 0.044766250793980437 0.056022345919793229 0 0.044156982003266336 0.054992491608556932 0 0.044766250793980437 0.056022345919793229 0 0.043848867367521083 0.056140703753052884 0 0.044207126847278462 0.054802716106156529 0 0.040008985380223426 0.056572290500546032 0 0.045080001878725878 0.054049924145083236 0 0.046365629581579894 0.055243157902854834 0 0.044766250793980437 0.056022345919793229 0 0.036674671242596268 0.056169777088286001 0 0.036678159502619906 0.055947608329979748 0 0.036987732495553011 0.056120204182939552 0 0.036678159502619906 0.055947608329979748 0 0.036987732495553011 0.056120204182939552 0 0.03698952467524666 0.055842097181606161 0 0.040008985380223426 0.056572290500546032 0 0.04205292066442106 0.054487373282558038 0 0.036987732495553011 0.056120204182939552 0 0.03698952467524666 0.055842097181606161 0 0.037385585861581049 0.055918824908936841 0 0.03698952467524666 0.055842097181606161 0 0.03719784786528791 0.055506028292951225 0 0.036743493792823233 0.055635552131248725 0 0.03698952467524666 0.055842097181606161 0 0.03719784786528791 0.055506028292951225 0 0.037385585861581049 0.055918824908936841 0 0.036743493792823233 0.055635552131248725 0 0.035627523376619383 0.05596513628768008 0 0.036168224599145531 0.055470390301624907 0 0.036678159502619906 0.055947608329979748 0 0.036743493792823233 0.055635552131248725 0 0.036397636222128923 0.055783844437931406 0 0.040056778743059331 0.054875674581025283 0 0.027935973093052024 0.057791548961842611 0 0.036678159502619906 0.055947608329979748 0 0.03698952467524666 0.055842097181606161 0 0.036743493792823233 0.055635552131248725 0 0.024571259039042555 0.058408782672721954 0 0.027935973093052024 0.057791548961842611 0 0.036411959003970179 0.056062600550218292 0 0.036678159502619906 0.055947608329979748 0 0.036397636222128923 0.055783844437931406 0 0.013579884367531721 0.059871081770193263 0 0.013512516346410892 0.061073592087866703 0 0.014898497005665909 0.060865358399243626 0 0.013579884367531721 0.059871081770193263 0 0.014968170031334681 0.059485804753625839 0 0.014898497005665909 0.060865358399243626 0 0.027726527483691352 0.061144594966214307 0 0.026555023657753408 0.059799996638873337 0 0.02509463410470909 0.061737716940438926 0 0.027935973093052024 0.057791548961842611 0 0.018339183372070512 0.061875437483616326 0 0.026555023657753408 0.059799996638873337 0 0.026827619633273909 0.058712448176533955 0 0.025831766809778681 0.058403140072179546 0 0.026555023657753408 0.059799996638873337 0 0.026827619633273909 0.058712448176533955 0 0.028127192572258881 0.0589882413028213 0 0.027726527483691352 0.061144594966214307 0 0.026555023657753408 0.059799996638873337 0 0.028127192572258881 0.0589882413028213 0 0.035627523376619383 0.05596513628768008 0 0.035870179162431966 0.055022251509241872 0 0.036168224599145531 0.055470390301624907 0 0.027935973093052024 0.057791548961842611 0 0.032463088074045701 0.056917585560953277 0 0.028127192572258881 0.0589882413028213 0 0.027124739180780347 0.057640990107239685 0 0.02853226487334512 0.056902898872190306 0 0.032463088074045701 0.056917585560953277 0 0.030867907620670581 0.056273920468588139 0 0.035870179162431966 0.055022251509241872 0 0.036022467392468435 0.054228268295494035 0 0.036399703061799432 0.054586950459569891 0 0.026827619633273909 0.058712448176533955 0 0.028127192572258881 0.0589882413028213 0 0.027124739180780347 0.057640990107239685 0 0.026688229520459301 0.057989539107427872 0 0.030867907620670581 0.056273920468588139 0 0.026688229520459301 0.057989539107427872 0 0.026135869419149107 0.05825626800205333 0 0.026827619633273909 0.058712448176533955 0 0.027124739180780347 0.057640990107239685 0 0.025831766809778681 0.058403140072179546 0 0.027082180811871276 0.057906955582122187 0 0.02640756700184009 0.057687851274575146 0 0.02694226643377285 0.057297419982759244 0 0.027082180811871276 0.057906955582122187 0 0.02640756700184009 0.057687851274575146 0 0.025831766809778681 0.058403140072179546 0 0.028549922772064008 0.057753659196743565 0 0.027976892117991169 0.056389582166865078 0 0.026035177294955567 0.057372756253742281 0 0.02640756700184009 0.057687851274575146 0 0.02694226643377285 0.057297419982759244 0 0.026035177294955567 0.057372756253742281 0 0.027488823009328901 0.057490092033905295 0 0.026370379108445089 0.057434421653984075 0 0.028549922772064008 0.057753659196743565 0 0.029269266306983396 0.057025282589771541 0 0.027976892117991169 0.056389582166865078 0 0.028549922772064008 0.057753659196743565 0 0.030496603428049267 0.057681812610619158 0 0.029269266306983396 0.057025282589771541 0 0.02694226643377285 0.057297419982759244 0 0.028223972245241927 0.057332169973830414 0 0.028245058995269783 0.057222708775866014 0 0.027082180811871276 0.057906955582122187 0 0.02694226643377285 0.057297419982759244 0 0.028223972245241927 0.057332169973830414 0 0.030711534636353587 0.057711905750983061 0 0.030986993899193956 0.057702277484924951 0 0.031159008462056815 0.055000101241414044 0 0.027488823009328901 0.057490092033905295 0 0.030721577440619031 0.056720401185896538 0 0.030867907620670581 0.056273920468588139 0 0.030721577440619031 0.056720401185896538 0 0.030721577440619031 0.056720401185896538 0 0.032427219403644646 0.056167440901470599 0 0.030878758634402769 0.056665245598196572 0 0.030927330319692619 0.05640226504867827 0 0.031422467294411498 0.056384024910617496 0 0.030867907620670581 0.056273920468588139 0 0.032427219403644646 0.056167440901470599 0 0.030496603428049267 0.057681812610619158 0 0.029269266306983396 0.057025282589771541 0 0.029541585794684237 0.056066560705088649 0 0.030721577440619031 0.056720401185896538 0 0.031158747035138108 0.055001968611619351 0 0.030496603428049267 0.057681812610619158 0 0.029541585794684237 0.056066560705088649 0 0.031158972592168391 0.054999873716196489 0 0.029541585794684237 0.056066560705088649 0 0.028107720427286889 0.054999619771434617 0 0.031158972592168391 0.054999873716196489 0 0.028107720427286889 0.054999619771434617 0 0.027976892117991169 0.056389582166865078 0 0.026431201398167996 0.055956043697936844 0 0.029541585794684237 0.056066560705088649 0 0.028107720427286889 0.054999619771434617 0 0.027976892117991169 0.056389582166865078 0 0.029269266306983396 0.057025282589771541 0 0.029541585794684237 0.056066560705088649 0 0.027976892117991169 0.056389582166865078 0 0.033344097637754894 0.056395769774535143 0 0.034902815263783096 0.055711345286007685 0 0.033691813567681063 0.056339234920590398 0 0.035138394476074884 0.055527646933566419 0 0.034994035857836663 0.056079753823528186 0 0.033584252916204448 0.055682154465256699 0 0.032590265924128219 0.057057586939975355 0 0.035138394476074884 0.055527646933566419 0 0.033584252916204448 0.055682154465256699 0 0.032168113448583079 0.055309532483187977 0 0.03444644981535884 0.054999392937128154 0 0.033584252916204448 0.055682154465256699 0 0.032168113448583079 0.055309532483187977 0 0.032590265924128219 0.057057586939975355 0 0.033584252916204448 0.055682154465256699 0 0.035138394476074884 0.055527646933566419 0 0.03444644981535884 0.054999392937128154 0 0.032168113448583079 0.055309532483187977 0 0.031159008462056815 0.055000101241414044 0 0.03444644981535884 0.054999392937128154 0 0.030986993899193956 0.057702277484924951 0 0.032168113448583079 0.055309532483187977 0 0.031159008462056815 0.055000101241414044 0 0.030986993899193956 0.057702277484924951 0 0.032168113448583079 0.055309532483187977 0 0.032615872645480708 0.056853648105183785 0 0.0323190268515572 0.055620717088593771 0 0.033344097637754894 0.056395769774535143 0 0.032427219403644646 0.056167440901470599 0 0.035271961262406143 0.055162259311031081 0 0.036128803073841351 0.054172742679223243 0 0.036769825624156337 0.054145307249236073 0 0.036399703061799432 0.054586950459569891 0 0.032721796715697117 0.056027148575062254 0 0.034034291948069083 0.055345550922123794 0 0.034216591144593328 0.055970300204548712 0 0.032427219403644646 0.056167440901470599 0 0.033344097637754894 0.056395769774535143 0 0.036022467392468435 0.054228268295494035 0 0.036128803073841351 0.054172742679223243 0 0.036399703061799432 0.054586950459569891 0 0.033691813567681063 0.056339234920590398 0 0.034312126113243469 0.056492208715172097 0 0.034994035857836663 0.056079753823528186 0 0.033812714992667629 0.05691630380705353 0 0.034735022370493078 0.056646697103829198 0 0.03571492156402474 0.056929814357139216 0 0.0369374333433546 0.054099602201673057 0 0.037297820813106862 0.054337985477623772 0 0.037643149754684073 0.054070186560097398 0 0.035271961262406143 0.055162259311031081 0 0.038918330308512425 0.055169119901632591 0 0.033812714992667629 0.05691630380705353 0 0.034312126113243469 0.056492208715172097 0 0.034735022370493078 0.056646697103829198 0 0.033691813567681063 0.056339234920590398 0 0.033812714992667629 0.05691630380705353 0 0.034312126113243469 0.056492208715172097 0 0.033344097637754894 0.056395769774535143 0 0.035271961262406143 0.055162259311031081 0 0.034312126113243469 0.056492208715172097 0 0.034735022370493078 0.056646697103829198 0 0.034994035857836663 0.056079753823528186 0 0.0369374333433546 0.054099602201673057 0 0.037297820813106862 0.054337985477623772 0 0.037112252521028871 0.05468917448574212 0 0.035271961262406143 0.055162259311031081 0 0.037112533551295263 0.054636816651747792 0 0.037297820813106862 0.054337985477623772 0 0.037112252521028871 0.05468917448574212 0 0.037429177887906624 0.0545160585853545 0 0.036769825624156337 0.054145307249236073 0 0.036999848859312054 0.054845611707295468 0 0.036399703061799432 0.054586950459569891 0 0.036999848859312054 0.054845611707295468 0 0.036399703061799432 0.054586950459569891 0 0.036588019989554695 0.05514690362631755 0 0.035870179162431966 0.055022251509241872 0 0.036399703061799432 0.054586950459569891 0 0.036588019989554695 0.05514690362631755 0 0.035870179162431966 0.055022251509241872 0 0.036588019989554695 0.05514690362631755 0 0.036168224599145531 0.055470390301624907 0 0.036743493792823233 0.055635552131248725 0 0.036588019989554695 0.05514690362631755 0 0.036168224599145531 0.055470390301624907 0 0.03719784786528791 0.055506028292951225 0 0.036999848859312054 0.054845611707295468 0 0.036588019989554695 0.05514690362631755 0 0.03719784786528791 0.055506028292951225 0 0.036743493792823233 0.055635552131248725 0 0.036588019989554695 0.05514690362631755 0 0.037261497060787616 0.055303155306577173 0 0.037112252521028871 0.05468917448574212 0 0.037663858865517284 0.05496663618056577 0 0.037235873850887946 0.055434672561237346 0 0.037112533551295263 0.054636816651747792 0 0.044919424205877148 0.051429090499095616 0 0.044857524808231325 0.05114431932616198 0 0.045295927002381706 0.050747629756647067 0 0.044919424205877148 0.051429090499095616 0 0.045295927002381706 0.050747629756647067 0 0.045361831404826858 0.051017497451017475 0 0.045813286095915201 0.051340506337406458 0 0.044919424205877148 0.051429090499095616 0 0.045361831404826858 0.051017497451017475 0 0.045813286095915201 0.051340506337406458 0 0.044919424205877148 0.051429090499095616 0 0.044392520132695193 0.052878581909966596 0 0.044919424205877148 0.051429090499095616 0 0.043845049926784459 0.052384773954536952 0 0.044857524808231325 0.05114431932616198 0 0.044919424205877148 0.051429090499095616 0 0.044392520132695193 0.052878581909966596 0 0.043845049926784459 0.052384773954536952 0 0.044392520132695193 0.052878581909966596 0 0.041328298365541527 0.05547673538029315 0 0.043845049926784459 0.052384773954536952 0 0.037112252521028871 0.05468917448574212 0 0.037663858865517284 0.05496663618056577 0 0.037429177887906624 0.0545160585853545 0 0.042099690598113332 0.052813542197584246 0 0.038918330308512425 0.055169119901632591 0 0.045813286095915201 0.051340506337406458 0 0.044392520132695193 0.052878581909966596 0 0.045929331143246897 0.055314582093493748 0 0.037663858865517284 0.05496663618056577 0 0.037429177887906624 0.0545160585853545 0 0.037643149754684073 0.054070186560097398 0 0.037297820813106862 0.054337985477623772 0 0.037429177887906624 0.0545160585853545 0 0.037643149754684073 0.054070186560097398 0 0.034735022370493078 0.056646697103829198 0 0.035298916884404924 0.056517879570269131 0 0.03571492156402474 0.056929814357139216 0 0.035298916884404924 0.056517879570269131 0 0.035786423958498348 0.056363815419079498 0 0.03571492156402474 0.056929814357139216 0 0.035298916884404924 0.056517879570269131 0 0.035786423958498348 0.056363815419079498 0 0.034994035857836663 0.056079753823528186 0 0.034735022370493078 0.056646697103829198 0 0.035298916884404924 0.056517879570269131 0 0.034994035857836663 0.056079753823528186 0 0.035786423958498348 0.056363815419079498 0 0.037626680402316301 0.055873124840460885 0 0.03607060571339004 0.055752497572469514 0 0.035786423958498348 0.056363815419079498 0 0.03571047520247482 0.057830806536767233 0 0.037626680402316301 0.055873124840460885 0 0.037948193501178236 0.056316000239641562 0 0.038918330308512425 0.055169119901632591 0 0.038918330308512425 0.055169119901632591 0 0.041844022273899557 0.0559137697498064 0 0.03571047520247482 0.057830806536767233 0 0.041328298365541527 0.05547673538029315 0 0.037626680402316301 0.055873124840460885 0 0.044392520132695193 0.052878581909966596 0 0.045929331143246897 0.055314582093493748 0 0.041328298365541527 0.05547673538029315 0 0.041328298365541527 0.05547673538029315 0 0.037626680402316301 0.055873124840460885 0 0.037064340421033959 0.055220487491224518 0 0.041328298365541527 0.05547673538029315 0 0.037737308523226085 0.054998603011965817 0 0.037064340421033959 0.055220487491224518 0 0.037737308523226085 0.054998603011965817 0 0.037064340421033959 0.055220487491224518 0 0.03444644981535884 0.054999392937128154 0 0.037064340421033959 0.055220487491224518 0 0.035138394476074884 0.055527646933566419 0 0.03444644981535884 0.054999392937128154 0 0.035786423958498348 0.056363815419079498 0 0.034994035857836663 0.056079753823528186 0 0.03607060571339004 0.055752497572469514 0 0.035138394476074884 0.055527646933566419 0 0.034994035857836663 0.056079753823528186 0 0.03607060571339004 0.055752497572469514 0 0.037626680402316301 0.055873124840460885 0 0.037064340421033959 0.055220487491224518 0 0.03607060571339004 0.055752497572469514 0 0.037064340421033959 0.055220487491224518 0 0.035138394476074884 0.055527646933566419 0 0.03607060571339004 0.055752497572469514 0 0.041022433568771444 0.054997330298919796 0 0.04073090668501541 0.054999676235277989 0 0.042834668133775483 0.054153843567248484 0 0.041328298365541527 0.05547673538029315 0 0.037737308523226085 0.054998603011965817 0 0.04073090668501541 0.054999676235277989 0 0.037737308523226085 0.054998603011965817 0 0.041022433568771444 0.054997330298919796 0 0.04073090668501541 0.054999676235277989 0 0.041328298365541527 0.05547673538029315 0 0.042760294488568655 0.053870820988555182 0 0.043191783453339461 0.053249443595358645 0 0.041328298365541527 0.05547673538029315 0 0.04073090668501541 0.054999676235277989 0 0.042760294488568655 0.053870820988555182 0 0.04073090668501541 0.054999676235277989 0 0.042760294488568655 0.053870820988555182 0 0.042834668133775483 0.054153843567248484 0 0.042760294488568655 0.053870820988555182 0 0.044439494459571509 0.051938694187062484 0 0.043922660944209595 0.053110303789599356 0 0.042760294488568655 0.053870820988555182 0 0.043191783453339461 0.053249443595358645 0 0.044439494459571509 0.051938694187062484 0 0.041328298365541527 0.05547673538029315 0 0.043191783453339461 0.053249443595358645 0 0.043845049926784459 0.052384773954536952 0 0.043191783453339461 0.053249443595358645 0 0.043845049926784459 0.052384773954536952 0 0.044439494459571509 0.051938694187062484 0 0.044857524808231325 0.05114431932616198 0 0.044439494459571509 0.051938694187062484 0 0.045448852393477054 0.050617219968243643 0 0.043845049926784459 0.052384773954536952 0 0.044857524808231325 0.05114431932616198 0 0.044439494459571509 0.051938694187062484 0 0.044439494459571509 0.051938694187062484 0 0.045906630448084774 0.050509039907103023 0 0.045448852393477054 0.050617219968243643 0 0.045906630448084774 0.050509039907103023 0 0.046293752774532904 0.049897711535968864 0 0.047342801590567626 0.049587665567269297 0 0.045906630448084774 0.050509039907103023 0 0.046293752774532904 0.049897711535968864 0 0.045448852393477054 0.050617219968243643 0 0.046293752774532904 0.049897711535968864 0 0.047831408433756682 0.049364586386139817 0 0.047342801590567626 0.049587665567269297 0 0.046293752774532904 0.049897711535968864 0 0.045479470822487558 0.050411072570044957 0 0.045632950828374513 0.050389611073130253 0 0.046293752774532904 0.049897711535968864 0 0.045632950828374513 0.050389611073130253 0 0.046102952166172655 0.050419890399654631 0 0.046293752774532904 0.049897711535968864 0 0.045479470822487558 0.050411072570044957 0 0.045448852393477054 0.050617219968243643 0 0.044857524808231325 0.05114431932616198 0 0.045479470822487558 0.050411072570044957 0 0.045448852393477054 0.050617219968243643 0 0.044857524808231325 0.05114431932616198 0 0.045479470822487558 0.050411072570044957 0 0.045295927002381706 0.050747629756647067 0 0.045295927002381706 0.050747629756647067 0 0.045361831404826858 0.051017497451017475 0 0.045464782530508445 0.050689407920835969 0 0.045295927002381706 0.050747629756647067 0 0.045464782530508445 0.050689407920835969 0 0.045457040380388773 0.050464125168610846 0 0.045464782530508445 0.050689407920835969 0 0.045489050303780143 0.050459454437431758 0 0.045457040380388773 0.050464125168610846 0 0.045479470822487558 0.050411072570044957 0 0.045295927002381706 0.050747629756647067 0 0.045457040380388773 0.050464125168610846 0 0.042099690598113332 0.052813542197584246 0 0.04205292066442106 0.054487373282558038 0 0.037261497060787616 0.055303155306577173 0 0.037497911252186808 0.055603096818658396 0 0.037385585861581049 0.055918824908936841 0 0.037663858865517284 0.05496663618056577 0 0.037497911252186808 0.055603096818658396 0 0.037580032152801673 0.055896035271394952 0 0.045813286095915201 0.051340506337406458 0 0.045464782530508445 0.050689407920835969 0 0.04553228305095057 0.05039803589403051 0 0.045813286095915201 0.051340506337406458 0 0.045361831404826858 0.051017497451017475 0 0.045464782530508445 0.050689407920835969 0 0.037235873850887946 0.055434672561237346 0 0.037371140213079988 0.055875182583588021 0 0.037261497060787616 0.055303155306577173 0 0.037663858865517284 0.05496663618056577 0 0.037497911252186808 0.055603096818658396 0 0.044766250793980437 0.056022345919793229 0 0.04321870930317108 0.056813988140020859 0 0.043848867367521083 0.056140703753052884 0 0.036987732495553011 0.056120204182939552 0 0.037385585861581049 0.055918824908936841 0 0.037580032152801673 0.055896035271394952 0 0.037497911252186808 0.055603096818658396 0 0.037385585861581049 0.055918824908936841 0 0.037580032152801673 0.055896035271394952 0 0.04553228305095057 0.05039803589403051 0 0.045489050303780143 0.050459454437431758 0 0.045509294366942517 0.050447983212352575 0 0.045464782530508445 0.050689407920835969 0 0.04553228305095057 0.05039803589403051 0 0.045489050303780143 0.050459454437431758 0 0.045479470822487558 0.050411072570044957 0 0.045457040380388773 0.050464125168610846 0 0.045632950828374513 0.050389611073130253 0 0.045489050303780143 0.050459454437431758 0 0.045457040380388773 0.050464125168610846 0 0.045509294366942517 0.050447983212352575 0 0.04553228305095057 0.05039803589403051 0 0.045509294366942517 0.050447983212352575 0 0.045497714370904864 0.05055904485576327 0 0.045509294366942517 0.050447983212352575 0 0.045632950828374513 0.050389611073130253 0 0.045497714370904864 0.05055904485576327 0 0.045457040380388773 0.050464125168610846 0 0.045509294366942517 0.050447983212352575 0 0.045632950828374513 0.050389611073130253 0 0.045497714370904864 0.05055904485576327 0 0.045375622531733599 0.050769878469710428 0 0.045745635142171538 0.050804242384489155 0 0.045632950828374513 0.050389611073130253 0 0.045497714370904864 0.05055904485576327 0 0.045745635142171538 0.050804242384489155 0 0.04553228305095057 0.05039803589403051 0 0.045497714370904864 0.05055904485576327 0 0.045375622531733599 0.050769878469710428 0 0.04321870930317108 0.056813988140020859 0 0.043848867367521083 0.056140703753052884 0 0.043107172825535653 0.054424326166592887 0 0.044156982003266336 0.054992491608556932 0 0.043848867367521083 0.056140703753052884 0 0.043107172825535653 0.054424326166592887 0 0.04205292066442106 0.054487373282558038 0 0.045719877808305893 0.051382415533948213 0 0.045719877808305893 0.051382415533948213 0 0.048791375936148393 0.048780449991300635 0 0.050714282616395004 0.04737058207205036 0 0.050511403515087629 0.047276091044954928 0 0.050784133932419817 0.047220666276424406 0 0.050714282616395004 0.04737058207205036 0 0.050931113185289312 0.047296209339597925 0 0.050784133932419817 0.047220666276424406 0 0.050931113185289312 0.047296209339597925 0 0.051138691084654977 0.047362484211806222 0 0.050784133932419817 0.047220666276424406 0 0.050937982310773074 0.047354155442196053 0 0.050931113185289312 0.047296209339597925 0 0.050901549047881273 0.047064825176090321 0 0.050931113185289312 0.047296209339597925 0 0.051138691084654977 0.047362484211806222 0 0.050901549047881273 0.047064825176090321 0 0.046293752774532904 0.049897711535968864 0 0.046824907302081657 0.050617576444584048 0 0.047831408433756682 0.049364586386139817 0 0.046293752774532904 0.049897711535968864 0 0.046824907302081657 0.050617576444584048 0 0.046102952166172655 0.050419890399654631 0 0.046824907302081657 0.050617576444584048 0 0.046102952166172655 0.050419890399654631 0 0.045745635142171538 0.050804242384489155 0 0.045632950828374513 0.050389611073130253 0 0.046102952166172655 0.050419890399654631 0 0.045745635142171538 0.050804242384489155 0 0.048809299094677946 0.048957161846528055 0 0.048791375936148393 0.048780449991300635 0 0.049849410325504516 0.048359997084697716 0 0.051066723451185653 0.046502476457417508 0 0.050409040987850103 0.047376539618189724 0 0.049849410325504516 0.048359997084697716 0 0.050409040987850103 0.047376539618189724 0 0.049140500784618277 0.048585341404955691 0 0.049849410325504516 0.048359997084697716 0 0.051225085142562202 0.046541506005825427 0 0.051066723451185653 0.046502476457417508 0 0.046824907302081657 0.050617576444584048 0 0.049849410325504516 0.048359997084697716 0 0.047831408433756682 0.049364586386139817 0 0.048809299094677946 0.048957161846528055 0 0.049684714643819586 0.048510662374187385 0 0.051138691084654977 0.047362484211806222 0 0.049849410325504516 0.048359997084697716 0 0.050901549047881273 0.047064825176090321 0 0.049849410325504516 0.048359997084697716 0 0.049140500784618277 0.048585341404955691 0 0.047831408433756682 0.049364586386139817 0 0.051917051281415091 0.045589180339254395 0 0.051246981329896385 0.046470450274938478 0 0.049849410325504516 0.048359997084697716 0 0.050901549047881273 0.047064825176090321 0 0.051225085142562202 0.046541506005825427 0 0.050937982310773074 0.047354155442196053 0 0.050901549047881273 0.047064825176090321 0 0.051225085142562202 0.046541506005825427 0 0.052206807333483304 0.044040498667740395 0 0.051225085142562202 0.046541506005825427 0 0.051709923226698776 0.045184564083887407 0 0.051225085142562202 0.046541506005825427 0 0.051709923226698776 0.045184564083887407 0 0.051066723451185653 0.046502476457417508 0 0.051709923226698776 0.045184564083887407 0 0.051066723451185653 0.046502476457417508 0 0.052256295312600502 0.044824004277965977 0 0.051066723451185653 0.046502476457417508 0 0.052256295312600502 0.044824004277965977 0 0.051813225335161098 0.046244362837742997 0 0.053574166169389516 0.043245545337599688 0 0.052256295312600502 0.044824004277965977 0 0.053157584705724077 0.045020731332942633 0 0.052256295312600502 0.044824004277965977 0 0.051813225335161098 0.046244362837742997 0 0.053157584705724077 0.045020731332942633 0 0.051813225335161098 0.046244362837742997 0 0.050409040987850103 0.047376539618189724 0 0.051432049428682514 0.047072189424048942 0 0.051066723451185653 0.046502476457417508 0 0.051813225335161098 0.046244362837742997 0 0.050409040987850103 0.047376539618189724 0 0.050409040987850103 0.047376539618189724 0 0.049219758389656559 0.048313944364725109 0 0.051432049428682514 0.047072189424048942 0 0.050409040987850103 0.047376539618189724 0 0.049219758389656559 0.048313944364725109 0 0.049140500784618277 0.048585341404955691 0 0.051813225335161098 0.046244362837742997 0 0.051432049428682514 0.047072189424048942 0 0.053187567003593374 0.046160655437879936 0 0.051245333796154029 0.047567798482615033 0 0.050660846811770958 0.048924658872724243 0 0.051432049428682514 0.047072189424048942 0 0.047913500335060748 0.049380213043101272 0 0.046754537615126116 0.049903519144606286 0 0.049219758389656559 0.048313944364725109 0 0.051432049428682514 0.047072189424048942 0 0.047913500335060748 0.049380213043101272 0 0.049219758389656559 0.048313944364725109 0 0.047913500335060748 0.049380213043101272 0 0.047911046099588891 0.049399802622404204 0 0.047913500335060748 0.049380213043101272 0 0.047911046099588891 0.049399802622404204 0 0.046760527627250817 0.050536662616313857 0 0.047911046099588891 0.049399802622404204 0 0.046286996490587672 0.050605744683184566 0 0.046760527627250817 0.050536662616313857 0 0.049219758389656559 0.048313944364725109 0 0.047911046099588891 0.049399802622404204 0 0.049140500784618277 0.048585341404955691 0 0.047911046099588891 0.049399802622404204 0 0.049140500784618277 0.048585341404955691 0 0.047342801590567626 0.049587665567269297 0 0.049140500784618277 0.048585341404955691 0 0.047831408433756682 0.049364586386139817 0 0.047342801590567626 0.049587665567269297 0 0.045906630448084774 0.050509039907103023 0 0.047342801590567626 0.049587665567269297 0 0.046286996490587672 0.050605744683184566 0 0.047911046099588891 0.049399802622404204 0 0.047342801590567626 0.049587665567269297 0 0.046286996490587672 0.050605744683184566 0 0.044439494459571509 0.051938694187062484 0 0.045906630448084774 0.050509039907103023 0 0.046286996490587672 0.050605744683184566 0 0.044439494459571509 0.051938694187062484 0 0.046286996490587672 0.050605744683184566 0 0.045300954194921389 0.051915667095269034 0 0.046286996490587672 0.050605744683184566 0 0.046760527627250817 0.050536662616313857 0 0.045300954194921389 0.051915667095269034 0 0.046760527627250817 0.050536662616313857 0 0.045300954194921389 0.051915667095269034 0 0.046172836551839638 0.051443266129038212 0 0.045300954194921389 0.051915667095269034 0 0.044225964971760283 0.053178307607919188 0 0.045122553798795192 0.05246509967531765 0 0.045300954194921389 0.051915667095269034 0 0.045122553798795192 0.05246509967531765 0 0.046172836551839638 0.051443266129038212 0 0.044439494459571509 0.051938694187062484 0 0.045300954194921389 0.051915667095269034 0 0.043922660944209595 0.053110303789599356 0 0.045300954194921389 0.051915667095269034 0 0.043922660944209595 0.053110303789599356 0 0.044225964971760283 0.053178307607919188 0 0.042760294488568655 0.053870820988555182 0 0.043922660944209595 0.053110303789599356 0 0.042834668133775483 0.054153843567248484 0 0.044225964971760283 0.053178307607919188 0 0.04367540048778517 0.053723689813911422 0 0.042834668133775483 0.054153843567248484 0 0.043922660944209595 0.053110303789599356 0 0.044225964971760283 0.053178307607919188 0 0.042834668133775483 0.054153843567248484 0 0.044225964971760283 0.053178307607919188 0 0.045122553798795192 0.05246509967531765 0 0.044538295929857502 0.053158811906378632 0 0.044225964971760283 0.053178307607919188 0 0.044538295929857502 0.053158811906378632 0 0.04367540048778517 0.053723689813911422 0 0.04367540048778517 0.053723689813911422 0 0.042575676046360714 0.054883908057493748 0 0.044630298232499491 0.052959425481307248 0 0.04430598960165924 0.054999450702662607 0 0.042575676046360714 0.054883908057493748 0 0.045041773608768119 0.055630496576819059 0 0.043184838690021335 0.054725469704298188 0 0.044191389630156598 0.054480615550112979 0 0.044538295929857502 0.053158811906378632 0 0.04367540048778517 0.053723689813911422 0 0.044630298232499491 0.052959425481307248 0 0.041022433568771444 0.054997330298919796 0 0.04430598960165924 0.054999450702662607 0 0.042575676046360714 0.054883908057493748 0 0.041022433568771444 0.054997330298919796 0 0.042575676046360714 0.054883908057493748 0 0.042834668133775483 0.054153843567248484 0 0.04367540048778517 0.053723689813911422 0 0.042575676046360714 0.054883908057493748 0 0.042834668133775483 0.054153843567248484 0 0.047575690746199488 0.056077068561629168 0 0.047593559305056918 0.055000263401968459 0 0.045041773608768119 0.055630496576819059 0 0.049361407508090108 0.052975191159600886 0 0.047594484372772437 0.055000972618562766 0 0.04430598960165924 0.054999450702662607 0 0.047593559305056918 0.055000263401968459 0 0.045041773608768119 0.055630496576819059 0 0.04491229096157974 0.052861226298603098 0 0.044630298232499491 0.052959425481307248 0 0.045053035566112384 0.052758794150312066 0 0.044538295929857502 0.053158811906378632 0 0.044630298232499491 0.052959425481307248 0 0.045053035566112384 0.052758794150312066 0 0.049361407508090108 0.052975191159600886 0 0.044191389630156598 0.054480615550112979 0 0.045122553798795192 0.05246509967531765 0 0.044538295929857502 0.053158811906378632 0 0.045053035566112384 0.052758794150312066 0 0.04491229096157974 0.052861226298603098 0 0.045053035566112384 0.052758794150312066 0 0.045106334861929206 0.052081616966630113 0 0.05579708662125276 0.050919870648256066 0 0.055734156516999728 0.049323980034889657 0 0.05515730967371426 0.050137143529836184 0 0.049361407508090108 0.052975191159600886 0 0.050522888197754696 0.050496492279318489 0 0.050522888197754696 0.050496492279318489 0 0.050660846811770958 0.048924658872724243 0 0.045106334861929206 0.052081616966630113 0 0.046172836551839638 0.051443266129038212 0 0.046754537615126116 0.049903519144606286 0 0.055734156516999728 0.049323980034889657 0 0.054428507605347523 0.047267186414690035 0 0.054910575711714156 0.048918490573017684 0 0.045053035566112384 0.052758794150312066 0 0.045106334861929206 0.052081616966630113 0 0.046172836551839638 0.051443266129038212 0 0.045122553798795192 0.05246509967531765 0 0.045053035566112384 0.052758794150312066 0 0.046172836551839638 0.051443266129038212 0 0.047913500335060748 0.049380213043101272 0 0.046172836551839638 0.051443266129038212 0 0.046754537615126116 0.049903519144606286 0 0.047913500335060748 0.049380213043101272 0 0.046760527627250817 0.050536662616313857 0 0.046172836551839638 0.051443266129038212 0 0.047596568571687793 0.054999744593892161 0 0.051106430928499133 0.055631515727539285 0 0.055000281065583807 0.054995451767867388 0 0.054428507605347523 0.047267186414690035 0 0.054663914708474474 0.047879684162666872 0 0.054910575711714156 0.048918490573017684 0 0.054663914708474474 0.047879684162666872 0 0.0546757693172664 0.049170727901203901 0 0.054962873064841787 0.048951364685011954 0 0.054663914708474474 0.047879684162666872 0 0.0546757693172664 0.049170727901203901 0 0.054910575711714156 0.048918490573017684 0 0.0546757693172664 0.049170727901203901 0 0.054910575711714156 0.048918490573017684 0 0.054716855446174294 0.050337886781147291 0 0.055734156516999728 0.049323980034889657 0 0.054910575711714156 0.048918490573017684 0 0.05515730967371426 0.050137143529836184 0 0.05579708662125276 0.050919870648256066 0 0.05515730967371426 0.050137143529836184 0 0.054603970795259096 0.05091018074683587 0 0.054910575711714156 0.048918490573017684 0 0.05515730967371426 0.050137143529836184 0 0.054716855446174294 0.050337886781147291 0 0.054924205939177267 0.050608942687744685 0 0.054632396461313862 0.051123703218977683 0 0.054716855446174294 0.050337886781147291 0 0.054603970795259096 0.05091018074683587 0 0.054569621953344583 0.052744208496365214 0 0.0546757693172664 0.049170727901203901 0 0.054716855446174294 0.050337886781147291 0 0.054731946935796624 0.049749459744826349 0 0.05515730967371426 0.050137143529836184 0 0.054716855446174294 0.050337886781147291 0 0.054603970795259096 0.05091018074683587 0 0.049361407508090108 0.052975191159600886 0 0.05328807416626332 0.053399479443190352 0 0.04767228609061179 0.055920551147635889 0 0.047596568571687793 0.054999744593892161 0 0.051106430928499133 0.055631515727539285 0 0.051106430928499133 0.055631515727539285 0 0.055000281065583807 0.054995451767867388 0 0.054335509047395494 0.053700174837885813 0 0.055000281065583807 0.054995451767867388 0 0.054335509047395494 0.053700174837885813 0 0.054996026110427212 0.051357423952969057 0 0.054603970795259096 0.05091018074683587 0 0.054569621953344583 0.052744208496365214 0 0.054335509047395494 0.053700174837885813 0 0.05328807416626332 0.053399479443190352 0 0.053741468439439444 0.053551405607320211 0 0.054632396461313862 0.051123703218977683 0 0.054999231969808902 0.051350039478831426 0 0.054569621953344583 0.052744208496365214 0 0.054335509047395494 0.053700174837885813 0 0.054996026110427212 0.051357423952969057 0 0.054731946935796624 0.049749459744826349 0 0.054998855187426997 0.051345196035555991 0 0.054962873064841787 0.048951364685011954 0 0.0546757693172664 0.049170727901203901 0 0.054731946935796624 0.049749459744826349 0 0.054962873064841787 0.048951364685011954 0 0.054663914708474474 0.047879684162666872 0 0.054962873064841787 0.048951364685011954 0 0.054941565244421016 0.046583703801511438 0 0.054998855187426997 0.051345196035555991 0 0.054962873064841787 0.048951364685011954 0 0.054998605745654301 0.048368674109620535 0 0.054962873064841787 0.048951364685011954 0 0.054998605745654301 0.048368674109620535 0 0.054941565244421016 0.046583703801511438 0 0.054998605745654301 0.048368674109620535 0 0.054998641049804724 0.045386656829033284 0 0.054941565244421016 0.046583703801511438 0 0.054998641049804724 0.045386656829033284 0 0.054941565244421016 0.046583703801511438 0 0.054940375018737171 0.044490328350380678 0 0.054941565244421016 0.046583703801511438 0 0.05436422863331071 0.045114657037769408 0 0.054940375018737171 0.044490328350380678 0 0.054663914708474474 0.047879684162666872 0 0.054941565244421016 0.046583703801511438 0 0.054183080249983112 0.046534563659548889 0 0.054428507605347523 0.047267186414690035 0 0.054663914708474474 0.047879684162666872 0 0.054183080249983112 0.046534563659548889 0 0.051432049428682514 0.047072189424048942 0 0.054428507605347523 0.047267186414690035 0 0.054183080249983112 0.046534563659548889 0 0.051432049428682514 0.047072189424048942 0 0.054183080249983112 0.046534563659548889 0 0.053187567003593374 0.046160655437879936 0 0.054941565244421016 0.046583703801511438 0 0.054183080249983112 0.046534563659548889 0 0.05436422863331071 0.045114657037769408 0 0.054183080249983112 0.046534563659548889 0 0.053187567003593374 0.046160655437879936 0 0.05436422863331071 0.045114657037769408 0 0.053187567003593374 0.046160655437879936 0 0.05436422863331071 0.045114657037769408 0 0.053157584705724077 0.045020731332942633 0 0.051813225335161098 0.046244362837742997 0 0.053187567003593374 0.046160655437879936 0 0.053157584705724077 0.045020731332942633 0 0.053574166169389516 0.043245545337599688 0 0.053157584705724077 0.045020731332942633 0 0.0542647565296316 0.043249512441360105 0 0.05436422863331071 0.045114657037769408 0 0.0542647565296316 0.043249512441360105 0 0.054893056832363028 0.042714461366441039 0 0.05436422863331071 0.045114657037769408 0 0.053157584705724077 0.045020731332942633 0 0.0542647565296316 0.043249512441360105 0 0.054893056832363028 0.042714461366441039 0 0.054998474751291881 0.042405865180782536 0 0.054940375018737171 0.044490328350380678 0 0.054998641049804724 0.045386656829033284 0 0.054998474751291881 0.042405865180782536 0 0.054940375018737171 0.044490328350380678 0 0.05436422863331071 0.045114657037769408 0 0.054893056832363028 0.042714461366441039 0 0.054940375018737171 0.044490328350380678 0 0.014826911818114928 0.057778658373344546 0 0.01297003416345213 0.059475225341414389 0 0.012651432038442302 0.059488202698692559 0 0.01191907072603123 0.060353742094457735 0 0.012287101719592224 0.06078878986985789 0 0.016845780006115987 0.05626264244214528 0 0.01415569382215529 0.05492035797288268 0 0.014075254542133184 0.058553129421931936 0 0.016845780006115987 0.05626264244214528 0 0.01415569382215529 0.05492035797288268 0 0.017572026224553967 0.052515168539840125 0 0.01415569382215529 0.05492035797288268 0 0.011251157939932652 0.055578121210568127 0 0.012344372200844729 0.057778566719352421 0 0.01415569382215529 0.05492035797288268 0 0.011251157939932652 0.055578121210568127 0 0.011859648575918284 0.052020347986116988 0 0.021645221121312598 0.055998974619753117 0 0.020091586230124265 0.056788144974431271 0 0.019926574144634439 0.055837806925171977 0 0.021645221121312598 0.055998974619753117 0 0.020162456490017199 0.054794055888887527 0 0.019926574144634439 0.055837806925171977 0 0.020091586230124265 0.056788144974431271 0 0.020937530770892089 0.058646519794403239 0 0.019608168915500466 0.058430139845264149 0 0.011251157939932652 0.055578121210568127 0 0.012344372200844729 0.057778566719352421 0 0.010917175055181238 0.059192188100076017 0 0.016469434730470238 0.05573457535444918 0 0.015861728695399726 0.059097735100546417 0 0.021645221121312598 0.055998974619753117 0 0.020091586230124265 0.056788144974431271 0 0.020937530770892089 0.058646519794403239 0 0.01415569382215529 0.05492035797288268 0 0.012344372200844729 0.057778566719352421 0 0.014075254542133184 0.058553129421931936 0 0.011681400033313801 0.060636983607247993 0 0.011897685120030754 0.061031899473300899 0 0.01191907072603123 0.060353742094457735 0 0.012344372200844729 0.057778566719352421 0 0.011681400033313801 0.060636983607247993 0 0.014075254542133184 0.058553129421931936 0 0.01173810541309429 0.060553486800155994 0 0.01297003416345213 0.059475225341414389 0 0.010917175055181238 0.059192188100076017 0 0.011681400033313801 0.060636983607247993 0 0.011481841956149916 0.061402097885308392 0 0.015861728695399726 0.059097735100546417 0 0.016635218824819286 0.060113682965386231 0 0.012344372200844729 0.057778566719352421 0 0.010917175055181238 0.059192188100076017 0 0.011681400033313801 0.060636983607247993 0 0.020937530770892089 0.058646519794403239 0 0.020267258891553907 0.061102358579906056 0 0.019608168915500466 0.058430139845264149 0 0.011681400033313801 0.060636983607247993 0 0.011862576334423001 0.061184127753253735 0 0.011481841956149916 0.061402097885308392 0 0.011862576334423001 0.061184127753253735 0 0.011481841956149916 0.061402097885308392 0 0.012072577644763488 0.061379245067358763 0 0.016635218824819286 0.060113682965386231 0 0.016754939274145668 0.059386496307843602 0 0.016894490107296826 0.058729312690212775 0 0.016839558500354634 0.05873490917298451 0 0.016568129353121092 0.058908049683439621 0 0.011897685120030754 0.061031899473300899 0 0.012017953033254347 0.061376491304481126 0 0.011875529840231694 0.061725873467801888 0 0.011681400033313801 0.060636983607247993 0 0.011862576334423001 0.061184127753253735 0 0.011897685120030754 0.061031899473300899 0 0.011862576334423001 0.061184127753253735 0 0.011897685120030754 0.061031899473300899 0 0.012017953033254347 0.061376491304481126 0 0.011862576334423001 0.061184127753253735 0 0.012017953033254347 0.061376491304481126 0 0.012072577644763488 0.061379245067358763 0 0.011897685120030754 0.061031899473300899 0 0.011875529840231694 0.061725873467801888 0 0.012287101719592224 0.06078878986985789 0 0.011897685120030754 0.061031899473300899 0 0.01191907072603123 0.060353742094457735 0 0.012287101719592224 0.06078878986985789 0 0.012651432038442302 0.059488202698692559 0 0.012287101719592224 0.06078878986985789 0 0.012969059416580175 0.060530214480483888 0 0.011875529840231694 0.061725873467801888 0 0.012287101719592224 0.06078878986985789 0 0.012794250399122244 0.061682713852255489 0 0.012287101719592224 0.06078878986985789 0 0.012969059416580175 0.060530214480483888 0 0.012794250399122244 0.061682713852255489 0 0.013346157590198764 0.061195716845035206 0 0.012969059416580175 0.060530214480483888 0 0.012794250399122244 0.061682713852255489 0 0.013346157590198764 0.061195716845035206 0 0.014010007742837758 0.060854099404099589 0 0.012969059416580175 0.060530214480483888 0 0.013346157590198764 0.061195716845035206 0 0.014010007742837758 0.060854099404099589 0 0.01359837672535877 0.061760614874419952 0 0.014010007742837758 0.060854099404099589 0 0.012969059416580175 0.060530214480483888 0 0.01339839348839799 0.059385238394566699 0 0.013083652719255684 0.058079849011615253 0 0.012794991434293289 0.058851256352806712 0 0.01339839348839799 0.059385238394566699 0 0.014366882083461551 0.059178038949705962 0 0.013170025474725452 0.059444251314504051 0 0.012297756087803343 0.057700547309627807 0 0.012105053194043435 0.057174860178239521 0 0.011401528567756825 0.057739250463179376 0 0.012297756087803343 0.057700547309627807 0 0.012311341089139888 0.058421977647100422 0 0.011401528567756825 0.057739250463179376 0 0.014366882083461551 0.059178038949705962 0 0.0078764116230668271 0.061460879625784538 0 0.013083652719255684 0.058079849011615253 0 0.012297756087803343 0.057700547309627807 0 0.012311341089139888 0.058421977647100422 0 0.013083652719255684 0.058079849011615253 0 0.012297756087803343 0.057700547309627807 0 0.012546003241905279 0.05686925666341789 0 0.013083652719255684 0.058079849011615253 0 0.012311341089139888 0.058421977647100422 0 0.012794991434293289 0.058851256352806712 0 0.012311341089139888 0.058421977647100422 0 0.011401528567756825 0.057739250463179376 0 0.011877955552575682 0.058751214976414626 0 0.012426811161846718 0.059053816106763357 0 0.012262153905014273 0.05935644129880889 0 0.011877955552575682 0.058751214976414626 0 0.012311341089139888 0.058421977647100422 0 0.012426811161846718 0.059053816106763357 0 0.011877955552575682 0.058751214976414626 0 0.012426811161846718 0.059053816106763357 0 0.012794991434293289 0.058851256352806712 0 0.013007569779515603 0.059288423045143104 0 0.012311341089139888 0.058421977647100422 0 0.012426811161846718 0.059053816106763357 0 0.012794991434293289 0.058851256352806712 0 0.012426811161846718 0.059053816106763357 0 0.013007569779515603 0.059288423045143104 0 0.012601796093656092 0.059361792035867479 0 0.012426811161846718 0.059053816106763357 0 0.012601796093656092 0.059361792035867479 0 0.012262153905014273 0.05935644129880889 0 0.0017812359719331565 0.051936015434590373 0 -0.0035333162221529921 0.047478677578151759 0 0.0017812359719331565 0.051936015434590373 0 0.0073539325060812573 0.056287628457563119 0 -0.0065348283862546501 0.045680744857155758 0 -0.0064280697454186693 0.046006402955849589 0 -0.0071779521729782485 0.045270543984979768 0 0.012651432038442302 0.059488202698692559 0 0.012969059416580175 0.060530214480483888 0 0.01339839348839799 0.059385238394566699 0 0.012794991434293289 0.058851256352806712 0 0.013007569779515603 0.059288423045143104 0 0.01339839348839799 0.059385238394566699 0 0.013007569779515603 0.059288423045143104 0 0.01339839348839799 0.059385238394566699 0 0.013316448647764699 0.059219130580845949 0 0.014826911818114928 0.057778658373344546 0 0.016215550423668193 0.057366198504164613 0 0.012651432038442302 0.059488202698692559 0 0.01339839348839799 0.059385238394566699 0 0.013316448647764699 0.059219130580845949 0 0.016845780006115987 0.05626264244214528 0 0.01957043707585452 0.05402033415726288 0 0.017572026224553967 0.052515168539840125 0 0.01957043707585452 0.05402033415726288 0 0.020450276237173531 0.05104259247583838 0 0.017572026224553967 0.052515168539840125 0 0.016215550423668193 0.057366198504164613 0 0.017321512264400277 0.050818525915644674 0 0.01957043707585452 0.05402033415726288 0 0.020450276237173531 0.05104259247583838 0 0.022195850333760987 0.051953514981996123 0 0.013007569779515603 0.059288423045143104 0 0.013316448647764699 0.059219130580845949 0 0.013009750503296729 0.059530352658466838 0 0.020332397612940707 0.050489692386048557 0 0.022129688509900883 0.051168690989687335 0 0.022029075139090595 0.04904529828877098 0 0.020332397612940707 0.050489692386048557 0 0.018517494186450847 0.049914389715142872 0 0.020503727620087422 0.047501722724602111 0 0.020990887909156236 0.051069701953435437 0 0.017321512264400277 0.050818525915644674 0 0.020990887909156236 0.051069701953435437 0 0.018529322334690793 0.049936184989539077 0 0.020450276237173531 0.05104259247583838 0 0.018517494186450847 0.049914389715142872 0 0.017572026224553967 0.052515168539840125 0 0.0012854000724001051 0.036051061394637672 0 -0.00086671567141796268 0.044662345730624685 0 -0.0084064164542962116 0.033688136467873699 0 -0.0080365794361448566 0.036048596188642527 0 -0.0063869395175468885 0.032649990515370694 0 0.0017812359719331565 0.051936015434590373 0 -0.00086671567141796268 0.044662345730624685 0 0.012601796093656092 0.059361792035867479 0 0.012321154239397473 0.059453605978438913 0 0.012575504339434645 0.059513415904002644 0 -0.00086671567141796268 0.044662345730624685 0 0.0087004022993843796 0.046578427582521328 0 0.012601796093656092 0.059361792035867479 0 0.012262153905014273 0.05935644129880889 0 0.012321154239397473 0.059453605978438913 0 0.0025242583435409003 0.04245830688424234 0 0.0026216481615766001 0.043353465654692357 0 0.001907863135128095 0.043036293742467598 0 0.0012854000724001051 0.036051061394637672 0 0.0087004022993843796 0.046578427582521328 0 0.012601796093656092 0.059361792035867479 0 0.012575504339434645 0.059513415904002644 0 0.013009750503296729 0.059530352658466838 0 0.013007569779515603 0.059288423045143104 0 0.012601796093656092 0.059361792035867479 0 0.013009750503296729 0.059530352658466838 0 0.0087004022993843796 0.046578427582521328 0 0.017321512264400277 0.050818525915644674 0 0.01072435751473765 0.041701179309102734 0 0.01196217580781146 0.042254937599063243 0 0.010527001389176893 0.043199975799910417 0 0.022129688509900883 0.051168690989687335 0 0.022029075139090595 0.04904529828877098 0 0.024078745671841834 0.049648065846104469 0 0.017321512264400277 0.050818525915644674 0 0.010683904653881197 0.035487662395298783 0 -0.00013954873700893646 0.027567455625721288 0 0.00080683251484155963 0.027521225966949607 0 0.0016868731308320927 0.026073281752582576 0 0.010081697887906398 0.042226253490962214 0 0.01072435751473765 0.041701179309102734 0 0.010527001389176893 0.043199975799910417 0 0.00030451770987145342 0.028705474714105953 0 -0.00013954873700893646 0.027567455625721288 0 0.00024133599787138548 0.02827709410823203 0 0.0012854000724001051 0.036051061394637672 0 0.010683904653881197 0.035487662395298783 0 0.00032939935855271879 0.028703201137609231 0 0.00080683251484155963 0.027521225966949607 0 0.00024133599787138548 0.02827709410823203 0 -0.00013954873700893646 0.027567455625721288 0 0.00080683251484155963 0.027521225966949607 0 0.00024133599787138548 0.02827709410823203 0 0.0012854000724001051 0.036051061394637672 0 0.00068599620147255643 0.03248748216757491 0 0.0099985194734937676 0.021419344029048153 0 0.009330001389107433 0.022768403342766492 0 0.00826319076820063 0.022435691940216287 0 0.010683904653881197 0.035487662395298783 0 0.017653520606783091 0.03523349147259932 0 0.0099985194734937676 0.021419344029048153 0 0.009330001389107433 0.022768403342766492 0 0.010635165956796172 0.023232189656776665 0 0.010683904653881197 0.035487662395298783 0 0.0045680094828949675 0.023051508312464771 0 0.022029075139090595 0.04904529828877098 0 0.023365566440286149 0.046747941080638927 0 0.020503727620087422 0.047501722724602111 0 0.022029075139090595 0.04904529828877098 0 0.024078745671841834 0.049648065846104469 0 0.023365566440286149 0.046747941080638927 0 0.016773265774136476 0.034282318289713815 0 0.017653520606783091 0.03523349147259932 0 0.0099543829163022332 0.024606398696789419 0 0.011407772804871914 0.025280836857397491 0 0.010635165956796172 0.023232189656776665 0 0.022599329926257537 0.043645549254312674 0 0.023365566440286149 0.046747941080638927 0 0.020867645852622872 0.045237569888977668 0 0.0099543829163022332 0.024606398696789419 0 0.010635165956796172 0.023232189656776665 0 0.0092827750249598485 0.023644770180090303 0 0.009330001389107433 0.022768403342766492 0 0.010635165956796172 0.023232189656776665 0 0.0092827750249598485 0.023644770180090303 0 0.0099543829163022332 0.024606398696789419 0 0.0092827750249598485 0.023644770180090303 0 0.0087435984289138766 0.024590868587067535 0 0.009330001389107433 0.022768403342766492 0 0.0092827750249598485 0.023644770180090303 0 0.0085985587806672141 0.023243971650050751 0 0.018517494186450847 0.049914389715142872 0 0.018480116931436693 0.047720262043964054 0 0.020503727620087422 0.047501722724602111 0 0.018517494186450847 0.049914389715142872 0 0.018480116931436693 0.047720262043964054 0 0.016624879962015171 0.047956066289195728 0 0.020332397612940707 0.050489692386048557 0 0.022029075139090595 0.04904529828877098 0 0.020503727620087422 0.047501722724602111 0 0.020503727620087422 0.047501722724602111 0 0.020867645852622872 0.045237569888977668 0 0.018206966325151518 0.045502731989169203 0 0.023365566440286149 0.046747941080638927 0 0.020503727620087422 0.047501722724602111 0 0.020867645852622872 0.045237569888977668 0 0.018480116931436693 0.047720262043964054 0 0.020503727620087422 0.047501722724602111 0 0.018206966325151518 0.045502731989169203 0 0.018480116931436693 0.047720262043964054 0 0.018206966325151518 0.045502731989169203 0 0.016624879962015171 0.047956066289195728 0 0.018546811748930674 0.045275711739941729 0 0.016768424656514045 0.047756794196247621 0 0.016386439280338009 0.044958247614467789 0 0.014692035229124075 0.047104966731785353 0 0.016624879962015171 0.047956066289195728 0 0.018890692825058068 0.04517082317406941 0 0.016386439280338009 0.044958247614467789 0 0.016624879962015171 0.047956066289195728 0 0.01329678392917821 0.044705707205747604 0 0.014692035229124075 0.047104966731785353 0 0.012542387623314815 0.048442441403858741 0 0.016386439280338009 0.044958247614467789 0 0.01329678392917821 0.044705707205747604 0 0.014692035229124075 0.047104966731785353 0 0.014692035229124075 0.047104966731785353 0 0.014589564013482385 0.049479768243813581 0 0.012542387623314815 0.048442441403858741 0 0.014692035229124075 0.047104966731785353 0 0.016624879962015171 0.047956066289195728 0 0.014589564013482385 0.049479768243813581 0 0.016624879962015171 0.047956066289195728 0 0.016535360136464422 0.050205918486464461 0 0.014589564013482385 0.049479768243813581 0 0.016535360136464422 0.050205918486464461 0 0.015024408341139741 0.051687051043076047 0 0.017572026224553967 0.052515168539840125 0 0.018517494186450847 0.049914389715142872 0 0.016535360136464422 0.050205918486464461 0 0.017572026224553967 0.052515168539840125 0 0.018517494186450847 0.049914389715142872 0 0.016624879962015171 0.047956066289195728 0 0.016535360136464422 0.050205918486464461 0 0.016535360136464422 0.050205918486464461 0 0.014589564013482385 0.049479768243813581 0 0.015024408341139741 0.051687051043076047 0 0.014589564013482385 0.049479768243813581 0 0.015024408341139741 0.051687051043076047 0 0.011859648575918284 0.052020347986116988 0 0.01415569382215529 0.05492035797288268 0 0.015024408341139741 0.051687051043076047 0 0.017572026224553967 0.052515168539840125 0 0.01415569382215529 0.05492035797288268 0 0.015024408341139741 0.051687051043076047 0 0.011859648575918284 0.052020347986116988 0 0.020563046053726098 0.05352184778521208 0 0.022171647409779397 0.053458368764554613 0 0.020162456490017199 0.054794055888887527 0 0.021645221121312598 0.055998974619753117 0 0.022171647409779397 0.053458368764554613 0 0.020162456490017199 0.054794055888887527 0 0.016469434730470238 0.05573457535444918 0 0.017029439254441132 0.052710648852259179 0 0.017029439254441132 0.052710648852259179 0 0.017381365848771306 0.050214726047751949 0 0.022171647409779397 0.053458368764554613 0 0.021457846193998185 0.051825318348435692 0 0.022467862567959688 0.051587088633720718 0 0.014589564013482385 0.049479768243813581 0 0.011859648575918284 0.052020347986116988 0 0.012542387623314815 0.048442441403858741 0 0.020563046053726098 0.05352184778521208 0 0.022171647409779397 0.053458368764554613 0 0.020807634430247877 0.052469094168151265 0 0.022171647409779397 0.053458368764554613 0 0.020807634430247877 0.052469094168151265 0 0.021457846193998185 0.051825318348435692 0 0.020563046053726098 0.05352184778521208 0 0.020807634430247877 0.052469094168151265 0 0.020090778673279741 0.053269863282459494 0 0.023897306003014325 0.049983604830280283 0 0.021353304930270527 0.051304073423269432 0 0.020807634430247877 0.052469094168151265 0 0.021457846193998185 0.051825318348435692 0 0.020257533318180428 0.051776106162888254 0 0.021457846193998185 0.051825318348435692 0 0.021539088477331395 0.050720205369664616 0 0.020257533318180428 0.051776106162888254 0 0.024710107154793038 0.049358435673036875 0 0.023178865075751384 0.049052309851017266 0 0.022709774888729911 0.050758482480746041 0 0.021457846193998185 0.051825318348435692 0 0.022467862567959688 0.051587088633720718 0 0.021539088477331395 0.050720205369664616 0 0.01909591606587226 0.046369806088457963 0 0.023897306003014325 0.049983604830280283 0 0.024191835688861407 0.047906286850906941 0 0.026636410565069296 0.048014299023775991 0 0.024710107154793038 0.049358435673036875 0 0.022856961265760884 0.049771053574097453 0 0.022467862567959688 0.051587088633720718 0 0.021539088477331395 0.050720205369664616 0 0.01909591606587226 0.046369806088457963 0 0.017381365848771306 0.050214726047751949 0 0.022337817835587383 0.047648449277500095 0 0.024191835688861407 0.047906286850906941 0 0.023178865075751384 0.049052309851017266 0 0.024191835688861407 0.047906286850906941 0 0.024710107154793038 0.049358435673036875 0 0.023178865075751384 0.049052309851017266 0 0.022337817835587383 0.047648449277500095 0 0.021695864310805349 0.049287478267025432 0 0.020685465487566234 0.048256045082023018 0 0.022337817835587383 0.047648449277500095 0 0.021695864310805349 0.049287478267025432 0 0.023178865075751384 0.049052309851017266 0 0.021353304930270527 0.051304073423269432 0 0.020363178146400575 0.052016340008407519 0 0.022709774888729911 0.050758482480746041 0 0.020890484558616296 0.050632899617535435 0 0.020189685595685521 0.052123433722268575 0 0.021695864310805349 0.049287478267025432 0 0.023178865075751384 0.049052309851017266 0 0.022709774888729911 0.050758482480746041 0 0.021695864310805349 0.049287478267025432 0 0.022709774888729911 0.050758482480746041 0 0.020890484558616296 0.050632899617535435 0 0.020890484558616296 0.050632899617535435 0 0.019480873814979115 0.050980827997576542 0 0.020189685595685521 0.052123433722268575 0 0.021695864310805349 0.049287478267025432 0 0.020890484558616296 0.050632899617535435 0 0.020516707962015272 0.049640483418875954 0 0.020890484558616296 0.050632899617535435 0 0.020516707962015272 0.049640483418875954 0 0.019480873814979115 0.050980827997576542 0 0.020516707962015272 0.049640483418875954 0 0.020685465487566234 0.048256045082023018 0 0.019495019188478294 0.048899633368302289 0 0.021695864310805349 0.049287478267025432 0 0.020516707962015272 0.049640483418875954 0 0.020685465487566234 0.048256045082023018 0 0.01930916140330766 0.047343998841155352 0 0.020685465487566234 0.048256045082023018 0 0.019495019188478294 0.048899633368302289 0 0.01930916140330766 0.047343998841155352 0 0.019495019188478294 0.048899633368302289 0 0.018260536778275306 0.048538566316937849 0 0.019495019188478294 0.048899633368302289 0 0.018260536778275306 0.048538566316937849 0 0.018653802619488864 0.049990784012415343 0 0.018260536778275306 0.048538566316937849 0 0.017459732254468629 0.049874940152493448 0 0.016893442755720134 0.048225176894866405 0 0.018260536778275306 0.048538566316937849 0 0.017459732254468629 0.049874940152493448 0 0.018653802619488864 0.049990784012415343 0 0.017459732254468629 0.049874940152493448 0 0.018287042043201553 0.051070695466847657 0 0.018653802619488864 0.049990784012415343 0 0.017459732254468629 0.049874940152493448 0 0.018287042043201553 0.051070695466847657 0 0.017413195617901896 0.051298522132404802 0 0.019495019188478294 0.048899633368302289 0 0.018653802619488864 0.049990784012415343 0 0.019480873814979115 0.050980827997576542 0 0.020516707962015272 0.049640483418875954 0 0.019495019188478294 0.048899633368302289 0 0.019480873814979115 0.050980827997576542 0 0.018287042043201553 0.051070695466847657 0 0.018653802619488864 0.049990784012415343 0 0.019480873814979115 0.050980827997576542 0 0.019480873814979115 0.050980827997576542 0 0.01872522029883528 0.05193283975165211 0 0.01931365137475502 0.052659340213662691 0 0.018287042043201553 0.051070695466847657 0 0.019480873814979115 0.050980827997576542 0 0.01872522029883528 0.05193283975165211 0 0.01872522029883528 0.05193283975165211 0 0.01931365137475502 0.052659340213662691 0 0.018514954471541962 0.052811403725615713 0 0.017413195617901896 0.051298522132404802 0 0.017937039080946814 0.052091781947373537 0 0.017123585273059995 0.052397554983077556 0 0.018287042043201553 0.051070695466847657 0 0.017413195617901896 0.051298522132404802 0 0.017937039080946814 0.052091781947373537 0 0.018287042043201553 0.051070695466847657 0 0.01872522029883528 0.05193283975165211 0 0.017937039080946814 0.052091781947373537 0 0.01872522029883528 0.05193283975165211 0 0.017937039080946814 0.052091781947373537 0 0.018514954471541962 0.052811403725615713 0 0.017937039080946814 0.052091781947373537 0 0.017796804615813237 0.052922850077600544 0 0.018514954471541962 0.052811403725615713 0 0.017937039080946814 0.052091781947373537 0 0.017796804615813237 0.052922850077600544 0 0.017123585273059995 0.052397554983077556 0 0.017796804615813237 0.052922850077600544 0 0.017123585273059995 0.052397554983077556 0 0.017260199515734501 0.053445270077429469 0 0.017796804615813237 0.052922850077600544 0 0.018128415605044454 0.053674517398485125 0 0.018514954471541962 0.052811403725615713 0 0.017796804615813237 0.052922850077600544 0 0.018128415605044454 0.053674517398485125 0 0.017260199515734501 0.053445270077429469 0 0.01931365137475502 0.052659340213662691 0 0.018935948261073136 0.053442023471302225 0 0.01981434159286348 0.052984448747696838 0 0.01931365137475502 0.052659340213662691 0 0.018514954471541962 0.052811403725615713 0 0.018935948261073136 0.053442023471302225 0 0.018128415605044454 0.053674517398485125 0 0.018514954471541962 0.052811403725615713 0 0.018935948261073136 0.053442023471302225 0 0.018935948261073136 0.053442023471302225 0 0.01981434159286348 0.052984448747696838 0 0.019693344308877096 0.05379095189846278 0 0.01981434159286348 0.052984448747696838 0 0.020175424900892788 0.052810763609062734 0 0.020095345915013926 0.05334022143142967 0 0.01981434159286348 0.052984448747696838 0 0.020095345915013926 0.05334022143142967 0 0.019693344308877096 0.05379095189846278 0 0.020175424900892788 0.052810763609062734 0 0.020095345915013926 0.05334022143142967 0 0.020576754264636451 0.053643467490816256 0 0.020095345915013926 0.05334022143142967 0 0.020576754264636451 0.053643467490816256 0 0.019693344308877096 0.05379095189846278 0 0.019601690792459547 0.054333645316659004 0 0.020117978622433006 0.052299154658819916 0 0.018684706183427158 0.054911707107475269 0 0.020090778673279741 0.053269863282459494 0 0.020179808723000209 0.052116043146223416 0 0.020175424900892788 0.052810763609062734 0 0.020576754264636451 0.053643467490816256 0 0.020179808723000209 0.052116043146223416 0 0.020563046053726098 0.05352184778521208 0 0.020162456490017199 0.054794055888887527 0 0.019879943179983567 0.05405142181920583 0 0.018684706183427158 0.054911707107475269 0 0.020162456490017199 0.054794055888887527 0 0.019879943179983567 0.05405142181920583 0 0.018684706183427158 0.054911707107475269 0 0.019879943179983567 0.05405142181920583 0 0.020090778673279741 0.053269863282459494 0 0.020563046053726098 0.05352184778521208 0 0.019879943179983567 0.05405142181920583 0 0.020090778673279741 0.053269863282459494 0 0.020257533318180428 0.051776106162888254 0 0.020179808723000209 0.052116043146223416 0 0.020189685595685521 0.052123433722268575 0 0.020807634430247877 0.052469094168151265 0 0.020090778673279741 0.053269863282459494 0 0.020179808723000209 0.052116043146223416 0 0.020807634430247877 0.052469094168151265 0 0.020257533318180428 0.051776106162888254 0 0.020179808723000209 0.052116043146223416 0 0.019480873814979115 0.050980827997576542 0 0.01931365137475502 0.052659340213662691 0 0.020189685595685521 0.052123433722268575 0 0.01931365137475502 0.052659340213662691 0 0.01981434159286348 0.052984448747696838 0 0.020189685595685521 0.052123433722268575 0 0.01981434159286348 0.052984448747696838 0 0.020175424900892788 0.052810763609062734 0 0.020189685595685521 0.052123433722268575 0 0.020175424900892788 0.052810763609062734 0 0.020179808723000209 0.052116043146223416 0 0.020189685595685521 0.052123433722268575 0 0.036424414565293967 0.045733773306431774 0 0.030839116539885733 0.048046640278974852 0 0.046818108236322389 0.049062541329703419 0 0.047505275012279802 0.048702723508701251 0 0.047620049219610744 0.048718235037623465 0 0.036424414565293967 0.045733773306431774 0 0.049560044278512259 0.047318095230326096 0 0.048283348072159255 0.045738487093947608 0 0.048191514779637783 0.045863481531916508 0 0.048230820973544676 0.04593567247244619 0 0.048283348072159255 0.045738487093947608 0 0.048140074580052962 0.045801871802109657 0 0.048191514779637783 0.045863481531916508 0 0.021399707087219371 0.040600335117716699 0 0.016596936493766156 0.041288807192469398 0 0.019544213049773485 0.046571321838775354 0 0.016596936493766156 0.041288807192469398 0 0.015454437381988893 0.047451588878176708 0 0.019544213049773485 0.046571321838775354 0 0.017767790930819222 0.046013770333673785 0 0.017033989776472181 0.047819433024068859 0 0.015454437381988893 0.047451588878176708 0 0.019544213049773485 0.046571321838775354 0 0.017642357117680908 0.051130632297370734 0 0.014389163652295657 0.050181674757694451 0 0.015779915950823748 0.049579733757472898 0 0.016024897010930003 0.051402315660284595 0 0.015803073264411396 0.047911919653134336 0 0.014347602549864403 0.047363352680429516 0 0.015779915950823748 0.049579733757472898 0 0.014347602549864403 0.047363352680429516 0 0.014389163652295657 0.050181674757694451 0 0.015779915950823748 0.049579733757472898 0 0.017459732254468629 0.049874940152493448 0 0.015779915950823748 0.049579733757472898 0 0.016893442755720134 0.048225176894866405 0 0.015803073264411396 0.047911919653134336 0 0.015779915950823748 0.049579733757472898 0 0.016893442755720134 0.048225176894866405 0 0.017459732254468629 0.049874940152493448 0 0.015779915950823748 0.049579733757472898 0 0.016610270060165935 0.05055125142050907 0 0.015779915950823748 0.049579733757472898 0 0.016610270060165935 0.05055125142050907 0 0.016024897010930003 0.051402315660284595 0 0.017413195617901896 0.051298522132404802 0 0.016610270060165935 0.05055125142050907 0 0.016024897010930003 0.051402315660284595 0 0.017459732254468629 0.049874940152493448 0 0.017413195617901896 0.051298522132404802 0 0.016610270060165935 0.05055125142050907 0 0.017413195617901896 0.051298522132404802 0 0.017123585273059995 0.052397554983077556 0 0.016024897010930003 0.051402315660284595 0 0.017123585273059995 0.052397554983077556 0 0.016360828130131365 0.052948865969281111 0 0.016024897010930003 0.051402315660284595 0 0.017123585273059995 0.052397554983077556 0 0.017260199515734501 0.053445270077429469 0 0.016360828130131365 0.052948865969281111 0 0.017260199515734501 0.053445270077429469 0 0.016360828130131365 0.052948865969281111 0 0.01672774862886886 0.053995453845724982 0 0.016360828130131365 0.052948865969281111 0 0.014818296971096911 0.052575998854762156 0 0.015910675481796348 0.053692782711112899 0 0.016360828130131365 0.052948865969281111 0 0.015910675481796348 0.053692782711112899 0 0.01672774862886886 0.053995453845724982 0 0.016360828130131365 0.052948865969281111 0 0.016024897010930003 0.051402315660284595 0 0.014818296971096911 0.052575998854762156 0 0.014389163652295657 0.050181674757694451 0 0.016024897010930003 0.051402315660284595 0 0.014818296971096911 0.052575998854762156 0 0.017033989776472181 0.047819433024068859 0 0.016229936479880334 0.051842593047458752 0 0.014818296971096911 0.052575998854762156 0 0.015714963935532147 0.05390081053321729 0 0.015910675481796348 0.053692782711112899 0 0.016229936479880334 0.051842593047458752 0 0.01579007087338 0.053636546375245391 0 0.017642357117680908 0.051130632297370734 0 0.014705268304591025 0.051955838902952599 0 0.015714963935532147 0.05390081053321729 0 0.015454437381988893 0.047451588878176708 0 0.017642357117680908 0.051130632297370734 0 0.014705268304591025 0.051955838902952599 0 0.030839116539885733 0.048046640278974852 0 0.03153752310195377 0.05020868721258568 0 0.047505275012279802 0.048702723508701251 0 0.047620049219610744 0.048718235037623465 0 0.048146369924906007 0.04844259580516936 0 0.014475248215245207 0.053889151240465782 0 0.015714963935532147 0.05390081053321729 0 0.015158598240613537 0.0551760163443447 0 0.014475248215245207 0.053889151240465782 0 0.014705268304591025 0.051955838902952599 0 0.015714963935532147 0.05390081053321729 0 0.031562513347647696 0.05176357431000024 0 0.03153752310195377 0.05020868721258568 0 0.015714963935532147 0.05390081053321729 0 0.01603879496652218 0.054781139885166245 0 0.015910675481796348 0.053692782711112899 0 0.015714963935532147 0.05390081053321729 0 0.01603879496652218 0.054781139885166245 0 0.015158598240613537 0.0551760163443447 0 0.01603879496652218 0.054781139885166245 0 0.016436914352127893 0.054597112729384827 0 0.01673844033826551 0.055659257000647847 0 0.01603879496652218 0.054781139885166245 0 0.015910675481796348 0.053692782711112899 0 0.016436914352127893 0.054597112729384827 0 0.015910675481796348 0.053692782711112899 0 0.016436914352127893 0.054597112729384827 0 0.01672774862886886 0.053995453845724982 0 0.016436914352127893 0.054597112729384827 0 0.01672774862886886 0.053995453845724982 0 0.017029539661492881 0.054842303702951387 0 0.017260199515734501 0.053445270077429469 0 0.01672774862886886 0.053995453845724982 0 0.017565826515225105 0.054421019494275281 0 0.01672774862886886 0.053995453845724982 0 0.017029539661492881 0.054842303702951387 0 0.017565826515225105 0.054421019494275281 0 0.017029539661492881 0.054842303702951387 0 0.01673844033826551 0.055659257000647847 0 0.017507458405092477 0.055688434002188453 0 0.017029539661492881 0.054842303702951387 0 0.017565826515225105 0.054421019494275281 0 0.017507458405092477 0.055688434002188453 0 0.016436914352127893 0.054597112729384827 0 0.017029539661492881 0.054842303702951387 0 0.01673844033826551 0.055659257000647847 0 0.01734130955440152 0.056481908786080941 0 0.01673844033826551 0.055659257000647847 0 0.017507458405092477 0.055688434002188453 0 0.01734130955440152 0.056481908786080941 0 0.017152761267953152 0.057242980630351763 0 0.01673844033826551 0.055659257000647847 0 0.017152761267953152 0.057242980630351763 0 0.017664730749088382 0.057291151657760268 0 0.017902982244162622 0.057923396088078838 0 0.01734130955440152 0.056481908786080941 0 0.017152761267953152 0.057242980630351763 0 0.017664730749088382 0.057291151657760268 0 0.017152761267953152 0.057242980630351763 0 0.016049232867693261 0.056068051239932686 0 0.016289149124942538 0.057466352521288261 0 0.017152761267953152 0.057242980630351763 0 0.016289149124942538 0.057466352521288261 0 0.017206870007286618 0.058486021951723338 0 0.017152761267953152 0.057242980630351763 0 0.01673844033826551 0.055659257000647847 0 0.016049232867693261 0.056068051239932686 0 0.01603879496652218 0.054781139885166245 0 0.01673844033826551 0.055659257000647847 0 0.016049232867693261 0.056068051239932686 0 0.016049232867693261 0.056068051239932686 0 0.015140937527233092 0.057258967462453632 0 0.015158598240613537 0.0551760163443447 0 0.01603879496652218 0.054781139885166245 0 0.016049232867693261 0.056068051239932686 0 0.015158598240613537 0.0551760163443447 0 0.016049232867693261 0.056068051239932686 0 0.016289149124942538 0.057466352521288261 0 0.015140937527233092 0.057258967462453632 0 0.014475248215245207 0.053889151240465782 0 0.014084692954243222 0.055678463606140406 0 0.015158598240613537 0.0551760163443447 0 0.014084692954243222 0.055678463606140406 0 0.015140937527233092 0.057258967462453632 0 0.015158598240613537 0.0551760163443447 0 0.018886438068211029 0.055846662013468246 0 0.019922403273381285 0.056039663941531197 0 0.019446301104824079 0.054761973554779762 0 0.018886438068211029 0.055846662013468246 0 0.019446301104824079 0.054761973554779762 0 0.018637063463792358 0.055125516862369266 0 0.018886438068211029 0.055846662013468246 0 0.019922403273381285 0.056039663941531197 0 0.018505714851889541 0.056948508622175112 0 0.018584475330626099 0.055724245669614703 0 0.01900880200070993 0.058199980389935034 0 0.020091586230124265 0.056788144974431271 0 0.018744455223550945 0.055628835548598508 0 0.019608168915500466 0.058430139845264149 0 0.017407151127761585 0.057951657918086145 0 0.018744455223550945 0.055628835548598508 0 0.017934662555764837 0.058220262907248709 0 0.019601690792459547 0.054333645316659004 0 0.018656596431495389 0.056932355276130525 0 0.018684706183427158 0.054911707107475269 0 0.017407151127761585 0.057951657918086145 0 0.018744455223550945 0.055628835548598508 0 0.020091586230124265 0.056788144974431271 0 0.019926574144634439 0.055837806925171977 0 0.018744455223550945 0.055628835548598508 0 0.020162456490017199 0.054794055888887527 0 0.019926574144634439 0.055837806925171977 0 0.018744455223550945 0.055628835548598508 0 0.018684706183427158 0.054911707107475269 0 0.020162456490017199 0.054794055888887527 0 0.018744455223550945 0.055628835548598508 0 0.020576754264636451 0.053643467490816256 0 0.019922403273381285 0.056039663941531197 0 0.019446301104824079 0.054761973554779762 0 0.020576754264636451 0.053643467490816256 0 0.019446301104824079 0.054761973554779762 0 0.019693344308877096 0.05379095189846278 0 0.019446301104824079 0.054761973554779762 0 0.019693344308877096 0.05379095189846278 0 0.019048433273177474 0.054204205169325267 0 0.018935948261073136 0.053442023471302225 0 0.019693344308877096 0.05379095189846278 0 0.019048433273177474 0.054204205169325267 0 0.018935948261073136 0.053442023471302225 0 0.019048433273177474 0.054204205169325267 0 0.018392331633659879 0.054451927001568215 0 0.018128415605044454 0.053674517398485125 0 0.018935948261073136 0.053442023471302225 0 0.018392331633659879 0.054451927001568215 0 0.018392331633659879 0.054451927001568215 0 0.018030243771182695 0.055226311639091953 0 0.018637063463792358 0.055125516862369266 0 0.019446301104824079 0.054761973554779762 0 0.019048433273177474 0.054204205169325267 0 0.018637063463792358 0.055125516862369266 0 0.019048433273177474 0.054204205169325267 0 0.018392331633659879 0.054451927001568215 0 0.018637063463792358 0.055125516862369266 0 0.018128415605044454 0.053674517398485125 0 0.017260199515734501 0.053445270077429469 0 0.017565826515225105 0.054421019494275281 0 0.018128415605044454 0.053674517398485125 0 0.018392331633659879 0.054451927001568215 0 0.017565826515225105 0.054421019494275281 0 0.018392331633659879 0.054451927001568215 0 0.017565826515225105 0.054421019494275281 0 0.018030243771182695 0.055226311639091953 0 0.018030243771182695 0.055226311639091953 0 0.017507458405092477 0.055688434002188453 0 0.018183083267998709 0.056158907175068509 0 0.017565826515225105 0.054421019494275281 0 0.018030243771182695 0.055226311639091953 0 0.017507458405092477 0.055688434002188453 0 0.018030243771182695 0.055226311639091953 0 0.018637063463792358 0.055125516862369266 0 0.018183083267998709 0.056158907175068509 0 0.018886438068211029 0.055846662013468246 0 0.018637063463792358 0.055125516862369266 0 0.018183083267998709 0.056158907175068509 0 0.018183083267998709 0.056158907175068509 0 0.018154274473771256 0.057052754427736711 0 0.018505714851889541 0.056948508622175112 0 0.018886438068211029 0.055846662013468246 0 0.018183083267998709 0.056158907175068509 0 0.018505714851889541 0.056948508622175112 0 0.018183083267998709 0.056158907175068509 0 0.018154274473771256 0.057052754427736711 0 0.017827067667990814 0.056734930990188899 0 0.018154274473771256 0.057052754427736711 0 0.017827067667990814 0.056734930990188899 0 0.018074369235475035 0.057489966023953683 0 0.018154274473771256 0.057052754427736711 0 0.018142472195184032 0.057719108555483095 0 0.018505714851889541 0.056948508622175112 0 0.017507458405092477 0.055688434002188453 0 0.018183083267998709 0.056158907175068509 0 0.017827067667990814 0.056734930990188899 0 0.01734130955440152 0.056481908786080941 0 0.017507458405092477 0.055688434002188453 0 0.017827067667990814 0.056734930990188899 0 0.01734130955440152 0.056481908786080941 0 0.017827067667990814 0.056734930990188899 0 0.017664730749088382 0.057291151657760268 0 0.017995563031995024 0.057684659449725159 0 0.017664730749088382 0.057291151657760268 0 0.018074369235475035 0.057489966023953683 0 0.017827067667990814 0.056734930990188899 0 0.017664730749088382 0.057291151657760268 0 0.018074369235475035 0.057489966023953683 0 0.018142472195184032 0.057719108555483095 0 0.018074369235475035 0.057489966023953683 0 0.018103632389775248 0.057870856419112778 0 0.017995563031995024 0.057684659449725159 0 0.018074369235475035 0.057489966023953683 0 0.018103632389775248 0.057870856419112778 0 0.018154274473771256 0.057052754427736711 0 0.018142472195184032 0.057719108555483095 0 0.018074369235475035 0.057489966023953683 0 0.018142472195184032 0.057719108555483095 0 0.017826781096896713 0.058306516885784448 0 0.018103632389775248 0.057870856419112778 0 0.018142472195184032 0.057719108555483095 0 0.017826781096896713 0.058306516885784448 0 0.018505714851889541 0.056948508622175112 0 0.018656596431495389 0.056932355276130525 0 0.017963051598760528 0.05813790064551775 0 0.019922403273381285 0.056039663941531197 0 0.017826781096896713 0.058306516885784448 0 0.018505714851889541 0.056948508622175112 0 0.016635218824819286 0.060113682965386231 0 0.01900880200070993 0.058199980389935034 0 0.017407151127761585 0.057951657918086145 0 0.017934662555764837 0.058220262907248709 0 0.017398781953108306 0.058495067846426683 0 0.016894490107296826 0.058729312690212775 0 0.017934662555764837 0.058220262907248709 0 0.017398781953108306 0.058495067846426683 0 0.017407151127761585 0.057951657918086145 0 0.017826781096896713 0.058306516885784448 0 0.017398781953108306 0.058495067846426683 0 0.017826781096896713 0.058306516885784448 0 0.017048953367412786 0.058628475312758249 0 0.016171511854921782 0.059088930791371869 0 0.017826781096896713 0.058306516885784448 0 0.017398781953108306 0.058495067846426683 0 0.017048953367412786 0.058628475312758249 0 0.017398781953108306 0.058495067846426683 0 0.017048953367412786 0.058628475312758249 0 0.016839558500354634 0.05873490917298451 0 0.017048953367412786 0.058628475312758249 0 0.016839558500354634 0.05873490917298451 0 0.016171511854921782 0.059088930791371869 0 0.016894490107296826 0.058729312690212775 0 0.017398781953108306 0.058495067846426683 0 0.016839558500354634 0.05873490917298451 0 0.016839558500354634 0.05873490917298451 0 0.016171511854921782 0.059088930791371869 0 0.016568129353121092 0.058908049683439621 0 0.016171511854921782 0.059088930791371869 0 0.015294184462490501 0.059948302148431859 0 0.015671083924598643 0.059882765149377543 0 0.015294184462490501 0.059948302148431859 0 0.015671083924598643 0.059882765149377543 0 0.01529761811276052 0.059765761144301564 0 0.015777258612860365 0.059720723585098494 0 0.015671083924598643 0.059882765149377543 0 0.016210713560990252 0.059766285295075924 0 0.015671083924598643 0.059882765149377543 0 0.015936963106930511 0.060254797681457695 0 0.016210713560990252 0.059766285295075924 0 0.015777258612860365 0.059720723585098494 0 0.016210713560990252 0.059766285295075924 0 0.015954758626294002 0.059406316709534106 0 0.015777258612860365 0.059720723585098494 0 0.015671083924598643 0.059882765149377543 0 0.01529761811276052 0.059765761144301564 0 0.016171511854921782 0.059088930791371869 0 0.015671083924598643 0.059882765149377543 0 0.015936963106930511 0.060254797681457695 0 0.017826781096896713 0.058306516885784448 0 0.016171511854921782 0.059088930791371869 0 0.018103632389775248 0.057870856419112778 0 0.016346340084066168 0.059081296541490996 0 0.017092900245405253 0.059073091497714884 0 0.017092900245405253 0.059073091497714884 0 0.017880298646383554 0.058996337037563268 0 0.017995563031995024 0.057684659449725159 0 0.018103632389775248 0.057870856419112778 0 0.017902982244162622 0.057923396088078838 0 0.015936963106930511 0.060254797681457695 0 0.018119861438922011 0.060206532184080085 0 0.017268367403120339 0.059787991513133805 0 0.017995563031995024 0.057684659449725159 0 0.017664730749088382 0.057291151657760268 0 0.017902982244162622 0.057923396088078838 0 0.018119861438922011 0.060206532184080085 0 0.017268367403120339 0.059787991513133805 0 0.018375267339214636 0.059962201771842437 0 0.018829886170016137 0.06134007812480255 0 0.018375267339214636 0.059962201771842437 0 0.018765991570062028 0.061210835897677486 0 0.017835142135244439 0.060235830200310467 0 0.018295401460450226 0.060035114448758357 0 0.017268367403120339 0.059787991513133805 0 0.016898246964439582 0.059168904208140673 0 0.018375267339214636 0.059962201771842437 0 0.015936963106930511 0.060254797681457695 0 0.017268367403120339 0.059787991513133805 0 0.016210713560990252 0.059766285295075924 0 0.017268367403120339 0.059787991513133805 0 0.016210713560990252 0.059766285295075924 0 0.016898246964439582 0.059168904208140673 0 0.016210713560990252 0.059766285295075924 0 0.016898246964439582 0.059168904208140673 0 0.015954758626294002 0.059406316709534106 0 0.017835142135244439 0.060235830200310467 0 0.016589855904630437 0.059982222162752986 0 0.016898246964439582 0.059168904208140673 0 0.015766223805659445 0.058950918566237902 0 0.015954758626294002 0.059406316709534106 0 0.018829886170016137 0.06134007812480255 0 0.019029320948559511 0.060906958959866836 0 0.018765991570062028 0.061210835897677486 0 0.019029320948559511 0.060906958959866836 0 0.018385904645197463 0.06093461171374108 0 0.019233800526978626 0.059556312260906533 0 0.018829886170016137 0.06134007812480255 0 0.019029320948559511 0.060906958959866836 0 0.018385904645197463 0.06093461171374108 0 0.018519820218842832 0.060829002386713009 0 0.019765017736586152 0.059884270387710742 0 0.018829886170016137 0.06134007812480255 0 0.018385904645197463 0.06093461171374108 0 0.017398115152493801 0.061060161879146278 0 0.018385904645197463 0.06093461171374108 0 0.017398115152493801 0.061060161879146278 0 0.017919359016962972 0.060180098326330984 0 0.015766223805659445 0.058950918566237902 0 0.015063973750717899 0.059345483589011483 0 0.014611129885758217 0.058491015230133496 0 0.015766223805659445 0.058950918566237902 0 0.015063973750717899 0.059345483589011483 0 0.015954758626294002 0.059406316709534106 0 0.014121225015463859 0.059291421831191383 0 0.015063973750717899 0.059345483589011483 0 0.014478542614193124 0.059813521934622409 0 0.014121225015463859 0.059291421831191383 0 0.015063973750717899 0.059345483589011483 0 0.014611129885758217 0.058491015230133496 0 0.015294184462490501 0.059948302148431859 0 0.014478542614193124 0.059813521934622409 0 0.01529761811276052 0.059765761144301564 0 0.015063973750717899 0.059345483589011483 0 0.014478542614193124 0.059813521934622409 0 0.01529761811276052 0.059765761144301564 0 0.015777258612860365 0.059720723585098494 0 0.01529761811276052 0.059765761144301564 0 0.015954758626294002 0.059406316709534106 0 0.015063973750717899 0.059345483589011483 0 0.01529761811276052 0.059765761144301564 0 0.015954758626294002 0.059406316709534106 0 0.013663345281704519 0.058390136440819841 0 0.015140937527233092 0.057258967462453632 0 0.014968170031334681 0.059485804753625839 0 0.015140937527233092 0.057258967462453632 0 0.014968170031334681 0.059485804753625839 0 0.016214677242122662 0.058914465421124031 0 0.016289149124942538 0.057466352521288261 0 0.015140937527233092 0.057258967462453632 0 0.016214677242122662 0.058914465421124031 0 0.014968170031334681 0.059485804753625839 0 0.016214677242122662 0.058914465421124031 0 0.016491091640004941 0.060855116996334113 0 0.016214677242122662 0.058914465421124031 0 0.017427764864662219 0.05993004421513614 0 0.017206870007286618 0.058486021951723338 0 0.016214677242122662 0.058914465421124031 0 0.017427764864662219 0.05993004421513614 0 0.016491091640004941 0.060855116996334113 0 0.016289149124942538 0.057466352521288261 0 0.016214677242122662 0.058914465421124031 0 0.017206870007286618 0.058486021951723338 0 0.017152761267953152 0.057242980630351763 0 0.017902982244162622 0.057923396088078838 0 0.017206870007286618 0.058486021951723338 0 0.017880298646383554 0.058996337037563268 0 0.017149083174355002 0.058610381503777335 0 0.018119861438922011 0.060206532184080085 0 0.017206870007286618 0.058486021951723338 0 0.018375267339214636 0.059962201771842437 0 0.017427764864662219 0.05993004421513614 0 0.017206870007286618 0.058486021951723338 0 0.018375267339214636 0.059962201771842437 0 0.017427764864662219 0.05993004421513614 0 0.018375267339214636 0.059962201771842437 0 0.018765991570062028 0.061210835897677486 0 0.019029320948559511 0.060906958959866836 0 0.018765991570062028 0.061210835897677486 0 0.020495981123099558 0.060489999268701182 0 0.019029320948559511 0.060906958959866836 0 0.020495981123099558 0.060489999268701182 0 0.019233800526978626 0.059556312260906533 0 0.020495981123099558 0.060489999268701182 0 0.02206559674261719 0.062044055506727917 0 0.023071042116754075 0.059978203618107989 0 0.01876225898766256 0.061289261868165461 0 0.019739038966941649 0.061282013121063961 0 0.018765991570062028 0.061210835897677486 0 0.020495981123099558 0.060489999268701182 0 0.02206559674261719 0.062044055506727917 0 0.017427764864662219 0.05993004421513614 0 0.018765991570062028 0.061210835897677486 0 0.016491091640004941 0.060855116996334113 0 0.019739038966941649 0.061282013121063961 0 0.018339183372070512 0.061875437483616326 0 0.02206559674261719 0.062044055506727917 0 0.02509463410470909 0.061737716940438926 0 0.023071042116754075 0.059978203618107989 0 0.02509463410470909 0.061737716940438926 0 0.024967965612999774 0.059632372592967955 0 0.023071042116754075 0.059978203618107989 0 0.026555023657753408 0.059799996638873337 0 0.02509463410470909 0.061737716940438926 0 0.024967965612999774 0.059632372592967955 0 0.014968170031334681 0.059485804753625839 0 0.016491091640004941 0.060855116996334113 0 0.014898497005665909 0.060865358399243626 0 0.02640756700184009 0.057687851274575146 0 0.025831766809778681 0.058403140072179546 0 0.026035177294955567 0.057372756253742281 0 0.025831766809778681 0.058403140072179546 0 0.024172579656143989 0.058393074504591073 0 0.026035177294955567 0.057372756253742281 0 0.025831766809778681 0.058403140072179546 0 0.024967965612999774 0.059632372592967955 0 0.024172579656143989 0.058393074504591073 0 0.026555023657753408 0.059799996638873337 0 0.025831766809778681 0.058403140072179546 0 0.024967965612999774 0.059632372592967955 0 0.023071042116754075 0.059978203618107989 0 0.024172579656143989 0.058393074504591073 0 0.021194684125132261 0.058103922833777071 0 0.024967965612999774 0.059632372592967955 0 0.023071042116754075 0.059978203618107989 0 0.024172579656143989 0.058393074504591073 0 0.024172579656143989 0.058393074504591073 0 0.023594487931994364 0.056889848425420997 0 0.026035177294955567 0.057372756253742281 0 0.024172579656143989 0.058393074504591073 0 0.021194684125132261 0.058103922833777071 0 0.023594487931994364 0.056889848425420997 0 0.021768401172670163 0.058564849758867554 0 0.024057241338780035 0.057243928739187523 0 0.020495981123099558 0.060489999268701182 0 0.023071042116754075 0.059978203618107989 0 0.021194684125132261 0.058103922833777071 0 0.020495981123099558 0.060489999268701182 0 0.021194684125132261 0.058103922833777071 0 0.019233800526978626 0.059556312260906533 0 0.021768401172670163 0.058564849758867554 0 0.019765017736586152 0.059884270387710742 0 0.022332954200240739 0.058999388384730074 0 0.020207437055537975 0.060231699863139261 0 0.0201503690424845 0.057438660382095504 0 0.022332954200240739 0.058999388384730074 0 0.022342803197712438 0.056979134784922406 0 0.0201503690424845 0.057438660382095504 0 0.022006945810568938 0.054999815668010363 0 0.022342803197712438 0.056979134784922406 0 0.0201503690424845 0.057438660382095504 0 0.022006945810568938 0.054999815668010363 0 0.02385975013309662 0.056152399894140295 0 0.022342803197712438 0.056979134784922406 0 0.022006945810568938 0.054999815668010363 0 0.02385975013309662 0.056152399894140295 0 0.025057422665811169 0.054999876932570427 0 0.022332954200240739 0.058999388384730074 0 0.022342803197712438 0.056979134784922406 0 0.02449439151497591 0.05756719186129549 0 0.02385975013309662 0.056152399894140295 0 0.022342803197712438 0.056979134784922406 0 0.02449439151497591 0.05756719186129549 0 0.02385975013309662 0.056152399894140295 0 0.02449439151497591 0.05756719186129549 0 0.026431201398167996 0.055956043697936844 0 0.024057241338780035 0.057243928739187523 0 0.026173720683309833 0.056023918882702743 0 0.02385975013309662 0.056152399894140295 0 0.025057422665811169 0.054999876932570427 0 0.026431201398167996 0.055956043697936844 0 0.028107720427286889 0.054999619771434617 0 0.025057422665811169 0.054999876932570427 0 0.026431201398167996 0.055956043697936844 0 0.027976892117991169 0.056389582166865078 0 0.026431201398167996 0.055956043697936844 0 0.026035177294955567 0.057372756253742281 0 0.023594487931994364 0.056889848425420997 0 0.026431201398167996 0.055956043697936844 0 0.026035177294955567 0.057372756253742281 0 0.015423726536456182 0.059790428569213912 0 0.017956338623380547 0.058689193991396521 0 0.016043263459629802 0.057420679682311633 0 0.015423726536456182 0.059790428569213912 0 0.016043263459629802 0.057420679682311633 0 0.013287348056761848 0.057850812133533623 0 0.015001471823135673 0.059112759226296975 0 0.013441602724328523 0.057917782855571698 0 0.014121225015463859 0.059291421831191383 0 0.014611129885758217 0.058491015230133496 0 0.013059886187609957 0.058909033679116665 0 0.017398115152493801 0.061060161879146278 0 0.015423726536456182 0.059790428569213912 0 0.017919359016962972 0.060180098326330984 0 0.016589855904630437 0.059982222162752986 0 0.015001471823135673 0.059112759226296975 0 0.015423726536456182 0.059790428569213912 0 0.017919359016962972 0.060180098326330984 0 0.017956338623380547 0.058689193991396521 0 0.017919359016962972 0.060180098326330984 0 0.020207437055537975 0.060231699863139261 0 0.017956338623380547 0.058689193991396521 0 0.018385904645197463 0.06093461171374108 0 0.017919359016962972 0.060180098326330984 0 0.020207437055537975 0.060231699863139261 0 0.020207437055537975 0.060231699863139261 0 0.017956338623380547 0.058689193991396521 0 0.0201503690424845 0.057438660382095504 0 0.017956338623380547 0.058689193991396521 0 0.017940941338648809 0.056730273486419937 0 0.016043263459629802 0.057420679682311633 0 0.017956338623380547 0.058689193991396521 0 0.017940941338648809 0.056730273486419937 0 0.0201503690424845 0.057438660382095504 0 0.022006945810568938 0.054999815668010363 0 0.0201503690424845 0.057438660382095504 0 0.018956360030849512 0.054999841726375009 0 0.017940941338648809 0.056730273486419937 0 0.0201503690424845 0.057438660382095504 0 0.018956360030849512 0.054999841726375009 0 0.017940941338648809 0.056730273486419937 0 0.018956360030849512 0.054999841726375009 0 0.015905837409934794 0.054999720562440103 0 0.017940941338648809 0.056730273486419937 0 0.015905837409934794 0.054999720562440103 0 0.016043263459629802 0.057420679682311633 0 0.016043263459629802 0.057420679682311633 0 0.014139709962535623 0.056422381503054786 0 0.013287348056761848 0.057850812133533623 0 0.015905837409934794 0.054999720562440103 0 0.014139709962535623 0.056422381503054786 0 0.012855245290173027 0.05499973141322978 0 0.015905837409934794 0.054999720562440103 0 0.016043263459629802 0.057420679682311633 0 0.014139709962535623 0.056422381503054786 0 0.014139709962535623 0.056422381503054786 0 0.012855245290173027 0.05499973141322978 0 0.011146710216326811 0.056735630507433611 0 0.012855245290173027 0.05499973141322978 0 0.011146710216326811 0.056735630507433611 0 0.0098048142467560724 0.05499959344106975 0 0.014139709962535623 0.056422381503054786 0 0.011146710216326811 0.056735630507433611 0 0.013287348056761848 0.057850812133533623 0 0.0084407012112029979 0.056163871180878198 0 0.0098048142467560724 0.05499959344106975 0 0.0067540688241273438 0.05499962928340868 0 0.011146710216326811 0.056735630507433611 0 0.0084407012112029979 0.056163871180878198 0 0.0098048142467560724 0.05499959344106975 0 0.011146710216326811 0.056735630507433611 0 0.0084407012112029979 0.056163871180878198 0 0.0082603530108970816 0.057759069976510764 0 0.0084407012112029979 0.056163871180878198 0 0.0082603530108970816 0.057759069976510764 0 0.0057852852349447965 0.056719375562704372 0 0.011146710216326811 0.056735630507433611 0 0.0082603530108970816 0.057759069976510764 0 0.011234995508537002 0.058346030523274257 0 0.0082603530108970816 0.057759069976510764 0 0.0082743164722123771 0.059608690370765646 0 0.011234995508537002 0.058346030523274257 0 0.0082743164722123771 0.059608690370765646 0 0.011234995508537002 0.058346030523274257 0 0.011630637813340857 0.059734915460348662 0 0.013287348056761848 0.057850812133533623 0 0.011234995508537002 0.058346030523274257 0 0.013059886187609957 0.058909033679116665 0 0.011146710216326811 0.056735630507433611 0 0.013287348056761848 0.057850812133533623 0 0.011234995508537002 0.058346030523274257 0 0.011234995508537002 0.058346030523274257 0 0.013059886187609957 0.058909033679116665 0 0.011630637813340857 0.059734915460348662 0 0.014611129885758217 0.058491015230133496 0 0.013287348056761848 0.057850812133533623 0 0.013059886187609957 0.058909033679116665 0 0.014121225015463859 0.059291421831191383 0 0.013059886187609957 0.058909033679116665 0 0.013016274461530707 0.059713976470294472 0 0.014121225015463859 0.059291421831191383 0 0.014478542614193124 0.059813521934622409 0 0.013016274461530707 0.059713976470294472 0 0.014478542614193124 0.059813521934622409 0 0.013016274461530707 0.059713976470294472 0 0.013498337079551309 0.060309562543729281 0 0.015294184462490501 0.059948302148431859 0 0.014478542614193124 0.059813521934622409 0 0.013498337079551309 0.060309562543729281 0 0.013498337079551309 0.060309562543729281 0 0.011949088471260709 0.060033417695318045 0 0.011934553121359343 0.061033256509759916 0 0.013016274461530707 0.059713976470294472 0 0.013498337079551309 0.060309562543729281 0 0.011949088471260709 0.060033417695318045 0 0.013016274461530707 0.059713976470294472 0 0.011630637813340857 0.059734915460348662 0 0.011949088471260709 0.060033417695318045 0 0.013059886187609957 0.058909033679116665 0 0.013016274461530707 0.059713976470294472 0 0.011630637813340857 0.059734915460348662 0 0.011630637813340857 0.059734915460348662 0 0.011015466505433941 0.059694866892804004 0 0.011949088471260709 0.060033417695318045 0 0.011508702082981354 0.059802132619255439 0 0.009743633295912886 0.060832245296110594 0 0.0082743164722123771 0.059608690370765646 0 0.011630637813340857 0.059734915460348662 0 0.0085105032557856591 0.062059868039770427 0 0.0082743164722123771 0.059608690370765646 0 0.0085105032557856591 0.062059868039770427 0 0.0060720677165501729 0.061269981999579053 0 0.011015466505433941 0.059694866892804004 0 0.010857422860543276 0.061045062727930054 0 0.008759974226594254 0.060374515011339537 0 0.009743633295912886 0.060832245296110594 0 0.0073783616598276577 0.061851985277054135 0 0.011015466505433941 0.059694866892804004 0 0.011949088471260709 0.060033417695318045 0 0.010857422860543276 0.061045062727930054 0 0.011949088471260709 0.060033417695318045 0 0.011934553121359343 0.061033256509759916 0 0.010857422860543276 0.061045062727930054 0 0.011768590415078774 0.061833210722702842 0 0.011270064486696945 0.062139996592516782 0 0.010857422860543276 0.061045062727930054 0 0.010095951677625578 0.062661786836420166 0 0.0093402770563526492 0.061834701843503405 0 0.011875529840231694 0.061725873467801888 0 0.010857422860543276 0.061045062727930054 0 0.010095951677625578 0.062661786836420166 0 0.011875529840231694 0.061725873467801888 0 0.011934553121359343 0.061033256509759916 0 0.012268988809452807 0.061314881813895168 0 0.011875529840231694 0.061725873467801888 0 0.011934553121359343 0.061033256509759916 0 0.010857422860543276 0.061045062727930054 0 0.012017953033254347 0.061376491304481126 0 0.011875529840231694 0.061725873467801888 0 0.012268988809452807 0.061314881813895168 0 0.012017953033254347 0.061376491304481126 0 0.012268988809452807 0.061314881813895168 0 0.012072577644763488 0.061379245067358763 0 0.016635218824819286 0.060113682965386231 0 0.013879154228692528 0.060113668996764243 0 0.016855237625863176 0.058692239106781029 0 0.016568129353121092 0.058908049683439621 0 0.015676222299239404 0.059650372944802944 0 0.011481841956149916 0.061402097885308392 0 0.012072577644763488 0.061379245067358763 0 0.012550059624361237 0.061274609107407868 0 0.016171511854921782 0.059088930791371869 0 0.016568129353121092 0.058908049683439621 0 0.015676222299239404 0.059650372944802944 0 0.016171511854921782 0.059088930791371869 0 0.015294184462490501 0.059948302148431859 0 0.015676222299239404 0.059650372944802944 0 0.012268988809452807 0.061314881813895168 0 0.012072577644763488 0.061379245067358763 0 0.012550059624361237 0.061274609107407868 0 0.013627718802652187 0.060134905962365662 0 0.013879154228692528 0.060113668996764243 0 0.015294184462490501 0.059948302148431859 0 0.013498337079551309 0.060309562543729281 0 0.015676222299239404 0.059650372944802944 0 0.013498337079551309 0.060309562543729281 0 0.012268988809452807 0.061314881813895168 0 0.012550059624361237 0.061274609107407868 0 0.013498337079551309 0.060309562543729281 0 0.011934553121359343 0.061033256509759916 0 0.012268988809452807 0.061314881813895168 0 0.0044425197015415772 0.063044756726456416 0 0.0037285284482881549 0.063699916856857941 0 0.0026500683683671144 0.062407959387452992 0 0.0044425197015415772 0.063044756726456416 0 0.0037285284482881549 0.063699916856857941 0 0.0050086993814220685 0.063478608151003063 0 0.00018111498821881981 0.063059384422705547 0 0.00046647885190954371 0.061825718800842602 0 -0.00043462057546173825 0.062214928850806345 0 0.0078764116230668271 0.061460879625784538 0 0.00090515726640331333 0.062302476925743124 0 0.00018111498821881981 0.063059384422705547 0 0.0012323092060182949 0.063286908957381857 0 0.00046647885190954371 0.061825718800842602 0 0.011794447376947717 0.056662511850422558 0 0.012105053194043435 0.057174860178239521 0 0.011401528567756825 0.057739250463179376 0 0.012297756087803343 0.057700547309627807 0 0.012105053194043435 0.057174860178239521 0 0.012546003241905279 0.05686925666341789 0 0.011794447376947717 0.056662511850422558 0 0.012105053194043435 0.057174860178239521 0 0.012546003241905279 0.05686925666341789 0 0.0061881617457229306 0.059881024096346387 0 0.0078764116230668271 0.061460879625784538 0 0.0037285284482881549 0.063699916856857941 0 0.0050086993814220685 0.063478608151003063 0 0.0069360009962775998 0.063457932794045116 0 0.0078764116230668271 0.061460879625784538 0 0.010456288554041463 0.062697369382432491 0 0.014010007742837758 0.060854099404099589 0 0.014329179026064355 0.06191537443585314 0 0.01359837672535877 0.061760614874419952 0 0.010095951677625578 0.062661786836420166 0 0.0069360009962775998 0.063457932794045116 0 0.0093402770563526492 0.061834701843503405 0 0.011270064486696945 0.062139996592516782 0 0.010456288554041463 0.062697369382432491 0 0.013346157590198764 0.061195716845035206 0 0.012794250399122244 0.061682713852255489 0 0.01359837672535877 0.061760614874419952 0 0.0069360009962775998 0.063457932794045116 0 0.008759974226594254 0.060374515011339537 0 0.0093402770563526492 0.061834701843503405 0 0.010857422860543276 0.061045062727930054 0 0.008759974226594254 0.060374515011339537 0 0.0093402770563526492 0.061834701843503405 0 0.005162214703036086 0.063350641425878887 0 0.0073783616598276577 0.061851985277054135 0 0.0044425197015415772 0.063044756726456416 0 0.0059896255149217712 0.063178461636198155 0 0.0043577949659299878 0.062588595627478816 0 0.0044425197015415772 0.063044756726456416 0 0.0050086993814220685 0.063478608151003063 0 0.0059896255149217712 0.063178461636198155 0 0.0050086993814220685 0.063478608151003063 0 0.0069360009962775998 0.063457932794045116 0 0.008759974226594254 0.060374515011339537 0 0.0059896255149217712 0.063178461636198155 0 0.0050639672539708686 0.062084418094370195 0 0.0043577949659299878 0.062588595627478816 0 0.0050639672539708686 0.062084418094370195 0 0.0038417844040144148 0.061195057328070852 0 0.0043577949659299878 0.062588595627478816 0 0.0059896255149217712 0.063178461636198155 0 0.0050639672539708686 0.062084418094370195 0 0.0060720677165501729 0.061269981999579053 0 0.0085105032557856591 0.062059868039770427 0 0.0059896255149217712 0.063178461636198155 0 0.0060720677165501729 0.061269981999579053 0 0.0050639672539708686 0.062084418094370195 0 0.0060720677165501729 0.061269981999579053 0 0.0038417844040144148 0.061195057328070852 0 0.0060720677165501729 0.061269981999579053 0 0.0038417844040144148 0.061195057328070852 0 0.0052254187228558402 0.05900292018290141 0 0.0038417844040144148 0.061195057328070852 0 0.0043577949659299878 0.062588595627478816 0 0.0026500683683671144 0.062407959387452992 0 0.0044425197015415772 0.063044756726456416 0 0.0043577949659299878 0.062588595627478816 0 0.0026500683683671144 0.062407959387452992 0 0.00046647885190954371 0.061825718800842602 0 -0.00079987636819812134 0.060954479585408103 0 -0.00022123816974272255 0.060394122548202922 0 0.0038417844040144148 0.061195057328070852 0 0.0026500683683671144 0.062407959387452992 0 0.0010439171324933961 0.060730319262312135 0 0.00090515726640331333 0.062302476925743124 0 0.00046127334044456029 0.06046797538811325 0 0.0024671182806910328 0.059437768050544459 0 -0.00075498053146999858 0.058648088531896396 0 0.0010439171324933961 0.060730319262312135 0 0.0038417844040144148 0.061195057328070852 0 0.0024671182806910328 0.059437768050544459 0 0.0010439171324933961 0.060730319262312135 0 0.0038417844040144148 0.061195057328070852 0 0.0024671182806910328 0.059437768050544459 0 0.0052254187228558402 0.05900292018290141 0 0.0024671182806910328 0.059437768050544459 0 0.0052254187228558402 0.05900292018290141 0 0.002316838703624491 0.057422333875428985 0 0.0024671182806910328 0.059437768050544459 0 0.002316838703624491 0.057422333875428985 0 -0.00075498053146999858 0.058648088531896396 0 0.0052254187228558402 0.05900292018290141 0 0.0057852852349447965 0.056719375562704372 0 0.002316838703624491 0.057422333875428985 0 0.0082743164722123771 0.059608690370765646 0 0.0060720677165501729 0.061269981999579053 0 0.0052254187228558402 0.05900292018290141 0 0.0082603530108970816 0.057759069976510764 0 0.0082743164722123771 0.059608690370765646 0 0.0052254187228558402 0.05900292018290141 0 0.0082603530108970816 0.057759069976510764 0 0.0052254187228558402 0.05900292018290141 0 0.0057852852349447965 0.056719375562704372 0 0.0057852852349447965 0.056719375562704372 0 0.0037034932256135257 0.054999687677145172 0 0.002316838703624491 0.057422333875428985 0 0.0084407012112029979 0.056163871180878198 0 0.0057852852349447965 0.056719375562704372 0 0.0067540688241273438 0.05499962928340868 0 0.0057852852349447965 0.056719375562704372 0 0.0037034932256135257 0.054999687677145172 0 0.0067540688241273438 0.05499962928340868 0 0.0037034932256135257 0.054999687677145172 0 0.002316838703624491 0.057422333875428985 0 0.00065276716457816453 0.054999695554027429 0 0.002316838703624491 0.057422333875428985 0 0.00065276716457816453 0.054999695554027429 0 -0.00073831127995410673 0.056573320695219483 0 0.00065276716457816453 0.054999695554027429 0 -0.00073831127995410673 0.056573320695219483 0 -0.0023978634126298809 0.054999790105721737 0 0.002316838703624491 0.057422333875428985 0 -0.00073831127995410673 0.056573320695219483 0 -0.00075498053146999858 0.058648088531896396 0 -0.00073831127995410673 0.056573320695219483 0 -0.0031605363321074 0.056502605458404458 0 -0.00075498053146999858 0.058648088531896396 0 -0.0031605363321074 0.056502605458404458 0 -0.003843186583493577 0.05795577128192083 0 -0.00075498053146999858 0.058648088531896396 0 -0.00073831127995410673 0.056573320695219483 0 -0.0031605363321074 0.056502605458404458 0 -0.0023978634126298809 0.054999790105721737 0 -0.0031605363321074 0.056502605458404458 0 -0.0049393241749144078 0.055470788169171281 0 -0.0051636724063440862 0.055503886195442165 0 -0.0023978634126298809 0.054999790105721737 0 -0.0049393241749144078 0.055470788169171281 0 -0.0054482638133905624 0.054999847809704287 0 -0.0031605363321074 0.056502605458404458 0 -0.0023978634126298809 0.054999790105721737 0 -0.0049393241749144078 0.055470788169171281 0 -0.013060598438849319 0.054004521971300741 0 -0.013413666590391324 0.054488698368354585 0 -0.014088561106083922 0.054049923568626312 0 -0.0054489747633443449 0.054999962417383794 0 -0.0052922501150347856 0.055565569604808754 0 -0.008532406884662674 0.056076272787915077 0 -0.0054529858897644275 0.055000615245256262 0 -0.008164314789468519 0.054451897220580296 0 -0.0049393241749144078 0.055470788169171281 0 -0.0054482638133905624 0.054999847809704287 0 -0.005211293004211622 0.055523200949315718 0 -0.007621209804320188 0.054443084194550913 0 -0.008164314789468519 0.054451897220580296 0 -0.013060598438849319 0.054004521971300741 0 -0.013413666590391324 0.054488698368354585 0 -0.013081058923173973 0.054565034638036705 0 -0.008164314789468519 0.054451897220580296 0 -0.0086025126267352606 0.05616313886531054 0 -0.0031605363321074 0.056502605458404458 0 -0.0051636724063440862 0.055503886195442165 0 -0.003843186583493577 0.05795577128192083 0 -0.0086025126267352606 0.05616313886531054 0 -0.007933240735994683 0.057815268565508289 0 -0.013413666590391324 0.054488698368354585 0 -0.013081058923173973 0.054565034638036705 0 -0.013198668384049934 0.054576921416563583 0 -0.013081058923173973 0.054565034638036705 0 -0.013198668384049934 0.054576921416563583 0 -0.013063179637434747 0.05459004875352793 0 -0.013198668384049934 0.054576921416563583 0 -0.013063179637434747 0.05459004875352793 0 -0.013111667423088969 0.054569473542130389 0 -0.0027359268927942665 0.060147118675333316 0 -0.0012140366041040391 0.06022344708755048 0 -0.00075498053146999858 0.058648088531896396 0 -0.00069067140302571926 0.058701997769581828 0 0.00046127334044456029 0.06046797538811325 0 -0.0012140366041040391 0.06022344708755048 0 -0.00075498053146999858 0.058648088531896396 0 -0.00022123816974272255 0.060394122548202922 0 -0.003843186583493577 0.05795577128192083 0 -0.0027359268927942665 0.060147118675333316 0 -0.00075498053146999858 0.058648088531896396 0 -0.015379056911937306 0.055190533815486532 0 -0.01516325280458935 0.054591695809094766 0 -0.015410901257374791 0.055863574868528547 0 -0.015205843574565295 0.054999517562999971 0 -0.01486850686172712 0.054768742090076303 0 -0.015393237621944845 0.055391266038515526 0 -0.013391924080412239 0.055543795923802826 0 -0.01523061931396974 0.055844266932958034 0 -0.015379056911937306 0.055190533815486532 0 -0.015393237621944845 0.055391266038515526 0 -0.015500076857648941 0.055371175620118562 0 -0.015379056911937306 0.055190533815486532 0 -0.015205843574565295 0.054999517562999971 0 -0.015393237621944845 0.055391266038515526 0 -0.015379056911937306 0.055190533815486532 0 -0.015205843574565295 0.054999517562999971 0 -0.01516325280458935 0.054591695809094766 0 -0.013874094633826934 0.055704540534703084 0 -0.013021145082237799 0.055503112827248229 0 -0.011826258068671786 0.05657173714548068 0 -0.013874094633826934 0.055704540534703084 0 -0.011826258068671786 0.05657173714548068 0 -0.015410901257374791 0.055863574868528547 0 -0.013021145082237799 0.055503112827248229 0 -0.011566599453964438 0.054999826141625234 0 -0.014625516064944369 0.054999401429229586 0 -0.013874094633826934 0.055704540534703084 0 -0.013021145082237799 0.055503112827248229 0 -0.014625516064944369 0.054999401429229586 0 -0.013021145082237799 0.055503112827248229 0 -0.011826258068671786 0.05657173714548068 0 -0.011566599453964438 0.054999826141625234 0 -0.011826258068671786 0.05657173714548068 0 -0.011566599453964438 0.054999826141625234 0 -0.008532406884662674 0.056076272787915077 0 -0.01516325280458935 0.054591695809094766 0 -0.01486850686172712 0.054768742090076303 0 -0.014581094353214252 0.054568158712217617 0 -0.015205843574565295 0.054999517562999971 0 -0.01516325280458935 0.054591695809094766 0 -0.01486850686172712 0.054768742090076303 0 -0.014212614235250821 0.054559354120571606 0 -0.014581094353214252 0.054568158712217617 0 -0.014578212598412764 0.054731409901482432 0 -0.01486850686172712 0.054768742090076303 0 -0.014581094353214252 0.054568158712217617 0 -0.014578212598412764 0.054731409901482432 0 -0.014212614235250821 0.054559354120571606 0 -0.014581094353214252 0.054568158712217617 0 -0.014088561106083922 0.054049923568626312 0 -0.013391924080412239 0.055543795923802826 0 -0.011548449514038861 0.055145125700012232 0 -0.011566599453964438 0.054999826141625234 0 -0.008532406884662674 0.056076272787915077 0 -0.0085075379293531039 0.055000041877273441 0 -0.01516325280458935 0.054591695809094766 0 -0.014581094353214252 0.054568158712217617 0 -0.014088561106083922 0.054049923568626312 0 -0.0054489747633443449 0.054999962417383794 0 -0.008532406884662674 0.056076272787915077 0 -0.0085075379293531039 0.055000041877273441 0 -0.008164314789468519 0.054451897220580296 0 -0.011548449514038861 0.055145125700012232 0 -0.013413666590391324 0.054488698368354585 0 -0.014212614235250821 0.054559354120571606 0 -0.014088561106083922 0.054049923568626312 0 -0.013413666590391324 0.054488698368354585 0 -0.014212614235250821 0.054559354120571606 0 -0.014343942944920553 0.054894698857966794 0 -0.013413666590391324 0.054488698368354585 0 -0.013198668384049934 0.054576921416563583 0 -0.013224984398911298 0.054557426885867517 0 -0.01343125029258343 0.054483563910299744 0 -0.013749479710019882 0.054685053099595489 0 -0.013198668384049934 0.054576921416563583 0 -0.01317574067629982 0.054544838671834267 0 -0.013152591928965996 0.054535439031996445 0 -0.013198668384049934 0.054576921416563583 0 -0.01317574067629982 0.054544838671834267 0 -0.013224984398911298 0.054557426885867517 0 -0.013749479710019882 0.054685053099595489 0 -0.013990225440541012 0.054645935310919852 0 -0.01317574067629982 0.054544838671834267 0 -0.013224984398911298 0.054557426885867517 0 -0.013137356922462042 0.054542275221940981 0 -0.014212614235250821 0.054559354120571606 0 -0.014343942944920553 0.054894698857966794 0 -0.014578212598412764 0.054731409901482432 0 -0.014343942944920553 0.054894698857966794 0 -0.014578212598412764 0.054731409901482432 0 -0.014772872705770754 0.054742850429742022 0 -0.014668485288312451 0.05473849179932698 0 -0.015354112178251984 0.054781877691027776 0 -0.014578212598412764 0.054731409901482432 0 -0.014772872705770754 0.054742850429742022 0 -0.015264086459156334 0.05418380780901251 0 -0.01486850686172712 0.054768742090076303 0 -0.014578212598412764 0.054731409901482432 0 -0.015393237621944845 0.055391266038515526 0 -0.015271506757873133 0.054583924337912565 0 -0.015264086459156334 0.05418380780901251 0 -0.01576693004297694 0.054331312902270515 0 -0.014772872705770754 0.054742850429742022 0 -0.015271506757873133 0.054583924337912565 0 -0.015264086459156334 0.05418380780901251 0 -0.013828210410612926 0.054832108712918076 0 -0.017094769632716986 0.053348221927597417 0 -0.013098104334057311 0.05443170433729385 0 -0.013095411080127394 0.054476489809779614 0 -0.013115327940351352 0.054424128302127048 0 -0.013098104334057311 0.05443170433729385 0 -0.013095411080127394 0.054476489809779614 0 -0.013103023529534808 0.054454690185488971 0 -0.013098104334057311 0.05443170433729385 0 -0.013103023529534808 0.054454690185488971 0 -0.013100295261636131 0.054433672857038248 0 -0.015271506757873133 0.054583924337912565 0 -0.015227478957216999 0.054966275011906394 0 -0.015802419458082691 0.054742337488177507 0 -0.013990225440541012 0.054645935310919852 0 -0.013828210410612926 0.054832108712918076 0 -0.014772872705770754 0.054742850429742022 0 -0.015271506757873133 0.054583924337912565 0 -0.015227478957216999 0.054966275011906394 0 -0.013137356922462042 0.054542275221940981 0 -0.013095411080127394 0.054476489809779614 0 -0.013131785433062478 0.054492622798870807 0 -0.013095411080127394 0.054476489809779614 0 -0.013103023529534808 0.054454690185488971 0 -0.013131785433062478 0.054492622798870807 0 -0.013103023529534808 0.054454690185488971 0 -0.013111777308927318 0.054448341982978092 0 -0.013131785433062478 0.054492622798870807 0 -0.013103023529534808 0.054454690185488971 0 -0.013100295261636131 0.054433672857038248 0 -0.013111777308927318 0.054448341982978092 0 -0.013111777308927318 0.054448341982978092 0 -0.013131785433062478 0.054492622798870807 0 -0.013121267929077706 0.054452437509971897 0 -0.013131785433062478 0.054492622798870807 0 -0.013152591928965996 0.054535439031996445 0 -0.013121267929077706 0.054452437509971897 0 -0.01317574067629982 0.054544838671834267 0 -0.013131785433062478 0.054492622798870807 0 -0.013152591928965996 0.054535439031996445 0 -0.01317574067629982 0.054544838671834267 0 -0.013137356922462042 0.054542275221940981 0 -0.013131785433062478 0.054492622798870807 0 -0.013152591928965996 0.054535439031996445 0 -0.013121267929077706 0.054452437509971897 0 -0.01310680243182084 0.054538986507890144 0 -0.010814620630943699 0.049455662410336915 0 -0.011128180608960094 0.048232203162311596 0 -0.0081305666071348464 0.044160291870572417 0 -0.008542951316712304 0.043795901842273083 0 -0.0078651100076424126 0.043827411396691607 0 -0.0081305666071348464 0.044160291870572417 0 -0.0086503184769390531 0.044218345828344503 0 -0.008542951316712304 0.043795901842273083 0 -0.0086503184769390531 0.044218345828344503 0 -0.008542951316712304 0.043795901842273083 0 -0.0090319299232341239 0.044050634454848872 0 -0.008542951316712304 0.043795901842273083 0 -0.0090319299232341239 0.044050634454848872 0 -0.0093069733421681563 0.043923277351531106 0 -0.013111777308927318 0.054448341982978092 0 -0.013121267929077706 0.054452437509971897 0 -0.013091670360982145 0.054395145873791885 0 -0.010814620630943699 0.049455662410336915 0 -0.010802551259586969 0.04778993077162226 0 -0.013100295261636131 0.054433672857038248 0 -0.013111777308927318 0.054448341982978092 0 -0.013091670360982145 0.054395145873791885 0 -0.0097293774692113737 0.045012979315755819 0 -0.010802551259586969 0.04778993077162226 0 -0.0090319299232341239 0.044050634454848872 0 -0.0093314990467585485 0.044284674811014016 0 -0.0092771944046495438 0.043961674291570399 0 -0.0086503184769390531 0.044218345828344503 0 -0.0090319299232341239 0.044050634454848872 0 -0.0090386450236869201 0.044310042103325661 0 -0.0090319299232341239 0.044050634454848872 0 -0.0090386450236869201 0.044310042103325661 0 -0.0093314990467585485 0.044284674811014016 0 -0.0093314990467585485 0.044284674811014016 0 -0.0092771944046495438 0.043961674291570399 0 -0.0096878195008678544 0.044099245033071485 0 -0.0093314990467585485 0.044284674811014016 0 -0.0095984174450374233 0.044459796182660508 0 -0.0096878195008678544 0.044099245033071485 0 -0.014385473767227461 0.052138498839130659 0 -0.014722923444756255 0.048739358392057446 0 -0.010802551259586969 0.04778993077162226 0 -0.014722923444756255 0.048739358392057446 0 -0.012158869310212549 0.04919746826548467 0 -0.013483092700713128 0.048483682889253032 0 -0.014451612930051374 0.049639003289960966 0 -0.013098104334057311 0.05443170433729385 0 -0.013091670360982145 0.054395145873791885 0 -0.013085712954611377 0.054409326342934126 0 -0.010802551259586969 0.04778993077162226 0 -0.014385473767227461 0.052138498839130659 0 -0.013098104334057311 0.05443170433729385 0 -0.013100295261636131 0.054433672857038248 0 -0.013091670360982145 0.054395145873791885 0 -0.014238556098833462 0.053228850234747015 0 -0.014385473767227461 0.052138498839130659 0 -0.013098104334057311 0.05443170433729385 0 -0.01310657799528204 0.054427576655785008 0 -0.013115327940351352 0.054424128302127048 0 -0.0013313751518544826 0.061339031637530753 0 -0.0019446453767603701 0.06189710726436571 0 -0.0016870684217476434 0.060854618094280138 0 -0.0068043424232321756 0.056045015542744513 0 -5.5662966594849859e-05 0.060674243839834364 0 -0.0013313751518544826 0.061339031637530753 0 -0.0019446453767603701 0.06189710726436571 0 -0.00090007931942179232 0.061649789930127451 0 -0.0074397447768711376 0.043945533774079802 0 -0.0076142171666522922 0.043982268323756422 0 -0.007488207145261442 0.044016917306633971 0 -0.0011463738954603209 0.061763817295894863 0 -0.0010110493443885092 0.061823729047581016 0 -0.0010292149868591813 0.061745423115595721 0 -0.0011463738954603209 0.061763817295894863 0 -0.0010110493443885092 0.061823729047581016 0 -0.00090007931942179232 0.061649789930127451 0 -0.0010110493443885092 0.061823729047581016 0 -0.00090007931942179232 0.061649789930127451 0 -0.00043462057546173825 0.062214928850806345 0 0.00046647885190954371 0.061825718800842602 0 -0.00090007931942179232 0.061649789930127451 0 -0.00043462057546173825 0.062214928850806345 0 0.00046647885190954371 0.061825718800842602 0 -0.00090007931942179232 0.061649789930127451 0 -0.00079987636819812134 0.060954479585408103 0 -0.0013313751518544826 0.061339031637530753 0 -0.00090007931942179232 0.061649789930127451 0 -0.00079987636819812134 0.060954479585408103 0 -0.0013313751518544826 0.061339031637530753 0 -0.00079987636819812134 0.060954479585408103 0 -0.0016870684217476434 0.060854618094280138 0 -0.0012140366041040391 0.06022344708755048 0 -0.00079987636819812134 0.060954479585408103 0 -0.00022123816974272255 0.060394122548202922 0 -0.0012140366041040391 0.06022344708755048 0 -0.00079987636819812134 0.060954479585408103 0 -0.0016870684217476434 0.060854618094280138 0 -0.0027359268927942665 0.060147118675333316 0 -0.0012140366041040391 0.06022344708755048 0 -0.0016870684217476434 0.060854618094280138 0 -0.0027359268927942665 0.060147118675333316 0 -0.0019446453767603701 0.06189710726436571 0 -0.0016870684217476434 0.060854618094280138 0 -0.007933240735994683 0.057815268565508289 0 -0.0068043424232321756 0.056045015542744513 0 -0.013063179637434747 0.05459004875352793 0 -0.013004398697197165 0.054603627033756465 0 -0.013111667423088969 0.054569473542130389 0 -0.013198668384049934 0.054576921416563583 0 -0.013152591928965996 0.054535439031996445 0 -0.013111667423088969 0.054569473542130389 0 -0.013152591928965996 0.054535439031996445 0 -0.013111667423088969 0.054569473542130389 0 -0.01310680243182084 0.054538986507890144 0 -0.013004398697197165 0.054603627033756465 0 -0.013111667423088969 0.054569473542130389 0 -0.01310680243182084 0.054538986507890144 0 -0.0074397447768711376 0.043945533774079802 0 -0.0078651100076424126 0.043827411396691607 0 -0.0076142171666522922 0.043982268323756422 0 -0.0068043424232321756 0.056045015542744513 0 -0.011128180608960094 0.048232203162311596 0 -0.0076142171666522922 0.043982268323756422 0 -0.0074982707978046743 0.04405686976356616 0 -0.007488207145261442 0.044016917306633971 0 -0.0076142171666522922 0.043982268323756422 0 -0.007722647958352021 0.044131268509610078 0 -0.0074944149377534353 0.044142222649945516 0 -0.0078651100076424126 0.043827411396691607 0 -0.0076142171666522922 0.043982268323756422 0 -0.007722647958352021 0.044131268509610078 0 -0.0076142171666522922 0.043982268323756422 0 -0.0074944149377534353 0.044142222649945516 0 -0.0074982707978046743 0.04405686976356616 0 -0.0081305666071348464 0.044160291870572417 0 -0.0078651100076424126 0.043827411396691607 0 -0.007722647958352021 0.044131268509610078 0 -0.0081305666071348464 0.044160291870572417 0 -0.007722647958352021 0.044131268509610078 0 -0.00776789556882877 0.044279345776279434 0 -0.007722647958352021 0.044131268509610078 0 -0.0075513540211745731 0.044291071986226324 0 -0.00776789556882877 0.044279345776279434 0 -0.007722647958352021 0.044131268509610078 0 -0.0074944149377534353 0.044142222649945516 0 -0.0075513540211745731 0.044291071986226324 0 -0.0074944149377534353 0.044142222649945516 0 -0.0073289361160340525 0.044310148848370888 0 -0.0075513540211745731 0.044291071986226324 0 -0.0074944149377534353 0.044142222649945516 0 -0.0073976891596706073 0.044089837284913905 0 -0.0073289361160340525 0.044310148848370888 0 -0.0019897702138279949 0.050946116019484809 0 -0.0030976582699032452 0.047605713366674282 0 -0.0074944149377534353 0.044142222649945516 0 -0.0074982707978046743 0.04405686976356616 0 -0.0073976891596706073 0.044089837284913905 0 -0.0068043424232321756 0.056045015542744513 0 -0.0019897702138279949 0.050946116019484809 0 -0.0074397447768711376 0.043945533774079802 0 -0.0073976891596706073 0.044089837284913905 0 -0.007488207145261442 0.044016917306633971 0 -0.0074982707978046743 0.04405686976356616 0 -0.0073976891596706073 0.044089837284913905 0 -0.007488207145261442 0.044016917306633971 0 0.0061881617457229306 0.059881024096346387 0 0.0030783343677531984 0.056869888873838044 0 0.00018111498821881981 0.063059384422705547 0 -0.00043462057546173825 0.062214928850806345 0 -0.00084254784557794666 0.062800869525226899 0 -0.0010110493443885092 0.061823729047581016 0 -0.0010292149868591813 0.061745423115595721 0 -0.0010470356308782255 0.061718772103109873 0 -0.00034143204687573004 0.063119713174909178 0 0.0030783343677531984 0.056869888873838044 0 -0.0010110493443885092 0.061823729047581016 0 -0.00043462057546173825 0.062214928850806345 0 -0.00084254784557794666 0.062800869525226899 0 -0.0019897702138279949 0.050946116019484809 0 0.0030783343677531984 0.056869888873838044 0 0.0012956894059867323 0.052060672930495377 0 0.0013349936124249127 0.051867292167289483 0 0.0013297220908098076 0.051868012783873631 0 0.0030783343677531984 0.056869888873838044 0 0.0066213342346913657 0.054062951056030949 0 0.011794447376947717 0.056662511850422558 0 0.010987442525796268 0.056470405076515316 0 0.011401528567756825 0.057739250463179376 0 0.0013351159649599596 0.052067959449309829 0 0.0012956894059867323 0.052060672930495377 0 0.0013349936124249127 0.051867292167289483 0 0.0013349936124249127 0.051867292167289483 0 0.0013297220908098076 0.051868012783873631 0 0.0014050455747886305 0.05181182823308178 0 -0.0073289361160340525 0.044310148848370888 0 -0.0074320433018518041 0.044401299357590657 0 -0.0075513540211745731 0.044291071986226324 0 -0.0073289361160340525 0.044310148848370888 0 -0.0074320433018518041 0.044401299357590657 0 -0.0071872104614755898 0.044419221524546866 0 -0.0030976582699032452 0.047605713366674282 0 -0.0035333162221529921 0.047478677578151759 0 0.0066213342346913657 0.054062951056030949 0 0.0073539325060812573 0.056287628457563119 0 0.0013297220908098076 0.051868012783873631 0 0.0014050455747886305 0.05181182823308178 0 0.0014204021948551228 0.051816029751788464 0 -0.0074320433018518041 0.044401299357590657 0 -0.0071872104614755898 0.044419221524546866 0 -0.0074488173411308492 0.044496922162797908 0 0.0015612056569772902 0.051901331436684989 0 0.0014050455747886305 0.05181182823308178 0 0.0014204021948551228 0.051816029751788464 0 -0.0071872104614755898 0.044419221524546866 0 -0.007412083272989675 0.044590378415657377 0 -0.0071779521729782485 0.045270543984979768 0 -0.0071872104614755898 0.044419221524546866 0 -0.007412083272989675 0.044590378415657377 0 -0.0074488173411308492 0.044496922162797908 0 -0.0074320433018518041 0.044401299357590657 0 -0.0074488173411308492 0.044496922162797908 0 -0.0074318215138081487 0.044478933727698899 0 -0.007412083272989675 0.044590378415657377 0 -0.0075250933450097431 0.04439644595865172 0 -0.0076777838849997147 0.044130509520512298 0 -0.0074488173411308492 0.044496922162797908 0 -0.0074318215138081487 0.044478933727698899 0 -0.0075250933450097431 0.04439644595865172 0 -0.0074318215138081487 0.044478933727698899 0 -0.0074675191465473044 0.044351381506370975 0 -0.0075250933450097431 0.04439644595865172 0 -0.007412083272989675 0.044590378415657377 0 -0.0074488173411308492 0.044496922162797908 0 -0.0075250933450097431 0.04439644595865172 0 -0.0075250933450097431 0.04439644595865172 0 -0.0075860797761671331 0.044250273516106824 0 -0.0076777838849997147 0.044130509520512298 0 -0.0078847177563134609 0.045235978271308236 0 -0.0067751541510822988 0.042736550239427955 0 -0.0074675191465473044 0.044351381506370975 0 -0.0075250933450097431 0.04439644595865172 0 -0.0075860797761671331 0.044250273516106824 0 -0.0074675191465473044 0.044351381506370975 0 -0.0076613151653062497 0.0441021976550416 0 -0.0073720101133689635 0.044160087925394768 0 -0.0074675191465473044 0.044351381506370975 0 -0.0075860797761671331 0.044250273516106824 0 -0.0076613151653062497 0.0441021976550416 0 -0.0075860797761671331 0.044250273516106824 0 -0.0076613151653062497 0.0441021976550416 0 -0.0076777838849997147 0.044130509520512298 0 -0.0076613151653062497 0.0441021976550416 0 -0.0078309465814644548 0.044000864530765071 0 -0.0072335835551263113 0.043794771497720403 0 -0.0069305114430203534 0.042851729860626929 0 -0.0067751541510822988 0.042736550239427955 0 -0.007412083272989675 0.044590378415657377 0 -0.0079000402736371864 0.045378276604542606 0 -0.0071779521729782485 0.045270543984979768 0 -0.0064280697454186693 0.046006402955849589 0 -0.0079000402736371864 0.045378276604542606 0 -0.0071779521729782485 0.045270543984979768 0 -0.0065348283862546501 0.045680744857155758 0 -0.0071872104614755898 0.044419221524546866 0 -0.0071779521729782485 0.045270543984979768 0 -0.00086671567141796268 0.044662345730624685 0 -0.0067751541510822988 0.042736550239427955 0 -0.0075637958170816861 0.04494503910453522 0 -0.0076633830714667424 0.044423062950748569 0 -0.0080072910174499631 0.044534993758780457 0 -0.0076669738385352565 0.045203494009052311 0 -0.0068532244888316208 0.044091338238489604 0 -0.0075637958170816861 0.04494503910453522 0 -0.0072138075630232626 0.044501959455528609 0 -0.0076633830714667424 0.044423062950748569 0 -0.0060933181968506646 0.043543670277748497 0 -0.0072335835551263113 0.043794771497720403 0 -0.0072138075630232626 0.044501959455528609 0 -0.0076613151653062497 0.0441021976550416 0 -0.0072335835551263113 0.043794771497720403 0 -0.0073720101133689635 0.044160087925394768 0 -0.0074675191465473044 0.044351381506370975 0 -0.0073720101133689635 0.044160087925394768 0 -0.0072138075630232626 0.044501959455528609 0 -0.0072335835551263113 0.043794771497720403 0 -0.0073720101133689635 0.044160087925394768 0 -0.0072138075630232626 0.044501959455528609 0 -0.0074318215138081487 0.044478933727698899 0 -0.0072138075630232626 0.044501959455528609 0 -0.0075617060884122624 0.044384027840353793 0 -0.0074318215138081487 0.044478933727698899 0 -0.0074675191465473044 0.044351381506370975 0 -0.0072138075630232626 0.044501959455528609 0 -0.0072138075630232626 0.044501959455528609 0 -0.0076633830714667424 0.044423062950748569 0 -0.0075617060884122624 0.044384027840353793 0 -0.0076633830714667424 0.044423062950748569 0 -0.0075617060884122624 0.044384027840353793 0 -0.0078810023032063418 0.044314137171766244 0 -0.0074320433018518041 0.044401299357590657 0 -0.0075617060884122624 0.044384027840353793 0 -0.0075513540211745731 0.044291071986226324 0 -0.0074320433018518041 0.044401299357590657 0 -0.0074318215138081487 0.044478933727698899 0 -0.0075617060884122624 0.044384027840353793 0 -0.0075617060884122624 0.044384027840353793 0 -0.0075513540211745731 0.044291071986226324 0 -0.00776789556882877 0.044279345776279434 0 -0.0075617060884122624 0.044384027840353793 0 -0.00776789556882877 0.044279345776279434 0 -0.0078810023032063418 0.044314137171766244 0 -0.0081305666071348464 0.044160291870572417 0 -0.0086503184769390531 0.044218345828344503 0 -0.0084608153593373151 0.044594803566344814 0 -0.0081305666071348464 0.044160291870572417 0 -0.00776789556882877 0.044279345776279434 0 -0.0078810023032063418 0.044314137171766244 0 -0.0081272131788870886 0.044148999348759613 0 -0.0081761446071925755 0.0444314143457578 0 -0.0086503184769390531 0.044218345828344503 0 -0.0088612981772681499 0.044475598738563077 0 -0.0084608153593373151 0.044594803566344814 0 -0.0086503184769390531 0.044218345828344503 0 -0.0090386450236869201 0.044310042103325661 0 -0.0088612981772681499 0.044475598738563077 0 -0.0084608153593373151 0.044594803566344814 0 -0.008903794851932316 0.044706025079186799 0 -0.0085531731795943054 0.044824391168107387 0 -0.0088612981772681499 0.044475598738563077 0 -0.0084608153593373151 0.044594803566344814 0 -0.008903794851932316 0.044706025079186799 0 -0.0081761446071925755 0.0444314143457578 0 -0.008273880143879234 0.044710288837894747 0 -0.0093314990467585485 0.044284674811014016 0 -0.0092660186325083538 0.044537761188437143 0 -0.0095984174450374233 0.044459796182660508 0 -0.0092660186325083538 0.044537761188437143 0 -0.0096141270906247057 0.044632269942424946 0 -0.0095984174450374233 0.044459796182660508 0 -0.0090386450236869201 0.044310042103325661 0 -0.0093314990467585485 0.044284674811014016 0 -0.0092660186325083538 0.044537761188437143 0 -0.0090386450236869201 0.044310042103325661 0 -0.0088612981772681499 0.044475598738563077 0 -0.0092660186325083538 0.044537761188437143 0 -0.0092660186325083538 0.044537761188437143 0 -0.008903794851932316 0.044706025079186799 0 -0.0094017707702459732 0.044753720358217751 0 -0.0088612981772681499 0.044475598738563077 0 -0.0092660186325083538 0.044537761188437143 0 -0.008903794851932316 0.044706025079186799 0 -0.0092660186325083538 0.044537761188437143 0 -0.0094017707702459732 0.044753720358217751 0 -0.0096141270906247057 0.044632269942424946 0 -0.0094017707702459732 0.044753720358217751 0 -0.0093348700452919233 0.044865055941606162 0 -0.0096261928103008616 0.044856876890699227 0 -0.0094017707702459732 0.044753720358217751 0 -0.0091028067321619575 0.04484424111779832 0 -0.0093348700452919233 0.044865055941606162 0 -0.008903794851932316 0.044706025079186799 0 -0.0094017707702459732 0.044753720358217751 0 -0.0091028067321619575 0.04484424111779832 0 -0.008903794851932316 0.044706025079186799 0 -0.0091028067321619575 0.04484424111779832 0 -0.0087812534776956584 0.044857863769587017 0 -0.0091028067321619575 0.04484424111779832 0 -0.0089672863900324244 0.044959707159096717 0 -0.0087812534776956584 0.044857863769587017 0 -0.0089672863900324244 0.044959707159096717 0 -0.0091928416479032538 0.044946360637998402 0 -0.0090948406412796178 0.045030519752955363 0 -0.0091028067321619575 0.04484424111779832 0 -0.0089672863900324244 0.044959707159096717 0 -0.0091928416479032538 0.044946360637998402 0 -0.0091028067321619575 0.04484424111779832 0 -0.0091928416479032538 0.044946360637998402 0 -0.0093348700452919233 0.044865055941606162 0 -0.0091928416479032538 0.044946360637998402 0 -0.0093753097710714117 0.044934722357634758 0 -0.0092595017357197766 0.044979547537800924 0 -0.0091928416479032538 0.044946360637998402 0 -0.0093753097710714117 0.044934722357634758 0 -0.0093348700452919233 0.044865055941606162 0 -0.0076633830714667424 0.044423062950748569 0 -0.0078810023032063418 0.044314137171766244 0 -0.0080072910174499631 0.044534993758780457 0 -0.008903794851932316 0.044706025079186799 0 -0.0085531731795943054 0.044824391168107387 0 -0.0087812534776956584 0.044857863769587017 0 -0.0087812534776956584 0.044857863769587017 0 -0.0083238174420862017 0.045156711257626263 0 -0.008735068746399538 0.045050528463878879 0 -0.0085531731795943054 0.044824391168107387 0 -0.0087812534776956584 0.044857863769587017 0 -0.0083238174420862017 0.045156711257626263 0 -0.0089672863900324244 0.044959707159096717 0 -0.0087812534776956584 0.044857863769587017 0 -0.008735068746399538 0.045050528463878879 0 -0.0075637958170816861 0.04494503910453522 0 -0.0080072910174499631 0.044534993758780457 0 -0.0083238174420862017 0.045156711257626263 0 -0.008273880143879234 0.044710288837894747 0 -0.0083294032277782658 0.045152923077132874 0 -0.0075637958170816861 0.04494503910453522 0 -0.0083238174420862017 0.045156711257626263 0 -0.007910379857426833 0.045437264551030067 0 -0.0083238174420862017 0.045156711257626263 0 -0.008781018923417724 0.04534832596397935 0 -0.007910379857426833 0.045437264551030067 0 -0.005721264213335994 0.044378340936254951 0 -0.0011244611572164128 0.040045184972376691 0 -0.008735068746399538 0.045050528463878879 0 -0.0086958975690495308 0.045170266025780961 0 -0.0089154851871524592 0.045133134614136886 0 -0.0083238174420862017 0.045156711257626263 0 -0.008735068746399538 0.045050528463878879 0 -0.0086958975690495308 0.045170266025780961 0 -0.0086958975690495308 0.045170266025780961 0 -0.008781018923417724 0.04534832596397935 0 -0.0089154851871524592 0.045133134614136886 0 -0.0083238174420862017 0.045156711257626263 0 -0.0086958975690495308 0.045170266025780961 0 -0.008781018923417724 0.04534832596397935 0 -0.00056559201652987801 0.029546916782138534 0 -0.0020004513709442873 0.031019303929161357 0 0.0014238503000563181 0.031664305003891599 0 -0.0033035470466137636 0.042542250750624629 0 -0.0034432932574934329 0.043504212082945443 0 0.0061043290371222978 0.042200953320324135 0 -0.00056559201652987801 0.029546916782138534 0 0.0028663387781988178 0.029659506473086912 0 0.0014238503000563181 0.031664305003891599 0 -0.0018959628684427827 0.036948363730485809 0 0.0036996739733786018 0.032369164342109472 0 -0.0033035470466137636 0.042542250750624629 0 0.0069018210089088717 0.040943636580190929 0 0.0061043290371222978 0.042200953320324135 0 0.0051446032372187101 0.026160345595394738 0 0.0063809733845670378 0.028049802262837025 0 0.008764890854998323 0.024643677989668846 0 0.0036996739733786018 0.032369164342109472 0 0.0039776159608232459 0.024535489483912088 0 0.0056294017305419672 0.029064944650236898 0 0.0059946958705828033 0.028601425698499116 0 0.0031930371981343133 0.028018105074589794 0 -0.0011244611572164128 0.040045184972376691 0 0.0036996739733786018 0.032369164342109472 0 -0.0033035470466137636 0.042542250750624629 0 -0.0092706018809389033 0.044930326319924385 0 -0.0091145069556389478 0.045307989603946802 0 -0.0092706018809389033 0.044930326319924385 0 -0.0091145069556389478 0.045307989603946802 0 -0.0094298550972653321 0.045037989980587667 0 -0.0092706018809389033 0.044930326319924385 0 -0.0093646024887688844 0.044977520263568299 0 -0.0092595017357197766 0.044979547537800924 0 -0.0092706018809389033 0.044930326319924385 0 -0.0093646024887688844 0.044977520263568299 0 -0.0094298550972653321 0.045037989980587667 0 -0.0093753097710714117 0.044934722357634758 0 -0.0093646024887688844 0.044977520263568299 0 -0.0092595017357197766 0.044979547537800924 0 -0.0092706018809389033 0.044930326319924385 0 -0.0092595017357197766 0.044979547537800924 0 -0.0090948406412796178 0.045030519752955363 0 -0.0091928416479032538 0.044946360637998402 0 -0.0092595017357197766 0.044979547537800924 0 -0.0090948406412796178 0.045030519752955363 0 -0.0092706018809389033 0.044930326319924385 0 -0.0090948406412796178 0.045030519752955363 0 -0.0089154851871524592 0.045133134614136886 0 -0.008781018923417724 0.04534832596397935 0 -0.0092706018809389033 0.044930326319924385 0 -0.0089154851871524592 0.045133134614136886 0 -0.005721264213335994 0.044378340936254951 0 -0.0090427794181687608 0.044645803313884798 0 -0.0089672863900324244 0.044959707159096717 0 -0.0090948406412796178 0.045030519752955363 0 -0.0089154851871524592 0.045133134614136886 0 -0.0089672863900324244 0.044959707159096717 0 -0.008735068746399538 0.045050528463878879 0 -0.0089154851871524592 0.045133134614136886 0 -0.0018959628684427827 0.036948363730485809 0 -0.0065931813414603054 0.037125002710776574 0 -0.00056559201652987801 0.029546916782138534 0 -0.0020004513709442873 0.031019303929161357 0 -0.0040186400285927319 0.029438902381144428 0 -0.0033035470466137636 0.042542250750624629 0 -0.0034432932574934329 0.043504212082945443 0 -0.0091145069556389478 0.045307989603946802 0 -0.0020004513709442873 0.031019303929161357 0 -0.0040186400285927319 0.029438902381144428 0 -0.0054244263195043262 0.030355431338968869 0 -0.00059677516562104478 0.024832684564800558 0 -0.0040524076828413573 0.023415429803382262 0 3.2780257351785093e-05 0.021062803889524088 0 -0.0030170456227064752 0.022148599559806158 0 -0.0027023836846952493 0.016577206759671882 0 0.0011537187844117432 0.018459783470241881 0 3.2780257351785093e-05 0.021062803889524088 0 -0.0027023836846952493 0.016577206759671882 0 0.0011537187844117432 0.018459783470241881 0 3.2780257351785093e-05 0.021062803889524088 0 0.0034583733304990329 0.022182030224860264 0 3.2780257351785093e-05 0.021062803889524088 0 0.001807337860291115 0.023497587061646605 0 -0.00010028049837976421 0.023643711783990145 0 3.2780257351785093e-05 0.021062803889524088 0 0.001807337860291115 0.023497587061646605 0 0.0034583733304990329 0.022182030224860264 0 3.2780257351785093e-05 0.021062803889524088 0 -0.0030170456227064752 0.022148599559806158 0 -0.00010028049837976421 0.023643711783990145 0 0.008764890854998323 0.024643677989668846 0 0.0037455707124507327 0.023660291107520666 0 0.0049096186419799156 0.025006522306706518 0 0.0039776159608232459 0.024535489483912088 0 0.0047434334637277281 0.023577273069568205 0 0.0039599981007100689 0.023196760409501714 0 0.0038498275277585193 0.022900748239405876 0 0.0037455707124507327 0.023660291107520666 0 0.0051446032372187101 0.026160345595394738 0 0.008764890854998323 0.024643677989668846 0 0.0049096186419799156 0.025006522306706518 0 0.0039599981007100689 0.023196760409501714 0 0.0038498275277585193 0.022900748239405876 0 0.0034583733304990329 0.022182030224860264 0 0.0011537187844117432 0.018459783470241881 0 0.005151888598226107 0.01983960757303899 0 0.0034583733304990329 0.022182030224860264 0 -0.00059677516562104478 0.024832684564800558 0 0.0039776159608232459 0.024535489483912088 0 0.0039776159608232459 0.024535489483912088 0 0.0042121717807042085 0.021534736746866439 0 0.001807337860291115 0.023497587061646605 0 0.0038762503729820839 0.023234455808148126 0 0.0040693168725217995 0.024158617637209116 0 0.001807337860291115 0.023497587061646605 0 0.0034583733304990329 0.022182030224860264 0 0.0038762503729820839 0.023234455808148126 0 0.0039599981007100689 0.023196760409501714 0 0.0034583733304990329 0.022182030224860264 0 0.0038762503729820839 0.023234455808148126 0 0.0038762503729820839 0.023234455808148126 0 0.0044271569600201335 0.023821300622207841 0 0.0040693168725217995 0.024158617637209116 0 0.0039599981007100689 0.023196760409501714 0 0.0044271569600201335 0.023821300622207841 0 0.0037455707124507327 0.023660291107520666 0 0.0039599981007100689 0.023196760409501714 0 0.0038762503729820839 0.023234455808148126 0 0.0044271569600201335 0.023821300622207841 0 0.0044271569600201335 0.023821300622207841 0 0.0042503230409744784 0.024375133498424295 0 0.0043003011372267554 0.024262072186574644 0 0.0044271569600201335 0.023821300622207841 0 0.0041559772507416808 0.025295898005449506 0 0.0046577658192594896 0.027153643265038586 0 0.0044271569600201335 0.023821300622207841 0 0.0042503230409744784 0.024375133498424295 0 0.0041559772507416808 0.025295898005449506 0 0.004154633960637099 0.024387356032013752 0 0.0042780938285269477 0.024767895655990805 0 0.0042503230409744784 0.024375133498424295 0 0.0041559772507416808 0.025295898005449506 0 0.0039017954812365315 0.024537784133156298 0 0.0041559772507416808 0.025295898005449506 0 0.0036477129809115096 0.025510706605663888 0 0.0039017954812365315 0.024537784133156298 0 0.0041559772507416808 0.025295898005449506 0 0.0037067631215931865 0.026209468156654332 0 0.0036477129809115096 0.025510706605663888 0 0.0044271569600201335 0.023821300622207841 0 0.003104101884399101 0.023643687639579004 0 0.0037455707124507327 0.023660291107520666 0 0.0041559772507416808 0.025295898005449506 0 0.0046577658192594896 0.027153643265038586 0 0.0037067631215931865 0.026209468156654332 0 0.003104101884399101 0.023643687639579004 0 0.0037455707124507327 0.023660291107520666 0 0.003245310968165925 0.025728995878119904 0 0.0037455707124507327 0.023660291107520666 0 0.0049096186419799156 0.025006522306706518 0 0.003245310968165925 0.025728995878119904 0 0.0022593641369973144 0.028904914986934954 0 0.0016990740003782828 0.027403018569367603 0 0.0030446018405260963 0.027105593519939269 0 0.0022593641369973144 0.028904914986934954 0 0.0016990740003782828 0.027403018569367603 0 0.000126009401798559 0.029411866640726918 0 0.0046577658192594896 0.027153643265038586 0 0.0022593641369973144 0.028904914986934954 0 0.0030446018405260963 0.027105593519939269 0 0.0046577658192594896 0.027153643265038586 0 0.0030446018405260963 0.027105593519939269 0 0.0037067631215931865 0.026209468156654332 0 0.0016990740003782828 0.027403018569367603 0 0.0030446018405260963 0.027105593519939269 0 0.0027291169051180579 0.026110394961253881 0 0.0030446018405260963 0.027105593519939269 0 0.0037067631215931865 0.026209468156654332 0 0.0027291169051180579 0.026110394961253881 0 0.0016990740003782828 0.027403018569367603 0 0.0027291169051180579 0.026110394961253881 0 0.00019450287061753671 0.026290548948982591 0 0.0039017954812365315 0.024537784133156298 0 0.0031042152753391664 0.024853731514644074 0 0.0031440404407706703 0.025595058997323828 0 0.0039017954812365315 0.024537784133156298 0 0.0031042152753391664 0.024853731514644074 0 0.0043103524498295529 0.024344088126087494 0 0.0046973957678192882 0.024343451988849754 0 0.0043227892398806991 0.024327439550719799 0 0.0027291169051180579 0.026110394961253881 0 0.0039017954812365315 0.024537784133156298 0 0.00019450287061753671 0.026290548948982591 0 0.0036216602350241816 0.024642519311594488 0 0.0017299664778270246 0.026028868131930744 0 0.0027291169051180579 0.026110394961253881 0 0.0036477129809115096 0.025510706605663888 0 0.0039017954812365315 0.024537784133156298 0 0.0037067631215931865 0.026209468156654332 0 0.0027291169051180579 0.026110394961253881 0 0.0036477129809115096 0.025510706605663888 0 0.0065288168616909935 0.024193424572002194 0 0.0063356790659806431 0.023475458899349967 0 0.0057139197019445247 0.024508977708213 0 0.0046973957678192882 0.024343451988849754 0 0.0045680094828949675 0.023051508312464771 0 0.0063356790659806431 0.023475458899349967 0 0.0077043776754437271 0.023549105485293979 0 0.00826319076820063 0.022435691940216287 0 0.0065288168616909935 0.024193424572002194 0 0.0070399332174085148 0.024044054929195004 0 0.0063356790659806431 0.023475458899349967 0 0.0070399332174085148 0.024044054929195004 0 0.0063356790659806431 0.023475458899349967 0 0.0077043776754437271 0.023549105485293979 0 0.0083966018365968977 0.023851119268250245 0 0.0077950304527589376 0.024328176151969687 0 0.0087435984289138766 0.024590868587067535 0 0.0092827750249598485 0.023644770180090303 0 0.0083966018365968977 0.023851119268250245 0 0.0087435984289138766 0.024590868587067535 0 0.0083966018365968977 0.023851119268250245 0 0.0077950304527589376 0.024328176151969687 0 0.0077043776754437271 0.023549105485293979 0 0.0070399332174085148 0.024044054929195004 0 0.0077950304527589376 0.024328176151969687 0 0.0077043776754437271 0.023549105485293979 0 0.0077043776754437271 0.023549105485293979 0 0.0085985587806672141 0.023243971650050751 0 0.00826319076820063 0.022435691940216287 0 0.0083966018365968977 0.023851119268250245 0 0.0077043776754437271 0.023549105485293979 0 0.0085985587806672141 0.023243971650050751 0 0.0092827750249598485 0.023644770180090303 0 0.0083966018365968977 0.023851119268250245 0 0.0085985587806672141 0.023243971650050751 0 0.0016868731308320927 0.026073281752582576 0 0.0031440404407706703 0.025595058997323828 0 0.0019100462522732759 0.027062427485699193 0 0.009330001389107433 0.022768403342766492 0 0.0085985587806672141 0.023243971650050751 0 0.00826319076820063 0.022435691940216287 0 0.00080683251484155963 0.027521225966949607 0 0.0016868731308320927 0.026073281752582576 0 0.0019100462522732759 0.027062427485699193 0 0.0017299664778270246 0.026028868131930744 0 -0.0016000579133083376 0.028091208633812766 0 0.0031042152753391664 0.024853731514644074 0 0.0016868731308320927 0.026073281752582576 0 0.0031440404407706703 0.025595058997323828 0 0.00019450287061753671 0.026290548948982591 0 0.000126009401798559 0.029411866640726918 0 -0.0040581702612246537 0.029701449066784829 0 0.0016990740003782828 0.027403018569367603 0 0.00019450287061753671 0.026290548948982591 0 0.000126009401798559 0.029411866640726918 0 -0.001877561755150473 0.032373053796158707 0 0.000126009401798559 0.029411866640726918 0 0.0022328624635094699 0.032221880748936789 0 -0.001877561755150473 0.032373053796158707 0 0.000126009401798559 0.029411866640726918 0 -0.0040581702612246537 0.029701449066784829 0 -0.001526786531526599 0.032726590875605512 0 -0.001502127300025869 0.03367445283094693 0 -0.0084064164542962116 0.033688136467873699 0 -0.0040581702612246537 0.029701449066784829 0 -0.0063869395175468885 0.032649990515370694 0 0.00032939935855271879 0.028703201137609231 0 0.00080683251484155963 0.027521225966949607 0 0.0019100462522732759 0.027062427485699193 0 -0.001877561755150473 0.032373053796158707 0 -0.0040581702612246537 0.029701449066784829 0 -0.0063869395175468885 0.032649990515370694 0 0.0012854000724001051 0.036051061394637672 0 -0.0016000579133083376 0.028091208633812766 0 -0.001526786531526599 0.032726590875605512 0 -0.0061860874476011001 0.03262970325662308 0 -0.0080365794361448566 0.036048596188642527 0 -0.0021990437738886232 0.033073422958346109 0 -0.0063869395175468885 0.032649990515370694 0 -0.0080365794361448566 0.036048596188642527 0 -0.0016325456936058017 0.038984528041593962 0 -0.0021990437738886232 0.033073422958346109 0 -0.0016325456936058017 0.038984528041593962 0 -0.0021990437738886232 0.033073422958346109 0 0.0018840309148566931 0.033348861671062636 0 -0.0067751541510822988 0.042736550239427955 0 -0.001502127300025869 0.03367445283094693 0 -0.0078309465814644548 0.044000864530765071 0 -0.0072335835551263113 0.043794771497720403 0 -0.0071142992071928359 0.042372259925452856 0 -0.0060933181968506646 0.043543670277748497 0 -0.0072335835551263113 0.043794771497720403 0 -0.0071142992071928359 0.042372259925452856 0 -0.0076669738385352565 0.045203494009052311 0 -0.0011244611572164128 0.040045184972376691 0 -0.0060933181968506646 0.043543670277748497 0 -0.0052561810210729224 0.042418652511472289 0 -0.0071142992071928359 0.042372259925452856 0 0.0056294017305419672 0.029064944650236898 0 0.0031930371981343133 0.028018105074589794 0 -0.00030966037234734449 0.028315708509196996 0 0.003104101884399101 0.023643687639579004 0 0.003245310968165925 0.025728995878119904 0 -0.00030966037234734449 0.028315708509196996 0 0.0031930371981343133 0.028018105074589794 0 0.003245310968165925 0.025728995878119904 0 -0.00030966037234734449 0.028315708509196996 0 -0.0011244611572164128 0.040045184972376691 0 -0.001502127300025869 0.03367445283094693 0 0.0036996739733786018 0.032369164342109472 0 0.004202518554738576 0.028712861887533015 0 0.0051446032372187101 0.026160345595394738 0 0.0063809733845670378 0.028049802262837025 0 0.0031930371981343133 0.028018105074589794 0 0.0051446032372187101 0.026160345595394738 0 0.0031930371981343133 0.028018105074589794 0 0.003245310968165925 0.025728995878119904 0 0.0051446032372187101 0.026160345595394738 0 0.0049096186419799156 0.025006522306706518 0 0.003245310968165925 0.025728995878119904 0 0.0042780938285269477 0.024767895655990805 0 -0.001502127300025869 0.03367445283094693 0 0.0046577658192594896 0.027153643265038586 0 0.0022593641369973144 0.028904914986934954 0 0.0022328624635094699 0.032221880748936789 0 0.0022593641369973144 0.028904914986934954 0 0.000126009401798559 0.029411866640726918 0 0.0022328624635094699 0.032221880748936789 0 -0.015990343994026969 0.0298804840089648 0 -0.017737347232253023 0.0072313102850805203 0 -0.016425693086687794 0.011775284704846251 0 -0.019408188767008377 0.014051376377158888 0 -0.01607783235727606 0.015144493051635422 0 -0.014336132032799603 0.014373003201315831 0 -0.016425693086687794 0.011775284704846251 0 -0.012736772755490103 0.012797164326787087 0 -0.014336132032799603 0.014373003201315831 0 -0.016425693086687794 0.011775284704846251 0 -0.01607783235727606 0.015144493051635422 0 -0.010377323161694802 0.044727351148956235 0 -0.010207816010778489 0.044857984956553645 0 -0.010233109347453031 0.044800388659063738 0 -0.015990343994026969 0.0298804840089648 0 -0.010814229000394844 0.02874816104292903 0 -0.01619567653436689 0.010185015166665741 0 -0.020367261414150014 0.0092225928042926359 0 -0.019408188767008377 0.014051376377158888 0 -0.015990343994026969 0.0298804840089648 0 -0.019657209583987856 0.02967888204697337 0 -0.018262963552445305 0.050133766600218822 0 -0.018144284455831904 0.050204548630423264 0 -0.018200353635953636 0.050443038034795905 0 -0.024662465368178885 0.0085312934128497359 0 -0.023177871950508296 0.011827992600685793 0 -0.026201519101213711 0.010956374739629645 0 -0.020367261414150014 0.0092225928042926359 0 -0.024662465368178885 0.0085312934128497359 0 -0.023177871950508296 0.011827992600685793 0 -0.019657209583987856 0.02967888204697337 0 -0.020530872961692877 0.029617523685985497 0 -0.023177871950508296 0.011827992600685793 0 -0.023683319140293486 0.014972824712346428 0 -0.026383380239156821 0.013678924927367699 0 -0.023177871950508296 0.011827992600685793 0 -0.019408188767008377 0.014051376377158888 0 -0.023683319140293486 0.014972824712346428 0 -0.020367261414150014 0.0092225928042926359 0 -0.023177871950508296 0.011827992600685793 0 -0.019408188767008377 0.014051376377158888 0 -0.019408188767008377 0.014051376377158888 0 -0.021128546464898607 0.016393272321790192 0 -0.023683319140293486 0.014972824712346428 0 -0.019408188767008377 0.014051376377158888 0 -0.021128546464898607 0.016393272321790192 0 -0.018052390697300115 0.01694365860577025 0 -0.021128546464898607 0.016393272321790192 0 -0.023683319140293486 0.014972824712346428 0 -0.023468749733492257 0.017396969005335865 0 -0.023683319140293486 0.014972824712346428 0 -0.023468749733492257 0.017396969005335865 0 -0.026457760381224438 0.016301283003717023 0 -0.023468749733492257 0.017396969005335865 0 -0.026457760381224438 0.016301283003717023 0 -0.025761054874250879 0.018438407328620239 0 -0.023468749733492257 0.017396969005335865 0 -0.0207521535720709 0.01873417336839844 0 -0.023735225537962409 0.019295608397662374 0 -0.025761054874250879 0.018438407328620239 0 -0.02545492191614411 0.020240767930227301 0 -0.023735225537962409 0.019295608397662374 0 -0.023468749733492257 0.017396969005335865 0 -0.025761054874250879 0.018438407328620239 0 -0.023735225537962409 0.019295608397662374 0 -0.021128546464898607 0.016393272321790192 0 -0.0207521535720709 0.01873417336839844 0 -0.018052390697300115 0.01694365860577025 0 -0.021128546464898607 0.016393272321790192 0 -0.023468749733492257 0.017396969005335865 0 -0.0207521535720709 0.01873417336839844 0 -0.0207521535720709 0.01873417336839844 0 -0.018052390697300115 0.01694365860577025 0 -0.016269279570113582 0.019491555600625505 0 -0.018052390697300115 0.01694365860577025 0 -0.01537445925583242 0.017539767024641929 0 -0.016269279570113582 0.019491555600625505 0 -0.018052390697300115 0.01694365860577025 0 -0.01607783235727606 0.015144493051635422 0 -0.01537445925583242 0.017539767024641929 0 -0.019408188767008377 0.014051376377158888 0 -0.018052390697300115 0.01694365860577025 0 -0.01607783235727606 0.015144493051635422 0 -0.01607783235727606 0.015144493051635422 0 -0.01537445925583242 0.017539767024641929 0 -0.013653810548538599 0.016455581222925553 0 -0.014336132032799603 0.014373003201315831 0 -0.01607783235727606 0.015144493051635422 0 -0.013653810548538599 0.016455581222925553 0 -0.01537445925583242 0.017539767024641929 0 -0.013653810548538599 0.016455581222925553 0 -0.013066868085450215 0.019399679334172915 0 -0.011185447784598353 0.01734193123922451 0 -0.013653810548538599 0.016455581222925553 0 -0.013066868085450215 0.019399679334172915 0 -0.010414883613122464 0.0192353235165173 0 -0.012492243199845526 0.015498065382692789 0 -0.0098537852297190601 0.021260474493198435 0 -0.0089464417092352082 0.017439256579152688 0 -0.012606448981632741 0.01523423659628329 0 -0.0098537852297190601 0.021260474493198435 0 -0.0089464417092352082 0.017439256579152688 0 -0.0060805043969342984 0.019004461388060129 0 -0.011185447784598353 0.01734193123922451 0 -0.013653810548538599 0.016455581222925553 0 -0.012606448981632741 0.01523423659628329 0 -0.014336132032799603 0.014373003201315831 0 -0.013653810548538599 0.016455581222925553 0 -0.012606448981632741 0.01523423659628329 0 -0.0098537852297190601 0.021260474493198435 0 -0.0062264411436069996 0.022505985162958042 0 -0.0060805043969342984 0.019004461388060129 0 -0.0098537852297190601 0.021260474493198435 0 -0.0062264411436069996 0.022505985162958042 0 -0.0071947031620104972 0.025460510737283719 0 -0.0030170456227064752 0.022148599559806158 0 -0.0062264411436069996 0.022505985162958042 0 -0.0060805043969342984 0.019004461388060129 0 -0.0089464417092352082 0.017439256579152688 0 -0.0060805043969342984 0.019004461388060129 0 -0.007467308164816432 0.014438640246498911 0 -0.0030170456227064752 0.022148599559806158 0 -0.0060805043969342984 0.019004461388060129 0 -0.0027023836846952493 0.016577206759671882 0 -0.0065931813414603054 0.037125002710776574 0 -0.0085834988859197839 0.038109998346606964 0 -0.0040186400285927319 0.029438902381144428 0 -0.0054244263195043262 0.030355431338968869 0 -0.007429506923500054 0.029324359141002131 0 -0.007429506923500054 0.029324359141002131 0 -0.0088050360060671976 0.029690985937218778 0 -0.010834744413235096 0.029286384947653319 0 -0.0054244263195043262 0.030355431338968869 0 -0.007429506923500054 0.029324359141002131 0 -0.0088050360060671976 0.029690985937218778 0 -0.0040524076828413573 0.023415429803382262 0 -0.0084853011721191182 0.022318827020663113 0 -0.0060805043969342984 0.019004461388060129 0 -0.0027023836846952493 0.016577206759671882 0 -0.007467308164816432 0.014438640246498911 0 -0.0085834988859197839 0.038109998346606964 0 -0.010575809859292061 0.029386519279126933 0 -0.0098320703993498015 0.045066755287306956 0 -0.0095644058681069229 0.044955598398393866 0 -0.0098197112750191187 0.044904950246361625 0 -0.0098320703993498015 0.045066755287306956 0 -0.0099815035260769763 0.044934959636452866 0 -0.0098197112750191187 0.044904950246361625 0 -0.0099815035260769763 0.044934959636452866 0 -0.0099902865547654846 0.04486939203469844 0 -0.0098197112750191187 0.044904950246361625 0 -0.0091145069556389478 0.045307989603946802 0 -0.0098320703993498015 0.045066755287306956 0 -0.0094298550972653321 0.045037989980587667 0 -0.0098320703993498015 0.045066755287306956 0 -0.0095644058681069229 0.044955598398393866 0 -0.0094298550972653321 0.045037989980587667 0 -0.0093753097710714117 0.044934722357634758 0 -0.0093646024887688844 0.044977520263568299 0 -0.0095644058681069229 0.044955598398393866 0 -0.0093646024887688844 0.044977520263568299 0 -0.0095644058681069229 0.044955598398393866 0 -0.0094298550972653321 0.045037989980587667 0 -0.012606448981632741 0.01523423659628329 0 -0.010793857040214965 0.013233604920301774 0 -0.012736772755490103 0.012797164326787087 0 -0.014336132032799603 0.014373003201315831 0 -0.012606448981632741 0.01523423659628329 0 -0.012736772755490103 0.012797164326787087 0 -0.0089464417092352082 0.017439256579152688 0 -0.007467308164816432 0.014438640246498911 0 -0.012606448981632741 0.01523423659628329 0 -0.007467308164816432 0.014438640246498911 0 -0.012606448981632741 0.01523423659628329 0 -0.010793857040214965 0.013233604920301774 0 -0.0084853011721191182 0.022318827020663113 0 -0.010575809859292061 0.029386519279126933 0 -0.010116074252822436 0.044925519805631454 0 -0.0099815035260769763 0.044934959636452866 0 -0.010114333876741521 0.044863783426060511 0 -0.0098320703993498015 0.045066755287306956 0 -0.010116074252822436 0.044925519805631454 0 -0.0099815035260769763 0.044934959636452866 0 -0.0099815035260769763 0.044934959636452866 0 -0.010114333876741521 0.044863783426060511 0 -0.0099902865547654846 0.04486939203469844 0 -0.010114333876741521 0.044863783426060511 0 -0.010207816010778489 0.044857984956553645 0 -0.010233109347453031 0.044800388659063738 0 -0.010116074252822436 0.044925519805631454 0 -0.010114333876741521 0.044863783426060511 0 -0.010207816010778489 0.044857984956553645 0 -0.010575809859292061 0.029386519279126933 0 -0.010814229000394844 0.02874816104292903 0 -0.010114333876741521 0.044863783426060511 0 -0.010233109347453031 0.044800388659063738 0 -0.010088668109698636 0.044819812245685431 0 -0.010114333876741521 0.044863783426060511 0 -0.010088668109698636 0.044819812245685431 0 -0.0099902865547654846 0.04486939203469844 0 -0.010088668109698636 0.044819812245685431 0 -0.0099902865547654846 0.04486939203469844 0 -0.0098991774956409175 0.04481605436771139 0 -0.010088668109698636 0.044819812245685431 0 -0.0098991774956409175 0.04481605436771139 0 -0.010142235234506004 0.044780765391223658 0 -0.010233109347453031 0.044800388659063738 0 -0.010088668109698636 0.044819812245685431 0 -0.010142235234506004 0.044780765391223658 0 -0.014752401339879852 0.050988957561453427 0 -0.014071325170869281 0.047214429094808365 0 -0.018363483100171028 0.050553189193108479 0 -0.018353808014110847 0.050848129230619384 0 -0.018256668237051812 0.050806801642431655 0 -0.0095644058681069229 0.044955598398393866 0 -0.0096261928103008616 0.044856876890699227 0 -0.0098197112750191187 0.044904950246361625 0 -0.0093753097710714117 0.044934722357634758 0 -0.0093348700452919233 0.044865055941606162 0 -0.0096261928103008616 0.044856876890699227 0 -0.0093753097710714117 0.044934722357634758 0 -0.0095644058681069229 0.044955598398393866 0 -0.0096261928103008616 0.044856876890699227 0 -0.0096261928103008616 0.044856876890699227 0 -0.0098197112750191187 0.044904950246361625 0 -0.0098991774956409175 0.04481605436771139 0 -0.0099902865547654846 0.04486939203469844 0 -0.0098197112750191187 0.044904950246361625 0 -0.0098991774956409175 0.04481605436771139 0 -0.0096261928103008616 0.044856876890699227 0 -0.0098991774956409175 0.04481605436771139 0 -0.0098338820223471679 0.044738416850132072 0 -0.0098991774956409175 0.04481605436771139 0 -0.0098338820223471679 0.044738416850132072 0 -0.010142235234506004 0.044780765391223658 0 -0.0094017707702459732 0.044753720358217751 0 -0.0096261928103008616 0.044856876890699227 0 -0.0098338820223471679 0.044738416850132072 0 -0.0094017707702459732 0.044753720358217751 0 -0.0096141270906247057 0.044632269942424946 0 -0.0098338820223471679 0.044738416850132072 0 -0.0096141270906247057 0.044632269942424946 0 -0.0098338820223471679 0.044738416850132072 0 -0.010000792051057026 0.044566623044917583 0 -0.0098338820223471679 0.044738416850132072 0 -0.010000792051057026 0.044566623044917583 0 -0.010142235234506004 0.044780765391223658 0 -0.0096141270906247057 0.044632269942424946 0 -0.010000792051057026 0.044566623044917583 0 -0.0095984174450374233 0.044459796182660508 0 -0.018353808014110847 0.050848129230619384 0 -0.018312032466665382 0.051051217263698184 0 -0.018256668237051812 0.050806801642431655 0 -0.018353808014110847 0.050848129230619384 0 -0.018335069732443882 0.051029704646275584 0 -0.018312032466665382 0.051051217263698184 0 -0.018071482245266904 0.050973457894739518 0 -0.018353808014110847 0.050848129230619384 0 -0.018335069732443882 0.051029704646275584 0 -0.013830031031420971 0.047551298080044463 0 -0.014071325170869281 0.047214429094808365 0 -0.018335069732443882 0.051029704646275584 0 -0.018312032466665382 0.051051217263698184 0 -0.018461555649608132 0.051148593638316531 0 -0.018312032466665382 0.051051217263698184 0 -0.018154035852702897 0.051161333392880537 0 -0.018256668237051812 0.050806801642431655 0 -0.018312032466665382 0.051051217263698184 0 -0.018154035852702897 0.051161333392880537 0 -0.018170993864691093 0.051387525663066584 0 -0.018154035852702897 0.051161333392880537 0 -0.018079591437072415 0.051030954770780783 0 -0.018007202142475927 0.051381133703104043 0 -0.018079591437072415 0.051030954770780783 0 -0.018256668237051812 0.050806801642431655 0 -0.018136284063875695 0.050702051200073608 0 -0.018154035852702897 0.051161333392880537 0 -0.018079591437072415 0.051030954770780783 0 -0.018256668237051812 0.050806801642431655 0 -0.018363483100171028 0.050553189193108479 0 -0.018256668237051812 0.050806801642431655 0 -0.018200353635953636 0.050443038034795905 0 -0.018256668237051812 0.050806801642431655 0 -0.018136284063875695 0.050702051200073608 0 -0.018200353635953636 0.050443038034795905 0 -0.018262963552445305 0.050133766600218822 0 -0.018363483100171028 0.050553189193108479 0 -0.018200353635953636 0.050443038034795905 0 -0.015990343994026969 0.0298804840089648 0 -0.014752401339879852 0.050988957561453427 0 -0.018057460403939837 0.050186402774143823 0 -0.018106109172600946 0.050522590260377823 0 -0.018011609861124545 0.050451768445765648 0 -0.018144284455831904 0.050204548630423264 0 -0.018057460403939837 0.050186402774143823 0 -0.018106109172600946 0.050522590260377823 0 -0.018144284455831904 0.050204548630423264 0 -0.018200353635953636 0.050443038034795905 0 -0.018106109172600946 0.050522590260377823 0 -0.018136284063875695 0.050702051200073608 0 -0.018106109172600946 0.050522590260377823 0 -0.018043024963186417 0.050847118246472152 0 -0.018136284063875695 0.050702051200073608 0 -0.018200353635953636 0.050443038034795905 0 -0.018106109172600946 0.050522590260377823 0 -0.018106109172600946 0.050522590260377823 0 -0.018143341914983981 0.050884590431063526 0 -0.018011609861124545 0.050451768445765648 0 -0.018106109172600946 0.050522590260377823 0 -0.018143341914983981 0.050884590431063526 0 -0.018043024963186417 0.050847118246472152 0 -0.018143341914983981 0.050884590431063526 0 -0.017889563871085899 0.051064067435169322 0 -0.018989169692177715 0.049655966231729305 0 -0.018143341914983981 0.050884590431063526 0 -0.018043024963186417 0.050847118246472152 0 -0.017889563871085899 0.051064067435169322 0 -0.018079591437072415 0.051030954770780783 0 -0.018136284063875695 0.050702051200073608 0 -0.018043024963186417 0.050847118246472152 0 -0.018079591437072415 0.051030954770780783 0 -0.018043024963186417 0.050847118246472152 0 -0.017889563871085899 0.051064067435169322 0 -0.018079591437072415 0.051030954770780783 0 -0.017967778210354116 0.051378486913992896 0 -0.017889563871085899 0.051064067435169322 0 -0.018079591437072415 0.051030954770780783 0 -0.017967778210354116 0.051378486913992896 0 -0.018007202142475927 0.051381133703104043 0 -0.017967778210354116 0.051378486913992896 0 -0.017889563871085899 0.051064067435169322 0 -0.017805867111322718 0.051754383392774397 0 -0.017889563871085899 0.051064067435169322 0 -0.018117653817981482 0.05166501993423165 0 -0.018341756728635406 0.05216950471283726 0 -0.018089180648534459 0.051032841463087036 0 -0.018753243579444676 0.050919608592041574 0 -0.017889563871085899 0.051064067435169322 0 -0.018117653817981482 0.05166501993423165 0 -0.017805867111322718 0.051754383392774397 0 -0.017805867111322718 0.051754383392774397 0 -0.017959745122170401 0.051557460169071347 0 -0.019081596373868092 0.051984411759930016 0 -0.017959745122170401 0.051557460169071347 0 -0.019081596373868092 0.051984411759930016 0 -0.018411938831284672 0.051048389433907923 0 -0.017959745122170401 0.051557460169071347 0 -0.017913747426325979 0.051576595927010319 0 -0.018411938831284672 0.051048389433907923 0 -0.017853431863678625 0.051670772185918222 0 -0.017834953407359726 0.051920085021415763 0 -0.017913747426325979 0.051576595927010319 0 -0.017959745122170401 0.051557460169071347 0 -0.017853431863678625 0.051670772185918222 0 -0.017913747426325979 0.051576595927010319 0 -0.017959745122170401 0.051557460169071347 0 -0.017853431863678625 0.051670772185918222 0 -0.017866179181037688 0.051610794844691492 0 -0.017853431863678625 0.051670772185918222 0 -0.017866179181037688 0.051610794844691492 0 -0.017902882725359812 0.051652611320396821 0 -0.017805867111322718 0.051754383392774397 0 -0.017959745122170401 0.051557460169071347 0 -0.017866179181037688 0.051610794844691492 0 -0.017967778210354116 0.051378486913992896 0 -0.017805867111322718 0.051754383392774397 0 -0.017866179181037688 0.051610794844691492 0 -0.017967778210354116 0.051378486913992896 0 -0.017866179181037688 0.051610794844691492 0 -0.018007202142475927 0.051381133703104043 0 -0.017866179181037688 0.051610794844691492 0 -0.018007202142475927 0.051381133703104043 0 -0.017902882725359812 0.051652611320396821 0 -0.018154035852702897 0.051161333392880537 0 -0.018007202142475927 0.051381133703104043 0 -0.018024160658146864 0.051472795600299028 0 -0.018007202142475927 0.051381133703104043 0 -0.018024160658146864 0.051472795600299028 0 -0.017902882725359812 0.051652611320396821 0 -0.018154035852702897 0.051161333392880537 0 -0.018024160658146864 0.051472795600299028 0 -0.018170993864691093 0.051387525663066584 0 -0.018024160658146864 0.051472795600299028 0 -0.018170993864691093 0.051387525663066584 0 -0.017926042358424418 0.051893164146723229 0 -0.018170993864691093 0.051387525663066584 0 -0.017926042358424418 0.051893164146723229 0 -0.018133588081184419 0.051774687903589564 0 -0.017926042358424418 0.051893164146723229 0 -0.017965871265918493 0.05224407725228588 0 -0.018133588081184419 0.051774687903589564 0 -0.017926042358424418 0.051893164146723229 0 -0.017902882725359812 0.051652611320396821 0 -0.017834953407359726 0.051920085021415763 0 -0.018024160658146864 0.051472795600299028 0 -0.017926042358424418 0.051893164146723229 0 -0.017902882725359812 0.051652611320396821 0 -0.017853431863678625 0.051670772185918222 0 -0.017902882725359812 0.051652611320396821 0 -0.017834953407359726 0.051920085021415763 0 -0.017926042358424418 0.051893164146723229 0 -0.017834953407359726 0.051920085021415763 0 -0.017829685322492374 0.052479927198663776 0 -0.017834953407359726 0.051920085021415763 0 -0.017829685322492374 0.052479927198663776 0 -0.017831783226802914 0.052345979683616976 0 -0.017926042358424418 0.051893164146723229 0 -0.017965871265918493 0.05224407725228588 0 -0.017829685322492374 0.052479927198663776 0 -0.017965871265918493 0.05224407725228588 0 -0.017829685322492374 0.052479927198663776 0 -0.018008272289279884 0.05270487376577352 0 -0.017829685322492374 0.052479927198663776 0 -0.017797383218154387 0.053146255778413816 0 -0.018008272289279884 0.05270487376577352 0 -0.017829685322492374 0.052479927198663776 0 -0.017797383218154387 0.053146255778413816 0 -0.017807799636845645 0.05292735000504889 0 -0.017807799636845645 0.05292735000504889 0 -0.017831783226802914 0.052345979683616976 0 -0.017797429692888576 0.052744089799343474 0 -0.017829685322492374 0.052479927198663776 0 -0.017807799636845645 0.05292735000504889 0 -0.017831783226802914 0.052345979683616976 0 -0.022023119829076745 0.054301856431807141 0 -0.020652712964711856 0.056494868346285344 0 -0.017831783226802914 0.052345979683616976 0 -0.017564116917487792 0.052231411800566729 0 -0.017797429692888576 0.052744089799343474 0 -0.017831783226802914 0.052345979683616976 0 -0.017564116917487792 0.052231411800566729 0 -0.017807848083892377 0.051912042602466894 0 -0.026338836004026193 0.061057281460193374 0 -0.026309100410127 0.059537969998737832 0 -0.026742826367635482 0.060704716591858429 0 -0.023821462504875743 0.054460207002134886 0 -0.02397497471325695 0.054530707848854616 0 -0.023973897916664211 0.054349217340943119 0 -0.022023119829076745 0.054301856431807141 0 -0.025369303447308589 0.056173036592599479 0 -0.017894591622934865 0.051856792884881917 0 -0.017972130027745583 0.051654765993374478 0 -0.017768730876958214 0.05185515018077623 0 -0.022023119829076745 0.054301856431807141 0 -0.021847579977453811 0.051645132939408672 0 -0.022023119829076745 0.054301856431807141 0 -0.017504723215181307 0.052537642336811394 0 -0.017894591622934865 0.051856792884881917 0 -0.017972130027745583 0.051654765993374478 0 -0.017807848083892377 0.051912042602466894 0 -0.017972130027745583 0.051654765993374478 0 -0.017913747426325979 0.051576595927010319 0 -0.017807848083892377 0.051912042602466894 0 -0.017972130027745583 0.051654765993374478 0 -0.017913747426325979 0.051576595927010319 0 -0.018411938831284672 0.051048389433907923 0 -0.017972130027745583 0.051654765993374478 0 -0.018411938831284672 0.051048389433907923 0 -0.017768730876958214 0.05185515018077623 0 -0.017834953407359726 0.051920085021415763 0 -0.017913747426325979 0.051576595927010319 0 -0.017807848083892377 0.051912042602466894 0 -0.017834953407359726 0.051920085021415763 0 -0.017831783226802914 0.052345979683616976 0 -0.017807848083892377 0.051912042602466894 0 -0.014722923444756255 0.048739358392057446 0 -0.019450332910084557 0.051293107340681383 0 -0.019491678261349253 0.05175155839569584 0 -0.019672389163166739 0.051604761104454139 0 -0.019266906320656634 0.051405173498765513 0 -0.014385473767227461 0.052138498839130659 0 -0.017094769632716986 0.053348221927597417 0 -0.019735449527899053 0.05175965866355639 0 -0.019629140337099976 0.051742340257631116 0 -0.019672389163166739 0.051604761104454139 0 -0.019735449527899053 0.05175965866355639 0 -0.019629140337099976 0.051742340257631116 0 -0.019602066911671098 0.051844748622239555 0 -0.019629140337099976 0.051742340257631116 0 -0.019491678261349253 0.05175155839569584 0 -0.019602066911671098 0.051844748622239555 0 -0.018998252269507573 0.052537524044214703 0 -0.017094769632716986 0.053348221927597417 0 -0.019629140337099976 0.051742340257631116 0 -0.019491678261349253 0.05175155839569584 0 -0.019672389163166739 0.051604761104454139 0 -0.010000792051057026 0.044566623044917583 0 -0.0095984174450374233 0.044459796182660508 0 -0.0096878195008678544 0.044099245033071485 0 -0.013830031031420971 0.047551298080044463 0 -0.014722923444756255 0.048739358392057446 0 -0.018071482245266904 0.050973457894739518 0 -0.018335069732443882 0.051029704646275584 0 -0.018085704753279065 0.050691171139795113 0 -0.018071482245266904 0.050973457894739518 0 -0.017509565528922369 0.050490506811927717 0 -0.018085704753279065 0.050691171139795113 0 -0.019491678261349253 0.05175155839569584 0 -0.019266906320656634 0.051405173498765513 0 -0.018957877579964102 0.051798771854832629 0 -0.019266906320656634 0.051405173498765513 0 -0.018957877579964102 0.051798771854832629 0 -0.018461555649608132 0.051148593638316531 0 -0.018957877579964102 0.051798771854832629 0 -0.018461555649608132 0.051148593638316531 0 -0.018398927980286212 0.05205192379441094 0 -0.018335069732443882 0.051029704646275584 0 -0.018085704753279065 0.050691171139795113 0 -0.018461555649608132 0.051148593638316531 0 -0.019450332910084557 0.051293107340681383 0 -0.018152175084149614 0.051041304118765188 0 -0.018170993864691093 0.051387525663066584 0 -0.018461555649608132 0.051148593638316531 0 -0.018133588081184419 0.051774687903589564 0 -0.018312032466665382 0.051051217263698184 0 -0.018170993864691093 0.051387525663066584 0 -0.018461555649608132 0.051148593638316531 0 -0.018461555649608132 0.051148593638316531 0 -0.018133588081184419 0.051774687903589564 0 -0.018398927980286212 0.05205192379441094 0 -0.017965871265918493 0.05224407725228588 0 -0.018398927980286212 0.05205192379441094 0 -0.018008272289279884 0.05270487376577352 0 -0.017965871265918493 0.05224407725228588 0 -0.018133588081184419 0.051774687903589564 0 -0.018398927980286212 0.05205192379441094 0 -0.018008272289279884 0.05270487376577352 0 -0.017884542950206968 0.053560928772534967 0 -0.019057424841892094 0.052568628894296442 0 -0.017797383218154387 0.053146255778413816 0 -0.018008272289279884 0.05270487376577352 0 -0.017884542950206968 0.053560928772534967 0 -0.017805116151426589 0.053616299988702237 0 -0.018011780902456476 0.053788450231552126 0 -0.017884542950206968 0.053560928772534967 0 -0.016773388399262224 0.054950861296973019 0 -0.016896087101796419 0.054126369155425791 0 -0.018398927980286212 0.05205192379441094 0 -0.018008272289279884 0.05270487376577352 0 -0.019057424841892094 0.052568628894296442 0 -0.018957877579964102 0.051798771854832629 0 -0.018398927980286212 0.05205192379441094 0 -0.019057424841892094 0.052568628894296442 0 -0.019491678261349253 0.05175155839569584 0 -0.018957877579964102 0.051798771854832629 0 -0.019057424841892094 0.052568628894296442 0 -0.018011780902456476 0.053788450231552126 0 -0.017094769632716986 0.053348221927597417 0 -0.019491678261349253 0.05175155839569584 0 -0.019057424841892094 0.052568628894296442 0 -0.019747792940829435 0.052015112295531456 0 -0.016773388399262224 0.054950861296973019 0 -0.015802419458082691 0.054742337488177507 0 -0.016304630917111023 0.054306690172654611 0 -0.016773388399262224 0.054950861296973019 0 -0.016304630917111023 0.054306690172654611 0 -0.016896087101796419 0.054126369155425791 0 -0.015227478957216999 0.054966275011906394 0 -0.015802419458082691 0.054742337488177507 0 -0.015820005864691612 0.05550876207292843 0 -0.016773388399262224 0.054950861296973019 0 -0.015802419458082691 0.054742337488177507 0 -0.015820005864691612 0.05550876207292843 0 -0.015393237621944845 0.055391266038515526 0 -0.015595502680811916 0.055312791959478746 0 -0.015500076857648941 0.055371175620118562 0 -0.015354112178251984 0.054781877691027776 0 -0.016080386088197514 0.054478544799533575 0 -0.015393237621944845 0.055391266038515526 0 -0.015595502680811916 0.055312791959478746 0 -0.015741983027635971 0.055228183359375037 0 -0.015264086459156334 0.05418380780901251 0 -0.01576693004297694 0.054331312902270515 0 -0.016388989797843912 0.053845297540684012 0 -0.015271506757873133 0.054583924337912565 0 -0.015802419458082691 0.054742337488177507 0 -0.01576693004297694 0.054331312902270515 0 -0.015802419458082691 0.054742337488177507 0 -0.01576693004297694 0.054331312902270515 0 -0.016304630917111023 0.054306690172654611 0 -0.01576693004297694 0.054331312902270515 0 -0.016304630917111023 0.054306690172654611 0 -0.016388989797843912 0.053845297540684012 0 -0.016304630917111023 0.054306690172654611 0 -0.016388989797843912 0.053845297540684012 0 -0.016896087101796419 0.054126369155425791 0 -0.015595502680811916 0.055312791959478746 0 -0.015741983027635971 0.055228183359375037 0 -0.015841443976868361 0.055128056786297425 0 -0.015741983027635971 0.055228183359375037 0 -0.015841443976868361 0.055128056786297425 0 -0.016139314138633946 0.05472467096514446 0 -0.016139314138633946 0.05472467096514446 0 -0.017440844655899238 0.053872324614336366 0 -0.017366982972338837 0.053781605906473656 0 -0.015841443976868361 0.055128056786297425 0 -0.016101643919793868 0.054715261308431504 0 -0.016139314138633946 0.05472467096514446 0 -0.016101643919793868 0.054715261308431504 0 -0.016139314138633946 0.05472467096514446 0 -0.016132353109629918 0.0547417877351166 0 -0.015741983027635971 0.055228183359375037 0 -0.016139314138633946 0.05472467096514446 0 -0.017440844655899238 0.053872324614336366 0 -0.016359965140997326 0.054583564798026958 0 -0.016658274682722341 0.054302889447349387 0 -0.016388989797843912 0.053845297540684012 0 -0.016896087101796419 0.054126369155425791 0 -0.017440844655899238 0.053872324614336366 0 -0.016080386088197514 0.054478544799533575 0 -0.017269872339681618 0.053992952482956227 0 -0.017440844655899238 0.053872324614336366 0 -0.017607323887998162 0.053682698448978709 0 -0.017366982972338837 0.053781605906473656 0 -0.017884542950206968 0.053560928772534967 0 -0.016896087101796419 0.054126369155425791 0 -0.017440844655899238 0.053872324614336366 0 -0.017797383218154387 0.053146255778413816 0 -0.017884542950206968 0.053560928772534967 0 -0.017715771808805004 0.053619636143050958 0 -0.017884542950206968 0.053560928772534967 0 -0.017440844655899238 0.053872324614336366 0 -0.017715771808805004 0.053619636143050958 0 -0.017715771808805004 0.053619636143050958 0 -0.017607323887998162 0.053682698448978709 0 -0.017697780436107494 0.053563106339551761 0 -0.017440844655899238 0.053872324614336366 0 -0.017715771808805004 0.053619636143050958 0 -0.017607323887998162 0.053682698448978709 0 -0.016101643919793868 0.054715261308431504 0 -0.016132353109629918 0.0547417877351166 0 -0.016224868435291188 0.054751081421434852 0 -0.016658274682722341 0.054302889447349387 0 -0.017311189804197352 0.055309427162663578 0 -0.016083456642170937 0.05526577678562436 0 -0.017311189804197352 0.055309427162663578 0 -0.016331643567401154 0.055677994838899895 0 -0.016699747199068429 0.05564226774150681 0 -0.017264993189747235 0.056107793836097056 0 -0.017607323887998162 0.053682698448978709 0 -0.017366982972338837 0.053781605906473656 0 -0.01768870185622733 0.053610775724914878 0 -0.019756791670839602 0.058352029072242281 0 -0.020178177226596945 0.057220028557338889 0 -0.019288459417513986 0.056362585454731724 0 -0.019756791670839602 0.058352029072242281 0 -0.020178177226596945 0.057220028557338889 0 -0.021292639919863032 0.05770393300495312 0 -0.019288459417513986 0.056362585454731724 0 -0.017683305626580586 0.054999735360792099 0 -0.020742401376586932 0.05499991820974022 0 -0.020178177226596945 0.057220028557338889 0 -0.019288459417513986 0.056362585454731724 0 -0.020742401376586932 0.05499991820974022 0 -0.019288459417513986 0.056362585454731724 0 -0.017683305626580586 0.054999735360792099 0 -0.017892544178807781 0.056185887960221073 0 -0.017683305626580586 0.054999735360792099 0 -0.017892544178807781 0.056185887960221073 0 -0.01679491624134111 0.055951572261617746 0 -0.016083456642170937 0.05526577678562436 0 -0.015768717803630403 0.05560494117924538 0 -0.019756791670839602 0.058352029072242281 0 -0.019288459417513986 0.056362585454731724 0 -0.017534444302348288 0.057388419967247015 0 -0.016331643567401154 0.055677994838899895 0 -0.016699747199068429 0.05564226774150681 0 -0.016026357529094249 0.055554459792942754 0 -0.019288459417513986 0.056362585454731724 0 -0.017892544178807781 0.056185887960221073 0 -0.017534444302348288 0.057388419967247015 0 -0.018008749678885563 0.05694991650168648 0 -0.016848349301395508 0.056487012334167537 0 -0.017892544178807781 0.056185887960221073 0 -0.017534444302348288 0.057388419967247015 0 -0.01679491624134111 0.055951572261617746 0 -0.016331643567401154 0.055677994838899895 0 -0.016026357529094249 0.055554459792942754 0 -0.015610947063233965 0.055692618001674084 0 -0.016848349301395508 0.056487012334167537 0 -0.015616042551523266 0.055993560459540251 0 -0.017534444302348288 0.057388419967247015 0 -0.01679491624134111 0.055951572261617746 0 -0.015457962318448622 0.055924925113581478 0 -0.015841443976868361 0.055128056786297425 0 -0.016101643919793868 0.054715261308431504 0 -0.015610947063233965 0.055692618001674084 0 -0.016026357529094249 0.055554459792942754 0 -0.015610947063233965 0.055692618001674084 0 -0.015457962318448622 0.055924925113581478 0 -0.015595502680811916 0.055312791959478746 0 -0.015841443976868361 0.055128056786297425 0 -0.01556500605633662 0.055500532847740813 0 -0.015841443976868361 0.055128056786297425 0 -0.015610947063233965 0.055692618001674084 0 -0.01556500605633662 0.055500532847740813 0 -0.015610947063233965 0.055692618001674084 0 -0.015515523320429716 0.055756042649636677 0 -0.01556500605633662 0.055500532847740813 0 -0.015610947063233965 0.055692618001674084 0 -0.015457962318448622 0.055924925113581478 0 -0.015515523320429716 0.055756042649636677 0 -0.017683305626580586 0.054999735360792099 0 -0.01679491624134111 0.055951572261617746 0 -0.014625516064944369 0.054999401429229586 0 -0.01679491624134111 0.055951572261617746 0 -0.014625516064944369 0.054999401429229586 0 -0.015457962318448622 0.055924925113581478 0 -0.014734117852702636 0.055651896848590454 0 -0.015410901257374791 0.055863574868528547 0 -0.015457962318448622 0.055924925113581478 0 -0.014625516064944369 0.054999401429229586 0 -0.014734117852702636 0.055651896848590454 0 -0.015457962318448622 0.055924925113581478 0 -0.013874094633826934 0.055704540534703084 0 -0.014625516064944369 0.054999401429229586 0 -0.014734117852702636 0.055651896848590454 0 -0.013874094633826934 0.055704540534703084 0 -0.014734117852702636 0.055651896848590454 0 -0.015410901257374791 0.055863574868528547 0 -0.015379056911937306 0.055190533815486532 0 -0.015410901257374791 0.055863574868528547 0 -0.015500076857648941 0.055371175620118562 0 -0.015410901257374791 0.055863574868528547 0 -0.015457962318448622 0.055924925113581478 0 -0.015515523320429716 0.055756042649636677 0 -0.015410901257374791 0.055863574868528547 0 -0.015515523320429716 0.055756042649636677 0 -0.01556500605633662 0.055500532847740813 0 -0.015410901257374791 0.055863574868528547 0 -0.01556500605633662 0.055500532847740813 0 -0.015500076857648941 0.055371175620118562 0 -0.015595502680811916 0.055312791959478746 0 -0.01556500605633662 0.055500532847740813 0 -0.015500076857648941 0.055371175620118562 0 -0.024874502952743183 0.058677230453059268 0 -0.025561585323730006 0.058768311331628541 0 -0.024491356828583701 0.059256848998802923 0 -0.024339069646966124 0.058513345768836336 0 -0.024874502952743183 0.058677230453059268 0 -0.024491356828583701 0.059256848998802923 0 -0.024339069646966124 0.058513345768836336 0 -0.024874502952743183 0.058677230453059268 0 -0.024846864600315322 0.057658422086075259 0 -0.024339069646966124 0.058513345768836336 0 -0.023702309207123389 0.057989845300093733 0 -0.024846864600315322 0.057658422086075259 0 -0.024874502952743183 0.058677230453059268 0 -0.025561585323730006 0.058768311331628541 0 -0.024846864600315322 0.057658422086075259 0 -0.026184299612834375 0.057920553016565055 0 -0.025561585323730006 0.058768311331628541 0 -0.024846864600315322 0.057658422086075259 0 -0.026184299612834375 0.057920553016565055 0 -0.026712935958720836 0.058716498842263959 0 -0.026889429005884952 0.057036481706957715 0 -0.027416836315694599 0.059935016983831003 0 -0.027237784320063612 0.056877248683442717 0 -0.026184299612834375 0.057920553016565055 0 -0.026169130688369083 0.058799547841747686 0 -0.026712935958720836 0.058716498842263959 0 -0.026184299612834375 0.057920553016565055 0 -0.026169130688369083 0.058799547841747686 0 -0.025561585323730006 0.058768311331628541 0 -0.027416836315694599 0.059935016983831003 0 -0.025369303447308589 0.056173036592599479 0 -0.026338836004026193 0.061057281460193374 0 -0.026309100410127 0.059537969998737832 0 -0.023528756520861192 0.059829826624700572 0 -0.026712935958720836 0.058716498842263959 0 -0.026309100410127 0.059537969998737832 0 -0.026742826367635482 0.060704716591858429 0 -0.026169130688369083 0.058799547841747686 0 -0.025561585323730006 0.058768311331628541 0 -0.026309100410127 0.059537969998737832 0 -0.026169130688369083 0.058799547841747686 0 -0.026712935958720836 0.058716498842263959 0 -0.026309100410127 0.059537969998737832 0 -0.026309100410127 0.059537969998737832 0 -0.023528756520861192 0.059829826624700572 0 -0.023487566617295674 0.058823228583530784 0 -0.025960451230630587 0.059424062639562951 0 -0.024444282113532393 0.05931441047911401 0 -0.025561585323730006 0.058768311331628541 0 -0.026309100410127 0.059537969998737832 0 -0.024491356828583701 0.059256848998802923 0 -0.017807799636845645 0.05292735000504889 0 -0.017797429692888576 0.052744089799343474 0 -0.017791077537752258 0.053227637369631486 0 -0.024444282113532393 0.05931441047911401 0 -0.019545006849501563 0.056370493697294431 0 -0.023528756520861192 0.059829826624700572 0 -0.023487566617295674 0.058823228583530784 0 -0.020377978272229525 0.058195021140747011 0 -0.020652712964711856 0.056494868346285344 0 -0.019545006849501563 0.056370493697294431 0 -0.017807799636845645 0.05292735000504889 0 -0.017723905199689548 0.053318683595001595 0 -0.017791077537752258 0.053227637369631486 0 -0.017797383218154387 0.053146255778413816 0 -0.017715771808805004 0.053619636143050958 0 -0.017723905199689548 0.053318683595001595 0 -0.017797383218154387 0.053146255778413816 0 -0.017807799636845645 0.05292735000504889 0 -0.017723905199689548 0.053318683595001595 0 -0.018574822787395154 0.053286054505129743 0 -0.019545006849501563 0.056370493697294431 0 -0.017607323887998162 0.053682698448978709 0 -0.017697780436107494 0.053563106339551761 0 -0.01768870185622733 0.053610775724914878 0 -0.017723905199689548 0.053318683595001595 0 -0.017697780436107494 0.053563106339551761 0 -0.017630374180410059 0.053631843163165889 0 -0.017715771808805004 0.053619636143050958 0 -0.017723905199689548 0.053318683595001595 0 -0.017697780436107494 0.053563106339551761 0 -0.019756791670839602 0.058352029072242281 0 -0.021921101357503039 0.059215406252530217 0 -0.021292639919863032 0.05770393300495312 0 -0.018008749678885563 0.05694991650168648 0 -0.020937474159847754 0.057543578179576407 0 -0.016699747199068429 0.05564226774150681 0 -0.017264993189747235 0.056107793836097056 0 -0.017485097818654618 0.055937010603321194 0 -0.017697780436107494 0.053563106339551761 0 -0.01768870185622733 0.053610775724914878 0 -0.017630374180410059 0.053631843163165889 0 -0.019545006849501563 0.056370493697294431 0 -0.020937474159847754 0.057543578179576407 0 -0.017311189804197352 0.055309427162663578 0 -0.019545006849501563 0.056370493697294431 0 -0.017264993189747235 0.056107793836097056 0 -0.01739957607120627 0.056135073549226151 0 -0.017485097818654618 0.055937010603321194 0 -0.022636032402153512 0.058453395598991952 0 -0.023702309207123389 0.057989845300093733 0 -0.023276933500337722 0.05682007415692656 0 -0.024491356828583701 0.059256848998802923 0 -0.022296746491056729 0.058866738016925275 0 -0.023712459594677857 0.058874557274602467 0 -0.024339069646966124 0.058513345768836336 0 -0.024491356828583701 0.059256848998802923 0 -0.023712459594677857 0.058874557274602467 0 -0.024339069646966124 0.058513345768836336 0 -0.023712459594677857 0.058874557274602467 0 -0.023702309207123389 0.057989845300093733 0 -0.020937474159847754 0.057543578179576407 0 -0.023991293315192154 0.058959385343944376 0 -0.022296746491056729 0.058866738016925275 0 -0.022491512112094433 0.058388529175699512 0 -0.023712459594677857 0.058874557274602467 0 -0.022636032402153512 0.058453395598991952 0 -0.023712459594677857 0.058874557274602467 0 -0.023702309207123389 0.057989845300093733 0 -0.020937474159847754 0.057543578179576407 0 -0.023113615130609069 0.057110322485145235 0 -0.023702309207123389 0.057989845300093733 0 -0.023276933500337722 0.05682007415692656 0 -0.024846864600315322 0.057658422086075259 0 -0.021921101357503039 0.059215406252530217 0 -0.022837253338837158 0.057106752231195976 0 -0.021292639919863032 0.05770393300495312 0 -0.020178177226596945 0.057220028557338889 0 -0.021292639919863032 0.05770393300495312 0 -0.020742401376586932 0.05499991820974022 0 -0.022837253338837158 0.057106752231195976 0 -0.021292639919863032 0.05770393300495312 0 -0.020742401376586932 0.05499991820974022 0 -0.022837253338837158 0.057106752231195976 0 -0.020742401376586932 0.05499991820974022 0 -0.023800905181838927 0.05499997652214926 0 -0.023113615130609069 0.057110322485145235 0 -0.023800963177662716 0.05500025357469731 0 -0.023276933500337722 0.05682007415692656 0 -0.023801625880570065 0.054999985313219334 0 -0.024702911402798487 0.056291697926690899 0 -0.023801625880570065 0.054999985313219334 0 -0.025545010051909001 0.054999889692466601 0 -0.024702911402798487 0.056291697926690899 0 -0.025545010051909001 0.054999889692466601 0 -0.024702911402798487 0.056291697926690899 0 -0.026072974698845466 0.056211241439933918 0 -0.024702911402798487 0.056291697926690899 0 -0.024846864600315322 0.057658422086075259 0 -0.026072974698845466 0.056211241439933918 0 -0.023276933500337722 0.05682007415692656 0 -0.024702911402798487 0.056291697926690899 0 -0.024846864600315322 0.057658422086075259 0 -0.026184299612834375 0.057920553016565055 0 -0.024846864600315322 0.057658422086075259 0 -0.026072974698845466 0.056211241439933918 0 -0.026184299612834375 0.057920553016565055 0 -0.026889429005884952 0.057036481706957715 0 -0.026072974698845466 0.056211241439933918 0 -0.026889429005884952 0.057036481706957715 0 -0.027288701827478241 0.055000009341590869 0 -0.026072974698845466 0.056211241439933918 0 -0.025545010051909001 0.054999889692466601 0 -0.027288701827478241 0.055000009341590869 0 -0.026072974698845466 0.056211241439933918 0 -0.027237784320063612 0.056877248683442717 0 -0.027289214011922781 0.055000603440621645 0 -0.027289600690623268 0.054999964431958967 0 -0.028800307023747515 0.056367048485985755 0 -0.029527312840604322 0.0549999723488536 0 -0.027611097035137314 0.057205488637011616 0 -0.027289600690623268 0.054999964431958967 0 -0.028800307023747515 0.056367048485985755 0 -0.029527312840604322 0.0549999723488536 0 -0.030319908819490936 0.056816990999717577 0 -0.031765157009195424 0.054999768895860265 0 -0.028800307023747515 0.056367048485985755 0 -0.029527312840604322 0.0549999723488536 0 -0.030319908819490936 0.056816990999717577 0 -0.029868758312470003 0.058884963059218969 0 -0.036142909398978074 0.052454503625188179 0 -0.030319908819490936 0.056816990999717577 0 -0.029203224092447039 0.058137893740781016 0 -0.03111183601549063 0.058732331710524228 0 -0.028800307023747515 0.056367048485985755 0 -0.030319908819490936 0.056816990999717577 0 -0.029203224092447039 0.058137893740781016 0 -0.027611097035137314 0.057205488637011616 0 -0.028800307023747515 0.056367048485985755 0 -0.029203224092447039 0.058137893740781016 0 -0.027784259488415994 0.059206271391175729 0 -0.027611097035137314 0.057205488637011616 0 -0.029203224092447039 0.058137893740781016 0 -0.027784259488415994 0.059206271391175729 0 -0.029203224092447039 0.058137893740781016 0 -0.029433583864888486 0.059952935802702494 0 -0.029203224092447039 0.058137893740781016 0 -0.029433583864888486 0.059952935802702494 0 -0.03111183601549063 0.058732331710524228 0 -0.027149107202217953 0.056244718773389185 0 -0.036142909398978074 0.052454503625188179 0 -0.027784259488415994 0.059206271391175729 0 -0.029433583864888486 0.059952935802702494 0 -0.027846425975610108 0.061096827272422202 0 -0.027149107202217953 0.056244718773389185 0 -0.025369303447308589 0.056173036592599479 0 -0.057254115581510633 0.047755321011581836 0 -0.057837228178009584 0.047549007866058916 0 -0.058071301352615283 0.047865913951845633 0 -0.057254115581510633 0.047755321011581836 0 -0.05730687960481267 0.047075659399408151 0 -0.057837228178009584 0.047549007866058916 0 -0.057254115581510633 0.047755321011581836 0 -0.056591472300018757 0.0470512444038814 0 -0.05730687960481267 0.047075659399408151 0 -0.042394219883466318 0.049046113889955882 0 -0.036142909398978074 0.052454503625188179 0 -0.026760579322083783 0.051296798182624989 0 -0.026475809184475729 0.051183952991038645 0 -0.026652443487466822 0.051444358315570662 0 -0.036142909398978074 0.052454503625188179 0 -0.042004064033690836 0.054744573496706028 0 -0.056591472300018757 0.0470512444038814 0 -0.05730687960481267 0.047075659399408151 0 -0.057358286630045718 0.046466000607438718 0 -0.05730687960481267 0.047075659399408151 0 -0.057967942659013463 0.047002173816335334 0 -0.057837228178009584 0.047549007866058916 0 -0.042004064033690836 0.054744573496706028 0 -0.049584267308562406 0.050734568084109734 0 -0.05730687960481267 0.047075659399408151 0 -0.057358286630045718 0.046466000607438718 0 -0.057967942659013463 0.047002173816335334 0 -0.042004064033690836 0.054744573496706028 0 -0.03342699684756633 0.058631846505526462 0 -0.030319908819490936 0.056816990999717577 0 -0.031425870177995446 0.05903950393755087 0 -0.033639837292439363 0.057375844351600896 0 -0.030319908819490936 0.056816990999717577 0 -0.033639837292439363 0.057375844351600896 0 -0.031765157009195424 0.054999768895860265 0 -0.031764987090157681 0.055000286992261352 0 -0.034790279332385383 0.054999552412240964 0 -0.03482028594601088 0.056860869638801596 0 -0.042004064033690836 0.054744573496706028 0 -0.0317587188216545 0.054999782063064551 0 -0.033692599665956703 0.057727604610911365 0 -0.031764987090157681 0.055000286992261352 0 -0.03482028594601088 0.056860869638801596 0 -0.034790279332385383 0.054999552412240964 0 -0.03482028594601088 0.056860869638801596 0 -0.0365419378242774 0.057532521030968356 0 -0.034790279332385383 0.054999552412240964 0 -0.0365419378242774 0.057532521030968356 0 -0.037812302879384384 0.055002379970155946 0 -0.0365419378242774 0.057532521030968356 0 -0.037906508214884095 0.059030826754045453 0 -0.035094221402779791 0.059611153258078538 0 -0.033735022049042281 0.057792672276806817 0 -0.035050040527650511 0.057956790975056426 0 -0.035094221402779791 0.059611153258078538 0 -0.03482028594601088 0.056860869638801596 0 -0.0365419378242774 0.057532521030968356 0 -0.035050040527650511 0.057956790975056426 0 -0.0365419378242774 0.057532521030968356 0 -0.035050040527650511 0.057956790975056426 0 -0.035094221402779791 0.059611153258078538 0 -0.033735022049042281 0.057792672276806817 0 -0.03482028594601088 0.056860869638801596 0 -0.035050040527650511 0.057956790975056426 0 -0.040845882023918166 0.054992787506629323 0 -0.039347148207901458 0.056712956804441411 0 -0.041770235693686736 0.058992884595328331 0 -0.0365419378242774 0.057532521030968356 0 -0.039347148207901458 0.056712956804441411 0 -0.037812302879384384 0.055002379970155946 0 -0.040845882023918166 0.054992787506629323 0 -0.039347148207901458 0.056712956804441411 0 -0.037812302879384384 0.055002379970155946 0 -0.0365419378242774 0.057532521030968356 0 -0.039347148207901458 0.056712956804441411 0 -0.037906508214884095 0.059030826754045453 0 -0.039347148207901458 0.056712956804441411 0 -0.041770235693686736 0.058992884595328331 0 -0.037906508214884095 0.059030826754045453 0 -0.049481880045196353 0.055286466813591582 0 -0.047750540537604434 0.055272445369638441 0 -0.056964210197160352 0.052064539918692559 0 -0.056957206112620819 0.049300868729375252 0 -0.058658918581584424 0.050213432800417152 0 -0.056957206112620819 0.049300868729375252 0 -0.058658918581584424 0.050213432800417152 0 -0.058343463234944472 0.048433969765132728 0 -0.056957206112620819 0.049300868729375252 0 -0.058343463234944472 0.048433969765132728 0 -0.058204113419566897 0.046963519301319097 0 -0.056957206112620819 0.049300868729375252 0 -0.058204113419566897 0.046963519301319097 0 -0.055867447370677573 0.047028490686032043 0 -0.047750540537604434 0.055272445369638441 0 -0.049584267308562406 0.050734568084109734 0 -0.058658918581584424 0.050213432800417152 0 -0.059987286354311109 0.049327349980565469 0 -0.058884839503894434 0.048946939959161606 0 -0.058658918581584424 0.050213432800417152 0 -0.058343463234944472 0.048433969765132728 0 -0.058884839503894434 0.048946939959161606 0 -0.058343463234944472 0.048433969765132728 0 -0.058766761577951313 0.047913142826691575 0 -0.058421671091635208 0.047548509819211736 0 -0.058343463234944472 0.048433969765132728 0 -0.058884839503894434 0.048946939959161606 0 -0.058766761577951313 0.047913142826691575 0 -0.059987286354311109 0.049327349980565469 0 -0.058884839503894434 0.048946939959161606 0 -0.058766761577951313 0.047913142826691575 0 -0.058766761577951313 0.047913142826691575 0 -0.057837228178009584 0.047549007866058916 0 -0.058071301352615283 0.047865913951845633 0 -0.049584267308562406 0.050734568084109734 0 -0.060934543219429045 0.048116464932548654 0 -0.057967942659013463 0.047002173816335334 0 -0.058766761577951313 0.047913142826691575 0 -0.057837228178009584 0.047549007866058916 0 -0.058766761577951313 0.047913142826691575 0 -0.058071301352615283 0.047865913951845633 0 -0.058228830871297446 0.047761495621424524 0 -0.058766761577951313 0.047913142826691575 0 -0.058228830871297446 0.047761495621424524 0 -0.058421671091635208 0.047548509819211736 0 -0.058228830871297446 0.047761495621424524 0 -0.058421671091635208 0.047548509819211736 0 -0.058397505930624774 0.047657717110832415 0 -0.058228830871297446 0.047761495621424524 0 -0.0578973929294474 0.047933142305169263 0 -0.057807099685254673 0.047920155937779943 0 -0.058071301352615283 0.047865913951845633 0 -0.058228830871297446 0.047761495621424524 0 -0.057807099685254673 0.047920155937779943 0 -0.058343463234944472 0.048433969765132728 0 -0.058204113419566897 0.046963519301319097 0 -0.058421671091635208 0.047548509819211736 0 -0.058499815954523283 0.046767259702407457 0 -0.059167936586168951 0.046154147316937684 0 -0.058204113419566897 0.046963519301319097 0 -0.058421671091635208 0.047548509819211736 0 -0.058397505930624774 0.047657717110832415 0 -0.058204113419566897 0.046963519301319097 0 -0.058530571660677599 0.044294354778154806 0 -0.056561515837019648 0.044412206812244781 0 -0.058204113419566897 0.046963519301319097 0 -0.060835952456157055 0.043899740983562779 0 -0.058530571660677599 0.044294354778154806 0 -0.060431512042077688 0.041731761569729339 0 -0.059047575362302311 0.040448975582676169 0 -0.057855540924701417 0.042234492538797845 0 -0.058530571660677599 0.044294354778154806 0 -0.060431512042077688 0.041731761569729339 0 -0.057855540924701417 0.042234492538797845 0 -0.060835952456157055 0.043899740983562779 0 -0.060431512042077688 0.041731761569729339 0 -0.062395909240516356 0.04124622548782407 0 -0.059167936586168951 0.046154147316937684 0 -0.062340652788393368 0.043167337833193403 0 -0.060835952456157055 0.043899740983562779 0 -0.058530571660677599 0.044294354778154806 0 -0.060431512042077688 0.041731761569729339 0 -0.060431512042077688 0.041731761569729339 0 -0.061222894721949986 0.039937724082924245 0 -0.059047575362302311 0.040448975582676169 0 -0.060431512042077688 0.041731761569729339 0 -0.061222894721949986 0.039937724082924245 0 -0.062395909240516356 0.04124622548782407 0 -0.061222894721949986 0.039937724082924245 0 -0.059047575362302311 0.040448975582676169 0 -0.059923659828743765 0.039315477276058712 0 -0.058228830871297446 0.047761495621424524 0 -0.058397505930624774 0.047657717110832415 0 -0.058210851258587479 0.047918984860346535 0 -0.058228830871297446 0.047761495621424524 0 -0.0578973929294474 0.047933142305169263 0 -0.058210851258587479 0.047918984860346535 0 -0.061222894721949986 0.039937724082924245 0 -0.062395909240516356 0.04124622548782407 0 -0.062310785387185007 0.039302529420204103 0 -0.062340652788393368 0.043167337833193403 0 -0.046546965020015395 0.04725271733679081 0 -0.062395909240516356 0.04124622548782407 0 -0.0635424193951558 0.0391420765059051 0 -0.062310785387185007 0.039302529420204103 0 -0.026483165270810731 0.051253981601766349 0 -0.026308551250435224 0.052602884274527355 0 -0.027899600981918647 0.053623447385874982 0 -0.041931494346112069 0.050190888872006262 0 -0.046546965020015395 0.04725271733679081 0 -0.0578973929294474 0.047933142305169263 0 -0.058210851258587479 0.047918984860346535 0 -0.057929990435580642 0.048151920246661151 0 -0.026308551250435224 0.052602884274527355 0 -0.025596168432220047 0.052956283909162342 0 -0.02540245003230367 0.051857385299830298 0 -0.026308551250435224 0.052602884274527355 0 -0.025596168432220047 0.052956283909162342 0 -0.026299792468667083 0.053408533352960232 0 -0.025596168432220047 0.052956283909162342 0 -0.024314551597948018 0.052811703582808255 0 -0.024144046957665657 0.054382927585841824 0 -0.025596168432220047 0.052956283909162342 0 -0.02540245003230367 0.051857385299830298 0 -0.024314551597948018 0.052811703582808255 0 -0.02540245003230367 0.051857385299830298 0 -0.023718593073150118 0.052004958107185736 0 -0.024314551597948018 0.052811703582808255 0 -0.026483165270810731 0.051253981601766349 0 -0.026308551250435224 0.052602884274527355 0 -0.02540245003230367 0.051857385299830298 0 -0.026483165270810731 0.051253981601766349 0 -0.02621269111271567 0.050991451976160666 0 -0.026246296258141136 0.05077879117886195 0 -0.02621269111271567 0.050991451976160666 0 -0.024340415597992653 0.051097310423193064 0 -0.023378431864595144 0.049479605672572223 0 -0.026117930713714588 0.050884141692963306 0 -0.024927134619348652 0.050213653591687772 0 -0.041931494346112069 0.050190888872006262 0 -0.041970514517116801 0.049303216330293921 0 -0.026483165270810731 0.051253981601766349 0 -0.02540245003230367 0.051857385299830298 0 -0.02621269111271567 0.050991451976160666 0 -0.02540245003230367 0.051857385299830298 0 -0.024340415597992653 0.051097310423193064 0 -0.023718593073150118 0.052004958107185736 0 -0.02540245003230367 0.051857385299830298 0 -0.02621269111271567 0.050991451976160666 0 -0.024340415597992653 0.051097310423193064 0 -0.022500840650128997 0.050763633697757063 0 -0.024340415597992653 0.051097310423193064 0 -0.023378431864595144 0.049479605672572223 0 -0.022500840650128997 0.050763633697757063 0 -0.024340415597992653 0.051097310423193064 0 -0.023718593073150118 0.052004958107185736 0 -0.022500840650128997 0.050763633697757063 0 -0.023718593073150118 0.052004958107185736 0 -0.022127009419075513 0.051965719029525494 0 -0.023718593073150118 0.052004958107185736 0 -0.022635048547324024 0.052954892971032973 0 -0.022127009419075513 0.051965719029525494 0 -0.024314551597948018 0.052811703582808255 0 -0.022635048547324024 0.052954892971032973 0 -0.024144046957665657 0.054382927585841824 0 -0.023718593073150118 0.052004958107185736 0 -0.024314551597948018 0.052811703582808255 0 -0.022635048547324024 0.052954892971032973 0 -0.022635048547324024 0.052954892971032973 0 -0.020954223308469674 0.052481375748319813 0 -0.020161077697165155 0.053607582354319443 0 -0.022635048547324024 0.052954892971032973 0 -0.020954223308469674 0.052481375748319813 0 -0.022127009419075513 0.051965719029525494 0 -0.020954223308469674 0.052481375748319813 0 -0.022127009419075513 0.051965719029525494 0 -0.020624091337117591 0.051319251347964542 0 -0.017958286842778656 0.051850656482562721 0 -0.019588086183865091 0.052470277192767076 0 -0.017805867111322718 0.051754383392774397 0 -0.019081596373868092 0.051984411759930016 0 -0.020161077697165155 0.053607582354319443 0 -0.020954223308469674 0.052481375748319813 0 -0.019081596373868092 0.051984411759930016 0 -0.020624091337117591 0.051319251347964542 0 -0.020954223308469674 0.052481375748319813 0 -0.019081596373868092 0.051984411759930016 0 -0.020161077697165155 0.053607582354319443 0 -0.019081596373868092 0.051984411759930016 0 -0.018411938831284672 0.051048389433907923 0 -0.020624091337117591 0.051319251347964542 0 -0.018411938831284672 0.051048389433907923 0 -0.020624091337117591 0.051319251347964542 0 -0.02088753863821137 0.04857895316659127 0 -0.022500840650128997 0.050763633697757063 0 -0.020624091337117591 0.051319251347964542 0 -0.02088753863821137 0.04857895316659127 0 -0.022500840650128997 0.050763633697757063 0 -0.022127009419075513 0.051965719029525494 0 -0.020624091337117591 0.051319251347964542 0 -0.02380104539581852 0.049554093959633873 0 -0.024927134619348652 0.050213653591687772 0 -0.026706030142455251 0.050944722953685316 0 -0.026574046727423251 0.051036094436728192 0 -0.026391599675801038 0.050777693549652322 0 -0.022500840650128997 0.050763633697757063 0 -0.02088753863821137 0.04857895316659127 0 -0.023378431864595144 0.049479605672572223 0 -0.018411938831284672 0.051048389433907923 0 -0.02088753863821137 0.04857895316659127 0 -0.018281601509956752 0.047385003172428608 0 -0.017442188178890629 0.050141170414897469 0 -0.021847579977453811 0.051645132939408672 0 -0.026760579322083783 0.051296798182624989 0 -0.026770862996440433 0.051111700191258831 0 -0.026883463008047434 0.051150013897729905 0 -0.02380104539581852 0.049554093959633873 0 -0.021847579977453811 0.051645132939408672 0 -0.026706030142455251 0.050944722953685316 0 -0.026879790378346969 0.051097044392938384 0 -0.026770862996440433 0.051111700191258831 0 -0.026879790378346969 0.051097044392938384 0 -0.026770862996440433 0.051111700191258831 0 -0.026883463008047434 0.051150013897729905 0 -0.021847579977453811 0.051645132939408672 0 -0.025369303447308589 0.056173036592599479 0 -0.026706030142455251 0.050944722953685316 0 -0.026770862996440433 0.051111700191258831 0 -0.026574046727423251 0.051036094436728192 0 -0.026760579322083783 0.051296798182624989 0 -0.026770862996440433 0.051111700191258831 0 -0.026574046727423251 0.051036094436728192 0 -0.026475809184475729 0.051183952991038645 0 -0.026574046727423251 0.051036094436728192 0 -0.026246296258141136 0.05077879117886195 0 -0.026760579322083783 0.051296798182624989 0 -0.026475809184475729 0.051183952991038645 0 -0.026574046727423251 0.051036094436728192 0 -0.057254115581510633 0.047755321011581836 0 -0.058071301352615283 0.047865913951845633 0 -0.057807099685254673 0.047920155937779943 0 -0.042394219883466318 0.049046113889955882 0 -0.041970514517116801 0.049303216330293921 0 -0.02621269111271567 0.050991451976160666 0 -0.026246296258141136 0.05077879117886195 0 -0.026391599675801038 0.050777693549652322 0 -0.026574046727423251 0.051036094436728192 0 -0.026246296258141136 0.05077879117886195 0 -0.026391599675801038 0.050777693549652322 0 -0.054998873993471892 0.04815640552956834 0 -0.05526592090640358 0.051057832673092669 0 -0.054771571146466101 0.053217486636495268 0 -0.054999535237181769 0.048151105886527414 0 -0.055536593153220848 0.04868744567248403 0 -0.054998873993471892 0.04815640552956834 0 -0.055390870078189186 0.049671223150768939 0 -0.05526592090640358 0.051057832673092669 0 -0.05601783743084264 0.046961604290218208 0 -0.055432721834563471 0.047544950171421727 0 -0.056299412654828282 0.047899248199807822 0 -0.05601783743084264 0.046961604290218208 0 -0.055432721834563471 0.047544950171421727 0 -0.055681591786377528 0.046228002699623412 0 -0.055390870078189186 0.049671223150768939 0 -0.055490980747552661 0.050864349847956056 0 -0.055996851008604985 0.050748834579845942 0 -0.055536593153220848 0.04868744567248403 0 -0.055037576492975575 0.048159894674176112 0 -0.055490980747552661 0.050864349847956056 0 -0.05526592090640358 0.051057832673092669 0 -0.055522467342261322 0.051463419706322983 0 -0.055390870078189186 0.049671223150768939 0 -0.055490980747552661 0.050864349847956056 0 -0.05526592090640358 0.051057832673092669 0 -0.05526592090640358 0.051057832673092669 0 -0.055522467342261322 0.051463419706322983 0 -0.054807533597523113 0.052833279989699125 0 -0.054909752458157046 0.051046172263176239 0 -0.055037576492975575 0.048159894674176112 0 -0.055490980747552661 0.050864349847956056 0 -0.055522467342261322 0.051463419706322983 0 -0.055996851008604985 0.050748834579845942 0 -0.054998873993471892 0.04815640552956834 0 -0.054771571146466101 0.053217486636495268 0 -0.054994512790648487 0.054998505679904518 0 -0.054771571146466101 0.053217486636495268 0 -0.054994512790648487 0.054998505679904518 0 -0.051740677635902191 0.054997759484928695 0 -0.051740677635902191 0.054997759484928695 0 -0.054807533597523113 0.052833279989699125 0 -0.055472579506208916 0.053056369922524708 0 -0.054771571146466101 0.053217486636495268 0 -0.051740677635902191 0.054997759484928695 0 -0.054807533597523113 0.052833279989699125 0 -0.055522467342261322 0.051463419706322983 0 -0.054807533597523113 0.052833279989699125 0 -0.055472579506208916 0.053056369922524708 0 -0.05526592090640358 0.051057832673092669 0 -0.054771571146466101 0.053217486636495268 0 -0.054807533597523113 0.052833279989699125 0 -0.053029630038764618 0.05566645158671929 0 -0.051387511753356013 0.051460328556296973 0 -0.050914976711449893 0.057217974824805486 0 -0.049027556135596735 0.057240902600254454 0 -0.050146158875510223 0.059285496322108257 0 -0.051728547259720772 0.054999948394900168 0 -0.050914976711449893 0.057217974824805486 0 -0.048810601158657853 0.054999960097951869 0 -0.05220281585925448 0.054653776589126096 0 -0.053029630038764618 0.05566645158671929 0 -0.048810601158657853 0.054999960097951869 0 -0.049027556135596735 0.057240902600254454 0 -0.047103305479420626 0.056552324084195076 0 -0.050914976711449893 0.057217974824805486 0 -0.048810601158657853 0.054999960097951869 0 -0.049027556135596735 0.057240902600254454 0 -0.049027556135596735 0.057240902600254454 0 -0.050146158875510223 0.059285496322108257 0 -0.047871137631416705 0.058264000802567988 0 -0.051387511753356013 0.051460328556296973 0 -0.048766851891441178 0.055176641324652463 0 -0.047877019592972865 0.050316023615153423 0 -0.050477697902048868 0.049052214224226662 0 -0.050248361877113609 0.051532626106492799 0 -0.055522467342261322 0.051463419706322983 0 -0.055472579506208916 0.053056369922524708 0 -0.056450062787183862 0.051348847420640047 0 -0.055522467342261322 0.051463419706322983 0 -0.056450062787183862 0.051348847420640047 0 -0.055695165403585364 0.050948607528113213 0 -0.051387511753356013 0.051460328556296973 0 -0.055037576492975575 0.048159894674176112 0 -0.05259115045584721 0.044329363416200238 0 -0.051714246387036894 0.044963081310289255 0 -0.052464384685940994 0.043024813737901069 0 -0.05601783743084264 0.046961604290218208 0 -0.056299412654828282 0.047899248199807822 0 -0.056693562027667607 0.046137688415807745 0 -0.05259115045584721 0.044329363416200238 0 -0.053314519411658552 0.043634673039015061 0 -0.052464384685940994 0.043024813737901069 0 -0.052771764737063832 0.04548978493843437 0 -0.05259115045584721 0.044329363416200238 0 -0.051714246387036894 0.044963081310289255 0 -0.055037576492975575 0.048159894674176112 0 -0.054481073920504136 0.044284274515717127 0 -0.052771764737063832 0.04548978493843437 0 -0.05259115045584721 0.044329363416200238 0 -0.053314519411658552 0.043634673039015061 0 -0.047877019592972865 0.050316023615153423 0 -0.048827413055653843 0.047636550738167256 0 -0.050477697902048868 0.049052214224226662 0 -0.048827413055653843 0.047636550738167256 0 -0.050477697902048868 0.049052214224226662 0 -0.050788709451491852 0.046821060654807158 0 -0.051387511753356013 0.051460328556296973 0 -0.051119315030449301 0.045005881644854813 0 -0.050477697902048868 0.049052214224226662 0 -0.052061951492846946 0.047277013462369073 0 -0.050788709451491852 0.046821060654807158 0 -0.050477697902048868 0.049052214224226662 0 -0.052072826458729203 0.049917118945424464 0 -0.052061951492846946 0.047277013462369073 0 -0.052072826458729203 0.049917118945424464 0 -0.053926821984195863 0.047228776900037649 0 -0.052061951492846946 0.047277013462369073 0 -0.052072826458729203 0.049917118945424464 0 -0.052181655167868352 0.05144234193848804 0 -0.050248361877113609 0.051532626106492799 0 -0.052072826458729203 0.049917118945424464 0 -0.052181655167868352 0.05144234193848804 0 -0.052978415894832459 0.051451071941243556 0 -0.050477697902048868 0.049052214224226662 0 -0.052072826458729203 0.049917118945424464 0 -0.050248361877113609 0.051532626106492799 0 -0.048810601158657853 0.054999960097951869 0 -0.047103305479420626 0.056552324084195076 0 -0.044229501124685468 0.054999969066441529 0 -0.047871137631416705 0.058264000802567988 0 -0.047103305479420626 0.056552324084195076 0 -0.045540238726293786 0.057214208490683482 0 -0.049027556135596735 0.057240902600254454 0 -0.047871137631416705 0.058264000802567988 0 -0.047103305479420626 0.056552324084195076 0 -0.048766851891441178 0.055176641324652463 0 -0.048875821480237967 0.055123561768978348 0 -0.047103305479420626 0.056552324084195076 0 -0.045540238726293786 0.057214208490683482 0 -0.044229501124685468 0.054999969066441529 0 -0.052181655167868352 0.05144234193848804 0 -0.050248361877113609 0.051532626106492799 0 -0.05217088607227402 0.052902641230760807 0 -0.052181655167868352 0.05144234193848804 0 -0.05217088607227402 0.052902641230760807 0 -0.052247502769866588 0.052665621986016042 0 -0.05217088607227402 0.052902641230760807 0 -0.052247502769866588 0.052665621986016042 0 -0.051345982185427658 0.054567673945637031 0 -0.052181655167868352 0.05144234193848804 0 -0.052247502769866588 0.052665621986016042 0 -0.052978415894832459 0.051451071941243556 0 -0.052247502769866588 0.052665621986016042 0 -0.052706689896346512 0.052701775904622501 0 -0.052978415894832459 0.051451071941243556 0 -0.052706689896346512 0.052701775904622501 0 -0.054323711312498912 0.051943250843428865 0 -0.052978415894832459 0.051451071941243556 0 -0.052706689896346512 0.052701775904622501 0 -0.051345982185427658 0.054567673945637031 0 -0.054323711312498912 0.051943250843428865 0 -0.052247502769866588 0.052665621986016042 0 -0.052706689896346512 0.052701775904622501 0 -0.051345982185427658 0.054567673945637031 0 -0.048875821480237967 0.055123561768978348 0 -0.04687997425729027 0.055486589177374201 0 -0.045540238726293786 0.057214208490683482 0 -0.044229501124685468 0.054999969066441529 0 -0.043186401396113558 0.056120057728302253 0 -0.05217088607227402 0.052902641230760807 0 -0.050459948653310785 0.054528770558668185 0 -0.051345982185427658 0.054567673945637031 0 -0.040838465747775991 0.055000004134251823 0 -0.044229501124685468 0.054999969066441529 0 -0.043186401396113558 0.056120057728302253 0 -0.040845882023918166 0.054992787506629323 0 -0.041770235693686736 0.058992884595328331 0 -0.050459948653310785 0.054528770558668185 0 -0.040840855344285602 0.055000011261632252 0 -0.04687997425729027 0.055486589177374201 0 -0.056964210197160352 0.052064539918692559 0 -0.051345982185427658 0.054567673945637031 0 -0.054323711312498912 0.051943250843428865 0 -0.041770235693686736 0.058992884595328331 0 -0.050459948653310785 0.054528770558668185 0 -0.051345982185427658 0.054567673945637031 0 -0.049481880045196353 0.055286466813591582 0 -0.051078278127633964 0.054759566040277603 0 -0.056957206112620819 0.049300868729375252 0 -0.054323711312498912 0.051943250843428865 0 -0.054346091582755544 0.049324900911087551 0 -0.056964210197160352 0.052064539918692559 0 -0.056957206112620819 0.049300868729375252 0 -0.054323711312498912 0.051943250843428865 0 -0.052072826458729203 0.049917118945424464 0 -0.052978415894832459 0.051451071941243556 0 -0.054346091582755544 0.049324900911087551 0 -0.054323711312498912 0.051943250843428865 0 -0.052978415894832459 0.051451071941243556 0 -0.054346091582755544 0.049324900911087551 0 -0.052072826458729203 0.049917118945424464 0 -0.054346091582755544 0.049324900911087551 0 -0.053926821984195863 0.047228776900037649 0 -0.054346091582755544 0.049324900911087551 0 -0.055867447370677573 0.047028490686032043 0 -0.053926821984195863 0.047228776900037649 0 -0.056957206112620819 0.049300868729375252 0 -0.054346091582755544 0.049324900911087551 0 -0.055867447370677573 0.047028490686032043 0 -0.058204113419566897 0.046963519301319097 0 -0.055867447370677573 0.047028490686032043 0 -0.056561515837019648 0.044412206812244781 0 -0.055867447370677573 0.047028490686032043 0 -0.053926821984195863 0.047228776900037649 0 -0.054495705935253332 0.044826668843541098 0 -0.055867447370677573 0.047028490686032043 0 -0.054495705935253332 0.044826668843541098 0 -0.056561515837019648 0.044412206812244781 0 -0.054495705935253332 0.044826668843541098 0 -0.056561515837019648 0.044412206812244781 0 -0.055063187555739662 0.042954785688660298 0 -0.058530571660677599 0.044294354778154806 0 -0.056561515837019648 0.044412206812244781 0 -0.057855540924701417 0.042234492538797845 0 -0.056561515837019648 0.044412206812244781 0 -0.057855540924701417 0.042234492538797845 0 -0.056274508844685885 0.041808380495198236 0 -0.059047575362302311 0.040448975582676169 0 -0.057855540924701417 0.042234492538797845 0 -0.056702910771773571 0.040024641288319278 0 -0.057855540924701417 0.042234492538797845 0 -0.056702910771773571 0.040024641288319278 0 -0.056274508844685885 0.041808380495198236 0 -0.059047575362302311 0.040448975582676169 0 -0.056702910771773571 0.040024641288319278 0 -0.057638378735657664 0.038551003191153614 0 -0.056702910771773571 0.040024641288319278 0 -0.056274508844685885 0.041808380495198236 0 -0.055291584702969056 0.040010688171046305 0 -0.056702910771773571 0.040024641288319278 0 -0.055291584702969056 0.040010688171046305 0 -0.05613539552547589 0.038791046745575992 0 -0.056274508844685885 0.041808380495198236 0 -0.054538124568299859 0.041444672915064852 0 -0.055291584702969056 0.040010688171046305 0 -0.056561515837019648 0.044412206812244781 0 -0.056274508844685885 0.041808380495198236 0 -0.055063187555739662 0.042954785688660298 0 -0.056274508844685885 0.041808380495198236 0 -0.055063187555739662 0.042954785688660298 0 -0.054538124568299859 0.041444672915064852 0 -0.055063187555739662 0.042954785688660298 0 -0.054538124568299859 0.041444672915064852 0 -0.053254919633207567 0.043623233951069873 0 -0.054538124568299859 0.041444672915064852 0 -0.055291584702969056 0.040010688171046305 0 -0.054641725231523282 0.039866380946235534 0 -0.054538124568299859 0.041444672915064852 0 -0.054045350804571651 0.040652338779825666 0 -0.053374567385636375 0.041411432125861007 0 -0.054538124568299859 0.041444672915064852 0 -0.054641725231523282 0.039866380946235534 0 -0.054045350804571651 0.040652338779825666 0 -0.054045350804571651 0.040652338779825666 0 -0.053374567385636375 0.041411432125861007 0 -0.054285366352901793 0.040985631212280577 0 -0.05313892420071395 0.04159152730889757 0 -0.052030392123237873 0.043512217002654056 0 -0.054538124568299859 0.041444672915064852 0 -0.053374567385636375 0.041411432125861007 0 -0.053254919633207567 0.043623233951069873 0 -0.053254919633207567 0.043623233951069873 0 -0.052059653831831948 0.045532103201474564 0 -0.050387332071019912 0.044530961314090386 0 -0.053374567385636375 0.041411432125861007 0 -0.053254919633207567 0.043623233951069873 0 -0.050387332071019912 0.044530961314090386 0 -0.054495705935253332 0.044826668843541098 0 -0.055063187555739662 0.042954785688660298 0 -0.053254919633207567 0.043623233951069873 0 -0.054495705935253332 0.044826668843541098 0 -0.053254919633207567 0.043623233951069873 0 -0.05321319181464125 0.045766637140065201 0 -0.053254919633207567 0.043623233951069873 0 -0.05321319181464125 0.045766637140065201 0 -0.052059653831831948 0.045532103201474564 0 -0.053926821984195863 0.047228776900037649 0 -0.054495705935253332 0.044826668843541098 0 -0.05321319181464125 0.045766637140065201 0 -0.053926821984195863 0.047228776900037649 0 -0.05321319181464125 0.045766637140065201 0 -0.052061951492846946 0.047277013462369073 0 -0.050788709451491852 0.046821060654807158 0 -0.052059653831831948 0.045532103201474564 0 -0.050387332071019912 0.044530961314090386 0 -0.052061951492846946 0.047277013462369073 0 -0.050788709451491852 0.046821060654807158 0 -0.052059653831831948 0.045532103201474564 0 -0.05321319181464125 0.045766637140065201 0 -0.052061951492846946 0.047277013462369073 0 -0.052059653831831948 0.045532103201474564 0 -0.051119315030449301 0.045005881644854813 0 -0.052030392123237873 0.043512217002654056 0 -0.053314519411658552 0.043634673039015061 0 -0.052464384685940994 0.043024813737901069 0 -0.053636376136551894 0.042070973979970547 0 -0.048827413055653843 0.047636550738167256 0 -0.050788709451491852 0.046821060654807158 0 -0.050387332071019912 0.044530961314090386 0 -0.056693562027667607 0.046137688415807745 0 -0.055939241013480002 0.044695250587698243 0 -0.055681591786377528 0.046228002699623412 0 -0.054481073920504136 0.044284274515717127 0 -0.054670541358096653 0.04270186335040578 0 -0.056693562027667607 0.046137688415807745 0 -0.055939241013480002 0.044695250587698243 0 -0.056373620411703136 0.043431057853324483 0 -0.055939241013480002 0.044695250587698243 0 -0.056373620411703136 0.043431057853324483 0 -0.055411323844974873 0.043173430350155854 0 -0.052464384685940994 0.043024813737901069 0 -0.053197352887075146 0.041627334616060288 0 -0.053636376136551894 0.042070973979970547 0 -0.056373620411703136 0.043431057853324483 0 -0.054285366352901793 0.040985631212280577 0 -0.055174696874909841 0.041991168001311384 0 -0.053374567385636375 0.041411432125861007 0 -0.053197352887075146 0.041627334616060288 0 -0.053636376136551894 0.042070973979970547 0 -0.053374567385636375 0.041411432125861007 0 -0.053197352887075146 0.041627334616060288 0 -0.054285366352901793 0.040985631212280577 0 -0.054670541358096653 0.04270186335040578 0 -0.054397169002471053 0.041291787777369929 0 -0.054285366352901793 0.040985631212280577 0 -0.054421862687809498 0.040570153232578905 0 -0.055174696874909841 0.041991168001311384 0 -0.054045350804571651 0.040652338779825666 0 -0.054285366352901793 0.040985631212280577 0 -0.054409568280861506 0.039366774813892842 0 -0.054421862687809498 0.040570153232578905 0 -0.05477422218651843 0.041687910107244215 0 -0.055174696874909841 0.041991168001311384 0 -0.054421862687809498 0.040570153232578905 0 -0.05477422218651843 0.041687910107244215 0 -0.054200068246960706 0.040540636384617912 0 -0.05477422218651843 0.041687910107244215 0 -0.055174696874909841 0.041991168001311384 0 -0.055411323844974873 0.043173430350155854 0 -0.056373620411703136 0.043431057853324483 0 -0.055174696874909841 0.041991168001311384 0 -0.055411323844974873 0.043173430350155854 0 -0.054940492241821161 0.042869231756727917 0 -0.05511697987408197 0.044262927713531582 0 -0.055463632992844868 0.04446775119284168 0 -0.05477422218651843 0.041687910107244215 0 -0.055411323844974873 0.043173430350155854 0 -0.054940492241821161 0.042869231756727917 0 -0.055411323844974873 0.043173430350155854 0 -0.054940492241821161 0.042869231756727917 0 -0.055463632992844868 0.04446775119284168 0 -0.05477422218651843 0.041687910107244215 0 -0.054940492241821161 0.042869231756727917 0 -0.054373376936628026 0.041126268527185851 0 -0.05477422218651843 0.041687910107244215 0 -0.054373376936628026 0.041126268527185851 0 -0.054200068246960706 0.040540636384617912 0 -0.054940492241821161 0.042869231756727917 0 -0.054373376936628026 0.041126268527185851 0 -0.054998847035331734 0.043215875228725081 0 -0.054373376936628026 0.041126268527185851 0 -0.054998847035331734 0.043215875228725081 0 -0.054998266090120103 0.040754708041841614 0 -0.054940492241821161 0.042869231756727917 0 -0.054998847035331734 0.043215875228725081 0 -0.05511697987408197 0.044262927713531582 0 -0.054998847035331734 0.043215875228725081 0 -0.05511697987408197 0.044262927713531582 0 -0.054999013041819277 0.04568471018762621 0 -0.05511697987408197 0.044262927713531582 0 -0.055463632992844868 0.04446775119284168 0 -0.055315773182224463 0.046379771496357261 0 -0.05511697987408197 0.044262927713531582 0 -0.054999013041819277 0.04568471018762621 0 -0.055315773182224463 0.046379771496357261 0 -0.055939241013480002 0.044695250587698243 0 -0.055463632992844868 0.04446775119284168 0 -0.055681591786377528 0.046228002699623412 0 -0.055463632992844868 0.04446775119284168 0 -0.055681591786377528 0.046228002699623412 0 -0.055315773182224463 0.046379771496357261 0 -0.055939241013480002 0.044695250587698243 0 -0.055411323844974873 0.043173430350155854 0 -0.055463632992844868 0.04446775119284168 0 -0.055432721834563471 0.047544950171421727 0 -0.055681591786377528 0.046228002699623412 0 -0.055315773182224463 0.046379771496357261 0 -0.05601783743084264 0.046961604290218208 0 -0.056693562027667607 0.046137688415807745 0 -0.055681591786377528 0.046228002699623412 0 -0.05499916415862581 0.048147419882952881 0 -0.055432721834563471 0.047544950171421727 0 -0.055315773182224463 0.046379771496357261 0 -0.05499916415862581 0.048147419882952881 0 -0.054999013041819277 0.04568471018762621 0 -0.055315773182224463 0.046379771496357261 0 -0.056578940923479724 0.035827828086282938 0 -0.054999955182225849 0.03444103486242639 0 -0.054999988063479402 0.037596201564374945 0 -0.05237439956011905 0.033186099920847256 0 -0.053512203861340021 0.033614144989311479 0 -0.05337134678889105 0.032071590035041085 0 -0.053912752263024735 0.038309429140204236 0 -0.053029511828157259 0.034659226172727847 0 -0.05237439956011905 0.033186099920847256 0 -0.052412852184378772 0.034967846275237982 0 -0.053512203861340021 0.033614144989311479 0 -0.054551200572098411 0.034191486241719644 0 -0.053912752263024735 0.038309429140204236 0 -0.056578940923479724 0.035827828086282938 0 -0.054999988063479402 0.037596201564374945 0 -0.056642723175726585 0.038860343001421778 0 -0.054999988063479402 0.037596201564374945 0 -0.056642723175726585 0.038860343001421778 0 -0.054999985241369884 0.040751302927850626 0 -0.053912752263024735 0.038309429140204236 0 -0.055000454231438602 0.040752026754912511 0 -0.054109420686803328 0.041637430556030211 0 -0.053912752263024735 0.038309429140204236 0 -0.054373376936628026 0.041126268527185851 0 -0.054482239005441635 0.041443902214848727 0 -0.054998266090120103 0.040754708041841614 0 -0.054373376936628026 0.041126268527185851 0 -0.052468928460752476 0.038850063549883553 0 -0.05358802692711892 0.039626517830025125 0 -0.054373376936628026 0.041126268527185851 0 -0.05358802692711892 0.039626517830025125 0 -0.054200068246960706 0.040540636384617912 0 -0.052468928460752476 0.038850063549883553 0 -0.053424847979365128 0.038319039655734972 0 -0.0527535918682943 0.03624352492685301 0 -0.052468928460752476 0.038850063549883553 0 -0.05358802692711892 0.039626517830025125 0 -0.053424847979365128 0.038319039655734972 0 -0.053424847979365128 0.038319039655734972 0 -0.054147543149558816 0.037684336595747367 0 -0.0527535918682943 0.03624352492685301 0 -0.053424847979365128 0.038319039655734972 0 -0.054027658409495978 0.039170561625684261 0 -0.054147543149558816 0.037684336595747367 0 -0.05358802692711892 0.039626517830025125 0 -0.053424847979365128 0.038319039655734972 0 -0.054027658409495978 0.039170561625684261 0 -0.05358802692711892 0.039626517830025125 0 -0.054027658409495978 0.039170561625684261 0 -0.054200068246960706 0.040540636384617912 0 -0.054421862687809498 0.040570153232578905 0 -0.054027658409495978 0.039170561625684261 0 -0.054200068246960706 0.040540636384617912 0 -0.054285366352901793 0.040985631212280577 0 -0.054421862687809498 0.040570153232578905 0 -0.054409568280861506 0.039366774813892842 0 -0.054421862687809498 0.040570153232578905 0 -0.054027658409495978 0.039170561625684261 0 -0.054409568280861506 0.039366774813892842 0 -0.054409568280861506 0.039366774813892842 0 -0.054147543149558816 0.037684336595747367 0 -0.054854077487042338 0.036990760703076171 0 -0.054027658409495978 0.039170561625684261 0 -0.054409568280861506 0.039366774813892842 0 -0.054147543149558816 0.037684336595747367 0 -0.054147543149558816 0.037684336595747367 0 -0.054382131324450744 0.035622078674820479 0 -0.054854077487042338 0.036990760703076171 0 -0.054147543149558816 0.037684336595747367 0 -0.054382131324450744 0.035622078674820479 0 -0.0527535918682943 0.03624352492685301 0 -0.054382131324450744 0.035622078674820479 0 -0.0527535918682943 0.03624352492685301 0 -0.054224215119372129 0.032719327021125504 0 -0.053029511828157259 0.034659226172727847 0 -0.054289682550477253 0.032905414028561161 0 -0.053512203861340021 0.033614144989311479 0 -0.054224215119372129 0.032719327021125504 0 -0.05337134678889105 0.032071590035041085 0 -0.054382131324450744 0.035622078674820479 0 -0.054224215119372129 0.032719327021125504 0 -0.055352477098582195 0.034183464921247388 0 -0.054224215119372129 0.032719327021125504 0 -0.055352477098582195 0.034183464921247388 0 -0.055830987243705311 0.032117651706507419 0 -0.055352477098582195 0.034183464921247388 0 -0.055571629147074607 0.03562316878037889 0 -0.056455271522237914 0.033076481727582235 0 -0.055352477098582195 0.034183464921247388 0 -0.056455271522237914 0.033076481727582235 0 -0.055830987243705311 0.032117651706507419 0 -0.055571629147074607 0.03562316878037889 0 -0.056298502344618959 0.035467602875222291 0 -0.056455271522237914 0.033076481727582235 0 -0.055352477098582195 0.034183464921247388 0 -0.055571629147074607 0.03562316878037889 0 -0.054854077487042338 0.036990760703076171 0 -0.054382131324450744 0.035622078674820479 0 -0.055352477098582195 0.034183464921247388 0 -0.054854077487042338 0.036990760703076171 0 -0.055571629147074607 0.03562316878037889 0 -0.054854077487042338 0.036990760703076171 0 -0.055354592026349167 0.037934855215533185 0 -0.054409568280861506 0.039366774813892842 0 -0.054854077487042338 0.036990760703076171 0 -0.055354592026349167 0.037934855215533185 0 -0.054641725231523282 0.039866380946235534 0 -0.054409568280861506 0.039366774813892842 0 -0.055354592026349167 0.037934855215533185 0 -0.054641725231523282 0.039866380946235534 0 -0.054045350804571651 0.040652338779825666 0 -0.054409568280861506 0.039366774813892842 0 -0.055291584702969056 0.040010688171046305 0 -0.054641725231523282 0.039866380946235534 0 -0.055354592026349167 0.037934855215533185 0 -0.055291584702969056 0.040010688171046305 0 -0.055354592026349167 0.037934855215533185 0 -0.05613539552547589 0.038791046745575992 0 -0.055571629147074607 0.03562316878037889 0 -0.055354592026349167 0.037934855215533185 0 -0.056298502344618959 0.035467602875222291 0 -0.055354592026349167 0.037934855215533185 0 -0.056978246427209014 0.036587865664219628 0 -0.056298502344618959 0.035467602875222291 0 -0.055354592026349167 0.037934855215533185 0 -0.056978246427209014 0.036587865664219628 0 -0.05613539552547589 0.038791046745575992 0 -0.056702910771773571 0.040024641288319278 0 -0.05613539552547589 0.038791046745575992 0 -0.057638378735657664 0.038551003191153614 0 -0.056978246427209014 0.036587865664219628 0 -0.05613539552547589 0.038791046745575992 0 -0.057638378735657664 0.038551003191153614 0 -0.057638378735657664 0.038551003191153614 0 -0.058299896684879247 0.036966329310302776 0 -0.059111991822037815 0.038511242830542455 0 -0.056978246427209014 0.036587865664219628 0 -0.058299896684879247 0.036966329310302776 0 -0.058492713041293685 0.034635127148380129 0 -0.056978246427209014 0.036587865664219628 0 -0.057638378735657664 0.038551003191153614 0 -0.058299896684879247 0.036966329310302776 0 -0.056978246427209014 0.036587865664219628 0 -0.05732747305935855 0.03398126038976635 0 -0.058492713041293685 0.034635127148380129 0 -0.05732747305935855 0.03398126038976635 0 -0.058492713041293685 0.034635127148380129 0 -0.058306259635581212 0.03298454039195068 0 -0.05732747305935855 0.03398126038976635 0 -0.056298502344618959 0.035467602875222291 0 -0.056455271522237914 0.033076481727582235 0 -0.056978246427209014 0.036587865664219628 0 -0.05732747305935855 0.03398126038976635 0 -0.056298502344618959 0.035467602875222291 0 -0.05732747305935855 0.03398126038976635 0 -0.056455271522237914 0.033076481727582235 0 -0.057492802591683399 0.031680026365834384 0 -0.05732747305935855 0.03398126038976635 0 -0.057492802591683399 0.031680026365834384 0 -0.058306259635581212 0.03298454039195068 0 -0.057492802591683399 0.031680026365834384 0 -0.056794123987314996 0.03133179306332784 0 -0.057237106973263806 0.029819407672228893 0 -0.056455271522237914 0.033076481727582235 0 -0.057492802591683399 0.031680026365834384 0 -0.056794123987314996 0.03133179306332784 0 -0.056794123987314996 0.03133179306332784 0 -0.057237106973263806 0.029819407672228893 0 -0.056331453847179205 0.030375178507888973 0 -0.057492802591683399 0.031680026365834384 0 -0.057237106973263806 0.029819407672228893 0 -0.057930532204064342 0.030281982309308109 0 -0.057237106973263806 0.029819407672228893 0 -0.057286824930958137 0.028362692910683423 0 -0.057710881502799911 0.028894488522923863 0 -0.057286824930958137 0.028362692910683423 0 -0.056633380789099859 0.028795106462735202 0 -0.056846210667046489 0.027652797610240802 0 -0.057237106973263806 0.029819407672228893 0 -0.057286824930958137 0.028362692910683423 0 -0.056633380789099859 0.028795106462735202 0 -0.057237106973263806 0.029819407672228893 0 -0.056633380789099859 0.028795106462735202 0 -0.056331453847179205 0.030375178507888973 0 -0.056633380789099859 0.028795106462735202 0 -0.055732756586328973 0.029281880347908368 0 -0.056331453847179205 0.030375178507888973 0 -0.056633380789099859 0.028795106462735202 0 -0.056094565542296117 0.027493260300158202 0 -0.056846210667046489 0.027652797610240802 0 -0.056633380789099859 0.028795106462735202 0 -0.055732756586328973 0.029281880347908368 0 -0.056094565542296117 0.027493260300158202 0 -0.055732756586328973 0.029281880347908368 0 -0.05511574208513087 0.028655519024044979 0 -0.056094565542296117 0.027493260300158202 0 -0.055732756586328973 0.029281880347908368 0 -0.055322158406309864 0.03091097026347691 0 -0.056331453847179205 0.030375178507888973 0 -0.055322158406309864 0.03091097026347691 0 -0.056331453847179205 0.030375178507888973 0 -0.055830987243705311 0.032117651706507419 0 -0.056455271522237914 0.033076481727582235 0 -0.056794123987314996 0.03133179306332784 0 -0.055830987243705311 0.032117651706507419 0 -0.056794123987314996 0.03133179306332784 0 -0.056331453847179205 0.030375178507888973 0 -0.055830987243705311 0.032117651706507419 0 -0.054224215119372129 0.032719327021125504 0 -0.055322158406309864 0.03091097026347691 0 -0.055830987243705311 0.032117651706507419 0 -0.054224215119372129 0.032719327021125504 0 -0.055322158406309864 0.03091097026347691 0 -0.054399434239445925 0.030172892742894312 0 -0.054224215119372129 0.032719327021125504 0 -0.054399434239445925 0.030172892742894312 0 -0.05337134678889105 0.032071590035041085 0 -0.054399434239445925 0.030172892742894312 0 -0.054214165857122895 0.029096698459210393 0 -0.053484232554792489 0.030171258565144913 0 -0.054399434239445925 0.030172892742894312 0 -0.053484232554792489 0.030171258565144913 0 -0.05337134678889105 0.032071590035041085 0 -0.055732756586328973 0.029281880347908368 0 -0.055322158406309864 0.03091097026347691 0 -0.054399434239445925 0.030172892742894312 0 -0.055732756586328973 0.029281880347908368 0 -0.054399434239445925 0.030172892742894312 0 -0.05511574208513087 0.028655519024044979 0 -0.05511574208513087 0.028655519024044979 0 -0.055339426980961011 0.027458885917701296 0 -0.056094565542296117 0.027493260300158202 0 -0.055339426980961011 0.027458885917701296 0 -0.054697244160062435 0.027856602092558261 0 -0.0548642324408289 0.02695028156906331 0 -0.05511574208513087 0.028655519024044979 0 -0.055339426980961011 0.027458885917701296 0 -0.054697244160062435 0.027856602092558261 0 -0.05511574208513087 0.028655519024044979 0 -0.054697244160062435 0.027856602092558261 0 -0.054214165857122895 0.029096698459210393 0 -0.054399434239445925 0.030172892742894312 0 -0.05511574208513087 0.028655519024044979 0 -0.054214165857122895 0.029096698459210393 0 -0.054697244160062435 0.027856602092558261 0 -0.054214165857122895 0.029096698459210393 0 -0.053172828449496459 0.028689217092026709 0 -0.054214165857122895 0.029096698459210393 0 -0.053172828449496459 0.028689217092026709 0 -0.053484232554792489 0.030171258565144913 0 -0.053172828449496459 0.028689217092026709 0 -0.055086395066803351 0.026833227332074081 0 -0.0548642324408289 0.02695028156906331 0 -0.054697244160062435 0.027856602092558261 0 -0.053172828449496459 0.028689217092026709 0 -0.0548642324408289 0.02695028156906331 0 -0.054999027899433846 0.028129540991996323 0 -0.056336567197928775 0.029668901022204482 0 -0.055086395066803351 0.026833227332074081 0 -0.054763445108699689 0.029245224226488002 0 -0.055027647227572973 0.027119723292092765 0 -0.054999027899433846 0.028129540991996323 0 -0.056336567197928775 0.029668901022204482 0 -0.055000101873802262 0.031286081040761193 0 -0.056336567197928775 0.029668901022204482 0 -0.055000101873802262 0.031286081040761193 0 -0.056513845362925537 0.032799639080955928 0 -0.054763445108699689 0.029245224226488002 0 -0.054467184182398896 0.032092000502080525 0 -0.053172828449496459 0.028689217092026709 0 -0.053484232554792489 0.030171258565144913 0 -0.052383157974982698 0.03122961423691565 0 -0.053484232554792489 0.030171258565144913 0 -0.05337134678889105 0.032071590035041085 0 -0.052383157974982698 0.03122961423691565 0 -0.05237439956011905 0.033186099920847256 0 -0.05337134678889105 0.032071590035041085 0 -0.052383157974982698 0.03122961423691565 0 -0.054999955182225849 0.03444103486242639 0 -0.055000101873802262 0.031286081040761193 0 -0.056513845362925537 0.032799639080955928 0 -0.054551200572098411 0.034191486241719644 0 -0.054467184182398896 0.032092000502080525 0 -0.056578940923479724 0.035827828086282938 0 -0.054999955182225849 0.03444103486242639 0 -0.056513845362925537 0.032799639080955928 0 -0.035779920027189827 0.025217727110614329 0 -0.033272825298844108 0.027605022624750019 0 -0.038643601331324252 0.027993256505910419 0 -0.035779920027189827 0.025217727110614329 0 -0.033272825298844108 0.027605022624750019 0 -0.031876623349412228 0.025113040217224863 0 -0.033272825298844108 0.027605022624750019 0 -0.031876623349412228 0.025113040217224863 0 -0.028042118769514054 0.027383430478483694 0 -0.033176911013150213 0.022801656887425938 0 -0.029582982148925033 0.023459453566588621 0 -0.031205979917950436 0.019463007862074326 0 -0.031876623349412228 0.025113040217224863 0 -0.033176911013150213 0.022801656887425938 0 -0.029582982148925033 0.023459453566588621 0 -0.033176911013150213 0.022801656887425938 0 -0.035463676855689331 0.022365461903716924 0 -0.033936512166530354 0.0211949707804161 0 -0.035779920027189827 0.025217727110614329 0 -0.031876623349412228 0.025113040217224863 0 -0.033176911013150213 0.022801656887425938 0 -0.035779920027189827 0.025217727110614329 0 -0.033176911013150213 0.022801656887425938 0 -0.035463676855689331 0.022365461903716924 0 -0.038105024006702744 0.022526020990805026 0 -0.038584211128999985 0.022438775211964187 0 -0.038643601331324252 0.027993256505910419 0 -0.029428469995594654 0.026466851120036872 0 -0.026619609498864626 0.027177240632664815 0 -0.035779920027189827 0.025217727110614329 0 -0.035463676855689331 0.022365461903716924 0 -0.038105024006702744 0.022526020990805026 0 -0.020530872961692877 0.029617523685985497 0 -0.026619609498864626 0.027177240632664815 0 -0.018057460403939837 0.050186402774143823 0 -0.017836066239988447 0.050087272638742873 0 -0.018011609861124545 0.050451768445765648 0 -0.018143341914983981 0.050884590431063526 0 -0.018011609861124545 0.050451768445765648 0 -0.017809318432726554 0.050683648025495055 0 -0.017836066239988447 0.050087272638742873 0 -0.018011609861124545 0.050451768445765648 0 -0.017809318432726554 0.050683648025495055 0 -0.026619609498864626 0.027177240632664815 0 -0.026856778891236534 0.044276870069617377 0 -0.035779920027189827 0.025217727110614329 0 -0.038105024006702744 0.022526020990805026 0 -0.038643601331324252 0.027993256505910419 0 -0.020327342713106801 0.050475501862184434 0 -0.018989169692177715 0.049655966231729305 0 -0.023273806901202138 0.048578615378613549 0 -0.020318446838918921 0.052235129276189639 0 -0.020327342713106801 0.050475501862184434 0 -0.023273806901202138 0.048578615378613549 0 -0.026856778891236534 0.044276870069617377 0 -0.023659103502649929 0.050840930405166955 0 -0.018143341914983981 0.050884590431063526 0 -0.020327342713106801 0.050475501862184434 0 -0.018989169692177715 0.049655966231729305 0 -0.01544030114547151 0.051460858219956412 0 -0.026856778891236534 0.044276870069617377 0 -0.018143341914983981 0.050884590431063526 0 -0.020343263578863412 0.051282134573784048 0 -0.020327342713106801 0.050475501862184434 0 -0.018117653817981482 0.05166501993423165 0 -0.017805867111322718 0.051754383392774397 0 -0.018877752847817779 0.051357939508134061 0 -0.018117653817981482 0.05166501993423165 0 -0.018341756728635406 0.05216950471283726 0 -0.018877752847817779 0.051357939508134061 0 -0.018753243579444676 0.050919608592041574 0 -0.022824271336095187 0.050850480218485435 0 -0.018341756728635406 0.05216950471283726 0 -0.018877752847817779 0.051357939508134061 0 -0.021133951227335471 0.053106110626982908 0 -0.019588086183865091 0.052470277192767076 0 -0.023570716132551083 0.05341585342235116 0 -0.018877752847817779 0.051357939508134061 0 -0.021133951227335471 0.053106110626982908 0 -0.023017763812516662 0.052449738415510323 0 -0.022824271336095187 0.050850480218485435 0 -0.024584580629805806 0.051513601019876898 0 -0.021133951227335471 0.053106110626982908 0 -0.023017763812516662 0.052449738415510323 0 -0.02488436992875253 0.054004323382309094 0 -0.022635048547324024 0.052954892971032973 0 -0.020161077697165155 0.053607582354319443 0 -0.024144046957665657 0.054382927585841824 0 -0.026890785404449533 0.052449802334914433 0 -0.023273806901202138 0.048578615378613549 0 -0.028998673173288022 0.048242959552091048 0 -0.029371246342559606 0.040047986423200163 0 -0.026856778891236534 0.044276870069617377 0 -0.026890785404449533 0.052449802334914433 0 -0.020318446838918921 0.052235129276189639 0 -0.023273806901202138 0.048578615378613549 0 -0.026890785404449533 0.052449802334914433 0 -0.028998673173288022 0.048242959552091048 0 -0.031988454503492171 0.049783984912949088 0 -0.025596168432220047 0.052956283909162342 0 -0.024144046957665657 0.054382927585841824 0 -0.026299792468667083 0.053408533352960232 0 -0.024144046957665657 0.054382927585841824 0 -0.026299792468667083 0.053408533352960232 0 -0.027552402776718336 0.054062953592345281 0 -0.023570716132551083 0.05341585342235116 0 -0.027582711994416722 0.054237618853178543 0 -0.023017763812516662 0.052449738415510323 0 -0.02488436992875253 0.054004323382309094 0 -0.027852095043539752 0.054307965309397667 0 -0.024584580629805806 0.051513601019876898 0 -0.043441725293276771 0.047070836725151485 0 -0.026299792468667083 0.053408533352960232 0 -0.027552402776718336 0.054062953592345281 0 -0.027899600981918647 0.053623447385874982 0 -0.024144046957665657 0.054382927585841824 0 -0.027852095043539752 0.054307965309397667 0 -0.027552402776718336 0.054062953592345281 0 -0.02488436992875253 0.054004323382309094 0 -0.027852095043539752 0.054307965309397667 0 -0.028836695624445678 0.054854650385919967 0 -0.026308551250435224 0.052602884274527355 0 -0.026299792468667083 0.053408533352960232 0 -0.027899600981918647 0.053623447385874982 0 -0.027852095043539752 0.054307965309397667 0 -0.028110677326058372 0.053166394525051668 0 -0.028836695624445678 0.054854650385919967 0 -0.046546965020015395 0.04725271733679081 0 -0.043441725293276771 0.047070836725151485 0 -0.027852095043539752 0.054307965309397667 0 -0.027552402776718336 0.054062953592345281 0 -0.028110677326058372 0.053166394525051668 0 -0.03660862593297555 0.055255553707894603 0 -0.046546965020015395 0.04725271733679081 0 -0.043441725293276771 0.047070836725151485 0 -0.060821049814159742 0.038151498428447832 0 -0.0635424193951558 0.0391420765059051 0 -0.062310785387185007 0.039302529420204103 0 -0.063044405144833851 0.038105479894293651 0 -0.061906263320501552 0.038585318117393859 0 -0.063044405144833851 0.038105479894293651 0 -0.061362231777461522 0.037980048589109965 0 -0.062310785387185007 0.039302529420204103 0 -0.061906263320501552 0.038585318117393859 0 -0.061498439773038739 0.039074823225007285 0 -0.062310785387185007 0.039302529420204103 0 -0.061906263320501552 0.038585318117393859 0 -0.063044405144833851 0.038105479894293651 0 -0.051213936760621352 0.039839850997796654 0 -0.05307443928850588 0.039862784020729868 0 -0.052072459055503208 0.041653785496879016 0 -0.05307443928850588 0.039862784020729868 0 -0.052463163179435612 0.041664244730887284 0 -0.052072459055503208 0.041653785496879016 0 -0.043441725293276771 0.047070836725151485 0 -0.048744174138679673 0.039428609350301 0 -0.035080096271519486 0.048190299077943859 0 -0.03507620052958639 0.051179035465867724 0 -0.037104783429352903 0.052576062735102125 0 -0.035080096271519486 0.048190299077943859 0 -0.03507620052958639 0.051179035465867724 0 -0.034014097105229353 0.049977939561145282 0 -0.03507620052958639 0.051179035465867724 0 -0.034551188452607358 0.052438917614064641 0 -0.037104783429352903 0.052576062735102125 0 -0.033779352588159672 0.046768815096818919 0 -0.037156798190505221 0.035624465941458211 0 -0.031988454503492171 0.049783984912949088 0 -0.034014097105229353 0.049977939561145282 0 -0.03446487477350612 0.052596781701797983 0 -0.03507620052958639 0.051179035465867724 0 -0.034014097105229353 0.049977939561145282 0 -0.03446487477350612 0.052596781701797983 0 -0.026890785404449533 0.052449802334914433 0 -0.031988454503492171 0.049783984912949088 0 -0.03446487477350612 0.052596781701797983 0 -0.028998673173288022 0.048242959552091048 0 -0.035080096271519486 0.048190299077943859 0 -0.031988454503492171 0.049783984912949088 0 -0.035080096271519486 0.048190299077943859 0 -0.031988454503492171 0.049783984912949088 0 -0.034014097105229353 0.049977939561145282 0 -0.059047575362302311 0.040448975582676169 0 -0.057638378735657664 0.038551003191153614 0 -0.059111991822037815 0.038511242830542455 0 -0.059047575362302311 0.040448975582676169 0 -0.059111991822037815 0.038511242830542455 0 -0.059923659828743765 0.039315477276058712 0 -0.058299896684879247 0.036966329310302776 0 -0.059111991822037815 0.038511242830542455 0 -0.060007181124858582 0.037567195397299483 0 -0.059111991822037815 0.038511242830542455 0 -0.059923659828743765 0.039315477276058712 0 -0.06042152837674436 0.038387422053303595 0 -0.059111991822037815 0.038511242830542455 0 -0.06042152837674436 0.038387422053303595 0 -0.060007181124858582 0.037567195397299483 0 -0.06042152837674436 0.038387422053303595 0 -0.061419694211096838 0.037814030402353239 0 -0.060007181124858582 0.037567195397299483 0 -0.06042152837674436 0.038387422053303595 0 -0.061217338602818208 0.038427635998566634 0 -0.061419694211096838 0.037814030402353239 0 -0.06042152837674436 0.038387422053303595 0 -0.060869254963272973 0.039024250333743848 0 -0.061217338602818208 0.038427635998566634 0 -0.061222894721949986 0.039937724082924245 0 -0.059923659828743765 0.039315477276058712 0 -0.060869254963272973 0.039024250333743848 0 -0.059923659828743765 0.039315477276058712 0 -0.06042152837674436 0.038387422053303595 0 -0.060869254963272973 0.039024250333743848 0 -0.061222894721949986 0.039937724082924245 0 -0.062310785387185007 0.039302529420204103 0 -0.061498439773038739 0.039074823225007285 0 -0.061222894721949986 0.039937724082924245 0 -0.060869254963272973 0.039024250333743848 0 -0.061498439773038739 0.039074823225007285 0 -0.060869254963272973 0.039024250333743848 0 -0.061498439773038739 0.039074823225007285 0 -0.061217338602818208 0.038427635998566634 0 -0.061906263320501552 0.038585318117393859 0 -0.061498439773038739 0.039074823225007285 0 -0.061217338602818208 0.038427635998566634 0 -0.060943075184940819 0.038158133868453195 0 -0.060821049814159742 0.038151498428447832 0 -0.061906263320501552 0.038585318117393859 0 -0.061217338602818208 0.038427635998566634 0 -0.061362231777461522 0.037980048589109965 0 -0.060823778989533596 0.036187719377197607 0 -0.058492713041293685 0.034635127148380129 0 -0.06279798821342604 0.034945533405865634 0 -0.061960677601481239 0.037588856046422328 0 -0.060823778989533596 0.036187719377197607 0 -0.06279798821342604 0.034945533405865634 0 -0.060821049814159742 0.038151498428447832 0 -0.055891099596656758 0.036956245627976232 0 -0.060821049814159742 0.038151498428447832 0 -0.060473400801153182 0.037710177371341455 0 -0.061960677601481239 0.037588856046422328 0 -0.060823778989533596 0.036187719377197607 0 -0.060007181124858582 0.037567195397299483 0 -0.060823778989533596 0.036187719377197607 0 -0.060007181124858582 0.037567195397299483 0 -0.058492713041293685 0.034635127148380129 0 -0.058299896684879247 0.036966329310302776 0 -0.060007181124858582 0.037567195397299483 0 -0.058492713041293685 0.034635127148380129 0 -0.058492713041293685 0.034635127148380129 0 -0.058963961082216521 0.033435134755271732 0 -0.058306259635581212 0.03298454039195068 0 -0.058492713041293685 0.034635127148380129 0 -0.058963961082216521 0.033435134755271732 0 -0.059476995788332813 0.033567125903129928 0 -0.060803419558473959 0.033851755033912627 0 -0.055891099596656758 0.036956245627976232 0 -0.058963961082216521 0.033435134755271732 0 -0.059153894485325417 0.033026194742142814 0 -0.058868016263672891 0.032574188425787964 0 -0.058963961082216521 0.033435134755271732 0 -0.059310325867284554 0.033345062096006566 0 -0.059476995788332813 0.033567125903129928 0 -0.058963961082216521 0.033435134755271732 0 -0.059310325867284554 0.033345062096006566 0 -0.059153894485325417 0.033026194742142814 0 -0.059310325867284554 0.033345062096006566 0 -0.059153894485325417 0.033026194742142814 0 -0.059339254300427434 0.033017480669715375 0 -0.059153894485325417 0.033026194742142814 0 -0.059339254300427434 0.033017480669715375 0 -0.059229332680030312 0.032626340487283641 0 -0.059229332680030312 0.032626340487283641 0 -0.059157150650432408 0.032124869596524129 0 -0.058868016263672891 0.032574188425787964 0 -0.059153894485325417 0.033026194742142814 0 -0.059229332680030312 0.032626340487283641 0 -0.058868016263672891 0.032574188425787964 0 -0.059229332680030312 0.032626340487283641 0 -0.059157150650432408 0.032124869596524129 0 -0.05931393442703875 0.032344610877579644 0 -0.059157150650432408 0.032124869596524129 0 -0.058817263600640893 0.0317011469578364 0 -0.058868016263672891 0.032574188425787964 0 -0.059157150650432408 0.032124869596524129 0 -0.058817263600640893 0.0317011469578364 0 -0.059145894186026435 0.031424072333230135 0 -0.058817263600640893 0.0317011469578364 0 -0.058868016263672891 0.032574188425787964 0 -0.058381242722585214 0.03170484786361457 0 -0.058963961082216521 0.033435134755271732 0 -0.058868016263672891 0.032574188425787964 0 -0.058306259635581212 0.03298454039195068 0 -0.057492802591683399 0.031680026365834384 0 -0.058381242722585214 0.03170484786361457 0 -0.058306259635581212 0.03298454039195068 0 -0.058868016263672891 0.032574188425787964 0 -0.058381242722585214 0.03170484786361457 0 -0.058306259635581212 0.03298454039195068 0 -0.029371246342559606 0.040047986423200163 0 -0.037156798190505221 0.035624465941458211 0 -0.031876623349412228 0.025113040217224863 0 -0.028042118769514054 0.027383430478483694 0 -0.029582982148925033 0.023459453566588621 0 -0.052886098570046669 0.025278652644937456 0 -0.052768788281790116 0.0233623539940781 0 -0.053845584298223399 0.022728501643094208 0 -0.037156798190505221 0.035624465941458211 0 -0.041917275109738056 0.02177958251257426 0 -0.052886098570046669 0.025278652644937456 0 -0.051657296236068968 0.025258132134170788 0 -0.051963519360001265 0.024792681232347166 0 -0.037156798190505221 0.035624465941458211 0 -0.048744174138679673 0.039428609350301 0 -0.052886098570046669 0.025278652644937456 0 -0.052261950842226429 0.024431999471995099 0 -0.052768788281790116 0.0233623539940781 0 -0.052886098570046669 0.025278652644937456 0 -0.051963519360001265 0.024792681232347166 0 -0.052261950842226429 0.024431999471995099 0 -0.050453147968472153 0.03710716531019724 0 -0.052942282587930635 0.037211982684167144 0 -0.051481119210340924 0.033909329267188412 0 -0.055891099596656758 0.036956245627976232 0 -0.048744174138679673 0.039428609350301 0 -0.051657296236068968 0.025258132134170788 0 -0.051963519360001265 0.024792681232347166 0 -0.051380913310906391 0.02458300546337687 0 -0.048744174138679673 0.039428609350301 0 -0.053536556123040847 0.031562358072621657 0 -0.051963519360001265 0.024792681232347166 0 -0.051380913310906391 0.02458300546337687 0 -0.0519500800793566 0.024368071301234424 0 -0.059310325867284554 0.033345062096006566 0 -0.059476995788332813 0.033567125903129928 0 -0.059605800625058394 0.033446006545270954 0 -0.055891099596656758 0.036956245627976232 0 -0.053536556123040847 0.031562358072621657 0 -0.059339254300427434 0.033017480669715375 0 -0.059605800625058394 0.033446006545270954 0 -0.059498052658289065 0.032683373586093342 0 -0.051380913310906391 0.02458300546337687 0 -0.0519500800793566 0.024368071301234424 0 -0.052194225508034299 0.023687223806182395 0 -0.059310325867284554 0.033345062096006566 0 -0.059339254300427434 0.033017480669715375 0 -0.059605800625058394 0.033446006545270954 0 -0.052261950842226429 0.024431999471995099 0 -0.052194225508034299 0.023687223806182395 0 -0.052768788281790116 0.0233623539940781 0 -0.0519500800793566 0.024368071301234424 0 -0.052261950842226429 0.024431999471995099 0 -0.052194225508034299 0.023687223806182395 0 -0.051963519360001265 0.024792681232347166 0 -0.0519500800793566 0.024368071301234424 0 -0.052261950842226429 0.024431999471995099 0 -0.059498052658289065 0.032683373586093342 0 -0.059365932539016432 0.031940235937767472 0 -0.059686137872081241 0.031092643369898806 0 -0.052194225508034299 0.023687223806182395 0 -0.052768788281790116 0.0233623539940781 0 -0.052888134316349977 0.021737560814798221 0 -0.051380913310906391 0.02458300546337687 0 -0.052194225508034299 0.023687223806182395 0 -0.052888134316349977 0.021737560814798221 0 -0.059605800625058394 0.033446006545270954 0 -0.059498052658289065 0.032683373586093342 0 -0.059686137872081241 0.031092643369898806 0 -0.052768788281790116 0.0233623539940781 0 -0.05310439021407256 0.022157184061854997 0 -0.052888134316349977 0.021737560814798221 0 -0.053536556123040847 0.031562358072621657 0 -0.056573884183407377 0.025890333048694199 0 -0.059498052658289065 0.032683373586093342 0 -0.05931393442703875 0.032344610877579644 0 -0.059365932539016432 0.031940235937767472 0 -0.059339254300427434 0.033017480669715375 0 -0.059229332680030312 0.032626340487283641 0 -0.059498052658289065 0.032683373586093342 0 -0.059229332680030312 0.032626340487283641 0 -0.059498052658289065 0.032683373586093342 0 -0.05931393442703875 0.032344610877579644 0 -0.059157150650432408 0.032124869596524129 0 -0.05931393442703875 0.032344610877579644 0 -0.059365932539016432 0.031940235937767472 0 -0.059365932539016432 0.031940235937767472 0 -0.059145894186026435 0.031424072333230135 0 -0.059686137872081241 0.031092643369898806 0 -0.059157150650432408 0.032124869596524129 0 -0.059365932539016432 0.031940235937767472 0 -0.059145894186026435 0.031424072333230135 0 -0.052768788281790116 0.0233623539940781 0 -0.05310439021407256 0.022157184061854997 0 -0.053845584298223399 0.022728501643094208 0 -0.05310439021407256 0.022157184061854997 0 -0.053845584298223399 0.022728501643094208 0 -0.054481979381945954 0.020734113919543089 0 -0.05310439021407256 0.022157184061854997 0 -0.052888134316349977 0.021737560814798221 0 -0.05323726955815395 0.021320489919949181 0 -0.052888134316349977 0.021737560814798221 0 -0.053934834133238095 0.021683286221879556 0 -0.05323726955815395 0.021320489919949181 0 -0.041917275109738056 0.02177958251257426 0 -0.047110468132635058 0.018263363423530011 0 -0.05476489722331835 0.022049441247839127 0 -0.047110468132635058 0.018263363423530011 0 -0.059145894186026435 0.031424072333230135 0 -0.058990773572146001 0.0307079857411603 0 -0.058580469402333663 0.030670979295418441 0 -0.059145894186026435 0.031424072333230135 0 -0.059686137872081241 0.031092643369898806 0 -0.058990773572146001 0.0307079857411603 0 -0.059686137872081241 0.031092643369898806 0 -0.058990773572146001 0.0307079857411603 0 -0.058672536253762078 0.029688173413097697 0 -0.058990773572146001 0.0307079857411603 0 -0.058672536253762078 0.029688173413097697 0 -0.058580469402333663 0.030670979295418441 0 -0.059686137872081241 0.031092643369898806 0 -0.058672536253762078 0.029688173413097697 0 -0.058433197397091394 0.0282968004699168 0 -0.058672536253762078 0.029688173413097697 0 -0.058129988239524324 0.029329814364429295 0 -0.057978323425304984 0.028443398754272091 0 -0.058672536253762078 0.029688173413097697 0 -0.058433197397091394 0.0282968004699168 0 -0.057978323425304984 0.028443398754272091 0 -0.056573884183407377 0.025890333048694199 0 -0.055966366973544644 0.025408614699731429 0 -0.057492802591683399 0.031680026365834384 0 -0.058381242722585214 0.03170484786361457 0 -0.057930532204064342 0.030281982309308109 0 -0.058381242722585214 0.03170484786361457 0 -0.058580469402333663 0.030670979295418441 0 -0.057930532204064342 0.030281982309308109 0 -0.058817263600640893 0.0317011469578364 0 -0.058381242722585214 0.03170484786361457 0 -0.058580469402333663 0.030670979295418441 0 -0.058817263600640893 0.0317011469578364 0 -0.059145894186026435 0.031424072333230135 0 -0.058580469402333663 0.030670979295418441 0 -0.058580469402333663 0.030670979295418441 0 -0.058129988239524324 0.029329814364429295 0 -0.057930532204064342 0.030281982309308109 0 -0.058672536253762078 0.029688173413097697 0 -0.058580469402333663 0.030670979295418441 0 -0.058129988239524324 0.029329814364429295 0 -0.058129988239524324 0.029329814364429295 0 -0.057930532204064342 0.030281982309308109 0 -0.057710881502799911 0.028894488522923863 0 -0.057237106973263806 0.029819407672228893 0 -0.057930532204064342 0.030281982309308109 0 -0.057710881502799911 0.028894488522923863 0 -0.057710881502799911 0.028894488522923863 0 -0.057739987697257508 0.028110991121745591 0 -0.057570491903220701 0.028005405989656458 0 -0.058129988239524324 0.029329814364429295 0 -0.057710881502799911 0.028894488522923863 0 -0.057739987697257508 0.028110991121745591 0 -0.058129988239524324 0.029329814364429295 0 -0.057739987697257508 0.028110991121745591 0 -0.057978323425304984 0.028443398754272091 0 -0.057739987697257508 0.028110991121745591 0 -0.057570491903220701 0.028005405989656458 0 -0.05730399186167192 0.027764045354989244 0 -0.057286824930958137 0.028362692910683423 0 -0.057710881502799911 0.028894488522923863 0 -0.057570491903220701 0.028005405989656458 0 -0.057286824930958137 0.028362692910683423 0 -0.057570491903220701 0.028005405989656458 0 -0.05726384674225999 0.027435077310198376 0 -0.055966366973544644 0.025408614699731429 0 -0.054827137713294359 0.026431085020080927 0 -0.053934834133238095 0.021683286221879556 0 -0.054689810242562101 0.026254084921867798 0 -0.052264862724266947 0.023905276357823548 0 -0.058433197397091394 0.0282968004699168 0 -0.057030898280097261 0.027326929154345637 0 -0.054689810242562101 0.026254084921867798 0 -0.057739987697257508 0.028110991121745591 0 -0.057030898280097261 0.027326929154345637 0 -0.057978323425304984 0.028443398754272091 0 -0.058433197397091394 0.0282968004699168 0 -0.057030898280097261 0.027326929154345637 0 -0.057978323425304984 0.028443398754272091 0 -0.057739987697257508 0.028110991121745591 0 -0.057030898280097261 0.027326929154345637 0 -0.05730399186167192 0.027764045354989244 0 -0.057030898280097261 0.027326929154345637 0 -0.05730399186167192 0.027764045354989244 0 -0.054689810242562101 0.026254084921867798 0 -0.049296129093732557 0.024541524849869104 0 -0.052264862724266947 0.023905276357823548 0 -0.051357633726228022 0.027505107365684265 0 -0.054689810242562101 0.026254084921867798 0 -0.052264862724266947 0.023905276357823548 0 -0.051357633726228022 0.027505107365684265 0 -0.046838437868653902 0.019967621852097973 0 -0.041876436707193779 0.023853931019650981 0 -0.038170294054148797 0.018897986377259691 0 -0.046838437868653902 0.019967621852097973 0 -0.041876436707193779 0.023853931019650981 0 -0.044609558316869899 0.028494849788394831 0 -0.047787676653044814 0.022785963743469608 0 -0.044961795449454611 0.028163329419022012 0 -0.046838437868653902 0.019967621852097973 0 -0.045559540995918732 0.0128397844096093 0 -0.038170294054148797 0.018897986377259691 0 -0.046838437868653902 0.019967621852097973 0 -0.049125885881925464 0.013368002824198611 0 -0.045559540995918732 0.0128397844096093 0 -0.049296129093732557 0.024541524849869104 0 -0.052264862724266947 0.023905276357823548 0 -0.052016725750574672 0.022129114620057989 0 -0.047787676653044814 0.022785963743469608 0 -0.051149021993971797 0.016912160680242407 0 -0.053934834133238095 0.021683286221879556 0 -0.052264862724266947 0.023905276357823548 0 -0.052016725750574672 0.022129114620057989 0 -0.051149021993971797 0.016912160680242407 0 -0.047110468132635058 0.018263363423530011 0 -0.039907564466430102 0.013701919469304725 0 -0.047110468132635058 0.018263363423530011 0 -0.049125885881925464 0.013368002824198611 0 -0.045559540995918732 0.0128397844096093 0 -0.051513926754602868 0.0078387331532473407 0 -0.053934834133238095 0.021683286221879556 0 -0.052016725750574672 0.022129114620057989 0 -0.05323726955815395 0.021320489919949181 0 -0.034793166471239576 0.016050122369924889 0 -0.035903840830512783 0.020152902868710017 0 -0.031205979917950436 0.019463007862074326 0 -0.035903840830512783 0.020152902868710017 0 -0.033936512166530354 0.0211949707804161 0 -0.031205979917950436 0.019463007862074326 0 -0.035463676855689331 0.022365461903716924 0 -0.035903840830512783 0.020152902868710017 0 -0.033936512166530354 0.0211949707804161 0 -0.033176911013150213 0.022801656887425938 0 -0.033936512166530354 0.0211949707804161 0 -0.031205979917950436 0.019463007862074326 0 -0.024662465368178885 0.0085312934128497359 0 -0.028435271353187689 0.0081548943682138667 0 -0.026201519101213711 0.010956374739629645 0 -0.028435271353187689 0.0081548943682138667 0 -0.026201519101213711 0.010956374739629645 0 -0.028784271762292025 0.012226332418750178 0 -0.026619609498864626 0.027177240632664815 0 -0.034321039772903066 0.011937503917341018 0 -0.038584303374248494 0.022399876289082143 0 -0.035903840830512783 0.020152902868710017 0 -0.038444536690182371 0.01744304650589075 0 -0.035463676855689331 0.022365461903716924 0 -0.038105024006702744 0.022526020990805026 0 -0.035903840830512783 0.020152902868710017 0 -0.038105024006702744 0.022526020990805026 0 -0.038584303374248494 0.022399876289082143 0 -0.035903840830512783 0.020152902868710017 0 -0.034793166471239576 0.016050122369924889 0 -0.035903840830512783 0.020152902868710017 0 -0.038444536690182371 0.01744304650589075 0 -0.023177871950508296 0.011827992600685793 0 -0.026201519101213711 0.010956374739629645 0 -0.026383380239156821 0.013678924927367699 0 -0.026201519101213711 0.010956374739629645 0 -0.028784271762292025 0.012226332418750178 0 -0.026383380239156821 0.013678924927367699 0 -0.026383380239156821 0.013678924927367699 0 -0.03029524213468085 0.016351578215327581 0 -0.026457760381224438 0.016301283003717023 0 -0.028784271762292025 0.012226332418750178 0 -0.026383380239156821 0.013678924927367699 0 -0.03029524213468085 0.016351578215327581 0 -0.023683319140293486 0.014972824712346428 0 -0.026383380239156821 0.013678924927367699 0 -0.026457760381224438 0.016301283003717023 0 -0.034321039772903066 0.011937503917341018 0 -0.03525647490695883 0.016755608220350129 0 -0.034793166471239576 0.016050122369924889 0 -0.038444536690182371 0.01744304650589075 0 -0.038273601241373162 0.012843672571703497 0 -0.039907564466430102 0.013701919469304725 0 -0.03525647490695883 0.016755608220350129 0 -0.031753938793878202 0.014884976765119518 0 -0.029873220410522618 0.016934398724257903 0 -0.03656609254718992 0.030908830006182629 0 -0.03525647490695883 0.016755608220350129 0 -0.032916130002927875 0.017676182763079591 0 -0.026457760381224438 0.016301283003717023 0 -0.028051095432978214 0.017372724908588037 0 -0.025761054874250879 0.018438407328620239 0 -0.03029524213468085 0.016351578215327581 0 -0.029873220410522618 0.016934398724257903 0 -0.028051095432978214 0.017372724908588037 0 -0.03029524213468085 0.016351578215327581 0 -0.026457760381224438 0.016301283003717023 0 -0.028051095432978214 0.017372724908588037 0 -0.029873220410522618 0.016934398724257903 0 -0.028051095432978214 0.017372724908588037 0 -0.027801831003151298 0.019835047172716343 0 -0.027801831003151298 0.019835047172716343 0 -0.025761054874250879 0.018438407328620239 0 -0.02545492191614411 0.020240767930227301 0 -0.028051095432978214 0.017372724908588037 0 -0.027801831003151298 0.019835047172716343 0 -0.025761054874250879 0.018438407328620239 0 -0.027801831003151298 0.019835047172716343 0 -0.027507676337874969 0.028548582819793913 0 -0.03656609254718992 0.030908830006182629 0 -0.027801831003151298 0.019835047172716343 0 -0.02545492191614411 0.020240767930227301 0 -0.025930324461845473 0.021446353296580806 0 -0.027813690327105914 0.019967464132386151 0 -0.026823345941732177 0.025887182729181307 0 -0.02545492191614411 0.020240767930227301 0 -0.025930324461845473 0.021446353296580806 0 -0.023182186014236321 0.021123437087234201 0 -0.03525647490695883 0.016755608220350129 0 -0.036300828455125965 0.030778149580122375 0 -0.041876436707193779 0.023853931019650981 0 -0.03656609254718992 0.030908830006182629 0 -0.044609558316869899 0.028494849788394831 0 -0.029873220410522618 0.016934398724257903 0 -0.027801831003151298 0.019835047172716343 0 -0.03656609254718992 0.030908830006182629 0 -0.041876436707193779 0.023853931019650981 0 -0.038170294054148797 0.018897986377259691 0 -0.03656609254718992 0.030908830006182629 0 -0.03656609254718992 0.030908830006182629 0 -0.043101911827911996 0.0354365162398785 0 -0.044609558316869899 0.028494849788394831 0 -0.03656609254718992 0.030908830006182629 0 -0.026067360123551341 0.037589892648976379 0 -0.043101911827911996 0.0354365162398785 0 -0.055330029096858961 0.025407785297407195 0 -0.055892840772663259 0.025618239414400574 0 -0.055946525689321965 0.025494086163111815 0 -0.03487195367879925 0.025611634911441961 0 -0.050690841720327728 0.031232124312678942 0 -0.027507676337874969 0.028548582819793913 0 -0.03656609254718992 0.030908830006182629 0 -0.026067360123551341 0.037589892648976379 0 -0.025930324461845473 0.021446353296580806 0 -0.025156558968784184 0.023666349422316543 0 -0.023182186014236321 0.021123437087234201 0 -0.026823345941732177 0.025887182729181307 0 -0.03487195367879925 0.025611634911441961 0 -0.055330029096858961 0.025407785297407195 0 -0.05557824557409366 0.025627743456663507 0 -0.055364808426271811 0.025599714594972053 0 -0.03487195367879925 0.025611634911441961 0 -0.040964563619237837 0.026809153420238346 0 -0.055330029096858961 0.025407785297407195 0 -0.05568586968641745 0.025595291046524554 0 -0.05557824557409366 0.025627743456663507 0 -0.055330029096858961 0.025407785297407195 0 -0.055892840772663259 0.025618239414400574 0 -0.05568586968641745 0.025595291046524554 0 -0.055892840772663259 0.025618239414400574 0 -0.055825935612855267 0.025675564105394226 0 -0.056125502073765224 0.02578196169656348 0 -0.055892840772663259 0.025618239414400574 0 -0.05568586968641745 0.025595291046524554 0 -0.055825935612855267 0.025675564105394226 0 -0.05568586968641745 0.025595291046524554 0 -0.055825935612855267 0.025675564105394226 0 -0.05557824557409366 0.025627743456663507 0 -0.055825935612855267 0.025675564105394226 0 -0.05557824557409366 0.025627743456663507 0 -0.055598752303012686 0.025612171082229428 0 -0.05557824557409366 0.025627743456663507 0 -0.055598752303012686 0.025612171082229428 0 -0.055364808426271811 0.025599714594972053 0 -0.055598752303012686 0.025612171082229428 0 -0.055387836439714552 0.025586071810443131 0 -0.055364808426271811 0.025599714594972053 0 -0.056576406081631392 0.026021659181090243 0 -0.056125502073765224 0.02578196169656348 0 -0.056335906400986333 0.025782007192966919 0 -0.056125502073765224 0.02578196169656348 0 -0.056062788154699755 0.025698319336101137 0 -0.056335906400986333 0.025782007192966919 0 -0.055825935612855267 0.025675564105394226 0 -0.056125502073765224 0.02578196169656348 0 -0.056062788154699755 0.025698319336101137 0 -0.055892840772663259 0.025618239414400574 0 -0.056125502073765224 0.02578196169656348 0 -0.055946525689321965 0.025494086163111815 0 -0.056125502073765224 0.02578196169656348 0 -0.056456135666020972 0.025943803114160734 0 -0.055946525689321965 0.025494086163111815 0 -0.056576406081631392 0.026021659181090243 0 -0.056125502073765224 0.02578196169656348 0 -0.056456135666020972 0.025943803114160734 0 -0.05478814717335477 0.029023711958499857 0 -0.050690841720327728 0.031232124312678942 0 -0.056456135666020972 0.025943803114160734 0 -0.0567330435356658 0.026027470274453225 0 -0.055946525689321965 0.025494086163111815 0 -0.053981982954787663 0.032268431326127937 0 -0.043101911827911996 0.0354365162398785 0 -0.044609558316869899 0.028494849788394831 0 -0.049296129093732557 0.024541524849869104 0 -0.044609558316869899 0.028494849788394831 0 -0.051357633726228022 0.027505107365684265 0 -0.053981982954787663 0.032268431326127937 0 -0.044609558316869899 0.028494849788394831 0 -0.051357633726228022 0.027505107365684265 0 -0.053981982954787663 0.032268431326127937 0 -0.051357633726228022 0.027505107365684265 0 -0.055651308656528682 0.028499760831917402 0 -0.05730399186167192 0.027764045354989244 0 -0.054689810242562101 0.026254084921867798 0 -0.055651308656528682 0.028499760831917402 0 -0.054689810242562101 0.026254084921867798 0 -0.051357633726228022 0.027505107365684265 0 -0.055651308656528682 0.028499760831917402 0 -0.05730399186167192 0.027764045354989244 0 -0.055651308656528682 0.028499760831917402 0 -0.057253943068841816 0.027870623943484094 0 -0.053981982954787663 0.032268431326127937 0 -0.055651308656528682 0.028499760831917402 0 -0.057253943068841816 0.027870623943484094 0 -0.0567330435356658 0.026027470274453225 0 -0.057253943068841816 0.027870623943484094 0 -0.056957822067421379 0.026448214406197774 0 -0.05478814717335477 0.029023711958499857 0 -0.057055620197782327 0.028101862559491528 0 -0.057570491903220701 0.028005405989656458 0 -0.057340678055304982 0.02771002160775295 0 -0.05726384674225999 0.027435077310198376 0 -0.05730399186167192 0.027764045354989244 0 -0.057253943068841816 0.027870623943484094 0 -0.057340678055304982 0.02771002160775295 0 -0.057570491903220701 0.028005405989656458 0 -0.05730399186167192 0.027764045354989244 0 -0.057340678055304982 0.02771002160775295 0 -0.057253943068841816 0.027870623943484094 0 -0.057340678055304982 0.02771002160775295 0 -0.056948453813475984 0.027140835912418233 0 -0.057253943068841816 0.027870623943484094 0 -0.056948453813475984 0.027140835912418233 0 -0.056970989217389648 0.026778150315097685 0 -0.057340678055304982 0.02771002160775295 0 -0.056948453813475984 0.027140835912418233 0 -0.05726384674225999 0.027435077310198376 0 -0.056976839313106528 0.027061289681620405 0 -0.056757984814033553 0.026588048925784542 0 -0.056948453813475984 0.027140835912418233 0 -0.05726384674225999 0.027435077310198376 0 -0.057206959547005713 0.026952505766756254 0 -0.056948453813475984 0.027140835912418233 0 -0.056589130725219212 0.026051337041387606 0 -0.05635370604261912 0.025969612765557509 0 -0.056948453813475984 0.027140835912418233 0 -0.056272774947556913 0.026222726357171506 0 -0.05635370604261912 0.025969612765557509 0 -0.056948453813475984 0.027140835912418233 0 -0.056821348614990205 0.026412642581961555 0 -0.056970989217389648 0.026778150315097685 0 -0.056948453813475984 0.027140835912418233 0 -0.056821348614990205 0.026412642581961555 0 -0.056589130725219212 0.026051337041387606 0 -0.056821348614990205 0.026412642581961555 0 -0.056695494262732918 0.026008829611913156 0 -0.05680219768663463 0.026234752775964779 0 -0.056695494262732918 0.026008829611913156 0 -0.056589130725219212 0.026051337041387606 0 -0.056574933255055665 0.025875906681365388 0 -0.056695494262732918 0.026008829611913156 0 -0.056574933255055665 0.025875906681365388 0 -0.056656708325200381 0.025911342802346513 0 -0.056821348614990205 0.026412642581961555 0 -0.056695494262732918 0.026008829611913156 0 -0.056589130725219212 0.026051337041387606 0 -0.056589130725219212 0.026051337041387606 0 -0.056428392887416745 0.025824112004127452 0 -0.056574933255055665 0.025875906681365388 0 -0.056589130725219212 0.026051337041387606 0 -0.056428392887416745 0.025824112004127452 0 -0.05635370604261912 0.025969612765557509 0 -0.056576406081631392 0.026021659181090243 0 -0.056456135666020972 0.025943803114160734 0 -0.056957822067421379 0.026448214406197774 0 -0.056456135666020972 0.025943803114160734 0 -0.0567330435356658 0.026027470274453225 0 -0.056957822067421379 0.026448214406197774 0 -0.057253943068841816 0.027870623943484094 0 -0.056957822067421379 0.026448214406197774 0 -0.056970989217389648 0.026778150315097685 0 -0.056957822067421379 0.026448214406197774 0 -0.056970989217389648 0.026778150315097685 0 -0.05680219768663463 0.026234752775964779 0 -0.056821348614990205 0.026412642581961555 0 -0.056970989217389648 0.026778150315097685 0 -0.05680219768663463 0.026234752775964779 0 -0.056695494262732918 0.026008829611913156 0 -0.05680219768663463 0.026234752775964779 0 -0.056547334367817836 0.025832209545542523 0 -0.05680219768663463 0.026234752775964779 0 -0.056606761708643157 0.025982624239247281 0 -0.056547334367817836 0.025832209545542523 0 -0.056957822067421379 0.026448214406197774 0 -0.05680219768663463 0.026234752775964779 0 -0.056606761708643157 0.025982624239247281 0 -0.056576406081631392 0.026021659181090243 0 -0.056957822067421379 0.026448214406197774 0 -0.056606761708643157 0.025982624239247281 0 -0.056576406081631392 0.026021659181090243 0 -0.056606761708643157 0.025982624239247281 0 -0.056335906400986333 0.025782007192966919 0 -0.056606761708643157 0.025982624239247281 0 -0.056265717040885357 0.025570873354346761 0 -0.056547334367817836 0.025832209545542523 0 -0.056606761708643157 0.025982624239247281 0 -0.056265717040885357 0.025570873354346761 0 -0.056335906400986333 0.025782007192966919 0 -0.056265717040885357 0.025570873354346761 0 -0.056547334367817836 0.025832209545542523 0 -0.056680988543580932 0.025914158995697125 0 -0.056265717040885357 0.025570873354346761 0 -0.055672204242326433 0.024832857456831049 0 -0.055329351696770626 0.024785353284417198 0 -0.056310457018181541 0.025544070188564433 0 -0.056039696282292967 0.025316091119490309 0 -0.055672204242326433 0.024832857456831049 0 -0.055971881942210415 0.02486650697534909 0 -0.055398258052555757 0.024322830779376328 0 -0.056265717040885357 0.025570873354346761 0 -0.055672204242326433 0.024832857456831049 0 -0.055971881942210415 0.02486650697534909 0 -0.056265717040885357 0.025570873354346761 0 -0.055971881942210415 0.02486650697534909 0 -0.056202534510300897 0.025498109201930463 0 -0.056428392887416745 0.025824112004127452 0 -0.056574933255055665 0.025875906681365388 0 -0.056360765178233616 0.025638284762313775 0 -0.055329351696770626 0.024785353284417198 0 -0.055251614257660064 0.02451005767486808 0 -0.054392894316015225 0.023703973717962623 0 -0.056039696282292967 0.025316091119490309 0 -0.055413322933889952 0.024677888911424025 0 -0.056574933255055665 0.025875906681365388 0 -0.056680988543580932 0.025914158995697125 0 -0.056360765178233616 0.025638284762313775 0 -0.056574933255055665 0.025875906681365388 0 -0.056656708325200381 0.025911342802346513 0 -0.056680988543580932 0.025914158995697125 0 -0.056656708325200381 0.025911342802346513 0 -0.056647821873796154 0.025904553477127636 0 -0.056680988543580932 0.025914158995697125 0 -0.056695494262732918 0.026008829611913156 0 -0.056547334367817836 0.025832209545542523 0 -0.056647821873796154 0.025904553477127636 0 -0.056547334367817836 0.025832209545542523 0 -0.056647821873796154 0.025904553477127636 0 -0.056680988543580932 0.025914158995697125 0 -0.056695494262732918 0.026008829611913156 0 -0.056656708325200381 0.025911342802346513 0 -0.056647821873796154 0.025904553477127636 0 -0.055672204242326433 0.024832857456831049 0 -0.055251614257660064 0.02451005767486808 0 -0.055398258052555757 0.024322830779376328 0 -0.055251614257660064 0.02451005767486808 0 -0.054946491336946818 0.024025143593319156 0 -0.055398258052555757 0.024322830779376328 0 -0.055672204242326433 0.024832857456831049 0 -0.055329351696770626 0.024785353284417198 0 -0.055251614257660064 0.02451005767486808 0 -0.055251614257660064 0.02451005767486808 0 -0.054946491336946818 0.024025143593319156 0 -0.054557473570778066 0.024052805619387389 0 -0.055251614257660064 0.02451005767486808 0 -0.054392894316015225 0.023703973717962623 0 -0.05443008954187592 0.023378645232077985 0 -0.055179693304511258 0.024366561081615275 0 -0.054488037531406179 0.02374040810607142 0 -0.054946491336946818 0.024025143593319156 0 -0.055398258052555757 0.024322830779376328 0 -0.054811944771640052 0.023474984122721018 0 -0.054946491336946818 0.024025143593319156 0 -0.054811944771640052 0.023474984122721018 0 -0.054520051569028234 0.023592249228532345 0 -0.055398258052555757 0.024322830779376328 0 -0.054811944771640052 0.023474984122721018 0 -0.055564841883929524 0.024093284953932627 0 -0.050463255074443394 0.010666744767313477 0 -0.050340909651198557 0.010914155390433857 0 -0.050415744550010966 0.010721209561353535 0 -0.052481708549339472 0.017310161895709632 0 -0.052899435270232775 0.01738060321171744 0 -0.050202654808247836 0.011146693347773049 0 -0.050463255074443394 0.010666744767313477 0 -0.050340909651198557 0.010914155390433857 0 -0.050202654808247836 0.011146693347773049 0 -0.050141236749389126 0.011322153567520305 0 -0.050340909651198557 0.010914155390433857 0 -0.055971881942210415 0.02486650697534909 0 -0.056057264618417812 0.024880455958509955 0 -0.056202534510300897 0.025498109201930463 0 -0.055971881942210415 0.02486650697534909 0 -0.055398258052555757 0.024322830779376328 0 -0.055564841883929524 0.024093284953932627 0 -0.055971881942210415 0.02486650697534909 0 -0.055564841883929524 0.024093284953932627 0 -0.056057264618417812 0.024880455958509955 0 -0.052899435270232775 0.01738060321171744 0 -0.053015275817461419 0.017461270558035768 0 -0.050463255074443394 0.010666744767313477 0 -0.050305889676604459 0.010652039993247263 0 -0.050049720285816786 0.010508993690329075 0 -0.050463255074443394 0.010666744767313477 0 -0.050305889676604459 0.010652039993247263 0 -0.050415744550010966 0.010721209561353535 0 -0.049776197898147016 0.010026140832950638 0 -0.050049720285816786 0.010508993690329075 0 -0.049554668120064163 0.010779259866954719 0 -0.050463255074443394 0.010666744767313477 0 -0.049776197898147016 0.010026140832950638 0 -0.050049720285816786 0.010508993690329075 0 -0.049776197898147016 0.010026140832950638 0 -0.048097634452309163 0.0097001021929476183 0 -0.049554668120064163 0.010779259866954719 0 -0.053015275817461419 0.017461270558035768 0 -0.051234372869856819 0.017602943915571299 0 -0.056057264618417812 0.024880455958509955 0 -0.056000302783173299 0.025530858923748154 0 -0.056202534510300897 0.025498109201930463 0 -0.056000302783173299 0.025530858923748154 0 -0.055759662324805122 0.02559327507991483 0 -0.056202534510300897 0.025498109201930463 0 -0.051234372869856819 0.017602943915571299 0 -0.054076029299078392 0.017766259905169508 0 -0.048097634452309163 0.0097001021929476183 0 -0.045985806341325791 0.0094214778457453654 0 -0.046832733713822655 0.010754506645329792 0 -0.055377555874082232 0.02593980952053488 0 -0.055351070823171498 0.02564895954960247 0 -0.054821555234968948 0.025676149140849151 0 -0.055377555874082232 0.02593980952053488 0 -0.055759662324805122 0.02559327507991483 0 -0.055351070823171498 0.02564895954960247 0 -0.056000302783173299 0.025530858923748154 0 -0.055377555874082232 0.02593980952053488 0 -0.055759662324805122 0.02559327507991483 0 -0.055759662324805122 0.02559327507991483 0 -0.055561516087436529 0.025593099219948432 0 -0.055803178237340045 0.025623016097475502 0 -0.055759662324805122 0.02559327507991483 0 -0.055351070823171498 0.02564895954960247 0 -0.055561516087436529 0.025593099219948432 0 -0.055351070823171498 0.02564895954960247 0 -0.055561516087436529 0.025593099219948432 0 -0.055254728698458856 0.025546053734387515 0 -0.055561516087436529 0.025593099219948432 0 -0.055387836439714552 0.025586071810443131 0 -0.055254728698458856 0.025546053734387515 0 -0.055561516087436529 0.025593099219948432 0 -0.055598752303012686 0.025612171082229428 0 -0.055387836439714552 0.025586071810443131 0 -0.055825935612855267 0.025675564105394226 0 -0.055803178237340045 0.025623016097475502 0 -0.056062788154699755 0.025698319336101137 0 -0.055825935612855267 0.025675564105394226 0 -0.055598752303012686 0.025612171082229428 0 -0.055803178237340045 0.025623016097475502 0 -0.055561516087436529 0.025593099219948432 0 -0.055598752303012686 0.025612171082229428 0 -0.055803178237340045 0.025623016097475502 0 -0.055803178237340045 0.025623016097475502 0 -0.056062788154699755 0.025698319336101137 0 -0.056202534510300897 0.025498109201930463 0 -0.056062788154699755 0.025698319336101137 0 -0.056335906400986333 0.025782007192966919 0 -0.056202534510300897 0.025498109201930463 0 -0.056265717040885357 0.025570873354346761 0 -0.056335906400986333 0.025782007192966919 0 -0.056202534510300897 0.025498109201930463 0 -0.055759662324805122 0.02559327507991483 0 -0.055803178237340045 0.025623016097475502 0 -0.056202534510300897 0.025498109201930463 0 -0.05566084704272338 0.022648146929132324 0 -0.056001092407162854 0.023144101289337464 0 -0.054999808675142078 0.020234540820592634 0 -0.05566084704272338 0.022648146929132324 0 -0.054999216456529033 0.022604412178061792 0 -0.054999808675142078 0.020234540820592634 0 -0.05566084704272338 0.022648146929132324 0 -0.055891802673420081 0.023639323881754919 0 -0.056001092407162854 0.023144101289337464 0 -0.05566084704272338 0.022648146929132324 0 -0.055891802673420081 0.023639323881754919 0 -0.055711493078183086 0.023895833328510967 0 -0.055891802673420081 0.023639323881754919 0 -0.055711493078183086 0.023895833328510967 0 -0.055846115296309153 0.024628661422235274 0 -0.055711493078183086 0.023895833328510967 0 -0.055656979977539642 0.02508490394662068 0 -0.055846115296309153 0.024628661422235274 0 -0.05566084704272338 0.022648146929132324 0 -0.055711493078183086 0.023895833328510967 0 -0.054999216456529033 0.022604412178061792 0 -0.055711493078183086 0.023895833328510967 0 -0.054999216456529033 0.022604412178061792 0 -0.054999672466456331 0.024974223130728435 0 -0.055711493078183086 0.023895833328510967 0 -0.054999672466456331 0.024974223130728435 0 -0.055656979977539642 0.02508490394662068 0 -0.054998886376081781 0.02497902526637617 0 -0.055086395066803351 0.026833227332074081 0 -0.055073356372418392 0.026446055356520635 0 -0.054999729842222844 0.024975993634594941 0 -0.055343424745994775 0.025741553803198848 0 -0.054999027899433846 0.028129540991996323 0 -0.054998886376081781 0.02497902526637617 0 -0.055086395066803351 0.026833227332074081 0 -0.055086395066803351 0.026833227332074081 0 -0.0548642324408289 0.02695028156906331 0 -0.055073356372418392 0.026446055356520635 0 -0.055343424745994775 0.025741553803198848 0 -0.055706784938084564 0.026179537093998263 0 -0.055656979977539642 0.02508490394662068 0 -0.055597570681892979 0.026252293049793807 0 -0.055846115296309153 0.024628661422235274 0 -0.0548642324408289 0.02695028156906331 0 -0.055073356372418392 0.026446055356520635 0 -0.055597570681892979 0.026252293049793807 0 -0.055339426980961011 0.027458885917701296 0 -0.0548642324408289 0.02695028156906331 0 -0.055597570681892979 0.026252293049793807 0 -0.055339426980961011 0.027458885917701296 0 -0.055597570681892979 0.026252293049793807 0 -0.056094565542296117 0.027493260300158202 0 -0.055597570681892979 0.026252293049793807 0 -0.056216898184509638 0.025020632751945 0 -0.056461605636850154 0.026510971655352707 0 -0.055597570681892979 0.026252293049793807 0 -0.055846115296309153 0.024628661422235274 0 -0.056216898184509638 0.025020632751945 0 -0.055846115296309153 0.024628661422235274 0 -0.056064643780130513 0.024168713055016 0 -0.056216898184509638 0.025020632751945 0 -0.055891802673420081 0.023639323881754919 0 -0.056064643780130513 0.024168713055016 0 -0.056001092407162854 0.023144101289337464 0 -0.055891802673420081 0.023639323881754919 0 -0.055846115296309153 0.024628661422235274 0 -0.056064643780130513 0.024168713055016 0 -0.056064643780130513 0.024168713055016 0 -0.056216898184509638 0.025020632751945 0 -0.056176636374102792 0.024487225186313893 0 -0.056235503023615137 0.02503531817741049 0 -0.056216898184509638 0.025020632751945 0 -0.056176636374102792 0.024487225186313893 0 -0.056235503023615137 0.02503531817741049 0 -0.056230110447550961 0.025351638233348819 0 -0.056207569061620923 0.025516591800339515 0 -0.056235503023615137 0.02503531817741049 0 -0.056230110447550961 0.025351638233348819 0 -0.056230612698266763 0.025272804874035205 0 -0.056235503023615137 0.02503531817741049 0 -0.056207569061620923 0.025516591800339515 0 -0.056216898184509638 0.025020632751945 0 -0.05683221961094783 0.026160159026846309 0 -0.056216898184509638 0.025020632751945 0 -0.056461605636850154 0.026510971655352707 0 -0.05650078543260055 0.025814238006815107 0 -0.056190495358742307 0.025147588068657106 0 -0.055597570681892979 0.026252293049793807 0 -0.056461605636850154 0.026510971655352707 0 -0.056094565542296117 0.027493260300158202 0 -0.056461605636850154 0.026510971655352707 0 -0.056094565542296117 0.027493260300158202 0 -0.056846210667046489 0.027652797610240802 0 -0.056461605636850154 0.026510971655352707 0 -0.056987746486937517 0.026938210831081773 0 -0.056846210667046489 0.027652797610240802 0 -0.05683221961094783 0.026160159026846309 0 -0.056461605636850154 0.026510971655352707 0 -0.056987746486937517 0.026938210831081773 0 -0.056987746486937517 0.026938210831081773 0 -0.056846210667046489 0.027652797610240802 0 -0.05726384674225999 0.027435077310198376 0 -0.057286824930958137 0.028362692910683423 0 -0.056846210667046489 0.027652797610240802 0 -0.05726384674225999 0.027435077310198376 0 -0.056987746486937517 0.026938210831081773 0 -0.05726384674225999 0.027435077310198376 0 -0.057206959547005713 0.026952505766756254 0 -0.056272774947556913 0.026222726357171506 0 -0.056245181791302723 0.025629086520043205 0 -0.05635370604261912 0.025969612765557509 0 -0.05683221961094783 0.026160159026846309 0 -0.056987746486937517 0.026938210831081773 0 -0.057206959547005713 0.026952505766756254 0 -0.05650078543260055 0.025814238006815107 0 -0.056757984814033553 0.026588048925784542 0 -0.056207569061620923 0.025516591800339515 0 -0.056272774947556913 0.026222726357171506 0 -0.056245181791302723 0.025629086520043205 0 -0.056230110447550961 0.025351638233348819 0 -0.056207569061620923 0.025516591800339515 0 -0.056245181791302723 0.025629086520043205 0 -0.056230110447550961 0.025351638233348819 0 -0.056245181791302723 0.025629086520043205 0 -0.056230612698266763 0.025272804874035205 0 -0.056245181791302723 0.025629086520043205 0 -0.056307110277223169 0.025653140752069571 0 -0.056230612698266763 0.025272804874035205 0 -0.056245181791302723 0.025629086520043205 0 -0.056307110277223169 0.025653140752069571 0 -0.05635370604261912 0.025969612765557509 0 -0.056428392887416745 0.025824112004127452 0 -0.056307110277223169 0.025653140752069571 0 -0.05635370604261912 0.025969612765557509 0 -0.056428392887416745 0.025824112004127452 0 -0.056307110277223169 0.025653140752069571 0 -0.056360765178233616 0.025638284762313775 0 -0.055413322933889952 0.024677888911424025 0 -0.055005317972582068 0.024004246137598662 0 -0.056307110277223169 0.025653140752069571 0 -0.056360765178233616 0.025638284762313775 0 -0.056230612698266763 0.025272804874035205 0 -0.054392894316015225 0.023703973717962623 0 -0.054103195789961103 0.023163381580235398 0 -0.053743518281913538 0.022758446040733279 0 -0.053916483921009999 0.023323152370364229 0 -0.054557473570778066 0.024052805619387389 0 -0.054245173876200772 0.023466310401312727 0 -0.054103195789961103 0.023163381580235398 0 -0.053832583673672392 0.022741463657125791 0 -0.05443008954187592 0.023378645232077985 0 -0.054103195789961103 0.023163381580235398 0 -0.053832583673672392 0.022741463657125791 0 -0.053743518281913538 0.022758446040733279 0 -0.053904423418799779 0.023019987045199777 0 -0.054488037531406179 0.02374040810607142 0 -0.054557473570778066 0.024052805619387389 0 -0.054520051569028234 0.023592249228532345 0 -0.054245173876200772 0.023466310401312727 0 -0.054392894316015225 0.023703973717962623 0 -0.054103195789961103 0.023163381580235398 0 -0.05443008954187592 0.023378645232077985 0 -0.054946491336946818 0.024025143593319156 0 -0.054557473570778066 0.024052805619387389 0 -0.054520051569028234 0.023592249228532345 0 -0.054520051569028234 0.023592249228532345 0 -0.054070908028811628 0.023001040453769682 0 -0.054245173876200772 0.023466310401312727 0 -0.054811944771640052 0.023474984122721018 0 -0.054520051569028234 0.023592249228532345 0 -0.054070908028811628 0.023001040453769682 0 -0.050202654808247836 0.011146693347773049 0 -0.050141236749389126 0.011322153567520305 0 -0.050670429037766314 0.01149074797201188 0 -0.052481708549339472 0.017310161895709632 0 -0.05234650568373285 0.017266363104534471 0 -0.050141236749389126 0.011322153567520305 0 -0.050670429037766314 0.01149074797201188 0 -0.051435954056116347 0.012974233845802881 0 -0.053916483921009999 0.023323152370364229 0 -0.054070908028811628 0.023001040453769682 0 -0.053794928156885663 0.022856268100836397 0 -0.053916483921009999 0.023323152370364229 0 -0.054070908028811628 0.023001040453769682 0 -0.054245173876200772 0.023466310401312727 0 -0.054070908028811628 0.023001040453769682 0 -0.053794928156885663 0.022856268100836397 0 -0.053722566791000848 0.022659332512094888 0 -0.05234650568373285 0.017266363104534471 0 -0.053136563148841118 0.017383150124788315 0 -0.050670429037766314 0.01149074797201188 0 -0.052628822800252953 0.012115332605657348 0 -0.051435954056116347 0.012974233845802881 0 -0.052747238549402352 0.01306918874722798 0 -0.052628822800252953 0.012115332605657348 0 -0.051435954056116347 0.012974233845802881 0 -0.053566907786508799 0.013150876273357608 0 -0.052628822800252953 0.012115332605657348 0 -0.05459544187317663 0.012947979655518678 0 -0.053566907786508799 0.013150876273357608 0 -0.052747238549402352 0.01306918874722798 0 -0.052628822800252953 0.012115332605657348 0 -0.053794928156885663 0.022856268100836397 0 -0.053722566791000848 0.022659332512094888 0 -0.053743060445621951 0.022407153489266064 0 -0.053722566791000848 0.022659332512094888 0 -0.053743060445621951 0.022407153489266064 0 -0.05398905402274054 0.022348759816991554 0 -0.053832583673672392 0.022741463657125791 0 -0.053743060445621951 0.022407153489266064 0 -0.053743518281913538 0.022758446040733279 0 -0.053904423418799779 0.023019987045199777 0 -0.053766690205695217 0.022525926658931869 0 -0.053916483921009999 0.023323152370364229 0 -0.053794928156885663 0.022856268100836397 0 -0.053743060445621951 0.022407153489266064 0 -0.053743060445621951 0.022407153489266064 0 -0.053743518281913538 0.022758446040733279 0 -0.053848989269538246 0.021870031339243277 0 -0.055005317972582068 0.024004246137598662 0 -0.055025394887061554 0.02316143878504643 0 -0.056235503023615137 0.02503531817741049 0 -0.056230612698266763 0.025272804874035205 0 -0.056176636374102792 0.024487225186313893 0 -0.053848989269538246 0.021870031339243277 0 -0.054057923251488019 0.021852288396829806 0 -0.054527218263761563 0.020851310795858304 0 -0.055025394887061554 0.02316143878504643 0 -0.055167628402748081 0.021960454352190763 0 -0.056064643780130513 0.024168713055016 0 -0.056176636374102792 0.024487225186313893 0 -0.056001092407162854 0.023144101289337464 0 -0.054057923251488019 0.021852288396829806 0 -0.054446890026632853 0.021581716644917731 0 -0.054527218263761563 0.020851310795858304 0 -0.053743060445621951 0.022407153489266064 0 -0.053848989269538246 0.021870031339243277 0 -0.054057923251488019 0.021852288396829806 0 -0.053743060445621951 0.022407153489266064 0 -0.054057923251488019 0.021852288396829806 0 -0.05398905402274054 0.022348759816991554 0 -0.053136563148841118 0.017383150124788315 0 -0.054198799605027791 0.017758563872459655 0 -0.05459544187317663 0.012947979655518678 0 -0.054267392596411224 0.013665093506315793 0 -0.054884063592784943 0.013862596933608187 0 -0.053566907786508799 0.013150876273357608 0 -0.05459544187317663 0.012947979655518678 0 -0.054267392596411224 0.013665093506315793 0 -0.05459544187317663 0.012947979655518678 0 -0.055244402075105808 0.013945091121973343 0 -0.055418782880058054 0.013986464172553229 0 -0.05459544187317663 0.012947979655518678 0 -0.05565354286219764 0.014128283154942595 0 -0.055418782880058054 0.013986464172553229 0 -0.055244402075105808 0.013945091121973343 0 -0.054884063592784943 0.013862596933608187 0 -0.055171997650369758 0.01404605710039441 0 -0.055244402075105808 0.013945091121973343 0 -0.055383897128731457 0.014103593620452567 0 -0.055294746482322507 0.014093651285578754 0 -0.05459544187317663 0.012947979655518678 0 -0.055244402075105808 0.013945091121973343 0 -0.054884063592784943 0.013862596933608187 0 -0.054057923251488019 0.021852288396829806 0 -0.05398905402274054 0.022348759816991554 0 -0.054446890026632853 0.021581716644917731 0 -0.054198799605027791 0.017758563872459655 0 -0.055234965294712793 0.017409751681040399 0 -0.05398905402274054 0.022348759816991554 0 -0.054717441456141727 0.022142748246847765 0 -0.054446890026632853 0.021581716644917731 0 -0.054717441456141727 0.022142748246847765 0 -0.055069859728775608 0.021366958110086029 0 -0.054446890026632853 0.021581716644917731 0 -0.055234965294712793 0.017409751681040399 0 -0.055574699592585708 0.019609927090856575 0 -0.05565354286219764 0.014128283154942595 0 -0.055418782880058054 0.013986464172553229 0 -0.055594019439702998 0.014200196590290558 0 -0.05565354286219764 0.014128283154942595 0 -0.055594019439702998 0.014200196590290558 0 -0.055584785457041784 0.014449206277589739 0 -0.055418782880058054 0.013986464172553229 0 -0.055594019439702998 0.014200196590290558 0 -0.055576341309332665 0.014216621506549646 0 -0.055594019439702998 0.014200196590290558 0 -0.055576341309332665 0.014216621506549646 0 -0.055584785457041784 0.014449206277589739 0 -0.055244402075105808 0.013945091121973343 0 -0.055468800676254981 0.014114126805612645 0 -0.055383897128731457 0.014103593620452567 0 -0.055244402075105808 0.013945091121973343 0 -0.055418782880058054 0.013986464172553229 0 -0.055468800676254981 0.014114126805612645 0 -0.055418782880058054 0.013986464172553229 0 -0.055576341309332665 0.014216621506549646 0 -0.055468800676254981 0.014114126805612645 0 -0.055576341309332665 0.014216621506549646 0 -0.055468800676254981 0.014114126805612645 0 -0.055488482816651197 0.014168267729272229 0 -0.05565354286219764 0.014128283154942595 0 -0.055584785457041784 0.014449206277589739 0 -0.055407048363207909 0.015394190013290471 0 -0.055000336726588155 0.014575655423111393 0 -0.055915085138927012 0.013737889160702272 0 -0.055000041524617002 0.014575296497691704 0 -0.055584785457041784 0.014449206277589739 0 -0.055563040638191154 0.01412787632905604 0 -0.055576341309332665 0.014216621506549646 0 -0.055584785457041784 0.014449206277589739 0 -0.055563040638191154 0.01412787632905604 0 -0.055000041524617002 0.014575296497691704 0 -0.055584785457041784 0.014449206277589739 0 -0.055407048363207909 0.015394190013290471 0 -0.055000041524617002 0.014575296497691704 0 -0.055407048363207909 0.015394190013290471 0 -0.054999778597010829 0.017044988895047051 0 -0.057501266693155105 0.015409881243195433 0 -0.056013527197068383 0.016354133118566063 0 -0.056198573743884768 0.017536852725688407 0 -0.055234965294712793 0.017409751681040399 0 -0.055871481360427008 0.015193071619989821 0 -0.057501266693155105 0.015409881243195433 0 -0.055407048363207909 0.015394190013290471 0 -0.056013527197068383 0.016354133118566063 0 -0.055407048363207909 0.015394190013290471 0 -0.056013527197068383 0.016354133118566063 0 -0.054999778597010829 0.017044988895047051 0 -0.056013527197068383 0.016354133118566063 0 -0.054999778597010829 0.017044988895047051 0 -0.056198573743884768 0.017536852725688407 0 -0.055069859728775608 0.021366958110086029 0 -0.054821030153886313 0.020589712297542941 0 -0.054999631817829034 0.019521024657088493 0 -0.055574699592585708 0.019609927090856575 0 -0.055000212364782274 0.019514579283248578 0 -0.054999778597010829 0.017044988895047051 0 -0.056198573743884768 0.017536852725688407 0 -0.055000105141961776 0.019514596541163751 0 -0.055069859728775608 0.021366958110086029 0 -0.054446890026632853 0.021581716644917731 0 -0.054821030153886313 0.020589712297542941 0 -0.054446890026632853 0.021581716644917731 0 -0.054821030153886313 0.020589712297542941 0 -0.054527218263761563 0.020851310795858304 0 -0.055167628402748081 0.021960454352190763 0 -0.054999642624510459 0.02023156160649411 0 -0.054821030153886313 0.020589712297542941 0 -0.054527218263761563 0.020851310795858304 0 -0.055000533022100999 0.02022599285364458 0 -0.054821030153886313 0.020589712297542941 0 -0.055000533022100999 0.02022599285364458 0 -0.054999631817829034 0.019521024657088493 0 -0.056156520448899211 0.0072568122782974255 0 -0.056634343055524769 0.0088290937219170206 0 -0.054999948332156726 0.0093230727387406103 0 -0.056156520448899211 0.0072568122782974255 0 -0.054999948332156726 0.0093230727387406103 0 -0.054999928614238178 0.0061303095637003568 0 -0.056156520448899211 0.0072568122782974255 0 -0.058039654355125571 0.0076024997554035925 0 -0.056634343055524769 0.0088290937219170206 0 -0.056156520448899211 0.0072568122782974255 0 -0.058039654355125571 0.0076024997554035925 0 -0.056720986428094242 0.0063666781850850226 0 -0.058039654355125571 0.0076024997554035925 0 -0.056634343055524769 0.0088290937219170206 0 -0.057544324033162474 0.0096470686858426673 0 -0.058039654355125571 0.0076024997554035925 0 -0.057544324033162474 0.0096470686858426673 0 -0.058726561306165576 0.010283558436491728 0 -0.056634343055524769 0.0088290937219170206 0 -0.057544324033162474 0.0096470686858426673 0 -0.056403251996384504 0.01026135188243715 0 -0.056634343055524769 0.0088290937219170206 0 -0.054999948332156726 0.0093230727387406103 0 -0.056403251996384504 0.01026135188243715 0 -0.054999983171929216 0.0093235434457023553 0 -0.054999985519038806 0.011108818365697503 0 -0.05644733723168293 0.010438845955524993 0 -0.055000189888918881 0.0093235482154067663 0 -0.056663234678550764 0.010535408976826161 0 -0.055002992120843461 0.011109318168785669 0 -0.056093652172785211 0.011845572560493688 0 -0.054999985519038806 0.011108818365697503 0 -0.05644733723168293 0.010438845955524993 0 -0.05769937322930941 0.011645476895129084 0 -0.054999998079090347 0.011109007834755668 0 -0.056404328772342902 0.013136646986985393 0 -0.057793967857066704 0.011721710947608653 0 -0.055000003446365138 0.014575966096981158 0 -0.054999979735451003 0.012842438171900495 0 -0.056404328772342902 0.013136646986985393 0 -0.054999998079090347 0.011109007834755668 0 -0.054999979735451003 0.012842438171900495 0 -0.056404328772342902 0.013136646986985393 0 -0.05536699698204104 0.014165098737543735 0 -0.055488482816651197 0.014168267729272229 0 -0.055409311167295507 0.014246191799378402 0 -0.05536699698204104 0.014165098737543735 0 -0.055409311167295507 0.014246191799378402 0 -0.055250427834620461 0.014179679023409247 0 -0.05536699698204104 0.014165098737543735 0 -0.055383897128731457 0.014103593620452567 0 -0.055488482816651197 0.014168267729272229 0 -0.05536699698204104 0.014165098737543735 0 -0.055383897128731457 0.014103593620452567 0 -0.055294746482322507 0.014093651285578754 0 -0.055468800676254981 0.014114126805612645 0 -0.055383897128731457 0.014103593620452567 0 -0.055488482816651197 0.014168267729272229 0 -0.055576341309332665 0.014216621506549646 0 -0.055563040638191154 0.01412787632905604 0 -0.055488482816651197 0.014168267729272229 0 -0.055563040638191154 0.01412787632905604 0 -0.055488482816651197 0.014168267729272229 0 -0.055409311167295507 0.014246191799378402 0 -0.055915085138927012 0.013737889160702272 0 -0.056093652172785211 0.011845572560493688 0 -0.055563040638191154 0.01412787632905604 0 -0.055409311167295507 0.014246191799378402 0 -0.055427971754340208 0.014407071725043716 0 -0.055409311167295507 0.014246191799378402 0 -0.055427971754340208 0.014407071725043716 0 -0.055293982815317173 0.014351658953600946 0 -0.055312507405088591 0.011823425444899758 0 -0.054816334801596499 0.012320775601436794 0 -0.053648247829494476 0.011474339684556294 0 -0.055427971754340208 0.014407071725043716 0 -0.055309626257954443 0.014411338343621644 0 -0.055293982815317173 0.014351658953600946 0 -0.057544324033162474 0.0096470686858426673 0 -0.056403251996384504 0.01026135188243715 0 -0.057761727447731198 0.011253431242550179 0 -0.056093652172785211 0.011845572560493688 0 -0.05239576487252872 0.011258131776489209 0 -0.057544324033162474 0.0096470686858426673 0 -0.057761727447731198 0.011253431242550179 0 -0.058726561306165576 0.010283558436491728 0 -0.055469869326945628 0.01138300542507841 0 -0.05239576487252872 0.011258131776489209 0 -0.056093652172785211 0.011845572560493688 0 -0.055469869326945628 0.01138300542507841 0 -0.05644733723168293 0.010438845955524993 0 -0.05769937322930941 0.011645476895129084 0 -0.057865007996728737 0.011477218954444231 0 -0.056663234678550764 0.010535408976826161 0 -0.055469869326945628 0.01138300542507841 0 -0.055469869326945628 0.01138300542507841 0 -0.051066373961563723 0.0096998797182122221 0 -0.049529806337916309 0.010337787281707787 0 -0.048819190087008371 0.010442714804137037 0 -0.050000062501927789 0.010552763703387787 0 -0.048854396268473974 0.0096182475649966674 0 -0.049612071408996788 0.0099935208256881295 0 -0.050142333843188551 0.0092897161212008462 0 -0.051066373961563723 0.0096998797182122221 0 -0.049986889979503353 0.0097862610321809273 0 -0.048854396268473974 0.0096182475649966674 0 -0.049195145704862622 0.010240277672806239 0 -0.049612071408996788 0.0099935208256881295 0 -0.049195145704862622 0.010240277672806239 0 -0.049529806337916309 0.010337787281707787 0 -0.049612071408996788 0.0099935208256881295 0 -0.049195145704862622 0.010240277672806239 0 -0.049529806337916309 0.010337787281707787 0 -0.048819190087008371 0.010442714804137037 0 -0.048652752577586111 0.010313345033778227 0 -0.049094873025520111 0.0098407831420681893 0 -0.048819190087008371 0.010442714804137037 0 -0.049094873025520111 0.0098407831420681893 0 -0.049195145704862622 0.010240277672806239 0 -0.048819190087008371 0.010442714804137037 0 -0.05046654545128975 0.011053646422277316 0 -0.050366077823971685 0.010984907681691228 0 -0.050113709447119875 0.010983106759575275 0 -0.05239576487252872 0.011258131776489209 0 -0.053541672050049977 0.013228054321746046 0 -0.055309626257954443 0.014411338343621644 0 -0.055293982815317173 0.014351658953600946 0 -0.055163331862842245 0.014331990695197935 0 -0.05239576487252872 0.011258131776489209 0 -0.049433518281157933 0.010655643636655563 0 -0.054843290889689991 0.013699936873246167 0 -0.053541672050049977 0.013228054321746046 0 -0.055293982815317173 0.014351658953600946 0 -0.055224835255956568 0.014287854656113404 0 -0.055102289206089297 0.01438591846032047 0 -0.055409311167295507 0.014246191799378402 0 -0.055224835255956568 0.014287854656113404 0 -0.055250427834620461 0.014179679023409247 0 -0.055409311167295507 0.014246191799378402 0 -0.055293982815317173 0.014351658953600946 0 -0.055224835255956568 0.014287854656113404 0 -0.055224835255956568 0.014287854656113404 0 -0.055102289206089297 0.01438591846032047 0 -0.05509758930144653 0.014181324996536326 0 -0.055102289206089297 0.01438591846032047 0 -0.054850668259434007 0.014265538829485624 0 -0.05509758930144653 0.014181324996536326 0 -0.053541672050049977 0.013228054321746046 0 -0.054718447865380444 0.014112698177033162 0 -0.054884063592784943 0.013862596933608187 0 -0.054850668259434007 0.014265538829485624 0 -0.05509758930144653 0.014181324996536326 0 -0.054267392596411224 0.013665093506315793 0 -0.054884063592784943 0.013862596933608187 0 -0.054850668259434007 0.014265538829485624 0 -0.054884063592784943 0.013862596933608187 0 -0.055171997650369758 0.01404605710039441 0 -0.05509758930144653 0.014181324996536326 0 -0.055171997650369758 0.01404605710039441 0 -0.055294746482322507 0.014093651285578754 0 -0.055250427834620461 0.014179679023409247 0 -0.055244402075105808 0.013945091121973343 0 -0.055171997650369758 0.01404605710039441 0 -0.055294746482322507 0.014093651285578754 0 -0.05536699698204104 0.014165098737543735 0 -0.055294746482322507 0.014093651285578754 0 -0.055250427834620461 0.014179679023409247 0 -0.055224835255956568 0.014287854656113404 0 -0.055250427834620461 0.014179679023409247 0 -0.05509758930144653 0.014181324996536326 0 -0.055171997650369758 0.01404605710039441 0 -0.055250427834620461 0.014179679023409247 0 -0.05509758930144653 0.014181324996536326 0 -0.053541672050049977 0.013228054321746046 0 -0.051589715997494803 0.012416521942533182 0 -0.050366077823971685 0.010984907681691228 0 -0.050113709447119875 0.010983106759575275 0 -0.050006460197896924 0.010937568301423603 0 -0.055200792857239035 0.01455884763620633 0 -0.054850668259434007 0.014265538829485624 0 -0.053487703040548666 0.014063938691301523 0 -0.054267392596411224 0.013665093506315793 0 -0.054850668259434007 0.014265538829485624 0 -0.053487703040548666 0.014063938691301523 0 -0.053566907786508799 0.013150876273357608 0 -0.054267392596411224 0.013665093506315793 0 -0.053487703040548666 0.014063938691301523 0 -0.050196204985646697 0.010208651936274949 0 -0.05040851418122469 0.010054144564065056 0 -0.050038401258263469 0.010453053168694233 0 -0.050142333843188551 0.0092897161212008462 0 -0.051518649503785791 0.0086310638136789172 0 -0.050000062501927789 0.010552763703387787 0 -0.050038401258263469 0.010453053168694233 0 -0.049815825775507083 0.01055576726138711 0 -0.049529806337916309 0.010337787281707787 0 -0.050038401258263469 0.010453053168694233 0 -0.049612071408996788 0.0099935208256881295 0 -0.049529806337916309 0.010337787281707787 0 -0.050000062501927789 0.010552763703387787 0 -0.050038401258263469 0.010453053168694233 0 -0.050038401258263469 0.010453053168694233 0 -0.049612071408996788 0.0099935208256881295 0 -0.050142333843188551 0.0092897161212008462 0 -0.051066373961563723 0.0096998797182122221 0 -0.049864190989349154 0.0079031276014854754 0 -0.048854396268473974 0.0096182475649966674 0 -0.050142333843188551 0.0092897161212008462 0 -0.050632437499871751 0.0077844077084574413 0 -0.050142333843188551 0.0092897161212008462 0 -0.050632437499871751 0.0077844077084574413 0 -0.051518649503785791 0.0086310638136789172 0 -0.053518117938720848 0.0077613488259115826 0 -0.051066373961563723 0.0096998797182122221 0 -0.049231057256132277 0.0091964613104802122 0 -0.049600856700065983 0.0078815276496087393 0 -0.050632437499871751 0.0077844077084574413 0 -0.048676332212508854 0.0073847447737154948 0 -0.049231057256132277 0.0091964613104802122 0 -0.049600856700065983 0.0078815276496087393 0 -0.048676332212508854 0.0073847447737154948 0 -0.049600856700065983 0.0078815276496087393 0 -0.049930788077649592 0.0070284017666948735 0 -0.049930788077649592 0.0070284017666948735 0 -0.050632437499871751 0.0077844077084574413 0 -0.051295857649202074 0.0067795270918131756 0 -0.049600856700065983 0.0078815276496087393 0 -0.049930788077649592 0.0070284017666948735 0 -0.050632437499871751 0.0077844077084574413 0 -0.051518649503785791 0.0086310638136789172 0 -0.052625539168503994 0.0068313350756595212 0 -0.051295857649202074 0.0067795270918131756 0 -0.050632437499871751 0.0077844077084574413 0 -0.051518649503785791 0.0086310638136789172 0 -0.051295857649202074 0.0067795270918131756 0 -0.05040851418122469 0.010054144564065056 0 -0.051938541837323111 0.0067934542443104694 0 -0.049497968697044141 0.010473211441223859 0 -0.049424674886424769 0.0095034820142180041 0 -0.047869367581995226 0.008959010168818362 0 -0.048613088564138471 0.01143915895080363 0 -0.051938541837323111 0.0067934542443104694 0 -0.049641820583149331 0.010537165589084616 0 -0.049497968697044141 0.010473211441223859 0 -0.049662632601676276 0.010710837659444998 0 -0.049641820583149331 0.010537165589084616 0 -0.04975297208222277 0.010615393557356554 0 -0.049662632601676276 0.010710837659444998 0 -0.049641820583149331 0.010537165589084616 0 -0.04975297208222277 0.010615393557356554 0 -0.049759207251985425 0.010551029961546964 0 -0.050038401258263469 0.010453053168694233 0 -0.04975297208222277 0.010615393557356554 0 -0.049759207251985425 0.010551029961546964 0 -0.050038401258263469 0.010453053168694233 0 -0.049759207251985425 0.010551029961546964 0 -0.049815825775507083 0.01055576726138711 0 -0.049759207251985425 0.010551029961546964 0 -0.049815825775507083 0.01055576726138711 0 -0.049685036421600721 0.010594890240847536 0 -0.050113709447119875 0.010983106759575275 0 -0.050006460197896924 0.010937568301423603 0 -0.049908629032060559 0.010955684650192575 0 -0.051589715997494803 0.012416521942533182 0 -0.050775665297969785 0.011978996824441221 0 -0.049433518281157933 0.010655643636655563 0 -0.049947280214380461 0.010841844257010992 0 -0.050000062501927789 0.010552763703387787 0 -0.049815825775507083 0.01055576726138711 0 -0.049656796560594088 0.010612024287387853 0 -0.052747238549402352 0.01306918874722798 0 -0.053487703040548666 0.014063938691301523 0 -0.051435954056116347 0.012974233845802881 0 -0.049815825775507083 0.01055576726138711 0 -0.049656796560594088 0.010612024287387853 0 -0.049685036421600721 0.010594890240847536 0 -0.053566907786508799 0.013150876273357608 0 -0.052747238549402352 0.01306918874722798 0 -0.053487703040548666 0.014063938691301523 0 -0.049889383139654152 0.010997024528267235 0 -0.049908629032060559 0.010955684650192575 0 -0.049964031453351786 0.011090857666671138 0 -0.049656796560594088 0.010612024287387853 0 -0.049691720827189194 0.010653193445436382 0 -0.049964031453351786 0.011090857666671138 0 -0.050006460197896924 0.010937568301423603 0 -0.049889383139654152 0.010997024528267235 0 -0.049908629032060559 0.010955684650192575 0 -0.049947280214380461 0.010841844257010992 0 -0.04991220954873278 0.011021696104280308 0 -0.049656796560594088 0.010612024287387853 0 -0.049685036421600721 0.010594890240847536 0 -0.049691720827189194 0.010653193445436382 0 -0.049641820583149331 0.010537165589084616 0 -0.049691720827189194 0.010653193445436382 0 -0.049497968697044141 0.010473211441223859 0 -0.049641820583149331 0.010537165589084616 0 -0.049685036421600721 0.010594890240847536 0 -0.049691720827189194 0.010653193445436382 0 -0.049641820583149331 0.010537165589084616 0 -0.049759207251985425 0.010551029961546964 0 -0.049685036421600721 0.010594890240847536 0 -0.049691720827189194 0.010653193445436382 0 -0.049996303561408113 0.010874300405178146 0 -0.04996183894675961 0.01053505247441963 0 -0.049691720827189194 0.010653193445436382 0 -0.04996183894675961 0.01053505247441963 0 -0.049497968697044141 0.010473211441223859 0 -0.050215412700763032 0.011438564184734264 0 -0.050775665297969785 0.011978996824441221 0 -0.049691720827189194 0.010653193445436382 0 -0.049964031453351786 0.011090857666671138 0 -0.049996303561408113 0.010874300405178146 0 -0.050141236749389126 0.011322153567520305 0 -0.049889383139654152 0.010997024528267235 0 -0.049964031453351786 0.011090857666671138 0 -0.050141236749389126 0.011322153567520305 0 -0.049996303561408113 0.010874300405178146 0 -0.050273253921549674 0.010727505575456037 0 -0.050141236749389126 0.011322153567520305 0 -0.049964031453351786 0.011090857666671138 0 -0.049996303561408113 0.010874300405178146 0 -0.049996303561408113 0.010874300405178146 0 -0.04996183894675961 0.01053505247441963 0 -0.050273253921549674 0.010727505575456037 0 -0.04996183894675961 0.01053505247441963 0 -0.049952071335816195 0.0099484991427943141 0 -0.050366001054814112 0.010205282133544321 0 -0.04996183894675961 0.01053505247441963 0 -0.049952071335816195 0.0099484991427943141 0 -0.049497968697044141 0.010473211441223859 0 -0.049952071335816195 0.0099484991427943141 0 -0.049497968697044141 0.010473211441223859 0 -0.049424674886424769 0.0095034820142180041 0 -0.049952071335816195 0.0099484991427943141 0 -0.049424674886424769 0.0095034820142180041 0 -0.04982677053474667 0.0092465888212104087 0 -0.049424674886424769 0.0095034820142180041 0 -0.04934134272568684 0.0086184265226899141 0 -0.047869367581995226 0.008959010168818362 0 -0.049424674886424769 0.0095034820142180041 0 -0.04982677053474667 0.0092465888212104087 0 -0.04934134272568684 0.0086184265226899141 0 -0.049952071335816195 0.0099484991427943141 0 -0.04982677053474667 0.0092465888212104087 0 -0.050198120116442931 0.0094368638170227327 0 -0.049952071335816195 0.0099484991427943141 0 -0.050198120116442931 0.0094368638170227327 0 -0.050366001054814112 0.010205282133544321 0 -0.050198120116442931 0.0094368638170227327 0 -0.049907109173157542 0.0088741810337219142 0 -0.050340546193141343 0.0087555837710166073 0 -0.050428044806052424 0.0081749751211296993 0 -0.050802611711575553 0.0074894629054158149 0 -0.04982677053474667 0.0092465888212104087 0 -0.050198120116442931 0.0094368638170227327 0 -0.049907109173157542 0.0088741810337219142 0 -0.04982677053474667 0.0092465888212104087 0 -0.049907109173157542 0.0088741810337219142 0 -0.04934134272568684 0.0086184265226899141 0 -0.050428044806052424 0.0081749751211296993 0 -0.04940734844682125 0.0086281371077655839 0 -0.050919875469663249 0.007551688286031563 0 -0.04934134272568684 0.0086184265226899141 0 -0.050430405945067612 0.006077779476941104 0 -0.04934134272568684 0.0086184265226899141 0 -0.048965762398942153 0.0061138939695437079 0 -0.050430405945067612 0.006077779476941104 0 -0.050430405945067612 0.006077779476941104 0 -0.051369755643498022 0.0049498331877801957 0 -0.052606513943871711 0.0066165194756192414 0 -0.050919875469663249 0.007551688286031563 0 -0.050430405945067612 0.006077779476941104 0 -0.052606513943871711 0.0066165194756192414 0 -0.051315085127442157 0.0049664952871883421 0 -0.050802611711575553 0.0074894629054158149 0 -0.051369755643498022 0.0049498331877801957 0 -0.051504911855345885 0.0034364907517740358 0 -0.050489341615705056 0.0035362322893426092 0 -0.050430405945067612 0.006077779476941104 0 -0.051369755643498022 0.0049498331877801957 0 -0.050489341615705056 0.0035362322893426092 0 -0.051369755643498022 0.0049498331877801957 0 -0.051504911855345885 0.0034364907517740358 0 -0.05189374507464007 0.004186568517464153 0 -0.057616416147366165 -0.0023215537421570056 0 -0.057170940042841213 -0.0022335993169830455 0 -0.057390538049792016 -0.0018055668401884416 0 -0.055214008166307248 -0.00073167830837209146 0 -0.053781625924429144 0.0010977761538888467 0 -0.051637466201584929 0.0017190255518190053 0 -0.051504911855345885 0.0034364907517740358 0 -0.050489341615705056 0.0035362322893426092 0 -0.057170940042841213 -0.0022335993169830455 0 -0.057030066620022996 -0.0022124645928557427 0 -0.057020855354140088 -0.0019117694622478192 0 -0.057170940042841213 -0.0022335993169830455 0 -0.057390538049792016 -0.0018055668401884416 0 -0.057020855354140088 -0.0019117694622478192 0 -0.048965762398942153 0.0061138939695437079 0 -0.050430405945067612 0.006077779476941104 0 -0.050489341615705056 0.0035362322893426092 0 -0.057182943618367316 -0.001101639447440335 0 -0.057390538049792016 -0.0018055668401884416 0 -0.056916223190248055 -0.0014972654556447698 0 -0.057390538049792016 -0.0018055668401884416 0 -0.056916223190248055 -0.0014972654556447698 0 -0.057020855354140088 -0.0019117694622478192 0 -0.053273089276832289 0.0019886059396481298 0 -0.053781625924429144 0.0010977761538888467 0 -0.056916223190248055 -0.0014972654556447698 0 -0.057020855354140088 -0.0019117694622478192 0 -0.056671009715479725 -0.001816422341192017 0 -0.056916223190248055 -0.0014972654556447698 0 -0.056671009715479725 -0.001816422341192017 0 -0.056548978168375806 -0.0014515409853862254 0 -0.057020855354140088 -0.0019117694622478192 0 -0.0568683496103514 -0.002058816485304882 0 -0.056671009715479725 -0.001816422341192017 0 -0.057030066620022996 -0.0022124645928557427 0 -0.057020855354140088 -0.0019117694622478192 0 -0.0568683496103514 -0.002058816485304882 0 -0.0568683496103514 -0.002058816485304882 0 -0.056728217155638416 -0.0020413958480623444 0 -0.056671009715479725 -0.001816422341192017 0 -0.056728217155638416 -0.0020413958480623444 0 -0.056663104351049209 -0.0018914529499183619 0 -0.056671009715479725 -0.001816422341192017 0 -0.056728217155638416 -0.0020413958480623444 0 -0.056663104351049209 -0.0018914529499183619 0 -0.056613730190726193 -0.001918645649292502 0 -0.05708596920283087 -0.0019614551820866756 0 -0.054970726708386507 -0.0004883291243263228 0 -0.056663104351049209 -0.0018914529499183619 0 -0.056671009715479725 -0.001816422341192017 0 -0.056643486019050518 -0.0018443098133225711 0 -0.056671009715479725 -0.001816422341192017 0 -0.056548978168375806 -0.0014515409853862254 0 -0.056127115492311433 -0.0015853186365614568 0 -0.056916223190248055 -0.0014972654556447698 0 -0.056548978168375806 -0.0014515409853862254 0 -0.056420820862605088 -0.00091961634827649645 0 -0.054165947597964698 0.0019874955962735879 0 -0.054970726708386507 -0.0004883291243263228 0 -0.056548978168375806 -0.0014515409853862254 0 -0.056420820862605088 -0.00091961634827649645 0 -0.056127115492311433 -0.0015853186365614568 0 -0.051834358241365543 0.0053470755571611711 0 -0.050748933562335813 0.0050209433667987189 0 -0.051095405728639888 0.0038875694843530169 0 -0.057182943618367316 -0.001101639447440335 0 -0.056916223190248055 -0.0014972654556447698 0 -0.056420820862605088 -0.00091961634827649645 0 -0.057182943618367316 -0.001101639447440335 0 -0.056420820862605088 -0.00091961634827649645 0 -0.05670709626148257 -0.00018539137317242693 0 -0.053273089276832289 0.0019886059396481298 0 -0.051938541837323111 0.0067934542443104694 0 -0.04934134272568684 0.0086184265226899141 0 -0.048965762398942153 0.0061138939695437079 0 -0.047869367581995226 0.008959010168818362 0 -0.051834358241365543 0.0053470755571611711 0 -0.052625539168503994 0.0068313350756595212 0 -0.051295857649202074 0.0067795270918131756 0 -0.054165947597964698 0.0019874955962735879 0 -0.051938541837323111 0.0067934542443104694 0 -0.051834358241365543 0.0053470755571611711 0 -0.051295857649202074 0.0067795270918131756 0 -0.05033938785452189 0.0061336596726656329 0 -0.049930788077649592 0.0070284017666948735 0 -0.051295857649202074 0.0067795270918131756 0 -0.05033938785452189 0.0061336596726656329 0 -0.048676332212508854 0.0073847447737154948 0 -0.049930788077649592 0.0070284017666948735 0 -0.04923032029173123 0.006134806341153003 0 -0.049930788077649592 0.0070284017666948735 0 -0.05033938785452189 0.0061336596726656329 0 -0.04923032029173123 0.006134806341153003 0 -0.056380510415126463 -0.0014152918219409619 0 -0.056161296231350931 -0.0015977788537459563 0 -0.055968289416008045 -0.0011582454533900922 0 -0.05033938785452189 0.0061336596726656329 0 -0.04923032029173123 0.006134806341153003 0 -0.04958930385747614 0.004664642288141751 0 -0.04923032029173123 0.006134806341153003 0 -0.04958930385747614 0.004664642288141751 0 -0.048136117272646453 0.0054178589954955126 0 -0.052372667483501834 0.0017749924841869932 0 -0.054596448797003358 0.003968263408905155 0 -0.051834358241365543 0.0053470755571611711 0 -0.05033938785452189 0.0061336596726656329 0 -0.050748933562335813 0.0050209433667987189 0 -0.04958930385747614 0.004664642288141751 0 -0.050748933562335813 0.0050209433667987189 0 -0.051095405728639888 0.0038875694843530169 0 -0.05033938785452189 0.0061336596726656329 0 -0.04958930385747614 0.004664642288141751 0 -0.050748933562335813 0.0050209433667987189 0 -0.056752642370115194 -0.0016502282577650726 0 -0.056613730190726193 -0.001918645649292502 0 -0.056431261524255136 -0.0017700050464548502 0 -0.052372667483501834 0.0017749924841869932 0 -0.054970726708386507 -0.0004883291243263228 0 -0.056380510415126463 -0.0014152918219409619 0 -0.056752642370115194 -0.0016502282577650726 0 -0.056431261524255136 -0.0017700050464548502 0 -0.054970726708386507 -0.0004883291243263228 0 -0.056308050901854152 -0.0018023116129530078 0 -0.056663104351049209 -0.0018914529499183619 0 -0.056643486019050518 -0.0018443098133225711 0 -0.056613730190726193 -0.001918645649292502 0 -0.056622372169790776 -0.0023314997561498865 0 -0.056613730190726193 -0.001918645649292502 0 -0.056434780075432824 -0.0020848281274728985 0 -0.056622372169790776 -0.0023314997561498865 0 -0.056728217155638416 -0.0020413958480623444 0 -0.056613730190726193 -0.001918645649292502 0 -0.056613730190726193 -0.001918645649292502 0 -0.056434780075432824 -0.0020848281274728985 0 -0.056431261524255136 -0.0017700050464548502 0 -0.056201470244247494 -0.0021697935746061285 0 -0.056434780075432824 -0.0020848281274728985 0 -0.056248407033299551 -0.0019195070089598207 0 -0.056434780075432824 -0.0020848281274728985 0 -0.056248407033299551 -0.0019195070089598207 0 -0.056431261524255136 -0.0017700050464548502 0 -0.056248407033299551 -0.0019195070089598207 0 -0.056431261524255136 -0.0017700050464548502 0 -0.056161296231350931 -0.0015977788537459563 0 -0.056380510415126463 -0.0014152918219409619 0 -0.056431261524255136 -0.0017700050464548502 0 -0.056161296231350931 -0.0015977788537459563 0 -0.056161296231350931 -0.0015977788537459563 0 -0.055866667018175914 -0.0017057545447870576 0 -0.055968289416008045 -0.0011582454533900922 0 -0.056248407033299551 -0.0019195070089598207 0 -0.056161296231350931 -0.0015977788537459563 0 -0.055866667018175914 -0.0017057545447870576 0 -0.056248407033299551 -0.0019195070089598207 0 -0.055974447336305432 -0.0020019586264189617 0 -0.055866667018175914 -0.0017057545447870576 0 -0.056009833833171284 -0.0022310864045014746 0 -0.056201470244247494 -0.0021697935746061285 0 -0.055974447336305432 -0.0020019586264189617 0 -0.056201470244247494 -0.0021697935746061285 0 -0.056248407033299551 -0.0019195070089598207 0 -0.055974447336305432 -0.0020019586264189617 0 -0.055000027826597055 -0.00025646249477802183 0 -0.055911068871085615 -0.00048490867302956311 0 -0.056661734756695323 0.0021257660680688759 0 -0.055788507065681212 -0.001286448968615417 0 -0.056435838384542046 -0.00016816369838286443 0 -0.055739736753142352 -0.0021721728245972095 0 -0.055974447336305432 -0.0020019586264189617 0 -0.055866667018175914 -0.0017057545447870576 0 -0.055000027826597055 -0.00025646249477802183 0 -0.056661734756695323 0.0021257660680688759 0 -0.054999981152336626 0.0029368255683371665 0 -0.056661734756695323 0.0021257660680688759 0 -0.054999981152336626 0.0029368255683371665 0 -0.056115242368374112 0.0038868887113684496 0 -0.056115242368374112 0.0038868887113684496 0 -0.057406688322664948 0.0047407117733212446 0 -0.055390599742056394 0.0057468118628409993 0 -0.054999981152336626 0.0029368255683371665 0 -0.054999928614238178 0.0061303095637003568 0 -0.055390599742056394 0.0057468118628409993 0 -0.054999981152336626 0.0029368255683371665 0 -0.056115242368374112 0.0038868887113684496 0 -0.055390599742056394 0.0057468118628409993 0 -0.056661734756695323 0.0021257660680688759 0 -0.056115242368374112 0.0038868887113684496 0 -0.057406688322664948 0.0047407117733212446 0 -0.056435838384542046 -0.00016816369838286443 0 -0.054596448797003358 0.003968263408905155 0 -0.048676332212508854 0.0073847447737154948 0 -0.04923032029173123 0.006134806341153003 0 -0.048136117272646453 0.0054178589954955126 0 -0.058039654355125571 0.0076024997554035925 0 -0.057278087655544263 0.0048556072408647878 0 -0.056720986428094242 0.0063666781850850226 0 -0.053518117938720848 0.0077613488259115826 0 -0.054596448797003358 0.003968263408905155 0 -0.057278087655544263 0.0048556072408647878 0 -0.056720986428094242 0.0063666781850850226 0 -0.055390599742056394 0.0057468118628409993 0 -0.056156520448899211 0.0072568122782974255 0 -0.056720986428094242 0.0063666781850850226 0 -0.055390599742056394 0.0057468118628409993 0 -0.054596448797003358 0.003968263408905155 0 -0.056351825924858913 0.0055097918318814249 0 -0.056156520448899211 0.0072568122782974255 0 -0.054999928614238178 0.0061303095637003568 0 -0.055390599742056394 0.0057468118628409993 0 -0.049956472271644257 0.0092769560738901347 0 -0.049731883277292409 0.0092974526526792643 0 -0.049363979433287214 0.0090620601375894037 0 -0.049956472271644257 0.0092769560738901347 0 -0.050061846164123347 0.0093296855725534204 0 -0.049731883277292409 0.0092974526526792643 0 -0.049956472271644257 0.0092769560738901347 0 -0.050094785219851883 0.009513019921486808 0 -0.050061846164123347 0.0093296855725534204 0 -0.050061846164123347 0.0093296855725534204 0 -0.049890530277180656 0.0093176072505979507 0 -0.049996943810572701 0.0090499797627239184 0 -0.050094785219851883 0.009513019921486808 0 -0.050061846164123347 0.0093296855725534204 0 -0.049890530277180656 0.0093176072505979507 0 -0.050061846164123347 0.0093296855725534204 0 -0.049731883277292409 0.0092974526526792643 0 -0.049822648829145874 0.0095953080273868379 0 -0.049731883277292409 0.0092974526526792643 0 -0.049363979433287214 0.0090620601375894037 0 -0.049365090502458027 0.0093791306287444535 0 -0.044921047606859332 0.014663011022028976 0 -0.046464554497116062 0.01382164912521497 0 -0.04446066393099244 0.013494879058732969 0 -0.038350050844926868 0.0095311385662118619 0 -0.049256702397432878 0.011260104528881126 0 -0.048710876328586679 0.009047642584876614 0 -0.049363979433287214 0.0090620601375894037 0 -0.049365090502458027 0.0093791306287444535 0 -0.046464554497116062 0.01382164912521497 0 -0.045351788345272578 0.012533395679245028 0 -0.04446066393099244 0.013494879058732969 0 -0.046464554497116062 0.01382164912521497 0 -0.046602043242589777 0.012080633301226414 0 -0.045351788345272578 0.012533395679245028 0 -0.048698260678600697 0.0112007966609725 0 -0.049256702397432878 0.011260104528881126 0 -0.048016841952627475 0.012888401803954714 0 -0.046464554497116062 0.01382164912521497 0 -0.046602043242589777 0.012080633301226414 0 -0.046602043242589777 0.012080633301226414 0 -0.045351788345272578 0.012533395679245028 0 -0.045035365931317677 0.011372988310046024 0 -0.045985806341325791 0.0094214778457453654 0 -0.045035365931317677 0.011372988310046024 0 -0.043601281536281351 0.010658070422835182 0 -0.046602043242589777 0.012080633301226414 0 -0.045035365931317677 0.011372988310046024 0 -0.046832733713822655 0.010754506645329792 0 -0.045985806341325791 0.0094214778457453654 0 -0.045035365931317677 0.011372988310046024 0 -0.046832733713822655 0.010754506645329792 0 -0.046602043242589777 0.012080633301226414 0 -0.046832733713822655 0.010754506645329792 0 -0.04813090214194906 0.011263819919384634 0 -0.048097634452309163 0.0097001021929476183 0 -0.046832733713822655 0.010754506645329792 0 -0.04813090214194906 0.011263819919384634 0 -0.048016841952627475 0.012888401803954714 0 -0.04813090214194906 0.011263819919384634 0 -0.049389742817414296 0.011852129594910776 0 -0.048016841952627475 0.012888401803954714 0 -0.046602043242589777 0.012080633301226414 0 -0.04813090214194906 0.011263819919384634 0 -0.048698260678600697 0.0112007966609725 0 -0.049785031073648289 0.010856336733267686 0 -0.049956472271644257 0.0092769560738901347 0 -0.050094785219851883 0.009513019921486808 0 -0.050194865747457192 0.0098629649602172634 0 -0.04813090214194906 0.011263819919384634 0 -0.049389742817414296 0.011852129594910776 0 -0.049554668120064163 0.010779259866954719 0 -0.048097634452309163 0.0097001021929476183 0 -0.04813090214194906 0.011263819919384634 0 -0.049554668120064163 0.010779259866954719 0 -0.050194865747457192 0.0098629649602172634 0 -0.05020751665010869 0.010441153253868674 0 -0.050249120904860563 0.010728117310070204 0 -0.049389742817414296 0.011852129594910776 0 -0.049554668120064163 0.010779259866954719 0 -0.050249120904860563 0.010728117310070204 0 -0.050049720285816786 0.010508993690329075 0 -0.049554668120064163 0.010779259866954719 0 -0.050249120904860563 0.010728117310070204 0 -0.050305889676604459 0.010652039993247263 0 -0.050049720285816786 0.010508993690329075 0 -0.050249120904860563 0.010728117310070204 0 -0.05020751665010869 0.010441153253868674 0 -0.050249120904860563 0.010728117310070204 0 -0.050430657215333269 0.010586853971008951 0 -0.050305889676604459 0.010652039993247263 0 -0.050249120904860563 0.010728117310070204 0 -0.050415744550010966 0.010721209561353535 0 -0.050249120904860563 0.010728117310070204 0 -0.050430657215333269 0.010586853971008951 0 -0.050415744550010966 0.010721209561353535 0 -0.05020751665010869 0.010441153253868674 0 -0.050430657215333269 0.010586853971008951 0 -0.050648791353941847 0.010405511604494226 0 -0.05020602803217096 0.01040405504186121 0 -0.050101921719645698 0.0099508694128733529 0 -0.05020751665010869 0.010441153253868674 0 -0.050033555387125221 0.0097204094589672212 0 -0.04954956418847363 0.0095975346271761647 0 -0.050194865747457192 0.0098629649602172634 0 -0.05020751665010869 0.010441153253868674 0 -0.050033555387125221 0.0097204094589672212 0 -0.050094785219851883 0.009513019921486808 0 -0.050194865747457192 0.0098629649602172634 0 -0.050033555387125221 0.0097204094589672212 0 -0.049785031073648289 0.010856336733267686 0 -0.050125429907260051 0.010770772996489231 0 -0.050340909651198557 0.010914155390433857 0 -0.050401280788445163 0.010701487045981416 0 -0.050273253921549674 0.010727505575456037 0 -0.050141236749389126 0.011322153567520305 0 -0.050340909651198557 0.010914155390433857 0 -0.050273253921549674 0.010727505575456037 0 -0.050340909651198557 0.010914155390433857 0 -0.050401280788445163 0.010701487045981416 0 -0.050415744550010966 0.010721209561353535 0 -0.050430657215333269 0.010586853971008951 0 -0.050401280788445163 0.010701487045981416 0 -0.050415744550010966 0.010721209561353535 0 -0.050430657215333269 0.010586853971008951 0 -0.050466648123313196 0.010508194264909378 0 -0.050648791353941847 0.010405511604494226 0 -0.050430657215333269 0.010586853971008951 0 -0.050401280788445163 0.010701487045981416 0 -0.050466648123313196 0.010508194264909378 0 -0.04996183894675961 0.01053505247441963 0 -0.050273253921549674 0.010727505575456037 0 -0.050366001054814112 0.010205282133544321 0 -0.050401280788445163 0.010701487045981416 0 -0.050466648123313196 0.010508194264909378 0 -0.050273253921549674 0.010727505575456037 0 -0.050466648123313196 0.010508194264909378 0 -0.050273253921549674 0.010727505575456037 0 -0.050366001054814112 0.010205282133544321 0 -0.050366001054814112 0.010205282133544321 0 -0.050661397312721276 0.0096201241422799455 0 -0.050648791353941847 0.010405511604494226 0 -0.050466648123313196 0.010508194264909378 0 -0.050366001054814112 0.010205282133544321 0 -0.050648791353941847 0.010405511604494226 0 -0.04984968956066884 0.0095867876793925052 0 -0.050101921719645698 0.0099508694128733529 0 -0.050198120116442931 0.0094368638170227327 0 -0.050366001054814112 0.010205282133544321 0 -0.050661397312721276 0.0096201241422799455 0 -0.049307709578682947 0.00918469827352302 0 -0.04954956418847363 0.0095975346271761647 0 -0.049890530277180656 0.0093176072505979507 0 -0.049307709578682947 0.00918469827352302 0 -0.049890530277180656 0.0093176072505979507 0 -0.049686264766075426 0.0088850781038214473 0 -0.050033555387125221 0.0097204094589672212 0 -0.04954956418847363 0.0095975346271761647 0 -0.049890530277180656 0.0093176072505979507 0 -0.050094785219851883 0.009513019921486808 0 -0.050033555387125221 0.0097204094589672212 0 -0.049890530277180656 0.0093176072505979507 0 -0.049890530277180656 0.0093176072505979507 0 -0.049996943810572701 0.0090499797627239184 0 -0.049686264766075426 0.0088850781038214473 0 -0.049996943810572701 0.0090499797627239184 0 -0.049686264766075426 0.0088850781038214473 0 -0.050043518177350803 0.0086825062998162842 0 -0.049686264766075426 0.0088850781038214473 0 -0.049410463982014929 0.0086175628446793391 0 -0.049758281198164347 0.0084328101797992785 0 -0.049686264766075426 0.0088850781038214473 0 -0.049758281198164347 0.0084328101797992785 0 -0.050043518177350803 0.0086825062998162842 0 -0.049307709578682947 0.00918469827352302 0 -0.04935202227293433 0.008876694602217558 0 -0.049067993546893021 0.0087920266445951894 0 -0.04984968956066884 0.0095867876793925052 0 -0.050802611711575553 0.0074894629054158149 0 -0.050198120116442931 0.0094368638170227327 0 -0.050661397312721276 0.0096201241422799455 0 -0.050340546193141343 0.0087555837710166073 0 -0.049307709578682947 0.00918469827352302 0 -0.049686264766075426 0.0088850781038214473 0 -0.04935202227293433 0.008876694602217558 0 -0.049686264766075426 0.0088850781038214473 0 -0.04935202227293433 0.008876694602217558 0 -0.049410463982014929 0.0086175628446793391 0 -0.04935202227293433 0.008876694602217558 0 -0.049410463982014929 0.0086175628446793391 0 -0.049067993546893021 0.0087920266445951894 0 -0.052438831280189113 0.0045594729360152889 0 -0.051851173480918472 0.0047492595274221724 0 -0.051778342725645431 0.0051432881562321186 0 -0.050882834763428184 0.0065445689266330808 0 -0.050802611711575553 0.0074894629054158149 0 -0.051369755643498022 0.0049498331877801957 0 -0.051851173480918472 0.0047492595274221724 0 -0.051778342725645431 0.0051432881562321186 0 -0.052438831280189113 0.0045594729360152889 0 -0.051851173480918472 0.0047492595274221724 0 -0.05189374507464007 0.004186568517464153 0 -0.051369755643498022 0.0049498331877801957 0 -0.051851173480918472 0.0047492595274221724 0 -0.05189374507464007 0.004186568517464153 0 -0.052438831280189113 0.0045594729360152889 0 -0.05189374507464007 0.004186568517464153 0 -0.052244256902190971 0.0038288923618220185 0 -0.052438831280189113 0.0045594729360152889 0 -0.052244256902190971 0.0038288923618220185 0 -0.052678629487286466 0.003604047645590329 0 -0.052345646455057737 0.0032625807875495171 0 -0.052244256902190971 0.0038288923618220185 0 -0.052678629487286466 0.003604047645590329 0 -0.052345646455057737 0.0032625807875495171 0 -0.052244256902190971 0.0038288923618220185 0 -0.051840977462920636 0.0035126567715826288 0 -0.05189374507464007 0.004186568517464153 0 -0.052244256902190971 0.0038288923618220185 0 -0.051840977462920636 0.0035126567715826288 0 -0.051929988036925029 0.003946044379271877 0 -0.052024882034097442 0.0034550016026385299 0 -0.051504911855345885 0.0034364907517740358 0 -0.05189374507464007 0.004186568517464153 0 -0.052238805716643195 0.0028399431108789485 0 -0.051637466201584929 0.0017190255518190053 0 -0.051504911855345885 0.0034364907517740358 0 -0.052238805716643195 0.0028399431108789485 0 -0.051265648561899566 0.0062757005271984728 0 -0.052309138430952543 0.0056911261721491893 0 -0.049758281198164347 0.0084328101797992785 0 -0.050124268549491889 0.0082183658118237073 0 -0.050043518177350803 0.0086825062998162842 0 -0.052438831280189113 0.0045594729360152889 0 -0.052979827225775808 0.004006643345432344 0 -0.052678629487286466 0.003604047645590329 0 -0.050882834763428184 0.0065445689266330808 0 -0.051265648561899566 0.0062757005271984728 0 -0.052979827225775808 0.004006643345432344 0 -0.052678629487286466 0.003604047645590329 0 -0.052961069134467124 0.0031756096570886229 0 -0.052345646455057737 0.0032625807875495171 0 -0.052678629487286466 0.003604047645590329 0 -0.052961069134467124 0.0031756096570886229 0 -0.053413903518710955 0.0028559705325478133 0 -0.052961069134467124 0.0031756096570886229 0 -0.053510481523141376 0.0035495882427438769 0 -0.052979827225775808 0.004006643345432344 0 -0.052961069134467124 0.0031756096570886229 0 -0.053510481523141376 0.0035495882427438769 0 -0.052309138430952543 0.0056911261721491893 0 -0.049882487063964476 0.0062867255315947161 0 -0.049882487063964476 0.0062867255315947161 0 -0.049977158847092612 0.0098528882051017192 0 -0.049264360906050145 0.010572152607118947 0 -0.049479088988853406 0.010474406917459713 0 -0.049395482840744222 0.010217945192772318 0 -0.050124268549491889 0.0082183658118237073 0 -0.050531816836773581 0.0079933314736872606 0 -0.050425286187291557 0.0084823256829004972 0 -0.049479088988853406 0.010474406917459713 0 -0.049641260992432774 0.010012516514612759 0 -0.049395482840744222 0.010217945192772318 0 -0.053881627615668885 0.0027417206245649462 0 -0.053510481523141376 0.0035495882427438769 0 -0.054149785550363636 0.0031447638094203511 0 -0.041290575668469477 0.011666267111864454 0 -0.049882487063964476 0.0062867255315947161 0 -0.049641260992432774 0.010012516514612759 0 -0.049395482840744222 0.010217945192772318 0 -0.049391031621034878 0.0098086521772846637 0 -0.050124268549491889 0.0082183658118237073 0 -0.050425286187291557 0.0084823256829004972 0 -0.050043518177350803 0.0086825062998162842 0 -0.050425286187291557 0.0084823256829004972 0 -0.050043518177350803 0.0086825062998162842 0 -0.0502881874240712 0.0089341262936355661 0 -0.049641260992432774 0.010012516514612759 0 -0.049822648829145874 0.0095953080273868379 0 -0.049391031621034878 0.0098086521772846637 0 -0.049977158847092612 0.0098528882051017192 0 -0.050078047848034747 0.0091215046211438212 0 -0.049822648829145874 0.0095953080273868379 0 -0.049365090502458027 0.0093791306287444535 0 -0.049391031621034878 0.0098086521772846637 0 -0.049731883277292409 0.0092974526526792643 0 -0.049822648829145874 0.0095953080273868379 0 -0.049365090502458027 0.0093791306287444535 0 -0.050052829239507296 0.0093596826590273737 0 -0.050078047848034747 0.0091215046211438212 0 -0.049996943810572701 0.0090499797627239184 0 -0.050043518177350803 0.0086825062998162842 0 -0.0502881874240712 0.0089341262936355661 0 -0.050061846164123347 0.0093296855725534204 0 -0.049996943810572701 0.0090499797627239184 0 -0.0502881874240712 0.0089341262936355661 0 -0.025965663313291691 0.0053715000842390909 0 -0.02750738277388003 0.009286727538364169 0 -0.024401116736779291 0.0087807839493576258 0 -0.048710876328586679 0.009047642584876614 0 -0.049365090502458027 0.0093791306287444535 0 -0.048927784547421589 0.0095787936942066578 0 -0.038350050844926868 0.0095311385662118619 0 -0.038001280418708677 0.0088475124400296829 0 -0.049365090502458027 0.0093791306287444535 0 -0.049391031621034878 0.0098086521772846637 0 -0.048927784547421589 0.0095787936942066578 0 -0.049391031621034878 0.0098086521772846637 0 -0.048927784547421589 0.0095787936942066578 0 -0.049112596341068154 0.01011709181413902 0 -0.038001280418708677 0.0088475124400296829 0 -0.039104761712107042 0.012197522908565633 0 -0.02750738277388003 0.009286727538364169 0 -0.025905335693942568 0.011804478781452403 0 -0.029131475328303076 0.01322816566602583 0 -0.02750738277388003 0.009286727538364169 0 -0.025905335693942568 0.011804478781452403 0 -0.024401116736779291 0.0087807839493576258 0 -0.025905335693942568 0.011804478781452403 0 -0.026508803152657426 0.014236238215802938 0 -0.029131475328303076 0.01322816566602583 0 -0.049395482840744222 0.010217945192772318 0 -0.049391031621034878 0.0098086521772846637 0 -0.049112596341068154 0.01011709181413902 0 -0.049264360906050145 0.010572152607118947 0 -0.049395482840744222 0.010217945192772318 0 -0.049112596341068154 0.01011709181413902 0 -0.041290575668469477 0.011666267111864454 0 -0.039104761712107042 0.012197522908565633 0 -0.030853178121392148 0.017293985762670563 0 -0.029131475328303076 0.01322816566602583 0 -0.027969670842873211 0.016004920989705625 0 -0.026508803152657426 0.014236238215802938 0 -0.029131475328303076 0.01322816566602583 0 -0.027969670842873211 0.016004920989705625 0 -0.026508803152657426 0.014236238215802938 0 -0.027969670842873211 0.016004920989705625 0 -0.025682120602180822 0.016584036262700389 0 -0.023589739104213931 0.016851515175951334 0 -0.021637780622128223 0.015291966032131227 0 -0.024035188631985838 0.014048871896062659 0 -0.023589739104213931 0.016851515175951334 0 -0.025682120602180822 0.016584036262700389 0 -0.024035188631985838 0.014048871896062659 0 -0.026508803152657426 0.014236238215802938 0 -0.025682120602180822 0.016584036262700389 0 -0.024035188631985838 0.014048871896062659 0 -0.022068137192401468 0.018076481861517918 0 -0.023589739104213931 0.016851515175951334 0 -0.021637780622128223 0.015291966032131227 0 -0.022068137192401468 0.018076481861517918 0 -0.021637780622128223 0.015291966032131227 0 -0.019634369677000565 0.015940786158625295 0 -0.021003504761257372 0.011747220030483823 0 -0.016965945610519156 0.012177948690686245 0 -0.021637780622128223 0.015291966032131227 0 -0.019300741285166095 0.016276421221474414 0 -0.019278369434938519 0.013313036361534991 0 -0.020998621009019298 0.01434304118695617 0 -0.016965945610519156 0.012177948690686245 0 -0.021637780622128223 0.015291966032131227 0 -0.021818266791268807 0.013150806356640525 0 -0.024035188631985838 0.014048871896062659 0 -0.021637780622128223 0.015291966032131227 0 -0.021818266791268807 0.013150806356640525 0 -0.019278369434938519 0.013313036361534991 0 -0.021818266791268807 0.013150806356640525 0 -0.020422839222580792 0.011783739195879682 0 -0.019278369434938519 0.013313036361534991 0 -0.021818266791268807 0.013150806356640525 0 -0.020422839222580792 0.011783739195879682 0 -0.023097208987581538 0.011432081511591264 0 -0.025905335693942568 0.011804478781452403 0 -0.024035188631985838 0.014048871896062659 0 -0.023097208987581538 0.011432081511591264 0 -0.021818266791268807 0.013150806356640525 0 -0.024035188631985838 0.014048871896062659 0 -0.023097208987581538 0.011432081511591264 0 -0.025905335693942568 0.011804478781452403 0 -0.026508803152657426 0.014236238215802938 0 -0.024035188631985838 0.014048871896062659 0 -0.0057519829202817545 0.013626211755219199 0 -0.0078988870086655373 0.008570994024305275 0 -0.0025750659214995369 0.010956138815528198 0 -0.0057519829202817545 0.013626211755219199 0 -0.011408481402702987 0.01168513331957827 0 -0.0078988870086655373 0.008570994024305275 0 -0.007204535037768695 0.0042046550628943103 0 -0.016965945610519156 0.012177948690686245 0 -0.016965945610519156 0.012177948690686245 0 -0.012921945570111131 0.011811402658665562 0 -0.019300741285166095 0.016276421221474414 0 -0.019278369434938519 0.013313036361534991 0 -0.016294686676516672 0.013887988674217545 0 -0.020422839222580792 0.011783739195879682 0 -0.019278369434938519 0.013313036361534991 0 -0.018563067063474502 0.010895760916966892 0 -0.019278369434938519 0.013313036361534991 0 -0.016422232427902427 0.011718880443190086 0 -0.018563067063474502 0.010895760916966892 0 -0.019278369434938519 0.013313036361534991 0 -0.016294686676516672 0.013887988674217545 0 -0.016422232427902427 0.011718880443190086 0 -0.0078988870086655373 0.008570994024305275 0 -0.0043801185703412704 0.0054542465203791099 0 -0.0025750659214995369 0.010956138815528198 0 -0.016294686676516672 0.013887988674217545 0 -0.016422232427902427 0.011718880443190086 0 -0.012988403755097877 0.011158385993471872 0 -0.012921945570111131 0.011811402658665562 0 0.00049445356960786625 0.0098135723052159233 0 0.0030518052122671113 0.011023611905230201 0 0.0017284865512379025 0.011567050852532415 0 0.0026916121815646799 0.0099057076788698732 0 0.0030518052122671113 0.011023611905230201 0 0.0033004273578360922 0.012124450100123531 0 0.0017284865512379025 0.011567050852532415 0 0.00049445356960786625 0.0098135723052159233 0 -0.0073134732686184391 0.010413659538292814 0 -0.016422232427902427 0.011718880443190086 0 -0.012988403755097877 0.011158385993471872 0 -0.016145208764877298 0.0094631496091587882 0 -0.016145208764877298 0.0094631496091587882 0 -0.018563067063474502 0.010895760916966892 0 -0.019209071939826967 0.007708657661699661 0 -0.0073134732686184391 0.010413659538292814 0 -0.014060521581766022 0.011101226009053923 0 -0.016422232427902427 0.011718880443190086 0 -0.016145208764877298 0.0094631496091587882 0 -0.018563067063474502 0.010895760916966892 0 -0.018330422274012281 0.0093287952434991054 0 -0.014060521581766022 0.011101226009053923 0 -0.018563067063474502 0.010895760916966892 0 -0.019338284161862028 0.0085608319337261325 0 -0.021141233409264468 0.0099966570597473034 0 0.0017284865512379025 0.011567050852532415 0 -1.9563137201700002e-05 0.010791022790049105 0 0.00096357222273951682 0.0098864705425459592 0 -1.9563137201700002e-05 0.010791022790049105 0 0.00096357222273951682 0.0098864705425459592 0 -0.00060227791372507381 0.0087779051380916986 0 -0.014060521581766022 0.011101226009053923 0 -0.0089309539818387181 0.0097795176221467973 0 0.0017284865512379025 0.011567050852532415 0 0.00096357222273951682 0.0098864705425459592 0 0.0026916121815646799 0.0099057076788698732 0 0.00096357222273951682 0.0098864705425459592 0 0.0026916121815646799 0.0099057076788698732 0 0.00093650686978505359 0.0081254274612573736 0 0.0022441996727713682 0.0095163982210252421 0 0.0021740368476780071 0.0091746772602048707 0 -0.025905335693942568 0.011804478781452403 0 -0.023097208987581538 0.011432081511591264 0 -0.024401116736779291 0.0087807839493576258 0 -0.023097208987581538 0.011432081511591264 0 -0.021141233409264468 0.0099966570597473034 0 -0.024401116736779291 0.0087807839493576258 0 -0.020422839222580792 0.011783739195879682 0 -0.023097208987581538 0.011432081511591264 0 -0.021141233409264468 0.0099966570597473034 0 -0.020422839222580792 0.011783739195879682 0 -0.018563067063474502 0.010895760916966892 0 -0.021141233409264468 0.0099966570597473034 0 -0.016475080264178057 0.013749571606848279 0 -0.019161566608601913 0.012196903274273963 0 -0.017225201293133329 0.010432892660099176 0 -0.019161566608601913 0.012196903274273963 0 -0.021840498195645718 0.010614043808895192 0 -0.017225201293133329 0.010432892660099176 0 -0.021141233409264468 0.0099966570597473034 0 -0.021882050241128055 0.0073023137500722347 0 -0.024401116736779291 0.0087807839493576258 0 -0.019338284161862028 0.0085608319337261325 0 -0.021141233409264468 0.0099966570597473034 0 -0.021882050241128055 0.0073023137500722347 0 -0.014060521581766022 0.011101226009053923 0 -0.020653786572078933 0.0097966368080061334 0 -0.020653786572078933 0.0097966368080061334 0 -0.027625822238372285 0.011034649674600737 0 -0.025965663313291691 0.0053715000842390909 0 -0.024401116736779291 0.0087807839493576258 0 -0.024377917505955721 0.0061140115372763718 0 -0.021882050241128055 0.0073023137500722347 0 -0.024401116736779291 0.0087807839493576258 0 -0.024377917505955721 0.0061140115372763718 0 -0.038350050844926868 0.0095311385662118619 0 -0.038266677020120321 0.012058558525095117 0 -0.038350050844926868 0.0095311385662118619 0 -0.027625822238372285 0.011034649674600737 0 -0.031490965103370308 0.012432685869922912 0 -0.031591727243152221 0.011177056011774676 0 -0.030546980771258277 0.010388447905632214 0 -0.032521895659378304 0.011845828787249286 0 -0.031490965103370308 0.012432685869922912 0 -0.031591727243152221 0.011177056011774676 0 -0.032521895659378304 0.011845828787249286 0 -0.031591727243152221 0.011177056011774676 0 -0.031797223829994746 0.010033661786037429 0 -0.031797223829994746 0.010033661786037429 0 -0.030546980771258277 0.010388447905632214 0 -0.031100416385857095 0.008208381244467983 0 -0.038266677020120321 0.012058558525095117 0 -0.040180444318731377 0.010993257526722524 0 -0.031591727243152221 0.011177056011774676 0 -0.031797223829994746 0.010033661786037429 0 -0.030546980771258277 0.010388447905632214 0 -0.030546980771258277 0.010388447905632214 0 -0.02937399146868256 0.0098367602562989733 0 -0.031100416385857095 0.008208381244467983 0 -0.010266336784373203 0.011401377720312116 0 -0.009984822807081406 0.011643320186695184 0 -0.0099164476222312389 0.010403374180092682 0 -0.022633377172315405 0.010535413412385128 0 -0.040180444318731377 0.010993257526722524 0 -0.030546980771258277 0.010388447905632214 0 -0.02937399146868256 0.0098367602562989733 0 -0.029233902583768141 0.010408477029259384 0 -0.022633377172315405 0.010535413412385128 0 -0.017025081791924589 0.0098385299071880161 0 -0.013613715956545525 0.010047122554076615 0 -0.017642040547462275 0.005954979680862553 0 -0.015014443732538818 0.0035369147134804526 0 -0.022633377172315405 0.010535413412385128 0 -0.010193254143930634 0.0091826428788654504 0 -0.010193254143930634 0.0091826428788654504 0 -0.017025081791924589 0.0098385299071880161 0 -0.027625822238372285 0.011034649674600737 0 -0.017025081791924589 0.0098385299071880161 0 -0.021840498195645718 0.010614043808895192 0 -0.01796668049178457 0.0071073415250941206 0 -0.017225201293133329 0.010432892660099176 0 -0.017025081791924589 0.0098385299071880161 0 -0.0089309539818387181 0.0097795176221467973 0 -0.031490965103370308 0.012432685869922912 0 -0.030546980771258277 0.010388447905632214 0 -0.029233902583768141 0.010408477029259384 0 -0.0012147214571405498 0.0066604663821204545 0 -0.00060227791372507381 0.0087779051380916986 0 0.00093650686978505359 0.0081254274612573736 0 0.00096357222273951682 0.0098864705425459592 0 -0.00060227791372507381 0.0087779051380916986 0 0.00093650686978505359 0.0081254274612573736 0 -0.010193254143930634 0.0091826428788654504 0 0.0021740368476780071 0.0091746772602048707 0 -0.00095681689061341937 0.0064213055645759099 0 -0.0012147214571405498 0.0066604663821204545 0 0.00093650686978505359 0.0081254274612573736 0 0.0026916121815646799 0.0099057076788698732 0 0.0015414978571568925 0.0090344145015904525 0 0.0028769711663614857 0.008828732128282368 0 0.0015414978571568925 0.0090344145015904525 0 0.0028769711663614857 0.008828732128282368 0 0.0021756746961095136 0.0079344987162757175 0 0.0028769711663614857 0.008828732128282368 0 0.0021756746961095136 0.0079344987162757175 0 0.0037131067995774653 0.0079669119656382223 0 0.0021756746961095136 0.0079344987162757175 0 0.0016075199797777882 0.0067864993769687606 0 0.0030678628896675495 0.0068991386167470605 0 0.0021756746961095136 0.0079344987162757175 0 0.0030678628896675495 0.0068991386167470605 0 0.0037131067995774653 0.0079669119656382223 0 0.00021644435338282527 0.0080142512580654215 0 0.0021756746961095136 0.0079344987162757175 0 0.0016075199797777882 0.0067864993769687606 0 0.00021644435338282527 0.0080142512580654215 0 0.0015414978571568925 0.0090344145015904525 0 0.0021756746961095136 0.0079344987162757175 0 -0.009984822807081406 0.011643320186695184 0 -0.0085935685141164328 0.010522856394820103 0 -0.0099164476222312389 0.010403374180092682 0 -0.010193254143930634 0.0091826428788654504 0 -0.0028028515650012323 0.0084058948142307563 0 -0.0085935685141164328 0.010522856394820103 0 -0.0098271994724071395 0.0090540130508956398 0 -0.0099164476222312389 0.010403374180092682 0 0.0016075199797777882 0.0067864993769687606 0 0.0030678628896675495 0.0068991386167470605 0 0.003019243097382108 0.0055847189633191569 0 -0.0028028515650012323 0.0084058948142307563 0 -0.0023568087175026048 0.0071107157181824355 0 -0.0085935685141164328 0.010522856394820103 0 -0.00828618270582656 0.0084601169141864749 0 -0.0070829365646235378 0.0093214533781587668 0 -0.00828618270582656 0.0084601169141864749 0 -0.0070829365646235378 0.0093214533781587668 0 -0.0064359989053969302 0.0071797404664012427 0 -0.00828618270582656 0.0084601169141864749 0 -0.0098271994724071395 0.0090540130508956398 0 -0.0092539155824765112 0.0070940480202919941 0 -0.0085935685141164328 0.010522856394820103 0 -0.00828618270582656 0.0084601169141864749 0 -0.0098271994724071395 0.0090540130508956398 0 -0.010900458754338626 0.0093654588622559907 0 -0.010503060294332444 0.0082548523292333958 0 -0.011523885411661354 0.0075141305785572984 0 -0.042183116796736503 0.011847190428966651 0 -0.043601281536281351 0.010658070422835182 0 -0.043155861499032062 0.0092504274982957366 0 -0.026281215966205689 0.0095679314167782161 0 -0.033493623757352355 0.016650439576565597 0 -0.0098271994724071395 0.0090540130508956398 0 -0.010900458754338626 0.0093654588622559907 0 -0.010503060294332444 0.0082548523292333958 0 -0.042183116796736503 0.011847190428966651 0 -0.043601281536281351 0.010658070422835182 0 -0.042859919462495108 0.012191474868978907 0 -0.045035365931317677 0.011372988310046024 0 -0.043601281536281351 0.010658070422835182 0 -0.042859919462495108 0.012191474868978907 0 -0.045351788345272578 0.012533395679245028 0 -0.045035365931317677 0.011372988310046024 0 -0.044020931945864324 0.012356095479558802 0 -0.045035365931317677 0.011372988310046024 0 -0.043255157916762828 0.013201783761861988 0 -0.042859919462495108 0.012191474868978907 0 -0.045351788345272578 0.012533395679245028 0 -0.04446066393099244 0.013494879058732969 0 -0.044020931945864324 0.012356095479558802 0 -0.040180444318731377 0.010993257526722524 0 -0.042109077540266625 0.012951007564964178 0 -0.045521821241773168 0.011462813116825231 0 -0.040180444318731377 0.010993257526722524 0 -0.022633377172315405 0.010535413412385128 0 -0.026281215966205689 0.0095679314167782161 0 -0.0098271994724071395 0.0090540130508956398 0 -0.010900458754338626 0.0093654588622559907 0 -0.0099164476222312389 0.010403374180092682 0 -0.010266336784373203 0.011401377720312116 0 -0.010900458754338626 0.0093654588622559907 0 -0.0099164476222312389 0.010403374180092682 0 -0.041016224219294496 0.015216576049738558 0 -0.042183116796736503 0.011847190428966651 0 -0.043216958263250352 0.013313951364699352 0 -0.042183116796736503 0.011847190428966651 0 -0.043216958263250352 0.013313951364699352 0 -0.042859919462495108 0.012191474868978907 0 0.01303208271779915 0.016844626576865765 0 0.013408176109282391 0.016830791588148493 0 0.013310673572942147 0.016722924862848945 0 0.013408176109282391 0.016830791588148493 0 0.013310673572942147 0.016722924862848945 0 0.013583193472635452 0.016840785533433048 0 0.01303208271779915 0.016844626576865765 0 0.013408176109282391 0.016830791588148493 0 0.013452106697284891 0.017004099906501438 0 0.013310673572942147 0.016722924862848945 0 0.013528163335577185 0.016900597180455952 0 0.013416266188222305 0.016532095160737788 0 0.013310673572942147 0.016722924862848945 0 0.013583193472635452 0.016840785533433048 0 0.013528163335577185 0.016900597180455952 0 0.01303208271779915 0.016844626576865765 0 0.013310673572942147 0.016722924862848945 0 0.012936445497196214 0.016592317330592302 0 0.013310673572942147 0.016722924862848945 0 0.012936445497196214 0.016592317330592302 0 0.013107666960045214 0.016444140383326127 0 0.0098118239520764618 0.01143237599132174 0 0.0039164087539940847 0.012044962226460076 0 0.0061906341760674562 0.0061983777192353446 0 0.0043178066937676531 0.0064998681014135666 0 0.0043790420236751041 0.0044276980008606543 0 0.01303208271779915 0.016844626576865765 0 0.012936445497196214 0.016592317330592302 0 0.012483243244768632 0.016539065743725694 0 0.003019243097382108 0.0055847189633191569 0 0.0043178066937676531 0.0064998681014135666 0 0.0043790420236751041 0.0044276980008606543 0 -0.0070829365646235378 0.0093214533781587668 0 -0.0055488052468538329 0.0080595837232946207 0 -0.0064359989053969302 0.0071797404664012427 0 -0.0023568087175026048 0.0071107157181824355 0 0.0039164087539940847 0.012044962226460076 0 0.0030678628896675495 0.0068991386167470605 0 0.003019243097382108 0.0055847189633191569 0 0.0043178066937676531 0.0064998681014135666 0 0.0061906341760674562 0.0061983777192353446 0 0.0043178066937676531 0.0064998681014135666 0 0.0054929321323926713 0.0078622084928836877 0 0.0030678628896675495 0.0068991386167470605 0 0.0043178066937676531 0.0064998681014135666 0 0.0037131067995774653 0.0079669119656382223 0 0.0043178066937676531 0.0064998681014135666 0 0.0054929321323926713 0.0078622084928836877 0 0.0037131067995774653 0.0079669119656382223 0 0.0054929321323926713 0.0078622084928836877 0 0.0037131067995774653 0.0079669119656382223 0 0.0043696947073167021 0.0091079951027967267 0 0.0028769711663614857 0.008828732128282368 0 0.0037131067995774653 0.0079669119656382223 0 0.0043696947073167021 0.0091079951027967267 0 0.0026916121815646799 0.0099057076788698732 0 0.0028769711663614857 0.008828732128282368 0 0.0043696947073167021 0.0091079951027967267 0 0.0054929321323926713 0.0078622084928836877 0 0.0043696947073167021 0.0091079951027967267 0 0.0064156462398817339 0.0092393709941797041 0 0.011954523354989708 0.0084443479094798088 0 0.013918214145073004 0.011639521888260469 0 0.0054929321323926713 0.0078622084928836877 0 0.0064156462398817339 0.0092393709941797041 0 0.007961972552296288 0.0079509476768533007 0 0.0061906341760674562 0.0061983777192353446 0 0.0054929321323926713 0.0078622084928836877 0 0.007961972552296288 0.0079509476768533007 0 0.0098118239520764618 0.01143237599132174 0 0.013918214145073004 0.011639521888260469 0 0.013408176109282391 0.016830791588148493 0 0.013452106697284891 0.017004099906501438 0 0.01369756380746457 0.016660787014583154 0 0.017629420037524591 0.010471656435403756 0 0.01761039072142714 0.0091861398122492343 0 0.015396806335342763 0.010318547506844038 0 0.018227305513719812 0.0078858581613497469 0 0.017629420037524591 0.010471656435403756 0 0.01761039072142714 0.0091861398122492343 0 0.013918214145073004 0.011639521888260469 0 0.016336562774814101 0.011049206506680278 0 0.018227305513719812 0.0078858581613497469 0 0.01761039072142714 0.0091861398122492343 0 0.01779039583486448 0.007762494362792324 0 0.01761039072142714 0.0091861398122492343 0 0.01779039583486448 0.007762494362792324 0 0.015396806335342763 0.010318547506844038 0 0.018227305513719812 0.0078858581613497469 0 0.01779039583486448 0.007762494362792324 0 0.018243851004802757 0.0076115732186271641 0 0.01779039583486448 0.007762494362792324 0 0.018198032855352857 0.0074136016639082623 0 0.018177470442169375 0.00720543824275498 0 0.018198032855352857 0.0074136016639082623 0 0.018243851004802757 0.0076115732186271641 0 0.018374965973419716 0.0074735911747611751 0 0.01779039583486448 0.007762494362792324 0 0.018198032855352857 0.0074136016639082623 0 0.018243851004802757 0.0076115732186271641 0 0.018227305513719812 0.0078858581613497469 0 0.018243851004802757 0.0076115732186271641 0 0.016505954353790622 0.0078160552438132774 0 0.018243851004802757 0.0076115732186271641 0 0.018156054441454728 0.0079280005728165036 0 0.016505954353790622 0.0078160552438132774 0 0.018156054441454728 0.0079280005728165036 0 0.018159528590364384 0.0076543054357160537 0 0.018279992694816394 0.0076011945716352568 0 0.017939962266262349 0.0081553711540067846 0 0.018107144456998181 0.0078384945550180642 0 0.018156054441454728 0.0079280005728165036 0 0.018159528590364384 0.0076543054357160537 0 0.018374965973419716 0.0074735911747611751 0 0.018159528590364384 0.0076543054357160537 0 0.018374965973419716 0.0074735911747611751 0 0.01813177963382713 0.007574808185483675 0 0.018374965973419716 0.0074735911747611751 0 0.01839934657981529 0.0071189067028814852 0 0.018689585402890955 0.00648150984917026 0 0.018198032855352857 0.0074136016639082623 0 0.018374965973419716 0.0074735911747611751 0 0.01839934657981529 0.0071189067028814852 0 0.018243851004802757 0.0076115732186271641 0 0.018156054441454728 0.0079280005728165036 0 0.018374965973419716 0.0074735911747611751 0 0.0026916121815646799 0.0099057076788698732 0 0.0043696947073167021 0.0091079951027967267 0 0.0049850275086939198 0.010503574834929249 0 0.0030518052122671113 0.011023611905230201 0 0.0026916121815646799 0.0099057076788698732 0 0.0049850275086939198 0.010503574834929249 0 0.0043696947073167021 0.0091079951027967267 0 0.0064156462398817339 0.0092393709941797041 0 0.0049850275086939198 0.010503574834929249 0 0.011954523354989708 0.0084443479094798088 0 0.012024357914813091 0.0089889216767761772 0 0.018156054441454728 0.0079280005728165036 0 0.016505954353790622 0.0078160552438132774 0 0.017332194795043158 0.0091778782909729007 0 0.016505954353790622 0.0078160552438132774 0 0.016096040705067996 0.009132135831641075 0 0.017332194795043158 0.0091778782909729007 0 0.0030518052122671113 0.011023611905230201 0 0.0033004273578360922 0.012124450100123531 0 0.0049850275086939198 0.010503574834929249 0 0.00049445356960786625 0.0098135723052159233 0 0.012024357914813091 0.0089889216767761772 0 0.013911742239809713 0.0094470041297637034 0 0.016505954353790622 0.0078160552438132774 0 0.016096040705067996 0.009132135831641075 0 0.013911742239809713 0.0094470041297637034 0 0.016096040705067996 0.009132135831641075 0 0.016253428590505249 0.010476720424779148 0 0.00049445356960786625 0.0098135723052159233 0 0.0098383412372443444 0.0064675459744524067 0 -0.0043801185703412704 0.0054542465203791099 0 0.00061489349090556298 0.0082765596687074394 0 -0.0025750659214995369 0.010956138815528198 0 0.018281550734397887 0.0075152487216889451 0 0.018279992694816394 0.0076011945716352568 0 0.018209091984184318 0.0074154549326557679 0 0.016096040705067996 0.009132135831641075 0 0.016253428590505249 0.010476720424779148 0 0.017332194795043158 0.0091778782909729007 0 0.0098383412372443444 0.0064675459744524067 0 0.018107144456998181 0.0078384945550180642 0 0.0045919297117734412 0.0018504947576799969 0 0.0031959855187629138 -1.5919142410363854e-05 0 0.0069425560848212419 -0.0004825969747492201 0 0.0098383412372443444 0.0064675459744524067 0 0.012518551201463342 0.0030963519340201006 0 0.0031226192395459856 -0.0027114637530961613 0 0.0031959855187629138 -1.5919142410363854e-05 0 0.0069425560848212419 -0.0004825969747492201 0 0.0019136310995113886 0.0031425852915397509 0 0.0031959855187629138 -1.5919142410363854e-05 0 0.00041371915274749613 -0.0005112187253041527 0 0.0098383412372443444 0.0064675459744524067 0 -0.0014755114198438458 0.0056403927824493954 0 0.0031226192395459856 -0.0027114637530961613 0 0.0031959855187629138 -1.5919142410363854e-05 0 0.00041371915274749613 -0.0005112187253041527 0 -0.007204535037768695 0.0042046550628943103 0 -0.0014755114198438458 0.0056403927824493954 0 0.018374965973419716 0.0074735911747611751 0 0.019475763587770988 0.0053659307426359463 0 0.018689585402890955 0.00648150984917026 0 0.018374965973419716 0.0074735911747611751 0 0.01813177963382713 0.007574808185483675 0 0.017951495169454015 0.0075176824558540198 0 0.018358554069549195 0.0072168317155849038 0 0.018853345793132918 0.0065740327847149229 0 0.01813177963382713 0.007574808185483675 0 0.018092041758859981 0.0074379056715949878 0 0.017951495169454015 0.0075176824558540198 0 0.018159528590364384 0.0076543054357160537 0 0.018279992694816394 0.0076011945716352568 0 0.01813177963382713 0.007574808185483675 0 0.018279992694816394 0.0076011945716352568 0 0.01813177963382713 0.007574808185483675 0 0.018209091984184318 0.0074154549326557679 0 0.01813177963382713 0.007574808185483675 0 0.018209091984184318 0.0074154549326557679 0 0.018092041758859981 0.0074379056715949878 0 0.010860337330726532 0.0017322934702921951 0 0.007499273166374036 0.0019437428670250928 0 0.0069425560848212419 -0.0004825969747492201 0 0.007499273166374036 0.0019437428670250928 0 0.0045919297117734412 0.0018504947576799969 0 0.0069425560848212419 -0.0004825969747492201 0 0.014275474357299086 0.0045305115506538958 0 0.012518551201463342 0.0030963519340201006 0 0.018040163231470223 0.0072055545132512439 0 0.018092041758859981 0.0074379056715949878 0 0.017951495169454015 0.0075176824558540198 0 0.018040163231470223 0.0072055545132512439 0 0.018209091984184318 0.0074154549326557679 0 0.018092041758859981 0.0074379056715949878 0 0.017759166022801646 0.0044962494098140402 0 0.018853345793132918 0.0065740327847149229 0 0.019475763587770988 0.0053659307426359463 0 0.018645903487678736 0.0056338706896583036 0 0.019227898897977998 0.0046230839988042772 0 0.019989777372193668 0.0034692276375143803 0 0.019475763587770988 0.0053659307426359463 0 0.019227898897977998 0.0046230839988042772 0 0.019475763587770988 0.0053659307426359463 0 0.018645903487678736 0.0056338706896583036 0 0.018689585402890955 0.00648150984917026 0 0.018645903487678736 0.0056338706896583036 0 0.018689585402890955 0.00648150984917026 0 0.018135621805502069 0.0065636353511773528 0 0.018645903487678736 0.0056338706896583036 0 0.017898607202973371 0.005783417326076905 0 0.018135621805502069 0.0065636353511773528 0 0.018645903487678736 0.0056338706896583036 0 0.018529392155544042 0.0046818344214882542 0 0.017898607202973371 0.005783417326076905 0 0.019440220153652474 0.0038304477413141184 0 0.019227898897977998 0.0046230839988042772 0 0.018529392155544042 0.0046818344214882542 0 0.018645903487678736 0.0056338706896583036 0 0.019227898897977998 0.0046230839988042772 0 0.018529392155544042 0.0046818344214882542 0 0.018529392155544042 0.0046818344214882542 0 0.017826388095565755 0.0044658774647230335 0 0.017680711300310823 0.0051948537754167327 0 0.018487370450074276 0.0038258628458651316 0 0.018529392155544042 0.0046818344214882542 0 0.017826388095565755 0.0044658774647230335 0 0.017826388095565755 0.0044658774647230335 0 0.017185275715092499 0.0051075412337057242 0 0.016969447558766837 0.0042824986183327904 0 0.017875183316792966 0.0036866352870484455 0 0.017826388095565755 0.0044658774647230335 0 0.016969447558766837 0.0042824986183327904 0 0.017826388095565755 0.0044658774647230335 0 0.017185275715092499 0.0051075412337057242 0 0.017680711300310823 0.0051948537754167327 0 0.017680711300310823 0.0051948537754167327 0 0.017898607202973371 0.005783417326076905 0 0.017018169201242578 0.0058261434823208063 0 0.017185275715092499 0.0051075412337057242 0 0.017680711300310823 0.0051948537754167327 0 0.017018169201242578 0.0058261434823208063 0 0.018529392155544042 0.0046818344214882542 0 0.017680711300310823 0.0051948537754167327 0 0.017898607202973371 0.005783417326076905 0 0.017898607202973371 0.005783417326076905 0 0.017596126338990877 0.0064649893458832283 0 0.018135621805502069 0.0065636353511773528 0 0.017898607202973371 0.005783417326076905 0 0.017596126338990877 0.0064649893458832283 0 0.017018169201242578 0.0058261434823208063 0 0.017596126338990877 0.0064649893458832283 0 0.017018169201242578 0.0058261434823208063 0 0.016537177625824587 0.0065501458583633633 0 0.016537177625824587 0.0065501458583633633 0 0.017043868846515552 0.0068403337971032867 0 0.01637217336911493 0.0071916338447148859 0 0.017596126338990877 0.0064649893458832283 0 0.016537177625824587 0.0065501458583633633 0 0.017043868846515552 0.0068403337971032867 0 0.017596126338990877 0.0064649893458832283 0 0.017043868846515552 0.0068403337971032867 0 0.017360305956406055 0.007130582426463191 0 0.018005564720281971 0.0071530208256921461 0 0.018177470442169375 0.00720543824275498 0 0.018135621805502069 0.0065636353511773528 0 0.017596126338990877 0.0064649893458832283 0 0.018005564720281971 0.0071530208256921461 0 0.017360305956406055 0.007130582426463191 0 0.01779039583486448 0.007762494362792324 0 0.018005564720281971 0.0071530208256921461 0 0.018177470442169375 0.00720543824275498 0 0.018177470442169375 0.00720543824275498 0 0.01839934657981529 0.0071189067028814852 0 0.018689585402890955 0.00648150984917026 0 0.018177470442169375 0.00720543824275498 0 0.018689585402890955 0.00648150984917026 0 0.018135621805502069 0.0065636353511773528 0 0.018198032855352857 0.0074136016639082623 0 0.018177470442169375 0.00720543824275498 0 0.01839934657981529 0.0071189067028814852 0 0.017596126338990877 0.0064649893458832283 0 0.018005564720281971 0.0071530208256921461 0 0.018135621805502069 0.0065636353511773528 0 0.01490389739436724 0.0046989965680363181 0 0.015289612064618019 0.004850333186455699 0 0.015216945593591401 0.0056552865829942759 0 0.015289612064618019 0.004850333186455699 0 0.014982912839332601 0.0040738878494937462 0 0.015495682929234039 0.0040819887723563212 0 0.01490389739436724 0.0046989965680363181 0 0.015289612064618019 0.004850333186455699 0 0.014982912839332601 0.0040738878494937462 0 0.015289612064618019 0.004850333186455699 0 0.015495682929234039 0.0040819887723563212 0 0.015833614000108236 0.0048901922683255751 0 0.015495682929234039 0.0040819887723563212 0 0.015833614000108236 0.0048901922683255751 0 0.016057466768141852 0.0040654965363505127 0 0.015833614000108236 0.0048901922683255751 0 0.015940987690860227 0.0055628314652835164 0 0.015542019412778586 0.0055448224883210611 0 0.015289612064618019 0.004850333186455699 0 0.015833614000108236 0.0048901922683255751 0 0.015542019412778586 0.0055448224883210611 0 0.015833614000108236 0.0048901922683255751 0 0.016380526120902565 0.0046155362414102711 0 0.016484477458275436 0.0052199231829468127 0 0.015833614000108236 0.0048901922683255751 0 0.016484477458275436 0.0052199231829468127 0 0.015940987690860227 0.0055628314652835164 0 0.016380526120902565 0.0046155362414102711 0 0.016057466768141852 0.0040654965363505127 0 0.016969447558766837 0.0042824986183327904 0 0.015833614000108236 0.0048901922683255751 0 0.016380526120902565 0.0046155362414102711 0 0.016057466768141852 0.0040654965363505127 0 0.017185275715092499 0.0051075412337057242 0 0.016969447558766837 0.0042824986183327904 0 0.016484477458275436 0.0052199231829468127 0 0.016380526120902565 0.0046155362414102711 0 0.016969447558766837 0.0042824986183327904 0 0.016484477458275436 0.0052199231829468127 0 0.017185275715092499 0.0051075412337057242 0 0.017018169201242578 0.0058261434823208063 0 0.016484477458275436 0.0052199231829468127 0 0.017018169201242578 0.0058261434823208063 0 0.016484477458275436 0.0052199231829468127 0 0.016217404885828381 0.0059837325770313093 0 0.017018169201242578 0.0058261434823208063 0 0.016537177625824587 0.0065501458583633633 0 0.016217404885828381 0.0059837325770313093 0 0.016537177625824587 0.0065501458583633633 0 0.016217404885828381 0.0059837325770313093 0 0.01583205424515757 0.0065247480336300323 0 0.016537177625824587 0.0065501458583633633 0 0.01583205424515757 0.0065247480336300323 0 0.015798850999955826 0.0070331885195829089 0 0.016217404885828381 0.0059837325770313093 0 0.01583205424515757 0.0065247480336300323 0 0.015687063184489848 0.0060872856151101603 0 0.01583205424515757 0.0065247480336300323 0 0.015687063184489848 0.0060872856151101603 0 0.015377216478991455 0.0065819363099580931 0 0.016217404885828381 0.0059837325770313093 0 0.015687063184489848 0.0060872856151101603 0 0.015940987690860227 0.0055628314652835164 0 0.016484477458275436 0.0052199231829468127 0 0.016217404885828381 0.0059837325770313093 0 0.015940987690860227 0.0055628314652835164 0 0.015687063184489848 0.0060872856151101603 0 0.015940987690860227 0.0055628314652835164 0 0.015542019412778586 0.0055448224883210611 0 0.015687063184489848 0.0060872856151101603 0 0.015542019412778586 0.0055448224883210611 0 0.01541619783248329 0.0060705601867310187 0 0.015377216478991455 0.0065819363099580931 0 0.01541619783248329 0.0060705601867310187 0 0.015263973263395047 0.0063819835650705354 0 0.015687063184489848 0.0060872856151101603 0 0.015377216478991455 0.0065819363099580931 0 0.01541619783248329 0.0060705601867310187 0 0.015166426513106575 0.0061692575858688656 0 0.015263973263395047 0.0063819835650705354 0 0.015216945593591401 0.0056552865829942759 0 0.01541619783248329 0.0060705601867310187 0 0.015263973263395047 0.0063819835650705354 0 0.015216945593591401 0.0056552865829942759 0 0.015166426513106575 0.0061692575858688656 0 0.015202457955753854 0.006559524607611519 0 0.015263973263395047 0.0063819835650705354 0 0.015289612064618019 0.004850333186455699 0 0.015542019412778586 0.0055448224883210611 0 0.015216945593591401 0.0056552865829942759 0 0.015542019412778586 0.0055448224883210611 0 0.01541619783248329 0.0060705601867310187 0 0.015216945593591401 0.0056552865829942759 0 0.015266172712743976 0.0067282501915681449 0 0.015176208092226076 0.006865424475315041 0 0.015189932074817442 0.0067859715139923739 0 0.015266172712743976 0.0067282501915681449 0 0.015176208092226076 0.006865424475315041 0 0.015223393762206222 0.0067961427326316765 0 0.015073211334258476 0.006956723166990684 0 0.015176208092226076 0.006865424475315041 0 0.015223393762206222 0.0067961427326316765 0 0.015073211334258476 0.006956723166990684 0 0.015176208092226076 0.006865424475315041 0 0.015129512590057277 0.0069595773478155765 0 0.015176208092226076 0.006865424475315041 0 0.015189932074817442 0.0067859715139923739 0 0.015129512590057277 0.0069595773478155765 0 0.015377216478991455 0.0065819363099580931 0 0.015263973263395047 0.0063819835650705354 0 0.015189932074817442 0.0067859715139923739 0 0.015202457955753854 0.006559524607611519 0 0.015263973263395047 0.0063819835650705354 0 0.015189932074817442 0.0067859715139923739 0 0.015377216478991455 0.0065819363099580931 0 0.015192017220488062 0.0069724380225081699 0 0.015396026987583375 0.0069816397695100429 0 0.015377216478991455 0.0065819363099580931 0 0.015189932074817442 0.0067859715139923739 0 0.015192017220488062 0.0069724380225081699 0 0.015192017220488062 0.0069724380225081699 0 0.015055250511535914 0.0071135416842681102 0 0.015122536839362773 0.0072417269735893745 0 0.015192017220488062 0.0069724380225081699 0 0.015129512590057277 0.0069595773478155765 0 0.015055250511535914 0.0071135416842681102 0 0.015189932074817442 0.0067859715139923739 0 0.015192017220488062 0.0069724380225081699 0 0.015129512590057277 0.0069595773478155765 0 0.015073211334258476 0.006956723166990684 0 0.015129512590057277 0.0069595773478155765 0 0.015055250511535914 0.0071135416842681102 0 0.015073211334258476 0.006956723166990684 0 0.015055250511535914 0.0071135416842681102 0 0.014963680878305638 0.0070675033013569127 0 0.015055250511535914 0.0071135416842681102 0 0.014946976125894294 0.0073236282339991816 0 0.014963680878305638 0.0070675033013569127 0 0.015055250511535914 0.0071135416842681102 0 0.015122536839362773 0.0072417269735893745 0 0.014946976125894294 0.0073236282339991816 0 0.015038081343547418 0.0074610211488572538 0 0.014846435019036311 0.0078600035425241827 0 0.014946976125894294 0.0073236282339991816 0 0.015038081343547418 0.0074610211488572538 0 0.015122536839362773 0.0072417269735893745 0 0.014946976125894294 0.0073236282339991816 0 0.015038081343547418 0.0074610211488572538 0 0.015278830305505602 0.0073696886492379838 0 0.014846435019036311 0.0078600035425241827 0 0.015038081343547418 0.0074610211488572538 0 0.015278830305505602 0.0073696886492379838 0 0.015122536839362773 0.0072417269735893745 0 0.015278830305505602 0.0073696886492379838 0 0.015122536839362773 0.0072417269735893745 0 0.015396026987583375 0.0069816397695100429 0 0.01583205424515757 0.0065247480336300323 0 0.015377216478991455 0.0065819363099580931 0 0.015396026987583375 0.0069816397695100429 0 0.01583205424515757 0.0065247480336300323 0 0.015396026987583375 0.0069816397695100429 0 0.015798850999955826 0.0070331885195829089 0 0.015192017220488062 0.0069724380225081699 0 0.015122536839362773 0.0072417269735893745 0 0.015396026987583375 0.0069816397695100429 0 0.015278830305505602 0.0073696886492379838 0 0.015396026987583375 0.0069816397695100429 0 0.015798850999955826 0.0070331885195829089 0 0.015278830305505602 0.0073696886492379838 0 0.015798850999955826 0.0070331885195829089 0 0.01569472511524499 0.0074915768920333931 0 0.015798850999955826 0.0070331885195829089 0 0.01569472511524499 0.0074915768920333931 0 0.01637217336911493 0.0071916338447148859 0 0.01569472511524499 0.0074915768920333931 0 0.014846435019036311 0.0078600035425241827 0 0.016366784691301171 0.0080151327718714811 0 0.015278830305505602 0.0073696886492379838 0 0.01569472511524499 0.0074915768920333931 0 0.014846435019036311 0.0078600035425241827 0 0.0078912436034758397 0.01747117128738479 0 0.0079018311085853471 0.018095054296295879 0 0.0085604286801906158 0.017416175809155096 0 0.0078912436034758397 0.01747117128738479 0 0.0079018311085853471 0.018095054296295879 0 0.007938572900565679 0.017649180358870711 0 0.0079018311085853471 0.018095054296295879 0 0.0078367088293743899 0.019112842209340741 0 0.0083975811445345678 0.018545006939128906 0 0.0078367088293743899 0.019112842209340741 0 0.0075437532165449081 0.018681742339963465 0 0.0071213182225065823 0.020574369569403967 0 0.0079018311085853471 0.018095054296295879 0 0.0078367088293743899 0.019112842209340741 0 0.0075437532165449081 0.018681742339963465 0 0.0079018311085853471 0.018095054296295879 0 0.0075437532165449081 0.018681742339963465 0 0.007938572900565679 0.017649180358870711 0 0.0075437532165449081 0.018681742339963465 0 0.0073064025691763511 0.018535288858892433 0 0.007938572900565679 0.017649180358870711 0 0.0082060552911637549 0.017573839332749856 0 0.0070882969568979715 0.017975535474178853 0 0.0073064025691763511 0.018535288858892433 0 0.007938572900565679 0.017649180358870711 0 0.0066222112932540931 0.018402296464844231 0 0.0075437532165449081 0.018681742339963465 0 0.0073064025691763511 0.018535288858892433 0 0.0074599648776499106 0.019002550079455314 0 0.0078912436034758397 0.01747117128738479 0 0.007938572900565679 0.017649180358870711 0 0.0087682025426455822 0.017596828936806135 0 0.014846435019036311 0.0078600035425241827 0 0.014946976125894294 0.0073236282339991816 0 0.014780309859241145 0.0069408780251466635 0 0.011479345573504277 0.012635939826460859 0 0.011701922470360872 0.011949175997479895 0 0.007938572900565679 0.017649180358870711 0 0.0087682025426455822 0.017596828936806135 0 0.0089252468101458718 0.017212706296481008 0 0.014946976125894294 0.0073236282339991816 0 0.014963680878305638 0.0070675033013569127 0 0.014780309859241145 0.0069408780251466635 0 0.015073211334258476 0.006956723166990684 0 0.014963680878305638 0.0070675033013569127 0 0.014997104898973119 0.0068959613193496283 0 0.014963680878305638 0.0070675033013569127 0 0.014997104898973119 0.0068959613193496283 0 0.014780309859241145 0.0069408780251466635 0 0.014997104898973119 0.0068959613193496283 0 0.014780309859241145 0.0069408780251466635 0 0.015103869283973866 0.0066274611224419657 0 0.0073064025691763511 0.018535288858892433 0 0.0068589683814823778 0.018726608022359124 0 0.0071017247434974609 0.019061113953613183 0 0.0073064025691763511 0.018535288858892433 0 0.0068589683814823778 0.018726608022359124 0 0.0066222112932540931 0.018402296464844231 0 0.0068589683814823778 0.018726608022359124 0 0.0066222112932540931 0.018402296464844231 0 0.0064566996482432106 0.01885784732401178 0 0.010653575316624675 0.016840498450953315 0 0.0087682025426455822 0.017596828936806135 0 0.0089252468101458718 0.017212706296481008 0 0.010653575316624675 0.016840498450953315 0 0.0089252468101458718 0.017212706296481008 0 0.010414570404260323 0.016579576206241349 0 0.015295664284925696 0.0060786484268001159 0 0.014780309859241145 0.0069408780251466635 0 0.015103869283973866 0.0066274611224419657 0 0.0066222112932540931 0.018402296464844231 0 0.0064566996482432106 0.01885784732401178 0 0.0059736905658451054 0.018784877777973569 0 0.0070882969568979715 0.017975535474178853 0 0.011868380542172305 0.017627065571964601 0 0.013876686967019769 0.013590461787049575 0 0.011701922470360872 0.011949175997479895 0 0.015295664284925696 0.0060786484268001159 0 0.015247110041539808 0.0064499512575884477 0 0.015103869283973866 0.0066274611224419657 0 0.015345749826281511 0.0064945847317398799 0 0.015247110041539808 0.0064499512575884477 0 0.015228530761441652 0.0066567463585894609 0 0.015228530761441652 0.0066567463585894609 0 0.015103869283973866 0.0066274611224419657 0 0.015111939435176323 0.006792659406084001 0 0.015247110041539808 0.0064499512575884477 0 0.015228530761441652 0.0066567463585894609 0 0.015103869283973866 0.0066274611224419657 0 0.014997104898973119 0.0068959613193496283 0 0.015103869283973866 0.0066274611224419657 0 0.015111939435176323 0.006792659406084001 0 0.015073211334258476 0.006956723166990684 0 0.015111939435176323 0.006792659406084001 0 0.015223393762206222 0.0067961427326316765 0 0.015073211334258476 0.006956723166990684 0 0.014997104898973119 0.0068959613193496283 0 0.015111939435176323 0.006792659406084001 0 0.015228530761441652 0.0066567463585894609 0 0.015111939435176323 0.006792659406084001 0 0.015223393762206222 0.0067961427326316765 0 0.011935438887475561 0.015227021131184652 0 0.011572423887147364 0.012085578857698948 0 0.010449831858341321 0.015542582206353118 0 0.011935438887475561 0.015227021131184652 0 0.013328017677713487 0.013563840662409326 0 0.011572423887147364 0.012085578857698948 0 0.011935438887475561 0.015227021131184652 0 0.010449831858341321 0.015542582206353118 0 0.01064830151421905 0.017325116254294785 0 0.011935438887475561 0.015227021131184652 0 0.013206399026262559 0.015395949903471023 0 0.012650842437217489 0.016801978352070986 0 0.011935438887475561 0.015227021131184652 0 0.013206399026262559 0.015395949903471023 0 0.013328017677713487 0.013563840662409326 0 0.013206399026262559 0.015395949903471023 0 0.014907794190090265 0.013943271547334695 0 0.01369756380746457 0.016660787014583154 0 0.018084018663378835 0.013834814133895925 0 0.014907794190090265 0.013943271547334695 0 0.01369756380746457 0.016660787014583154 0 0.013918214145073004 0.011639521888260469 0 0.013891956431411718 0.017104433170272909 0 0.018084018663378835 0.013834814133895925 0 0.014907794190090265 0.013943271547334695 0 0.015396806335342763 0.010318547506844038 0 0.013206399026262559 0.015395949903471023 0 0.014907794190090265 0.013943271547334695 0 0.013328017677713487 0.013563840662409326 0 0.013328017677713487 0.013563840662409326 0 0.015396806335342763 0.010318547506844038 0 0.011572423887147364 0.012085578857698948 0 0.017723686710626775 0.0078869110158208758 0 0.014905198321818965 0.0097355354874275237 0 0.01779039583486448 0.007762494362792324 0 0.015396806335342763 0.010318547506844038 0 0.011572423887147364 0.012085578857698948 0 0.01779039583486448 0.007762494362792324 0 0.018005564720281971 0.0071530208256921461 0 0.017952528015501942 0.007450038390360421 0 0.014907794190090265 0.013943271547334695 0 0.013328017677713487 0.013563840662409326 0 0.015396806335342763 0.010318547506844038 0 0.018005564720281971 0.0071530208256921461 0 0.017952528015501942 0.007450038390360421 0 0.017360305956406055 0.007130582426463191 0 0.017043868846515552 0.0068403337971032867 0 0.017360305956406055 0.007130582426463191 0 0.01637217336911493 0.0071916338447148859 0 0.017360305956406055 0.007130582426463191 0 0.01637217336911493 0.0071916338447148859 0 0.016366784691301171 0.0080151327718714811 0 0.017952528015501942 0.007450038390360421 0 0.017360305956406055 0.007130582426463191 0 0.016366784691301171 0.0080151327718714811 0 0.016537177625824587 0.0065501458583633633 0 0.015798850999955826 0.0070331885195829089 0 0.01637217336911493 0.0071916338447148859 0 0.01569472511524499 0.0074915768920333931 0 0.01637217336911493 0.0071916338447148859 0 0.016366784691301171 0.0080151327718714811 0 0.0078912436034758397 0.01747117128738479 0 0.0090050423730263385 0.015583968027052955 0 0.0085604286801906158 0.017416175809155096 0 0.011479345573504277 0.012635939826460859 0 0.012754724969224236 0.011699551628693964 0 0.0090050423730263385 0.015583968027052955 0 0.0095440035657021697 0.016745518311256105 0 0.0085604286801906158 0.017416175809155096 0 0.014905198321818965 0.0097355354874275237 0 0.012754724969224236 0.011699551628693964 0 0.011572423887147364 0.012085578857698948 0 0.0090050423730263385 0.015583968027052955 0 0.010449831858341321 0.015542582206353118 0 0.0090050423730263385 0.015583968027052955 0 0.010449831858341321 0.015542582206353118 0 0.0095440035657021697 0.016745518311256105 0 0.010449831858341321 0.015542582206353118 0 0.0095440035657021697 0.016745518311256105 0 0.01064830151421905 0.017325116254294785 0 0.0095440035657021697 0.016745518311256105 0 0.0093140030127325923 0.018041564257515953 0 0.01064830151421905 0.017325116254294785 0 0.0095440035657021697 0.016745518311256105 0 0.0093140030127325923 0.018041564257515953 0 0.0085604286801906158 0.017416175809155096 0 0.0093140030127325923 0.018041564257515953 0 0.010124241952538499 0.019266182819508034 0 0.01064830151421905 0.017325116254294785 0 0.0093140030127325923 0.018041564257515953 0 0.0085604286801906158 0.017416175809155096 0 0.0083975811445345678 0.018545006939128906 0 0.0079018311085853471 0.018095054296295879 0 0.0085604286801906158 0.017416175809155096 0 0.0083975811445345678 0.018545006939128906 0 0.0093140030127325923 0.018041564257515953 0 0.0083975811445345678 0.018545006939128906 0 0.0090138440311340849 0.019211666124382864 0 0.0090138440311340849 0.019211666124382864 0 0.0089251191640801909 0.02039816029683103 0 0.0082675394329223845 0.019994668453948351 0 0.0083975811445345678 0.018545006939128906 0 0.0090138440311340849 0.019211666124382864 0 0.0082675394329223845 0.019994668453948351 0 0.0078367088293743899 0.019112842209340741 0 0.0083975811445345678 0.018545006939128906 0 0.0082675394329223845 0.019994668453948351 0 0.0093140030127325923 0.018041564257515953 0 0.010124241952538499 0.019266182819508034 0 0.0090138440311340849 0.019211666124382864 0 0.0090138440311340849 0.019211666124382864 0 0.0097283255265943024 0.020708665995956853 0 0.0089251191640801909 0.02039816029683103 0 0.010124241952538499 0.019266182819508034 0 0.0090138440311340849 0.019211666124382864 0 0.0097283255265943024 0.020708665995956853 0 0.010124241952538499 0.019266182819508034 0 0.010305045690800417 0.020228917176432597 0 0.0097283255265943024 0.020708665995956853 0 0.010124241952538499 0.019266182819508034 0 0.010305045690800417 0.020228917176432597 0 0.011053404750523022 0.019954084138755185 0 0.010305045690800417 0.020228917176432597 0 0.011053404750523022 0.019954084138755185 0 0.010497608411269954 0.021029558174740677 0 0.011053404750523022 0.019954084138755185 0 0.011347224412707834 0.018657980730249532 0 0.012183562644691616 0.019543674280859537 0 0.010124241952538499 0.019266182819508034 0 0.011053404750523022 0.019954084138755185 0 0.011347224412707834 0.018657980730249532 0 0.010124241952538499 0.019266182819508034 0 0.011347224412707834 0.018657980730249532 0 0.01064830151421905 0.017325116254294785 0 0.011347224412707834 0.018657980730249532 0 0.012650842437217489 0.016801978352070986 0 0.01064830151421905 0.017325116254294785 0 0.011935438887475561 0.015227021131184652 0 0.012650842437217489 0.016801978352070986 0 0.01064830151421905 0.017325116254294785 0 0.012650842437217489 0.016801978352070986 0 0.013583193472635452 0.016840785533433048 0 0.013528163335577185 0.016900597180455952 0 0.012612977979592847 0.017034888246536477 0 0.012754946097551498 0.0174553379330382 0 0.013408176109282391 0.016830791588148493 0 0.01369756380746457 0.016660787014583154 0 0.013583193472635452 0.016840785533433048 0 0.011347224412707834 0.018657980730249532 0 0.012650842437217489 0.016801978352070986 0 0.012183562644691616 0.019543674280859537 0 0.013206399026262559 0.015395949903471023 0 0.012650842437217489 0.016801978352070986 0 0.01369756380746457 0.016660787014583154 0 0.012650842437217489 0.016801978352070986 0 0.01369756380746457 0.016660787014583154 0 0.013583193472635452 0.016840785533433048 0 0.012754946097551498 0.0174553379330382 0 0.0097765455692811927 0.023727321132973163 0 0.011053404750523022 0.019954084138755185 0 0.012183562644691616 0.019543674280859537 0 0.011108331129611741 0.020913275939614215 0 0.012183562644691616 0.019543674280859537 0 0.011108331129611741 0.020913275939614215 0 0.011281860065417612 0.02193789633684072 0 0.012183562644691616 0.019543674280859537 0 0.011281860065417612 0.02193789633684072 0 0.012042267589238565 0.021963324722450772 0 0.011108331129611741 0.020913275939614215 0 0.010620977364013141 0.02194128659353518 0 0.011281860065417612 0.02193789633684072 0 0.010620977364013141 0.02194128659353518 0 0.010700615069375525 0.022493057411117616 0 0.011281860065417612 0.02193789633684072 0 0.010620977364013141 0.02194128659353518 0 0.010700615069375525 0.022493057411117616 0 0.010225533785782106 0.022574676085396306 0 0.010994032259210347 0.022356523007972494 0 0.01067700883487053 0.022847946764189806 0 0.011203170959832576 0.022196294928059683 0 0.011281860065417612 0.02193789633684072 0 0.010994032259210347 0.022356523007972494 0 0.011203170959832576 0.022196294928059683 0 0.011039618527378425 0.023143543433011865 0 0.0097765455692811927 0.023727321132973163 0 0.010700615069375525 0.022493057411117616 0 0.010994032259210347 0.022356523007972494 0 0.01067700883487053 0.022847946764189806 0 0.010700615069375525 0.022493057411117616 0 0.011281860065417612 0.02193789633684072 0 0.010994032259210347 0.022356523007972494 0 0.01067700883487053 0.022847946764189806 0 0.01014408650162495 0.023637682065387373 0 0.010328318434231798 0.02353214156341361 0 0.01067700883487053 0.022847946764189806 0 0.010278369247635012 0.023081713157939072 0 0.01014408650162495 0.023637682065387373 0 0.010700615069375525 0.022493057411117616 0 0.01067700883487053 0.022847946764189806 0 0.010278369247635012 0.023081713157939072 0 0.010278369247635012 0.023081713157939072 0 0.0098933481066289485 0.023240161875713324 0 0.010225533785782106 0.022574676085396306 0 0.010700615069375525 0.022493057411117616 0 0.010278369247635012 0.023081713157939072 0 0.010225533785782106 0.022574676085396306 0 0.010278369247635012 0.023081713157939072 0 0.0099696597213644999 0.023593890655968557 0 0.0098933481066289485 0.023240161875713324 0 0.0099696597213644999 0.023593890655968557 0 0.0098933481066289485 0.023240161875713324 0 0.0097386571098359107 0.023809519360734409 0 0.0099696597213644999 0.023593890655968557 0 0.01014408650162495 0.023637682065387373 0 0.0097240580620068622 0.024143176984672055 0 0.010278369247635012 0.023081713157939072 0 0.0099696597213644999 0.023593890655968557 0 0.01014408650162495 0.023637682065387373 0 0.00954233144164187 0.023130006927247412 0 0.0098933481066289485 0.023240161875713324 0 0.0097769027065182455 0.022581175647438157 0 0.00954233144164187 0.023130006927247412 0 0.0097769027065182455 0.022581175647438157 0 0.0092614491778168807 0.022570997039435187 0 0.00954233144164187 0.023130006927247412 0 0.0098933481066289485 0.023240161875713324 0 0.0095637015912452931 0.023666624887641735 0 0.010225533785782106 0.022574676085396306 0 0.0097769027065182455 0.022581175647438157 0 0.010091385376287778 0.021891548233823867 0 0.0098933481066289485 0.023240161875713324 0 0.010225533785782106 0.022574676085396306 0 0.0097769027065182455 0.022581175647438157 0 0.0097769027065182455 0.022581175647438157 0 0.010091385376287778 0.021891548233823867 0 0.0095719373603291805 0.021953381904833209 0 0.010091385376287778 0.021891548233823867 0 0.0097283255265943024 0.020708665995956853 0 0.0095719373603291805 0.021953381904833209 0 0.010620977364013141 0.02194128659353518 0 0.010091385376287778 0.021891548233823867 0 0.010497608411269954 0.021029558174740677 0 0.010620977364013141 0.02194128659353518 0 0.010225533785782106 0.022574676085396306 0 0.010091385376287778 0.021891548233823867 0 0.011053404750523022 0.019954084138755185 0 0.011108331129611741 0.020913275939614215 0 0.010497608411269954 0.021029558174740677 0 0.011108331129611741 0.020913275939614215 0 0.010620977364013141 0.02194128659353518 0 0.010497608411269954 0.021029558174740677 0 0.010305045690800417 0.020228917176432597 0 0.010497608411269954 0.021029558174740677 0 0.0097283255265943024 0.020708665995956853 0 0.010091385376287778 0.021891548233823867 0 0.010497608411269954 0.021029558174740677 0 0.0097283255265943024 0.020708665995956853 0 0.0097283255265943024 0.020708665995956853 0 0.0089251191640801909 0.02039816029683103 0 0.0091560937091655688 0.021417316433169294 0 0.0091560937091655688 0.021417316433169294 0 0.0085461564429045612 0.021089551143660297 0 0.0088002115744800317 0.022048788693795753 0 0.0089251191640801909 0.02039816029683103 0 0.0091560937091655688 0.021417316433169294 0 0.0085461564429045612 0.021089551143660297 0 0.0097283255265943024 0.020708665995956853 0 0.0091560937091655688 0.021417316433169294 0 0.0095719373603291805 0.021953381904833209 0 0.0089251191640801909 0.02039816029683103 0 0.0082675394329223845 0.019994668453948351 0 0.0085461564429045612 0.021089551143660297 0 0.0082675394329223845 0.019994668453948351 0 0.0085461564429045612 0.021089551143660297 0 0.0079362964027981063 0.021334882423926331 0 0.0085461564429045612 0.021089551143660297 0 0.0079362964027981063 0.021334882423926331 0 0.0082586561447025725 0.022299419336324181 0 0.0079362964027981063 0.021334882423926331 0 0.0082586561447025725 0.022299419336324181 0 0.0071374701458630152 0.022509711740644023 0 0.0085461564429045612 0.021089551143660297 0 0.0082586561447025725 0.022299419336324181 0 0.0088002115744800317 0.022048788693795753 0 0.0082586561447025725 0.022299419336324181 0 0.0088002115744800317 0.022048788693795753 0 0.0087750175919879859 0.023132081397517421 0 0.0082586561447025725 0.022299419336324181 0 0.0087750175919879859 0.023132081397517421 0 0.0081623808154041178 0.023186587284474355 0 0.0082586561447025725 0.022299419336324181 0 0.0081623808154041178 0.023186587284474355 0 0.0071374701458630152 0.022509711740644023 0 0.0091560937091655688 0.021417316433169294 0 0.0095719373603291805 0.021953381904833209 0 0.0092614491778168807 0.022570997039435187 0 0.0097769027065182455 0.022581175647438157 0 0.0095719373603291805 0.021953381904833209 0 0.0092614491778168807 0.022570997039435187 0 0.0091560937091655688 0.021417316433169294 0 0.0088002115744800317 0.022048788693795753 0 0.0092614491778168807 0.022570997039435187 0 0.0088002115744800317 0.022048788693795753 0 0.0092614491778168807 0.022570997039435187 0 0.0087750175919879859 0.023132081397517421 0 0.00954233144164187 0.023130006927247412 0 0.0092614491778168807 0.022570997039435187 0 0.0092579460945401756 0.02339651290409275 0 0.0092614491778168807 0.022570997039435187 0 0.0092579460945401756 0.02339651290409275 0 0.0087750175919879859 0.023132081397517421 0 0.0092579460945401756 0.02339651290409275 0 0.0087750175919879859 0.023132081397517421 0 0.0090162574225877545 0.023843874503797734 0 0.0087750175919879859 0.023132081397517421 0 0.0090162574225877545 0.023843874503797734 0 0.0085503875035685181 0.023797829986104971 0 0.0090162574225877545 0.023843874503797734 0 0.0091410573049744981 0.024305968097558202 0 0.0093311687035997105 0.024009003716098504 0 0.0092579460945401756 0.02339651290409275 0 0.0090162574225877545 0.023843874503797734 0 0.0093311687035997105 0.024009003716098504 0 0.0087750175919879859 0.023132081397517421 0 0.0081623808154041178 0.023186587284474355 0 0.0085503875035685181 0.023797829986104971 0 0.0081623808154041178 0.023186587284474355 0 0.0085503875035685181 0.023797829986104971 0 0.0078289594080740346 0.023943792425597209 0 0.0084701884821337808 0.024242721029379154 0 0.0078289594080740346 0.023943792425597209 0 0.008474064111560339 0.024609759892285664 0 0.0082066688103088221 0.024322900208062277 0 0.0083897808257786914 0.024466825718802734 0 0.0085503875035685181 0.023797829986104971 0 0.0084701884821337808 0.024242721029379154 0 0.0078289594080740346 0.023943792425597209 0 0.0085503875035685181 0.023797829986104971 0 0.0084701884821337808 0.024242721029379154 0 0.0088446940157445291 0.024222501358306451 0 0.0084701884821337808 0.024242721029379154 0 0.0086861588921176829 0.024453817611801789 0 0.008474064111560339 0.024609759892285664 0 0.0090162574225877545 0.023843874503797734 0 0.0088446940157445291 0.024222501358306451 0 0.0091410573049744981 0.024305968097558202 0 0.0090162574225877545 0.023843874503797734 0 0.0085503875035685181 0.023797829986104971 0 0.0088446940157445291 0.024222501358306451 0 0.0088446940157445291 0.024222501358306451 0 0.0086861588921176829 0.024453817611801789 0 0.0089994480513504466 0.024515799214588452 0 0.0084701884821337808 0.024242721029379154 0 0.0088446940157445291 0.024222501358306451 0 0.0086861588921176829 0.024453817611801789 0 0.0088446940157445291 0.024222501358306451 0 0.0089994480513504466 0.024515799214588452 0 0.0091410573049744981 0.024305968097558202 0 0.0091410573049744981 0.024305968097558202 0 0.0092885528168550266 0.024386962139914516 0 0.0091693151254451325 0.024601836389189086 0 0.0089994480513504466 0.024515799214588452 0 0.0091410573049744981 0.024305968097558202 0 0.0091693151254451325 0.024601836389189086 0 0.0091410573049744981 0.024305968097558202 0 0.0092885528168550266 0.024386962139914516 0 0.0093311687035997105 0.024009003716098504 0 0.0092885528168550266 0.024386962139914516 0 0.009240395127726217 0.024608313884328721 0 0.0094891625246875926 0.024243749213954214 0 0.0092885528168550266 0.024386962139914516 0 0.0091693151254451325 0.024601836389189086 0 0.009240395127726217 0.024608313884328721 0 0.0091693151254451325 0.024601836389189086 0 0.0089527706945814311 0.024789630919185245 0 0.009240395127726217 0.024608313884328721 0 0.0089527706945814311 0.024789630919185245 0 0.009229363670941208 0.024763461372445322 0 0.0087320271801200056 0.025053256585377087 0 0.0089527706945814311 0.024789630919185245 0 0.009229363670941208 0.024763461372445322 0 0.009240395127726217 0.024608313884328721 0 0.009229363670941208 0.024763461372445322 0 0.009240395127726217 0.024608313884328721 0 0.0094891625246875926 0.024243749213954214 0 0.009229363670941208 0.024763461372445322 0 0.0094891625246875926 0.024243749213954214 0 0.0097240580620068622 0.024143176984672055 0 0.009229363670941208 0.024763461372445322 0 0.0097240580620068622 0.024143176984672055 0 0.0094899803903839616 0.02458580845040351 0 0.01014408650162495 0.023637682065387373 0 0.0097240580620068622 0.024143176984672055 0 0.0097833215550207249 0.02422088020718384 0 0.0097240580620068622 0.024143176984672055 0 0.0097833215550207249 0.02422088020718384 0 0.0094899803903839616 0.02458580845040351 0 0.0099696597213644999 0.023593890655968557 0 0.0097240580620068622 0.024143176984672055 0 0.0097386571098359107 0.023809519360734409 0 0.0094891625246875926 0.024243749213954214 0 0.0097240580620068622 0.024143176984672055 0 0.0097386571098359107 0.023809519360734409 0 0.0098933481066289485 0.023240161875713324 0 0.0097386571098359107 0.023809519360734409 0 0.0095637015912452931 0.023666624887641735 0 0.0094891625246875926 0.024243749213954214 0 0.0097386571098359107 0.023809519360734409 0 0.0095637015912452931 0.023666624887641735 0 0.0092579460945401756 0.02339651290409275 0 0.0095637015912452931 0.023666624887641735 0 0.0093311687035997105 0.024009003716098504 0 0.00954233144164187 0.023130006927247412 0 0.0092579460945401756 0.02339651290409275 0 0.0095637015912452931 0.023666624887641735 0 0.0092885528168550266 0.024386962139914516 0 0.0094891625246875926 0.024243749213954214 0 0.0093311687035997105 0.024009003716098504 0 0.0094891625246875926 0.024243749213954214 0 0.0095637015912452931 0.023666624887641735 0 0.0093311687035997105 0.024009003716098504 0 0.014474067128707212 0.019683855406946983 0 0.014702904822585988 0.019223887124703541 0 0.014773976866513319 0.019853780587501917 0 0.014292925807189404 0.019286650478951173 0 0.014474067128707212 0.019683855406946983 0 0.014702904822585988 0.019223887124703541 0 0.014292925807189404 0.019286650478951173 0 0.014346828155706256 0.018816014837617339 0 0.014702904822585988 0.019223887124703541 0 0.011868380542172305 0.017627065571964601 0 0.01045239921768441 0.019345850258323471 0 0.0064566996482432106 0.01885784732401178 0 0.0059736905658451054 0.018784877777973569 0 0.0064520934560825804 0.019378057482746836 0 0.0064520934560825804 0.019378057482746836 0 0.0073675263389450119 0.019534002902796346 0 0.0071017247434974609 0.019061113953613183 0 0.0068589683814823778 0.018726608022359124 0 0.0064566996482432106 0.01885784732401178 0 0.0071017247434974609 0.019061113953613183 0 0.0064566996482432106 0.01885784732401178 0 0.0064520934560825804 0.019378057482746836 0 0.0071017247434974609 0.019061113953613183 0 0.0064520934560825804 0.019378057482746836 0 0.0070075061072927408 0.020017152985154156 0 0.0073675263389450119 0.019534002902796346 0 0.014702904822585988 0.019223887124703541 0 0.015045447005599783 0.01967113827063284 0 0.014773976866513319 0.019853780587501917 0 0.01045239921768441 0.019345850258323471 0 0.011147347050234718 0.01973054774745106 0 0.0075448893819590164 0.020066315339156319 0 0.0073675263389450119 0.019534002902796346 0 0.0081047340892085647 0.019970905399023017 0 0.0070075061072927408 0.020017152985154156 0 0.0075448893819590164 0.020066315339156319 0 0.0073675263389450119 0.019534002902796346 0 0.0075437532165449081 0.018681742339963465 0 0.0074599648776499106 0.019002550079455314 0 0.0078680877022189958 0.019264214208850591 0 0.0073675263389450119 0.019534002902796346 0 0.0071017247434974609 0.019061113953613183 0 0.0074599648776499106 0.019002550079455314 0 0.0073064025691763511 0.018535288858892433 0 0.0071017247434974609 0.019061113953613183 0 0.0074599648776499106 0.019002550079455314 0 0.0073675263389450119 0.019534002902796346 0 0.0074599648776499106 0.019002550079455314 0 0.0078680877022189958 0.019264214208850591 0 0.0074991388213186795 0.018992000861109137 0 0.0075015045767889733 0.019749691862688143 0 0.0078367088293743899 0.019112842209340741 0 0.0082675394329223845 0.019994668453948351 0 0.0071213182225065823 0.020574369569403967 0 0.0082675394329223845 0.019994668453948351 0 0.0079362964027981063 0.021334882423926331 0 0.0071213182225065823 0.020574369569403967 0 0.0077911345317386383 0.021612611303433591 0 0.0078041830158088058 0.022006254723749192 0 0.0073675263389450119 0.019534002902796346 0 0.0078680877022189958 0.019264214208850591 0 0.0081047340892085647 0.019970905399023017 0 0.0075015045767889733 0.019749691862688143 0 0.0078041830158088058 0.022006254723749192 0 0.0079362964027981063 0.021334882423926331 0 0.0071213182225065823 0.020574369569403967 0 0.0073682258779375264 0.021995358979799522 0 0.0078041830158088058 0.022006254723749192 0 0.0093445669739846589 0.0223615307872988 0 0.0075448893819590164 0.020066315339156319 0 0.0081047340892085647 0.019970905399023017 0 0.0075742382626853297 0.020657568723755723 0 0.0081623808154041178 0.023186587284474355 0 0.0071374701458630152 0.022509711740644023 0 0.0078289594080740346 0.023943792425597209 0 0.0083875261575859627 0.023885791450591706 0 0.0083382522943166813 0.024168704614388858 0 0.0084986720195400645 0.024322984887264254 0 0.0083875261575859627 0.023885791450591706 0 0.0083382522943166813 0.024168704614388858 0 0.0081201707050736188 0.024235399729368556 0 0.0078041830158088058 0.022006254723749192 0 0.0082066688103088221 0.024322900208062277 0 0.0083382522943166813 0.024168704614388858 0 0.0084986720195400645 0.024322984887264254 0 0.008399325415788618 0.024524021332053642 0 0.0083382522943166813 0.024168704614388858 0 0.008399325415788618 0.024524021332053642 0 0.0081201707050736188 0.024235399729368556 0 0.0084986720195400645 0.024322984887264254 0 0.008399325415788618 0.024524021332053642 0 0.008474064111560339 0.024609759892285664 0 0.008399325415788618 0.024524021332053642 0 0.0084053622611112346 0.024518792551682361 0 0.008383071071003818 0.024557031647491151 0 0.008399325415788618 0.024524021332053642 0 0.0084053622611112346 0.024518792551682361 0 0.0084048274618698238 0.024526923327354313 0 0.008426993180914855 0.024858978949914567 0 0.0093445669739846589 0.0223615307872988 0 0.008383071071003818 0.024557031647491151 0 0.0083834483311093846 0.024539869860015707 0 0.0083762785110979773 0.02458973029273823 0 0.0084053622611112346 0.024518792551682361 0 0.008383071071003818 0.024557031647491151 0 0.0083834483311093846 0.024539869860015707 0 0.0084053622611112346 0.024518792551682361 0 0.0084859204847698797 0.024487617448167086 0 0.0084048274618698238 0.024526923327354313 0 0.011509585417974828 0.022814240051568766 0 0.0093445669739846589 0.0223615307872988 0 0.0081808756060486581 0.02459299004285271 0 0.011509585417974828 0.022814240051568766 0 0.015171430895731707 0.020319364753311843 0 0.01534303993215419 0.020089145865474004 0 0.015034855882459697 0.020035304296589614 0 0.015045447005599783 0.01967113827063284 0 0.01534303993215419 0.020089145865474004 0 0.015034855882459697 0.020035304296589614 0 0.0070075061072927408 0.020017152985154156 0 0.0075448893819590164 0.020066315339156319 0 0.0075742382626853297 0.020657568723755723 0 0.011147347050234718 0.01973054774745106 0 0.0093445669739846589 0.0223615307872988 0 0.015045447005599783 0.01967113827063284 0 0.014773976866513319 0.019853780587501917 0 0.015034855882459697 0.020035304296589614 0 0.014773976866513319 0.019853780587501917 0 0.015034855882459697 0.020035304296589614 0 0.014821018815345083 0.020228648084767056 0 0.015171430895731707 0.020319364753311843 0 0.014821018815345083 0.020228648084767056 0 0.014594083060849404 0.020697801943753983 0 0.015171430895731707 0.020319364753311843 0 0.015034855882459697 0.020035304296589614 0 0.014821018815345083 0.020228648084767056 0 0.011509585417974828 0.022814240051568766 0 0.013959604924020493 0.023219454416860828 0 0.011509585417974828 0.022814240051568766 0 0.010602260323665087 0.026910043024970409 0 0.014821018815345083 0.020228648084767056 0 0.014577616720483419 0.020381521164359873 0 0.014594083060849404 0.020697801943753983 0 0.014821018815345083 0.020228648084767056 0 0.014577616720483419 0.020381521164359873 0 0.014558023403508964 0.020120325236377988 0 0.014577616720483419 0.020381521164359873 0 0.014418569955105718 0.020565475773000309 0 0.014416743665495869 0.020326397150771683 0 0.014577616720483419 0.020381521164359873 0 0.014418569955105718 0.020565475773000309 0 0.014594083060849404 0.020697801943753983 0 0.014577616720483419 0.020381521164359873 0 0.014416743665495869 0.020326397150771683 0 0.014558023403508964 0.020120325236377988 0 0.014351481699166084 0.020164996963235572 0 0.014416743665495869 0.020326397150771683 0 0.014558023403508964 0.020120325236377988 0 0.014351481699166084 0.020164996963235572 0 0.014327345979386258 0.019967892601224915 0 0.014558023403508964 0.020120325236377988 0 0.014773976866513319 0.019853780587501917 0 0.014821018815345083 0.020228648084767056 0 0.014558023403508964 0.020120325236377988 0 0.014474067128707212 0.019683855406946983 0 0.014773976866513319 0.019853780587501917 0 0.014558023403508964 0.020120325236377988 0 0.01429635943875532 0.019759676087107235 0 0.014327345979386258 0.019967892601224915 0 0.014474067128707212 0.019683855406946983 0 0.014327345979386258 0.019967892601224915 0 0.014474067128707212 0.019683855406946983 0 0.014558023403508964 0.020120325236377988 0 0.012594770922254573 0.02798956043732469 0 0.012604044418655804 0.028538635875313256 0 0.011971452599058399 0.028845165583631194 0 0.012594770922254573 0.02798956043732469 0 0.01085166677927517 0.030322425323901583 0 0.011107896241584446 0.028748199117023334 0 0.012594770922254573 0.02798956043732469 0 0.011107896241584446 0.028748199117023334 0 0.010624520076411707 0.026841243811010471 0 0.012605950427383179 0.02899146327881132 0 0.010602260323665087 0.026910043024970409 0 0.01294656279121216 0.028253368049048593 0 0.012594770922254573 0.02798956043732469 0 0.012604044418655804 0.028538635875313256 0 0.013155320472470207 0.028663450934168548 0 0.012604044418655804 0.028538635875313256 0 0.012474936355805847 0.028939189043248801 0 0.013380893096319712 0.025254141072170944 0 0.013959604924020493 0.023219454416860828 0 0.012604044418655804 0.028538635875313256 0 0.012474936355805847 0.028939189043248801 0 0.011971452599058399 0.028845165583631194 0 0.014221816125757335 0.020771469622781601 0 0.014418569955105718 0.020565475773000309 0 0.014594083060849404 0.020697801943753983 0 0.014419207758203973 0.021085352279965403 0 0.013959604924020493 0.023219454416860828 0 0.013959604924020493 0.023219454416860828 0 0.010602260323665087 0.026910043024970409 0 0.011688645993916696 0.024225073032229795 0 0.012412847801039654 0.02388016414875371 0 0.01204251625152879 0.023817269764818887 0 0.01085166677927517 0.030322425323901583 0 0.010012637263105707 0.029440745814879606 0 0.011107896241584446 0.028748199117023334 0 0.011107896241584446 0.028748199117023334 0 0.0097025912641129607 0.028679552614618142 0 0.010624520076411707 0.026841243811010471 0 0.010012637263105707 0.029440745814879606 0 0.011107896241584446 0.028748199117023334 0 0.0097025912641129607 0.028679552614618142 0 0.0091318024574829123 0.027861078003153787 0 0.0097025912641129607 0.028679552614618142 0 0.0079220866181021008 0.028785352398877393 0 0.0097025912641129607 0.028679552614618142 0 0.0083524667650690925 0.030035046778759452 0 0.0079220866181021008 0.028785352398877393 0 0.010012637263105707 0.029440745814879606 0 0.0097025912641129607 0.028679552614618142 0 0.0083524667650690925 0.030035046778759452 0 0.0091318024574829123 0.027861078003153787 0 0.0079220866181021008 0.028785352398877393 0 0.0078386128277811926 0.027933801158270041 0 0.01085166677927517 0.030322425323901583 0 0.010012637263105707 0.029440745814879606 0 0.0083524667650690925 0.030035046778759452 0 0.008383071071003818 0.024557031647491151 0 0.0083762785110979773 0.02458973029273823 0 0.0083701526875468602 0.024608800748467476 0 0.010602260323665087 0.026910043024970409 0 0.0081505668073707602 0.027369996182423979 0 0.0083701526875468602 0.024608800748467476 0 0.008474064111560339 0.024609759892285664 0 0.0085306568653939971 0.02473618633867717 0 0.0081505668073707602 0.027369996182423979 0 0.0071430992271750097 0.027280809788467735 0 0.008399325415788618 0.024524021332053642 0 0.0083701526875468602 0.024608800748467476 0 0.008474064111560339 0.024609759892285664 0 0.008399325415788618 0.024524021332053642 0 0.008383071071003818 0.024557031647491151 0 0.0083701526875468602 0.024608800748467476 0 0.0079220866181021008 0.028785352398877393 0 0.0066605556158509304 0.028462571754741702 0 0.0056731658444082525 0.029843124379668028 0 0.0083524667650690925 0.030035046778759452 0 0.0079220866181021008 0.028785352398877393 0 0.0056731658444082525 0.029843124379668028 0 0.0079220866181021008 0.028785352398877393 0 0.0078386128277811926 0.027933801158270041 0 0.0066605556158509304 0.028462571754741702 0 0.0071761804437543751 0.027109438090883137 0 0.0079804719094118681 0.025927773536125031 0 0.0061954999904467439 0.02637819737869819 0 0.0066605556158509304 0.028462571754741702 0 0.0071761804437543751 0.027109438090883137 0 0.0058691198769866603 0.027525499915259526 0 0.0078386128277811926 0.027933801158270041 0 0.0066605556158509304 0.028462571754741702 0 0.0071761804437543751 0.027109438090883137 0 0.0078386128277811926 0.027933801158270041 0 0.0071761804437543751 0.027109438090883137 0 0.0085669929836288926 0.027127261411384163 0 0.0071761804437543751 0.027109438090883137 0 0.0079804719094118681 0.025927773536125031 0 0.0085669929836288926 0.027127261411384163 0 0.0043003011372267554 0.024262072186574644 0 0.0042344212979516004 0.024851333714147952 0 0.0040693168725217995 0.024158617637209116 0 0.0061578260006731559 0.025401090050972339 0 0.0045017784501629882 0.024488566660269887 0 0.0042503230409744784 0.024375133498424295 0 0.0043003011372267554 0.024262072186574644 0 0.0043103524498295529 0.024344088126087494 0 0.0043003011372267554 0.024262072186574644 0 0.0043103524498295529 0.024344088126087494 0 0.0042344212979516004 0.024851333714147952 0 0.0042503230409744784 0.024375133498424295 0 0.0039017954812365315 0.024537784133156298 0 0.0043103524498295529 0.024344088126087494 0 0.0043103524498295529 0.024344088126087494 0 0.0042344212979516004 0.024851333714147952 0 0.0057139197019445247 0.024508977708213 0 0.0063356790659806431 0.023475458899349967 0 0.0043103524498295529 0.024344088126087494 0 0.0057139197019445247 0.024508977708213 0 0.0042344212979516004 0.024851333714147952 0 0.0057139197019445247 0.024508977708213 0 0.0065807618819916916 0.026255708072553417 0 0.0091318024574829123 0.027861078003153787 0 0.0097025912641129607 0.028679552614618142 0 0.010624520076411707 0.026841243811010471 0 0.0061578260006731559 0.025401090050972339 0 0.0087003222695262259 0.026562522268090583 0 0.0091318024574829123 0.027861078003153787 0 0.0085669929836288926 0.027127261411384163 0 0.010624520076411707 0.026841243811010471 0 0.0079804719094118681 0.025927773536125031 0 0.0085669929836288926 0.027127261411384163 0 0.010624520076411707 0.026841243811010471 0 0.0091318024574829123 0.027861078003153787 0 0.0078386128277811926 0.027933801158270041 0 0.0085669929836288926 0.027127261411384163 0 0.0065807618819916916 0.026255708072553417 0 0.0070406696671799687 0.024771587336182427 0 0.0080631110715458226 0.026018336358729459 0 0.0057139197019445247 0.024508977708213 0 0.0065807618819916916 0.026255708072553417 0 0.0070406696671799687 0.024771587336182427 0 0.0065288168616909935 0.024193424572002194 0 0.0057139197019445247 0.024508977708213 0 0.0070406696671799687 0.024771587336182427 0 0.0070399332174085148 0.024044054929195004 0 0.0077950304527589376 0.024328176151969687 0 0.0070406696671799687 0.024771587336182427 0 0.0065288168616909935 0.024193424572002194 0 0.0070399332174085148 0.024044054929195004 0 0.0070406696671799687 0.024771587336182427 0 0.0070406696671799687 0.024771587336182427 0 0.0080696773833655103 0.025002589109744924 0 0.0080631110715458226 0.026018336358729459 0 0.0077950304527589376 0.024328176151969687 0 0.0080696773833655103 0.025002589109744924 0 0.0087435984289138766 0.024590868587067535 0 0.0077950304527589376 0.024328176151969687 0 0.0070406696671799687 0.024771587336182427 0 0.0080696773833655103 0.025002589109744924 0 0.009219752567134594 0.025093193684581832 0 0.0087435984289138766 0.024590868587067535 0 0.0087013842423183992 0.02533041215851177 0 0.0080696773833655103 0.025002589109744924 0 0.0087435984289138766 0.024590868587067535 0 0.0087013842423183992 0.02533041215851177 0 0.0094832570060629281 0.02585161713789693 0 0.0087013842423183992 0.02533041215851177 0 0.0080631110715458226 0.026018336358729459 0 0.0080696773833655103 0.025002589109744924 0 0.0087013842423183992 0.02533041215851177 0 0.0080631110715458226 0.026018336358729459 0 0.0090982306938294927 0.027262534084429961 0 0.0065807618819916916 0.026255708072553417 0 0.0080631110715458226 0.026018336358729459 0 0.0094832570060629281 0.02585161713789693 0 0.0090982306938294927 0.027262534084429961 0 0.0080631110715458226 0.026018336358729459 0 0.012961701406477575 0.027643060307123032 0 0.012594770922254573 0.02798956043732469 0 0.010624520076411707 0.026841243811010471 0 0.010641405696664956 0.027295405509256798 0 0.0087003222695262259 0.026562522268090583 0 0.0057054423216978236 0.027116630295777586 0 0.0041732430069204495 0.027188997099079765 0 0.0026103796007858385 0.02971300218868635 0 0.0032203487926037908 0.027067868793887773 0 0.0010029220745696775 0.027554303555942836 0 0.0026103796007858385 0.02971300218868635 0 -0.00088789181917516208 0.029546691341996539 0 0.0010029220745696775 0.027554303555942836 0 0.0091693151254451325 0.024601836389189086 0 0.0089527706945814311 0.024789630919185245 0 0.0087820979601630281 0.024300392520982768 0 0.0089527706945814311 0.024789630919185245 0 0.0087820979601630281 0.024300392520982768 0 0.0082729120077390736 0.024935990596291261 0 0.0089994480513504466 0.024515799214588452 0 0.0091693151254451325 0.024601836389189086 0 0.009043883725605377 0.024604512947886972 0 0.0091693151254451325 0.024601836389189086 0 0.009043883725605377 0.024604512947886972 0 0.0087820979601630281 0.024300392520982768 0 0.0089994480513504466 0.024515799214588452 0 0.009043883725605377 0.024604512947886972 0 0.0088010269782374095 0.024583423160228643 0 0.009043883725605377 0.024604512947886972 0 0.0088010269782374095 0.024583423160228643 0 0.0085306568653939971 0.02473618633867717 0 0.0086861588921176829 0.024453817611801789 0 0.0089994480513504466 0.024515799214588452 0 0.0088010269782374095 0.024583423160228643 0 0.0086861588921176829 0.024453817611801789 0 0.0088010269782374095 0.024583423160228643 0 0.008474064111560339 0.024609759892285664 0 0.0088010269782374095 0.024583423160228643 0 0.008474064111560339 0.024609759892285664 0 0.0085306568653939971 0.02473618633867717 0 0.0066605556158509304 0.028462571754741702 0 0.0056731658444082525 0.029843124379668028 0 0.0056348041875916152 0.028681711413802442 0 0.0056731658444082525 0.029843124379668028 0 0.0056348041875916152 0.028681711413802442 0 0.0045084932476145579 0.028506732871771648 0 0.0056348041875916152 0.028681711413802442 0 0.0045084932476145579 0.028506732871771648 0 0.0058691198769866603 0.027525499915259526 0 0.0066605556158509304 0.028462571754741702 0 0.0056348041875916152 0.028681711413802442 0 0.0058691198769866603 0.027525499915259526 0 0.0026103796007858385 0.02971300218868635 0 0.0056731658444082525 0.029843124379668028 0 0.0045084932476145579 0.028506732871771648 0 0.0026103796007858385 0.02971300218868635 0 0.0045084932476145579 0.028506732871771648 0 0.0032203487926037908 0.027067868793887773 0 0.0057054423216978236 0.027116630295777586 0 0.0071430992271750097 0.027280809788467735 0 0.0045084932476145579 0.028506732871771648 0 0.0032203487926037908 0.027067868793887773 0 0.0047785710056433249 0.026514502408452014 0 0.0032203487926037908 0.027067868793887773 0 0.0047785710056433249 0.026514502408452014 0 0.0033402156778278209 0.025512359071116021 0 0.0032203487926037908 0.027067868793887773 0 0.0033402156778278209 0.025512359071116021 0 0.0015992553206078711 0.025567686420316874 0 0.0045084932476145579 0.028506732871771648 0 0.0058691198769866603 0.027525499915259526 0 0.0047785710056433249 0.026514502408452014 0 0.0071761804437543751 0.027109438090883137 0 0.0058691198769866603 0.027525499915259526 0 0.0061954999904467439 0.02637819737869819 0 0.0058691198769866603 0.027525499915259526 0 0.0047785710056433249 0.026514502408452014 0 0.0061954999904467439 0.02637819737869819 0 0.0044271569600201335 0.023821300622207841 0 0.0043003011372267554 0.024262072186574644 0 0.0040693168725217995 0.024158617637209116 0 0.0079804719094118681 0.025927773536125031 0 0.0061954999904467439 0.02637819737869819 0 0.0050868912348841135 0.024819603025781262 0 0.0047785710056433249 0.026514502408452014 0 0.0061954999904467439 0.02637819737869819 0 0.0050868912348841135 0.024819603025781262 0 0.0019508913806280403 0.023563473396114493 0 0.0045017784501629882 0.024488566660269887 0 0.001807337860291115 0.023497587061646605 0 0.0050868912348841135 0.024819603025781262 0 0.0033402156778278209 0.025512359071116021 0 0.0047785710056433249 0.026514502408452014 0 0.0050868912348841135 0.024819603025781262 0 0.0033402156778278209 0.025512359071116021 0 0.001807337860291115 0.023497587061646605 0 0.0015992553206078711 0.025567686420316874 0 -0.00010028049837976421 0.023643711783990145 0 0.001807337860291115 0.023497587061646605 0 0.0033402156778278209 0.025512359071116021 0 0.0015992553206078711 0.025567686420316874 0 0.0015992553206078711 0.025567686420316874 0 0.0010029220745696775 0.027554303555942836 0 -0.0011268121638838675 0.025803700649649278 0 0.0032203487926037908 0.027067868793887773 0 0.0015992553206078711 0.025567686420316874 0 0.0010029220745696775 0.027554303555942836 0 -0.00088789181917516208 0.029546691341996539 0 0.0010029220745696775 0.027554303555942836 0 -0.0011268121638838675 0.025803700649649278 0 -0.0030170456227064752 0.022148599559806158 0 -0.0011268121638838675 0.025803700649649278 0 -0.00010028049837976421 0.023643711783990145 0 0.0015992553206078711 0.025567686420316874 0 -0.0011268121638838675 0.025803700649649278 0 -0.00010028049837976421 0.023643711783990145 0 -0.0030170456227064752 0.022148599559806158 0 -0.0062264411436069996 0.022505985162958042 0 -0.0040649437205652183 0.026388667048966575 0 -0.0030170456227064752 0.022148599559806158 0 -0.0011268121638838675 0.025803700649649278 0 -0.0040649437205652183 0.026388667048966575 0 -0.0062264411436069996 0.022505985162958042 0 -0.0071947031620104972 0.025460510737283719 0 -0.0040649437205652183 0.026388667048966575 0 -0.0090693002646242953 0.022893583167527324 0 0.00024358644764105631 0.02414908983165185 0 -0.0093894350335231962 0.0200467994194399 0 -0.0074121985093838728 0.023217406073715734 0 -0.011552968122605858 0.02233194809051673 0 -0.0071947031620104972 0.025460510737283719 0 -0.0040649437205652183 0.026388667048966575 0 -0.0048783072072687145 0.029127641712271515 0 -0.00088789181917516208 0.029546691341996539 0 -0.0011268121638838675 0.025803700649649278 0 -0.0040649437205652183 0.026388667048966575 0 -0.00088789181917516208 0.029546691341996539 0 -0.0040649437205652183 0.026388667048966575 0 -0.0048783072072687145 0.029127641712271515 0 0.00024358644764105631 0.02414908983165185 0 0.0095930251681665378 0.024593985694444459 0 0.0087820979601630281 0.024300392520982768 0 0.007501243259597795 0.023991818022474715 0 0.0082729120077390736 0.024935990596291261 0 0.0041732430069204495 0.027188997099079765 0 0.00024358644764105631 0.02414908983165185 0 0.0060281853727238363 0.020438761176899932 0 0.0020541603209422751 0.023116052171898244 0 0.0054851889863944013 0.024681312217616921 0 0.0020541603209422751 0.023116052171898244 0 0.0054851889863944013 0.024681312217616921 0 0.00391881086207874 0.025936674406759515 0 0.0054851889863944013 0.024681312217616921 0 0.00391881086207874 0.025936674406759515 0 0.0048407952546373964 0.026244221674107539 0 0.00391881086207874 0.025936674406759515 0 0.0048407952546373964 0.026244221674107539 0 0.0038461773137607263 0.026732184571313749 0 0.0054851889863944013 0.024681312217616921 0 0.0048407952546373964 0.026244221674107539 0 0.0066939369910590804 0.025437922399701926 0 0.0060281853727238363 0.020438761176899932 0 0.0054851889863944013 0.024681312217616921 0 0.0082729120077390736 0.024935990596291261 0 0.0054851889863944013 0.024681312217616921 0 0.0066939369910590804 0.025437922399701926 0 0.0082729120077390736 0.024935990596291261 0 -0.0056306568661155139 0.030247863167422812 0 -0.0021910035706799425 0.024423319613632706 0 -0.0095444106143999854 0.024693588631815019 0 -0.0056306568661155139 0.030247863167422812 0 -0.0095444106143999854 0.024693588631815019 0 -0.012965204843912267 0.028038089793775728 0 0.003049298975242518 0.026249480401234638 0 -0.0014289960059665769 0.028301583822982247 0 0.00391881086207874 0.025936674406759515 0 -0.0056306568661155139 0.030247863167422812 0 -0.0021910035706799425 0.024423319613632706 0 0.00391881086207874 0.025936674406759515 0 0.0011092149226082492 0.026070816644377173 0 0.0027783948192165449 0.026998406728228213 0 0.0020541603209422751 0.023116052171898244 0 0.00391881086207874 0.025936674406759515 0 -0.0021910035706799425 0.024423319613632706 0 0.0020541603209422751 0.023116052171898244 0 -0.0021910035706799425 0.024423319613632706 0 -0.0037241105149581322 0.019323223410461509 0 0.00024358644764105631 0.02414908983165185 0 -0.0078843687580843549 0.0206348735025421 0 0.0060281853727238363 0.020438761176899932 0 0.0020541603209422751 0.023116052171898244 0 -0.0037241105149581322 0.019323223410461509 0 -0.0095444106143999854 0.024693588631815019 0 -0.0037241105149581322 0.019323223410461509 0 -0.014673899768439204 0.021251671630657696 0 -0.0021910035706799425 0.024423319613632706 0 -0.0095444106143999854 0.024693588631815019 0 -0.0037241105149581322 0.019323223410461509 0 -0.011552968122605858 0.02233194809051673 0 -0.013066868085450215 0.019399679334172915 0 -0.014673899768439204 0.021251671630657696 0 -0.0078843687580843549 0.0206348735025421 0 -0.013962490303410542 0.021163093805343793 0 -0.0093894350335231962 0.0200467994194399 0 -0.011552968122605858 0.02233194809051673 0 -0.013066868085450215 0.019399679334172915 0 -0.010414883613122464 0.0192353235165173 0 -0.0090693002646242953 0.022893583167527324 0 -0.011185447784598353 0.01734193123922451 0 -0.0093894350335231962 0.0200467994194399 0 -0.013066868085450215 0.019399679334172915 0 -0.013066868085450215 0.019399679334172915 0 -0.016269279570113582 0.019491555600625505 0 -0.014673899768439204 0.021251671630657696 0 -0.01537445925583242 0.017539767024641929 0 -0.013066868085450215 0.019399679334172915 0 -0.016269279570113582 0.019491555600625505 0 -0.014673899768439204 0.021251671630657696 0 -0.019262187090471339 0.020969155376403783 0 -0.018505364514552567 0.023776005063838694 0 -0.016269279570113582 0.019491555600625505 0 -0.014673899768439204 0.021251671630657696 0 -0.019262187090471339 0.020969155376403783 0 -0.02545492191614411 0.020240767930227301 0 -0.023735225537962409 0.019295608397662374 0 -0.023182186014236321 0.021123437087234201 0 -0.0207521535720709 0.01873417336839844 0 -0.023735225537962409 0.019295608397662374 0 -0.023182186014236321 0.021123437087234201 0 -0.0207521535720709 0.01873417336839844 0 -0.016269279570113582 0.019491555600625505 0 -0.019262187090471339 0.020969155376403783 0 -0.0207521535720709 0.01873417336839844 0 -0.023182186014236321 0.021123437087234201 0 -0.019262187090471339 0.020969155376403783 0 -0.023182186014236321 0.021123437087234201 0 -0.021463745178127311 0.023298299988085223 0 -0.019262187090471339 0.020969155376403783 0 -0.021463745178127311 0.023298299988085223 0 -0.019262187090471339 0.020969155376403783 0 -0.018505364514552567 0.023776005063838694 0 -0.025156558968784184 0.023666349422316543 0 -0.023182186014236321 0.021123437087234201 0 -0.021463745178127311 0.023298299988085223 0 -0.03487195367879925 0.025611634911441961 0 -0.018322830259360157 0.023248441312314006 0 -0.025716394614065514 0.022912037331236 0 -0.021463745178127311 0.023298299988085223 0 -0.021880552477173895 0.026047425694363115 0 -0.025716394614065514 0.022912037331236 0 -0.021880552477173895 0.026047425694363115 0 -0.024775238203864063 0.027606574919916645 0 -0.021463745178127311 0.023298299988085223 0 -0.021880552477173895 0.026047425694363115 0 -0.018505364514552567 0.023776005063838694 0 -0.021880552477173895 0.026047425694363115 0 -0.018920252452592538 0.027540526373527646 0 -0.018505364514552567 0.023776005063838694 0 -0.021880552477173895 0.026047425694363115 0 -0.018920252452592538 0.027540526373527646 0 -0.022001395520438206 0.029621262111036516 0 -0.018920252452592538 0.027540526373527646 0 -0.022001395520438206 0.029621262111036516 0 -0.019109435674477093 0.03183426568435236 0 -0.021880552477173895 0.026047425694363115 0 -0.022001395520438206 0.029621262111036516 0 -0.024775238203864063 0.027606574919916645 0 -0.0095444106143999854 0.024693588631815019 0 -0.014673899768439204 0.021251671630657696 0 -0.015366592966123986 0.025518322361601335 0 -0.014673899768439204 0.021251671630657696 0 -0.018505364514552567 0.023776005063838694 0 -0.015366592966123986 0.025518322361601335 0 -0.018920252452592538 0.027540526373527646 0 -0.018505364514552567 0.023776005063838694 0 -0.015366592966123986 0.025518322361601335 0 -0.018920252452592538 0.027540526373527646 0 -0.016408303655361195 0.028839790795714144 0 -0.019109435674477093 0.03183426568435236 0 -0.015366592966123986 0.025518322361601335 0 -0.016408303655361195 0.028839790795714144 0 -0.012965204843912267 0.028038089793775728 0 -0.018920252452592538 0.027540526373527646 0 -0.015366592966123986 0.025518322361601335 0 -0.016408303655361195 0.028839790795714144 0 -0.0056306568661155139 0.030247863167422812 0 -0.012965204843912267 0.028038089793775728 0 -0.013864956995117786 0.032194243191760785 0 -0.016408303655361195 0.028839790795714144 0 -0.012965204843912267 0.028038089793775728 0 -0.01391505037129678 0.031019298014171279 0 -0.013396331815312794 0.029932199651680771 0 -0.012246337130390647 0.025870847487748577 0 -0.0095444106143999854 0.024693588631815019 0 -0.015366592966123986 0.025518322361601335 0 -0.012965204843912267 0.028038089793775728 0 -0.0014289960059665769 0.028301583822982247 0 -0.012246337130390647 0.025870847487748577 0 -0.0022181495044495017 0.026625036908309183 0 -0.0010617379254257012 0.028545776205148227 0 0.00024501567566870817 0.027707744724232691 0 -0.016408303655361195 0.028839790795714144 0 -0.01391505037129678 0.031019298014171279 0 -0.019109435674477093 0.03183426568435236 0 -0.012246337130390647 0.025870847487748577 0 -0.018274479758381212 0.025729252499819749 0 -0.017708728657568555 0.019399427313700302 0 -0.019519940012654648 0.021761399460713524 0 -0.020775305445665519 0.020007599318631181 0 -0.019519940012654648 0.021761399460713524 0 -0.018650449860495306 0.02264458339048946 0 -0.020816024695660615 0.023464341509667305 0 -0.017708728657568555 0.019399427313700302 0 -0.019519940012654648 0.021761399460713524 0 -0.018549559921059305 0.022757033161980293 0 -0.018520632475316181 0.020739955399679159 0 -0.011613956386627267 0.025221111951807731 0 -0.0028655379291553326 0.029737619768285841 0 -0.00060473685950266894 0.029958652731039762 0 -0.0010617379254257012 0.028545776205148227 0 -0.012246337130390647 0.025870847487748577 0 -0.011613956386627267 0.025221111951807731 0 -0.0022181495044495017 0.026625036908309183 0 -0.0028655379291553326 0.029737619768285841 0 -0.0010617379254257012 0.028545776205148227 0 -0.055387836439714552 0.025586071810443131 0 -0.055364808426271811 0.025599714594972053 0 -0.055235724032353585 0.025573960607885866 0 -0.040964563619237837 0.026809153420238346 0 -0.036056618747966819 0.025670395941544986 0 -0.022001395520438206 0.029621262111036516 0 -0.024775238203864063 0.027606574919916645 0 -0.023829631710667629 0.032643054765959877 0 -0.055387836439714552 0.025586071810443131 0 -0.055254728698458856 0.025546053734387515 0 -0.055235724032353585 0.025573960607885866 0 -0.050355865207242473 0.027388209553863254 0 -0.036056618747966819 0.025670395941544986 0 -0.022001395520438206 0.029621262111036516 0 -0.023829631710667629 0.032643054765959877 0 -0.019109435674477093 0.03183426568435236 0 -0.036056618747966819 0.025670395941544986 0 -0.018274479758381212 0.025729252499819749 0 -0.023816592784035154 0.020639627129328576 0 -0.020775305445665519 0.020007599318631181 0 -0.021610934672514813 0.02187658254547975 0 -0.021610934672514813 0.02187658254547975 0 -0.023174341228270379 0.023174085117338015 0 -0.020816024695660615 0.023464341509667305 0 -0.019519940012654648 0.021761399460713524 0 -0.020775305445665519 0.020007599318631181 0 -0.021610934672514813 0.02187658254547975 0 -0.019519940012654648 0.021761399460713524 0 -0.021610934672514813 0.02187658254547975 0 -0.020816024695660615 0.023464341509667305 0 -0.055254728698458856 0.025546053734387515 0 -0.055077161053531221 0.025505691487437369 0 -0.054821555234968948 0.025676149140849151 0 -0.055351070823171498 0.02564895954960247 0 -0.055254728698458856 0.025546053734387515 0 -0.054821555234968948 0.025676149140849151 0 -0.023816592784035154 0.020639627129328576 0 -0.021610934672514813 0.02187658254547975 0 -0.023174341228270379 0.023174085117338015 0 -0.036056618747966819 0.025670395941544986 0 -0.039161461609766059 0.025345302600993498 0 -0.039161461609766059 0.025345302600993498 0 -0.033493623757352355 0.016650439576565597 0 -0.055377555874082232 0.02593980952053488 0 -0.054821555234968948 0.025676149140849151 0 -0.054463326783619197 0.026051301962460013 0 -0.023174341228270379 0.023174085117338015 0 -0.020816024695660615 0.023464341509667305 0 -0.02257485984474436 0.025635611299842612 0 -0.020816024695660615 0.023464341509667305 0 -0.02257485984474436 0.025635611299842612 0 -0.019403348735674477 0.025685097319292818 0 -0.010503060294332444 0.0082548523292333958 0 -0.011523885411661354 0.0075141305785572984 0 -0.0096941698477422088 0.0075653760050456735 0 -0.033493623757352355 0.016650439576565597 0 -0.01019014819008271 0.016140767667478354 0 -0.054076029299078392 0.017766259905169508 0 -0.033493623757352355 0.016650439576565597 0 -0.045985806341325791 0.0094214778457453654 0 -0.043601281536281351 0.010658070422835182 0 -0.043155861499032062 0.0092504274982957366 0 -0.0028655379291553326 0.029737619768285841 0 -0.00060473685950266894 0.029958652731039762 0 -0.0012968258099751856 0.031267368763882829 0 -0.002829395682347198 0.027764308611753181 0 -0.0032423335151616907 0.019874197962308566 0 -0.011613956386627267 0.025221111951807731 0 -0.002829395682347198 0.027764308611753181 0 -0.0071771765437069644 0.021403897856503099 0 -0.0067113333049049172 0.021833506542585632 0 -0.0073875607240769551 0.02223099581384512 0 -0.011613956386627267 0.025221111951807731 0 -0.01019014819008271 0.016140767667478354 0 -0.018650449860495306 0.02264458339048946 0 -0.020816024695660615 0.023464341509667305 0 -0.019403348735674477 0.025685097319292818 0 -0.0098271994724071395 0.0090540130508956398 0 -0.010503060294332444 0.0082548523292333958 0 -0.0096941698477422088 0.0075653760050456735 0 -0.0092013445749132266 0.0055964868353847756 0 -0.01019014819008271 0.016140767667478354 0 -0.01019014819008271 0.016140767667478354 0 -0.0032423335151616907 0.019874197962308566 0 -0.00828618270582656 0.0084601169141864749 0 -0.0092539155824765112 0.0070940480202919941 0 -0.0064359989053969302 0.0071797404664012427 0 -0.0067113333049049172 0.021833506542585632 0 -0.0073875607240769551 0.02223099581384512 0 -0.0062450872637428998 0.022273092096970773 0 -0.0032423335151616907 0.019874197962308566 0 0.0060669475053869992 0.025264333959667106 0 0.00024848132300450785 0.032785263336210846 0 0.0010764267275612765 0.030960478593360242 0 0.0027972359366516797 0.032832094509237797 0 0.0020929712192158485 0.021270701957426561 0 0.00017687517547806527 0.019304626534674768 0 0.0041586639542743782 0.01941367123118818 0 0.0039164087539940847 0.012044962226460076 0 -0.0032423335151616907 0.019874197962308566 0 -0.00060473685950266894 0.029958652731039762 0 -0.0012968258099751856 0.031267368763882829 0 0.0010764267275612765 0.030960478593360242 0 -0.0012968258099751856 0.031267368763882829 0 0.00024848132300450785 0.032785263336210846 0 0.0010764267275612765 0.030960478593360242 0 -0.00060473685950266894 0.029958652731039762 0 0.0010764267275612765 0.030960478593360242 0 0.0009102388021956599 0.029585644115226441 0 0.0010764267275612765 0.030960478593360242 0 0.0030088957915396456 0.030703072377074564 0 0.0027972359366516797 0.032832094509237797 0 0.0030088957915396456 0.030703072377074564 0 0.0027972359366516797 0.032832094509237797 0 0.003926535741199921 0.030456247334406016 0 0.0030088957915396456 0.030703072377074564 0 0.003926535741199921 0.030456247334406016 0 0.0036553449350689845 0.029652443033029535 0 0.0010764267275612765 0.030960478593360242 0 0.0030088957915396456 0.030703072377074564 0 0.0023458423689671167 0.029632843730359727 0 0.012936445497196214 0.016592317330592302 0 0.012483243244768632 0.016539065743725694 0 0.012698465121478902 0.016386617879149586 0 0.0039164087539940847 0.012044962226460076 0 0.0060669475053869992 0.025264333959667106 0 0.0054606600756521026 0.030207259840885747 0 0.005595092173375912 0.030264141093758381 0 0.0055730928834980785 0.030161711448112579 0 0.012936445497196214 0.016592317330592302 0 0.012698465121478902 0.016386617879149586 0 0.013107666960045214 0.016444140383326127 0 0.0060669475053869992 0.025264333959667106 0 0.0098719190236640896 0.023311290678585679 0 0.005595092173375912 0.030264141093758381 0 0.0057584875454316509 0.030187408665999716 0 0.0055730928834980785 0.030161711448112579 0 0.0098719190236640896 0.023311290678585679 0 0.0097765455692811927 0.023727321132973163 0 0.005595092173375912 0.030264141093758381 0 0.0059627303172969043 0.030410788667210885 0 0.0057584875454316509 0.030187408665999716 0 0.013310673572942147 0.016722924862848945 0 0.013107666960045214 0.016444140383326127 0 0.013416266188222305 0.016532095160737788 0 0.011203170959832576 0.022196294928059683 0 0.010328318434231798 0.02353214156341361 0 0.0096848224894753223 0.024853681838715776 0 0.0097765455692811927 0.023727321132973163 0 0.0074029724059419075 0.027603798299859178 0 0.0059627303172969043 0.030410788667210885 0 0.0057584875454316509 0.030187408665999716 0 0.0057786949137664731 0.029672612943939837 0 0.0057584875454316509 0.030187408665999716 0 0.0056201541715370203 0.030085193499691805 0 0.0057786949137664731 0.029672612943939837 0 0.01067700883487053 0.022847946764189806 0 0.011203170959832576 0.022196294928059683 0 0.010328318434231798 0.02353214156341361 0 0.0057584875454316509 0.030187408665999716 0 0.0056201541715370203 0.030085193499691805 0 0.0055730928834980785 0.030161711448112579 0 0.0056201541715370203 0.030085193499691805 0 0.0055409674860488096 0.030050928582725605 0 0.0057786949137664731 0.029672612943939837 0 0.0099469823612917847 0.024125025420562621 0 0.010328318434231798 0.02353214156341361 0 0.0096848224894753223 0.024853681838715776 0 0.01014408650162495 0.023637682065387373 0 0.0099469823612917847 0.024125025420562621 0 0.0097833215550207249 0.02422088020718384 0 0.01014408650162495 0.023637682065387373 0 0.0099469823612917847 0.024125025420562621 0 0.010328318434231798 0.02353214156341361 0 0.0060669475053869992 0.025264333959667106 0 0.0042808552938953795 0.03247514273429309 0 0.0054606600756521026 0.030207259840885747 0 0.0055730928834980785 0.030161711448112579 0 0.0055409674860488096 0.030050928582725605 0 0.0027972359366516797 0.032832094509237797 0 0.0055409674860488096 0.030050928582725605 0 0.003926535741199921 0.030456247334406016 0 0.0056201541715370203 0.030085193499691805 0 0.0055730928834980785 0.030161711448112579 0 0.0055409674860488096 0.030050928582725605 0 0.003926535741199921 0.030456247334406016 0 0.0045421963226597566 0.029321261213818322 0 0.0036553449350689845 0.029652443033029535 0 0.0045421963226597566 0.029321261213818322 0 0.0036553449350689845 0.029652443033029535 0 0.0033829869020256878 0.028621396683658446 0 0.0055409674860488096 0.030050928582725605 0 0.003926535741199921 0.030456247334406016 0 0.0045421963226597566 0.029321261213818322 0 0.0055409674860488096 0.030050928582725605 0 0.0045421963226597566 0.029321261213818322 0 0.0057786949137664731 0.029672612943939837 0 0.0045421963226597566 0.029321261213818322 0 0.0057786949137664731 0.029672612943939837 0 0.0042130994234461502 0.027972194199113103 0 0.0045421963226597566 0.029321261213818322 0 0.0042130994234461502 0.027972194199113103 0 0.0033829869020256878 0.028621396683658446 0 0.0096848224894753223 0.024853681838715776 0 0.0090623632364878002 0.025021496232719303 0 0.0078751828115515531 0.025472379302089895 0 0.0097833215550207249 0.02422088020718384 0 0.0096062310510934071 0.024565202702034765 0 0.0094899803903839616 0.02458580845040351 0 0.0099469823612917847 0.024125025420562621 0 0.0097833215550207249 0.02422088020718384 0 0.0096062310510934071 0.024565202702034765 0 0.0099469823612917847 0.024125025420562621 0 0.0096062310510934071 0.024565202702034765 0 0.0096848224894753223 0.024853681838715776 0 0.0096062310510934071 0.024565202702034765 0 0.0096848224894753223 0.024853681838715776 0 0.0090623632364878002 0.025021496232719303 0 0.009229363670941208 0.024763461372445322 0 0.0090623632364878002 0.025021496232719303 0 0.0094899803903839616 0.02458580845040351 0 0.0096062310510934071 0.024565202702034765 0 0.0090623632364878002 0.025021496232719303 0 0.0094899803903839616 0.02458580845040351 0 0.009229363670941208 0.024763461372445322 0 0.0090623632364878002 0.025021496232719303 0 0.0087320271801200056 0.025053256585377087 0 0.0090623632364878002 0.025021496232719303 0 0.0078751828115515531 0.025472379302089895 0 0.0087320271801200056 0.025053256585377087 0 0.0066939369910590804 0.025437922399701926 0 0.0082729120077390736 0.024935990596291261 0 0.0078751828115515531 0.025472379302089895 0 0.0082729120077390736 0.024935990596291261 0 0.0078751828115515531 0.025472379302089895 0 0.0087320271801200056 0.025053256585377087 0 0.0089527706945814311 0.024789630919185245 0 0.0082729120077390736 0.024935990596291261 0 0.0087320271801200056 0.025053256585377087 0 0.0048407952546373964 0.026244221674107539 0 0.0057786949137664731 0.029672612943939837 0 0.0042130994234461502 0.027972194199113103 0 0.0051075234968591511 0.025762420089339051 0 0.0074029724059419075 0.027603798299859178 0 0.0048407952546373964 0.026244221674107539 0 0.0096848224894753223 0.024853681838715776 0 0.0078751828115515531 0.025472379302089895 0 0.0048407952546373964 0.026244221674107539 0 0.0066939369910590804 0.025437922399701926 0 0.0078751828115515531 0.025472379302089895 0 0.0048407952546373964 0.026244221674107539 0 0.0042130994234461502 0.027972194199113103 0 0.0038461773137607263 0.026732184571313749 0 0.0042130994234461502 0.027972194199113103 0 0.0038461773137607263 0.026732184571313749 0 0.0027783948192165449 0.026998406728228213 0 0.00391881086207874 0.025936674406759515 0 0.0038461773137607263 0.026732184571313749 0 0.0027783948192165449 0.026998406728228213 0 0.0011092149226082492 0.026070816644377173 0 0.0027783948192165449 0.026998406728228213 0 0.0019092326551505172 0.028326562917137695 0 0.0042130994234461502 0.027972194199113103 0 0.0027783948192165449 0.026998406728228213 0 0.0033829869020256878 0.028621396683658446 0 0.0027783948192165449 0.026998406728228213 0 0.0033829869020256878 0.028621396683658446 0 0.0019092326551505172 0.028326562917137695 0 0.0011092149226082492 0.026070816644377173 0 -0.0022181495044495017 0.026625036908309183 0 0.00024501567566870817 0.027707744724232691 0 0.0011092149226082492 0.026070816644377173 0 0.00024501567566870817 0.027707744724232691 0 0.0019092326551505172 0.028326562917137695 0 0.00024501567566870817 0.027707744724232691 0 0.0009102388021956599 0.029585644115226441 0 0.0019092326551505172 0.028326562917137695 0 -0.0010617379254257012 0.028545776205148227 0 0.00024501567566870817 0.027707744724232691 0 0.0009102388021956599 0.029585644115226441 0 -0.00060473685950266894 0.029958652731039762 0 -0.0010617379254257012 0.028545776205148227 0 0.0009102388021956599 0.029585644115226441 0 0.0010764267275612765 0.030960478593360242 0 0.0009102388021956599 0.029585644115226441 0 0.0023458423689671167 0.029632843730359727 0 0.0009102388021956599 0.029585644115226441 0 0.0023458423689671167 0.029632843730359727 0 0.0019092326551505172 0.028326562917137695 0 0.0023458423689671167 0.029632843730359727 0 0.0036553449350689845 0.029652443033029535 0 0.0033829869020256878 0.028621396683658446 0 0.0030088957915396456 0.030703072377074564 0 0.0023458423689671167 0.029632843730359727 0 0.0036553449350689845 0.029652443033029535 0 0.0023458423689671167 0.029632843730359727 0 0.0033829869020256878 0.028621396683658446 0 0.0019092326551505172 0.028326562917137695 0 
</DataArray>
</PointData>
<CellData Scalars="region_id,cross_section_updated," Vectors="" Tensors="stress,">
<DataArray type="Float64" Name="region_id" format="ascii">
5 5 5 5 5 5 6 5 5 5 6 5 5 5 6 5 5 5 5 5 5 6 6 5 5 5 5 6 6 5 6 6 5 6 5 5 5 6 5 5 6 5 5 5 5 5 5 5 6 5 5 5 5 5 5 5 5 6 5 5 6 5 6 5 6 5 6 5 5 5 5 5 5 5 5 5 5 5 5 5 5 5 5 6 5 5 5 5 5 5 5 5 6 5 5 6 6 5 5 5 5 5 5 5 5 5 5 5 5 6 5 5 5 5 5 6 5 5 6 5 5 5 5 5 5 5 5 5 5 5 5 5 5 5 5 5 5 5 6 5 5 5 5 5 6 5 5 5 5 5 5 5 5 5 5 5 5 5 5 5 5 5 5 5 5 5 5 5 5 6 5 6 5 5 5 6 5 5 5 6 5 5 5 6 6 5 5 6 5 5 5 5 6 5 5 5 5 5 6 5 5 5 5 6 5 6 5 5 6 5 5 5 6 5 5 6 5 5 5 5 5 5 5 5 5 5 6 5 5 6 5 5 5 5 5 5 5 6 5 5 5 5 5 5 5 5 5 5 5 5 5 5 5 5 5 5 5 5 5 6 5 6 5 5 5 5 5 6 5 5 5 5 5 5 5 5 6 5 5 5 6 5 5 6 5 5 5 5 6 5 5 6 5 5 5 5 5 6 5 6 5 5 5 5 5 5 5 5 5 5 5 5 5 5 5 5 5 5 6 5 5 5 5 5 6 6 5 5 5 5 5 5 5 5 5 5 6 5 5 5 5 5 5 5 5 5 6 5 5 6 6 5 5 5 6 5 5 6 5 5 5 5 5 5 5 5 5 5 5 5 5 5 5 6 5 5 5 5 5 5 5 5 6 5 5 6 5 5 5 5 6 5 5 5 5 5 5 5 5 5 5 5 5 5 5 6 6 5 5 6 6 5 6 5 6 5 6 5 5 6 5 5 5 5 5 5 5 5 5 6 6 5 5 6 5 5 5 5 5 6 5 5 6 5 5 5 5 6 5 5 5 6 5 5 5 6 5 6 5 5 6 5 5 5 5 5 5 5 5 5 5 5 6 5 5 5 5 5 5 6 5 5 5 6 5 5 5 5 5 5 5 6 5 5 5 5 5 6 5 6 5 5 5 5 5 6 6 5 5 5 6 6 5 6 5 5 5 5 5 5 5 6 5 5 5 5 5 5 5 5 5 5 5 5 5 5 6 5 5 6 5 6 5 5 5 5 5 5 5 5 5 5 5 5 5 5 6 5 5 5 5 5 5 5 5 5 5 5 5 5 5 5 5 6 5 5 5 5 5 5 5 5 5 5 5 6 6 5 5 5 5 5 5 5 5 5 5 5 5 5 5 5 5 6 5 5 5 5 5 5 5 6 5 5 5 5 5 5 5 5 6 5 5 5 6 5 5 5 5 5 5 5 5 5 5 5 5 5 5 5 5 5 5 5 5 5 5 5 5 5 5 5 5 6 5 6 5 5 5 5 5 5 5 5 5 5 5 5 5 6 5 5 5 6 5 5 5 5 5 5 5 5 5 5 5 5 5 6 6 5 5 5 5 5 5 5 6 5 5 5 5 5 5 5 5 5 5 5 6 5 5 5 5 5 5 5 6 5 5 5 5 5 5 5 5 5 5 5 5 5 5 5 5 5 6 5 5 5 5 5 5 5 5 5 5 6 5 5 5 5 5 6 5 5 5 6 5 5 5 5 6 5 5 5 5 5 5 5 6 5 6 5 5 6 5 6 5 5 5 5 5 5 5 5 5 5 5 5 5 5 5 5 5 5 5 5 5 5 5 5 5 5 5 5 5 5 5 5 5 5 5 6 5 6 6 5 5 5 5 5 5 5 5 5 5 5 6 5 5 5 5 5 5 5 6 5 6 5 6 5 5 5 5 5 5 6 5 6 6 5 5 5 5 5 5 5 5 5 5 5 5 5 5 5 5 5 6 5 5 5 5 5 5 5 5 5 5 5 5 5 5 6 5 5 5 5 5 5 5 5 5 5 5 5 5 6 5 5 5 5 5 5 5 5 5 6 5 5 5 5 5 6 6 5 5 5 5 6 6 5 5 5 5 5 5 5 5 5 5 5 6 5 5 5 5 6 5 5 5 5 5 5 6 5 5 6 5 6 5 5 5 6 5 5 5 5 5 5 5 6 5 5 5 5 6 6 5 5 6 5 5 5 6 6 6 6 5 5 6 5 5 5 5 5 5 5 5 6 6 5 5 5 5 5 5 6 5 6 5 5 5 6 5 5 5 5 5 5 5 5 5 5 5 5 5 5 5 5 5 5 5 5 5 5 5 5 5 5 5 5 6 5 5 5 5 5 5 5 5 5 5 5 5 5 5 5 5 5 5 5 5 5 6 5 5 5 5 5 5 5 5 5 6 5 5 5 5 5 5 6 5 5 5 5 5 6 5 5 5 5 5 6 5 5 5 5 5 5 5 5 5 5 6 5 5 5 5 6 6 5 5 6 5 5 5 5 6 5 5 6 5 5 5 5 5 6 6 5 5 5 5 5 5 6 5 5 5 5 5 5 5 6 6 5 5 5 6 5 5 5 6 5 5 6 5 6 5 5 5 6 5 5 6 6 5 5 5 5 5 5 6 5 6 5 6 5 5 5 6 6 5 6 5 5 5 5 5 5 5 5 5 5 5 5 5 5 5 5 6 5 5 5 5 5 5 5 6 5 5 5 5 5 6 5 5 5 6 5 5 5 5 6 5 6 5 6 5 5 5 5 6 5 5 6 5 5 5 5 5 5 5 5 5 5 5 6 5 5 5 5 6 5 5 5 5 6 5 5 5 5 5 5 6 5 5 5 6 5 6 6 5 5 5 5 5 5 5 5 5 5 5 5 5 5 5 5 5 5 5 5 5 5 5 5 5 5 5 5 6 5 5 6 6 5 6 5 5 5 5 6 5 5 6 5 5 5 5 5 5 5 5 5 5 5 5 5 5 5 5 5 5 5 5 5 5 5 5 5 5 5 5 6 5 5 5 5 5 5 5 5 6 5 5 5 5 5 5 5 6 5 6 5 5 5 6 5 5 5 5 5 5 5 6 5 6 5 5 5 5 5 6 5 5 5 5 5 5 5 5 5 5 5 5 5 5 5 5 5 5 5 5 5 5 5 5 5 5 5 5 5 5 5 5 5 5 5 5 5 5 5 6 6 5 5 6 5 5 5 6 5 5 5 6 6 5 5 6 5 5 5 5 5 5 5 5 5 5 5 5 5 5 5 5 5 5 5 5 5 6 5 6 5 5 5 5 5 5 5 5 5 5 5 5 5 5 5 5 5 5 5 5 5 5 5 5 5 5 5 5 5 5 5 5 5 5 5 5 5 5 5 5 5 5 5 5 5 6 5 6 5 6 5 5 6 5 5 5 5 5 5 5 5 5 5 5 5 5 5 5 5 5 5 5 5 5 5 5 5 5 5 5 6 5 5 5 5 5 5 5 5 5 5 5 5 5 5 5 5 5 5 5 5 5 5 5 5 5 5 5 5 5 5 5 5 5 5 5 5 5 5 5 5 5 5 5 5 5 5 5 5 5 6 5 5 5 5 6 5 5 5 5 5 5 5 5 6 5 5 5 5 5 6 6 6 5 5 5 5 6 6 5 5 6 5 5 5 5 5 5 5 5 5 5 5 5 5 5 6 6 5 6 5 5 5 5 5 5 5 5 5 5 5 5 5 5 5 5 5 5 6 5 5 5 5 5 5 6 5 5 5 5 5 5 5 5 5 5 5 5 5 5 5 5 5 5 6 5 5 5 5 5 5 5 5 5 6 5 5 6 5 5 5 5 5 5 5 5 5 5 5 5 5 5 5 5 6 5 6 5 5 5 5 6 5 6 5 5 6 6 5 5 6 5 5 5 6 5 5 5 5 5 5 6 5 5 5 6 5 5 5 5 6 5 5 5 5 5 5 5 6 5 5 5 5 5 6 5 5 6 5 5 5 5 5 5 5 6 5 5 5 6 6 5 5 5 6 5 5 5 5 5 6 6 6 5 5 5 5 5 5 5 5 5 6 6 5 6 5 5 5 5 5 6 5 5 6 5 6 5 5 5 6 5 5 6 5 5 5 5 5 5 5 6 5 5 6 6 5 5 6 5 6 5 5 6 5 5 6 5 6 5 5 5 6 5 5 6 5 6 5 5 6 5 6 5 5 5 5 6 6 5 5 5 5 5 5 5 5 5 6 5 5 5 5 5 5 5 5 5 5 5 5 5 5 5 5 5 5 6 6 5 5 5 6 5 5 5 5 6 5 5 6 5 5 5 6 5 5 6 5 5 5 5 6 5 5 5 5 5 6 5 5 5 6 6 5 5 6 5 5 5 5 5 6 6 5 5 5 5 6 5 5 5 5 6 5 5 5 5 5 5 5 5 5 5 5 5 5 5 5 5 5 5 5 5 5 5 5 5 5 5 5 5 6 5 5 5 5 5 5 5 5 5 5 5 6 5 5 5 5 6 5 5 5 6 5 5 6 5 5 5 5 5 6 5 5 5 5 5 5 5 5 5 5 5 5 5 5 5 5 5 5 5 5 6 5 5 5 5 5 6 5 5 5 5 5 5 5 6 5 5 5 5 5 5 5 5 5 5 5 5 5 6 5 5 5 5 5 6 6 5 5 5 5 6 5 6 5 5 5 6 6 5 5 6 5 5 5 6 5 5 5 5 6 5 5 6 6 5 5 5 5 5 5 6 5 5 6 5 5 5 5 6 5 5 5 5 5 5 5 5 5 5 5 5 5 5 5 5 5 5 5 6 5 6 5 5 5 6 5 6 5 6 5 5 6 5 5 6 6 6 5 5 5 6 5 5 5 5 5 5 6 5 5 5 5 5 5 5 6 5 6 5 5 5 5 5 5 5 6 5 5 5 5 5 5 5 5 5 5 5 6 5 5 6 5 5 5 5 5 5 5 5 5 5 5 5 5 5 5 5 6 5 5 5 5 5 5 5 5 5 5 5 5 5 5 5 5 5 5 5 5 5 6 5 5 5 6 5 5 5 5 5 5 5 5 5 5 6 5 5 5 5 5 5 5 5 5 5 6 5 5 5 5 5 5 6 5 5 5 6 5 5 5 5 5 5 5 5 5 5 5 5 5 5 5 5 5 5 5 5 5 6 5 5 5 5 5 6 5 5 6 5 5 5 5 5 5 6 5 5 5 5 6 5 5 5 5 5 5 5 5 5 5 5 5 5 5 5 5 5 5 6 5 5 5 5 5 6 5 5 5 6 5 6 5 5 5 5 5 5 5 6 5 5 5 6 6 5 5 5 5 5 6 5 5 5 6 5 5 5 5 5 5 5 5 5 5 5 5 5 5 5 6 5 5 5 5 5 5 6 5 5 5 5 5 5 5 5 5 5 5 6 5 5 5 5 5 5 5 5 5 6 5 5 5 5 6 6 5 5 5 5 5 5 5 5 6 6 5 6 5 5 5 5 5 6 5 5 5 5 5 5 6 5 6 5 5 5 5 5 5 5 5 5 5 6 5 5 5 5 5 5 6 5 5 5 5 5 5 5 5 6 5 5 5 5 5 6 5 5 6 5 5 5 5 5 5 6 5 5 5 5 5 5 5 5 6 5 5 5 5 6 5 5 5 5 5 5 5 5 5 5 6 5 5 5 5 5 5 5 5 5 6 5 5 5 5 6 5 5 5 5 5 5 5 5 6 5 6 5 5 5 6 5 5 5 5 5 5 5 5 6 5 5 5 6 5 5 5 6 5 5 6 5 5 5 5 5 5 5 5 5 5 5 5 5 5 5 5 5 5 5 5 5 5 5 5 5 5 5 5 5 5 5 5 5 5 5 5 5 5 5 5 5 5 5 5 5 5 5 5 5 5 5 5 5 6 5 5 5 6 5 5 5 5 5 5 6 5 6 5 5 5 5 6 6 5 5 5 5 5 5 5 5 5 5 5 5 5 5 5 5 5 5 5 5 5 5 6 5 5 6 5 5 5 6 5 5 5 5 5 5 5 5 5 5 5 5 5 5 6 5 6 5 6 5 5 5 5 5 5 5 5 5 5 5 5 5 5 5 5 5 6 5 5 5 5 5 5 5 5 5 5 5 5 5 5 5 5 5 5 5 5 5 5 5 5 5 5 5 5 5 5 5 5 5 6 5 5 5 5 5 5 6 5 5 6 5 6 5 5 6 5 5 5 6 5 5 5 5 5 5 5 5 5 5 5 5 5 5 5 5 5 5 5 5 5 5 5 5 5 6 5 5 5 5 6 5 5 6 5 5 5 5 5 5 5 5 5 5 5 5 5 5 5 5 5 5 5 5 5 5 5 5 5 5 5 5 5 5 6 5 5 5 6 5 5 5 5 6 5 5 5 5 5 6 5 5 5 5 6 5 5 5 5 5 5 5 5 5 5 5 5 5 5 6 6 5 6 5 6 5 5 5 5 5 5 5 5 5 5 5 5 5 5 5 5 5 5 5 5 5 5 5 5 5 6 6 5 5 6 5 5 6 5 5 5 5 5 5 5 5 5 5 5 6 5 5 6 5 5 5 5 5 5 5 5 5 5 5 5 5 5 6 6 5 6 6 5 5 5 5 6 5 5 5 6 6 5 5 5 5 5 5 5 6 5 5 5 5 5 5 5 5 5 5 5 5 5 5 5 5 6 5 5 5 5 6 5 5 5 5 5 5 5 6 5 5 5 5 5 5 5 6 5 5 6 5 5 5 5 5 5 5 5 5 5 5 5 5 5 5 6 5 5 5 5 5 5 5 5 6 5 5 5 5 5 5 5 6 5 5 5 5 5 6 5 5 5 5 6 5 5 5 5 5 5 5 5 5 5 5 5 6 5 5 5 5 5 5 5 5 5 5 5 5 5 5 6 5 5 5 5 5 5 5 5 5 5 5 5 5 6 6 5 5 6 5 5 5 5 6 5 5 5 6 5 5 6 5 5 5 5 6 5 5 5 5 5 5 5 5 5 5 5 5 5 5 5 5 5 5 5 5 5 5 5 5 5 5 5 5 5 5 5 5 5 5 6 5 5 5 6 5 6 5 5 5 5 5 5 5 5 5 5 5 5 5 5 6 5 5 5 5 5 5 5 5 6 5 5 5 6 5 5 5 5 5 5 5 6 5 6 5 5 5 5 5 5 5 5 5 5 5 5 5 5 6 5 5 6 5 5 5 5 5 5 5 6 5 5 5 5 5 5 5 5 5 5 5 5 5 5 5 5 5 5 5 5 5 5 5 5 5 5 5 6 5 5 6 5 5 5 6 5 5 6 5 5 5 5 5 5 5 5 5 5 5 5 5 5 5 5 5 5 5 6 5 5 5 5 5 5 5 5 5 5 5 5 5 6 5 5 5 5 5 5 5 5 5 5 5 5 5 5 5 5 5 5 5 6 5 5 5 5 5 5 5 5 5 5 5 5 5 5 5 5 6 5 5 6 5 5 5 6 5 5 6 5 5 5 5 5 5 5 5 5 5 5 5 5 5 6 5 5 6 5 5 5 5 5 5 5 5 5 5 5 5 5 5 5 5 5 5 5 5 5 5 5 5 5 5 5 5 5 5 5 5 5 5 5 5 6 5 5 5 5 6 5 5 5 5 5 5 5 5 5 5 5 5 5 5 5 6 5 6 6 5 5 6 5 6 5 5 5 5 5 5 5 5 6 5 5 6 5 5 5 5 6 6 5 6 5 5 5 5 5 5 5 5 5 5 5 5 5 5 5 5 5 5 5 5 5 6 5 5 5 5 5 5 5 5 5 5 5 5 5 5 5 5 5 5 5 5 5 5 5 5 5 6 5 5 5 5 5 6 5 5 5 5 5 5 5 5 5 6 5 5 5 5 5 5 5 5 5 5 5 5 5 5 5 5 5 6 6 5 5 6 5 5 5 6 5 5 5 5 5 5 5 5 5 5 6 5 5 6 5 6 5 5 5 5 6 5 5 5 6 5 5 5 5 5 5 6 5 5 5 5 5 5 6 5 5 5 5 5 5 5 5 5 5 5 5 5 5 6 5 5 6 5 5 5 6 6 5 5 5 5 5 5 5 5 5 5 6 5 5 5 6 5 5 5 5 6 5 5 5 5 5 5 5 5 6 5 5 5 5 5 6 6 5 5 5 6 5 6 6 5 5 5 5 5 6 5 5 5 5 5 5 6 5 5 5 5 5 5 5 6 5 5 6 5 5 6 5 5 5 5 5 5 5 5 5 5 5 5 5 5 6 5 5 5 6 5 5 6 5 5 5 5 6 5 5 5 5 5 5 5 5 6 5 5 5 5 6 5 5 5 5 5 5 5 5 6 5 5 5 5 5 5 5 5 5 6 5 5 5 6 5 5 6 5 5 6 5 5 5 5 5 5 5 5 5 6 5 5 5 5 5 5 5 5 5 5 5 5 5 5 5 5 6 5 5 5 5 5 5 5 5 5 5 5 5 5 5 5 5 5 5 5 5 5 5 5 5 5 5 6 5 6 5 5 5 5 5 5 5 5 5 5 6 5 5 6 5 5 5 5 5 5 5 5 5 5 5 5 5 5 5 5 5 5 5 5 5 6 5 5 5 5 5 5 5 5 5 6 5 6 5 5 5 5 5 5 5 6 5 6 5 5 5 5 5 5 5 5 5 5 5 6 5 5 5 5 6 5 6 5 5 5 5 5 5 6 5 5 6 5 5 6 5 5 5 6 6 6 5 5 5 5 5 5 5 5 5 5 5 5 5 6 5 5 5 5 5 5 5 6 5 6 5 6 5 5 6 6 5 5 5 5 5 5 6 5 5 5 5 6 5 6 5 6 5 6 5 5 5 5 6 5 5 5 5 5 6 5 5 5 5 5 5 5 5 5 5 5 5 5 5 6 5 5 5 5 5 6 5 5 5 6 5 5 5 5 5 5 5 5 5 5 5 5 5 5 5 5 5 6 5 5 5 5 6 5 5 5 5 5 5 6 5 5 5 5 5 5 5 5 5 5 6 5 5 6 5 6 5 5 5 5 5 5 5 5 5 5 5 6 5 5 5 5 5 5 6 5 6 6 5 6 5 5 5 5 5 5 5 6 5 5 5 5 5 5 5 5 5 5 5 5 5 5 5 5 6 5 5 5 5 5 5 5 5 5 5 6 5 5 5 5 5 5 5 5 5 5 6 5 5 5 5 6 5 5 5 5 5 6 5 5 5 5 6 5 5 5 5 5 5 5 5 5 5 5 5 5 5 5 5 5 5 6 5 5 5 5 5 5 5 5 6 5 6 6 5 5 5 5 5 6 5 5 5 5 5 5 5 5 5 5 5 5 5 5 6 5 5 6 5 6 6 5 5 5 5 5 5 6 5 5 5 5 6 5 6 5 5 6 5 5 5 5 5 5 6 6 5 5 5 5 5 5 5 5 5 5 5 5 5 5 5 6 5 5 5 5 5 5 5 6 5 6 5 5 5 6 5 6 5 5 5 5 5 5 5 5 6 5 5 5 5 5 6 5 6 5 5 5 5 6 5 5 5 5 5 6 5 5 5 5 5 5 5 5 5 5 5 5 5 5 5 5 5 5 5 5 5 5 5 5 6 5 5 5 6 5 6 5 5 5 6 5 5 5 5 5 5 5 5 5 5 5 5 5 5 5 5 5 6 6 6 6 5 5 5 5 5 5 6 5 5 5 6 5 5 5 5 5 5 5 5 5 5 6 6 6 5 5 6 6 5 5 5 5 5 5 5 5 5 6 5 5 5 5 5 5 5 5 6 6 5 5 5 6 5 5 5 5 5 5 5 5 5 5 5 6 5 6 5 5 5 5 5 6 6 5 5 6 6 5 5 5 5 5 5 5 5 5 5 5 5 5 5 5 5 5 5 5 5 5 5 5 5 5 5 5 5 5 5 5 5 5 5 5 5 5 5 5 5 5 5 6 6 5 5 5 5 5 5 5 5 5 5 5 5 5 5 5 5 5 5 5 5 6 5 5 5 5 5 5 5 5 5 5 5 5 5 5 5 5 6 5 6 5 5 5 5 5 5 5 5 6 5 5 5 5 5 5 5 5 5 5 5 6 5 5 6 5 5 6 5 5 5 5 6 5 5 5 5 6 5 5 6 5 6 5 5 5 5 5 6 5 5 5 5 5 5 5 6 5 5 5 5 5 5 5 5 5 5 5 5 5 5 5 5 5 5 5 5 5 5 5 5 6 5 5 5 6 5 5 6 5 5 5 6 5 5 5 5 6 5 6 5 5 5 5 5 5 5 5 6 5 5 5 5 5 5 5 5 5 5 6 5 5 6 5 5 6 5 5 6 6 5 5 5 5 5 5 5 6 6 5 5 5 6 5 5 6 6 5 5 5 6 6 5 6 5 5 6 5 5 5 5 6 5 6 6 5 5 5 6 5 6 6 5 6 6 6 6 5 6 5 6 5 6 5 5 5 6 5 5 6 5 6 6 5 5 5 5 6 5 6 6 5 5 5 6 6 5 5 6 6 5 5 5 5 6 5 5 5 5 6 5 5 5 5 6 5 6 5 6 5 6 5 6 5 6 5 5 5 5 5 6 5 5 6 6 6 5 5 6 6 5 6 5 5 6 5 5 5 5 5 5 6 5 5 6 5 6 5 5 5 5 6 5 6 5 6 5 5 5 6 5 5 6 5 6 5 6 5 5 5 5 5 6 5 5 5 5 5 5 5 5 5 5 6 5 5 5 5 6 5 5 6 5 5 5 5 5 6 5 5 6 5 5 5 6 5 6 5 5 5 6 5 5 5 5 6 5 5 5 5 6 6 5 5 5 5 5 5 6 5 5 6 5 5 5 5 5 5 5 5 5 5 5 5 5 5 5 5 5 5 5 5 5 5 5 5 5 5 5 5 5 5 5 5 5 5 5 5 5 5 5 5 5 5 5 5 5 5 5 5 5 5 5 5 5 5 5 5 5 5 6 5 5 5 5 5 5 5 5 5 5 5 5 6 5 5 6 5 5 5 6 5 5 5 5 5 5 5 5 5 5 5 5 5 5 5 6 5 5 5 5 5 5 5 5 5 5 5 5 5 5 5 5 6 5 5 5 5 5 5 5 5 5 5 5 5 5 6 5 5 6 5 5 6 5 6 5 5 5 5 5 5 5 6 5 5 5 5 5 5 5 5 5 5 5 5 6 5 5 5 6 5 5 5 5 5 5 5 5 5 6 5 5 5 5 5 5 6 5 5 5 5 5 5 6 5 5 5 6 5 5 5 5 5 5 5 6 5 5 5 5 5 5 5 5 5 5 6 5 5 5 5 5 5 5 5 5 5 5 5 5 5 5 5 6 5 6 5 5 5 5 5 5 5 5 5 5 6 5 6 5 5 5 5 5 5 5 5 5 5 5 6 5 5 5 5 5 5 5 5 5 5 5 6 5 5 5 5 5 5 5 6 5 5 5 5 5 5 5 6 5 5 5 5 5 5 5 5 5 5 5 6 5 5 5 5 5 5 5 5 6 5 6 5 5 5 5 5 5 5 5 5 5 6 5 5 5 6 5 5 5 5 5 5 5 5 5 6 5 5 5 5 5 5 5 5 5 5 5 5 5 5 5 5 6 5 5 5 5 5 5 5 5 5 5 5 5 5 5 5 5 5 5 6 5 5 6 5 5 6 5 5 5 5 5 6 5 5 5 5 5 5 5 5 5 5 5 5 5 5 5 5 5 5 5 5 5 5 5 5 5 5 5 5 5 5 5 5 5 5 5 5 5 5 5 5 5 5 5 5 5 5 5 5 5 5 5 5 5 5 5 5 5 5 5 6 5 5 6 5 5 5 5 5 5 5 5 5 5 5 5 5 5 5 5 5 5 5 5 5 5 5 5 6 6 5 5 5 5 5 5 5 5 5 5 5 5 5 5 5 5 6 6 5 5 5 5 5 5 5 6 5 6 5 5 6 6 5 5 5 5 5 5 5 5 5 5 5 6 5 6 5 5 5 6 5 5 5 6 5 6 5 5 5 5 5 6 6 5 5 5 5 5 5 5 5 5 5 5 5 5 5 5 5 5 5 5 5 5 5 5 5 5 5 5 5 5 5 5 5 5 5 5 5 5 5 5 5 5 5 5 5 5 5 5 5 5 5 5 5 5 5 5 5 5 5 5 5 5 5 5 5 5 5 5 5 5 5 5 5 5 5 5 5 5 5 5 5 5 5 5 5 5 5 5 5 5 5 5 5 5 5 5 5 5 5 5 5 5 5 5 5 6 6 5 6 5 6 5 5 6 5 5 5 5 6 5 5 5 5 5 5 5 6 6 6 5 5 5 5 5 6 6 5 5 5 5 5 5 5 5 5 5 5 5 5 5 5 5 5 5 5 5 5 5 5 5 5 5 5 5 5 5 5 5 5 5 6 5 5 6 5 5 5 5 5 5 5 5 5 5 5 6 5 5 5 5 5 5 5 6 5 5 5 5 5 5 5 5 5 5 5 5 5 5 5 5 6 5 5 6 5 5 5 5 5 5 5 5 5 5 5 5 5 5 5 5 5 5 5 5 5 5 5 6 5 5 6 5 5 6 5 5 5 5 5 5 5 6 5 5 5 5 5 5 6 5 5 6 5 5 5 5 6 5 6 5 5 6 5 5 5 5 6 5 6 5 5 6 5 5 5 5 5 5 5 5 5 5 5 5 6 5 5 5 6 5 5 6 5 5 5 5 6 5 5 5 5 5 5 5 5 5 5 6 5 5 5 5 5 5 5 5 5 5 6 5 5 5 5 5 5 5 5 5 5 5 5 6 5 5 6 5 5 5 5 5 5 5 5 5 5 6 5 5 5 5 5 6 5 6 6 5 5 6 5 5 5 5 5 5 5 5 5 6 6 5 5 5 5 5 5 6 5 5 5 5 5 5 5 5 5 5 5 5 5 5 5 5 5 5 5 5 5 5 5 5 5 6 5 5 5 5 5 5 5 5 5 5 5 5 5 5 5 5 5 5 5 5 5 5 5 5 5 5 5 5 5 5 5 5 5 5 5 5 5 5 5 5 6 5 5 5 5 5 5 5 5 5 5 6 5 5 5 6 5 6 5 5 5 6 5 5 5 6 5 6 5 6 5 6 6 5 5 6 5 5 5 6 5 5 5 5 5 6 5 5 5 5 6 5 5 5 6 5 5 5 5 6 5 6 5 5 5 5 5 5 5 5 5 5 5 5 5 5 6 5 5 5 5 6 5 5 6 5 5 6 6 5 5 6 5 6 5 5 5 6 6 6 6 5 5 6 5 5 5 5 6 5 6 5 5 6 6 6 5 6 5 5 6 6 6 5 5 5 5 5 5 5 5 5 6 6 5 5 5 5 6 6 5 5 5 6 5 6 5 5 5 5 5 5 5 5 5 5 5 6 5 5 5 5 5 5 5 5 5 5 5 5 5 5 5 5 5 5 5 5 5 5 5 6 5 5 5 5 5 5 5 5 5 5 5 5 5 5 5 5 6 5 5 6 5 5 5 5 5 5 5 5 5 6 5 5 5 6 6 5 5 6 5 5 5 5 5 6 5 6 5 5 5 6 5 5 5 5 5 5 5 6 5 5 6 5 5 5 5 6 5 5 5 6 6 5 5 6 5 5 5 6 5 5 5 5 5 5 5 6 5 5 6 5 6 6 6 5 6 5 6 6 5 5 5 5 5 5 6 5 5 6 5 5 5 5 5 5 5 5 5 5 5 5 5 5 5 5 5 5 5 5 5 5 5 5 5 5 5 5 5 5 5 5 5 5 5 6 6 5 5 5 5 5 5 5 5 6 6 6 6 5 5 6 5 5 5 5 5 5 5 5 6 5 5 6 5 5 5 6 5 5 5 5 6 5 5 5 5 5 5 5 5 5 5 5 5 5 5 6 5 5 5 5 5 6 5 5 5 5 5 5 5 5 6 5 5 5 6 6 5 5 6 6 5 5 5 5 5 6 5 5 5 5 5 5 6 5 6 5 5 5 5 5 5 5 5 6 6 5 6 6 6 5 6 5 5 5 5 5 5 6 5 5 5 5 5 5 5 6 5 5 5 5 5 5 5 5 5 5 5 5 5 5 5 5 5 5 5 5 5 5 5 5 5 5 5 5 5 5 5 5 5 5 5 5 5 5 5 5 5 5 5 5 5 5 5 5 5 5 5 5 5 5 5 5 5 6 5 5 5 5 5 5 5 6 5 5 6 5 5 5 6 5 6 5 5 6 5 5 5 5 5 5 5 6 5 5 5 6 5 5 5 5 5 5 5 6 5 6 5 5 5 5 5 5 5 5 5 5 5 5 5 5 5 5 5 5 5 5 5 5 5 5 5 6 6 5 6 5 5 5 5 5 5 5 6 5 6 5 6 6 6 5 5 6 5 5 6 5 5 5 6 5 5 5 5 5 5 5 6 6 5 5 6 5 5 5 6 5 5 5 5 6 5 6 5 5 5 5 5 5 6 5 6 5 5 5 5 5 6 5 5 6 5 5 5 5 5 5 5 5 5 5 5 5 5 5 5 5 6 5 5 6 6 5 6 5 5 5 5 5 5 5 5 6 5 5 5 5 5 5 5 5 5 5 5 5 5 5 5 5 6 5 5 5 6 5 5 6 5 5 5 5 5 5 6 5 5 5 5 5 5 5 5 5 5 5 5 5 5 5 5 5 5 5 6 6 5 5 5 5 5 5 5 6 5 5 5 6 5 5 6 5 6 5 5 6 5 6 6 5 6 5 6 5 6 5 5 5 5 5 5 5 5 5 5 5 5 5 5 5 6 6 5 5 5 5 5 5 5 6 5 5 5 5 5 5 5 5 5 5 5 5 5 5 5 6 5 6 5 5 5 5 5 5 6 5 5 5 6 5 5 5 6 5 5 5 5 5 5 5 5 5 5 5 5 5 5 5 5 5 5 5 5 5 6 5 5 5 5 6 5 5 5 5 5 6 5 5 5 6 5 5 5 5 5 5 5 5 5 5 5 5 6 5 5 5 5 6 5 5 5 5 5 5 5 5 6 5 5 5 5 5 5 5 6 5 5 5 5 6 5 5 5 5 5 5 5 5 6 5 5 5 5 5 5 5 5 5 6 5 5 5 5 5 5 5 5 5 5 5 5 5 5 5 5 5 5 5 5 5 5 5 5 5 5 5 5 6 5 5 5 5 5 5 5 6 5 5 5 5 5 5 5 5 5 5 5 5 5 5 5 5 5 5 5 5 5 5 5 5 5 5 5 5 5 6 5 5 5 5 5 5 5 5 5 5 5 5 5 5 5 5 5 5 5 5 5 5 5 5 5 5 5 5 5 5 5 5 6 5 5 6 5 5 5 5 6 5 5 6 5 5 5 5 6 5 5 5 6 5 5 5 6 5 5 5 5 5 5 5 5 5 5 6 5 5 6 5 5 5 5 5 5 6 5 5 5 5 5 6 5 5 5 5 6 5 5 5 5 5 5 5 5 5 5 6 5 5 5 5 5 5 5 5 5 6 5 5 5 5 5 5 5 5 5 5 5 5 5 6 5 5 5 5 5 5 5 6 5 5 5 5 5 6 5 5 5 5 5 5 5 5 5 5 5 5 5 5 6 5 5 5 5 5 5 5 5 6 5 5 5 5 5 5 5 5 5 5 5 5 5 5 5 5 5 5 5 5 5 5 5 5 5 5 5 5 5 5 5 5 5 6 5 5 5 5 6 6 5 5 6 5 5 6 5 5 6 5 5 5 5 5 5 5 5 5 5 5 5 5 5 5 5 5 5 5 6 5 5 5 5 6 5 5 5 5 5 5 5 5 5 5 5 5 5 5 5 5 5 5 5 5 5 5 5 5 5 5 5 5 5 5 5 5 5 5 5 5 5 5 5 5 5 5 5 5 5 5 5 5 5 5 5 5 5 5 5 5 5 5 5 5 5 5 5 5 5 5 5 5 5 5 5 6 5 5 5 5 6 5 6 5 5 6 5 5 5 5 6 5 5 6 5 5 5 5 5 5 5 5 5 5 5 5 5 5 5 5 5 5 5 5 5 5 5 5 5 5 5 5 5 5 5 5 5 5 5 5 5 5 5 5 5 5 5 5 5 5 5 5 5 5 5 5 5 5 5 5 5 5 5 5 6 5 5 5 5 5 5 5 5 5 6 5 5 5 5 5 5 5 6 5 5 5 5 5 5 5 5 5 5 5 5 5 5 5 5 5 5 5 6 6 5 5 6 5 6 5 5 5 5 5 5 5 5 5 5 5 5 5 5 5 5 5 5 5 5 5 5 5 5 5 5 5 5 5 5 5 5 5 5 5 5 5 5 5 5 5 5 5 5 5 5 5 5 5 5 5 5 5 5 5 6 6 5 5 5 5 5 5 5 5 5 5 5 5 5 5 5 5 5 5 5 5 6 5 5 5 5 5 5 5 5 5 5 6 5 5 5 6 5 5 5 5 5 5 6 5 5 5 5 5 5 5 5 5 5 5 5 5 6 5 5 5 5 5 5 6 6 5 6 5 5 6 5 5 5 6 5 5 5 6 5 5 5 5 5 6 5 6 5 5 5 5 6 5 5 5 5 6 5 6 5 5 6 6 5 5 5 5 5 6 5 5 5 5 5 6 6 6 5 6 5 6 5 5 5 5 5 6 5 5 5 5 5 5 5 5 6 6 5 5 6 5 5 5 5 6 5 5 6 5 5 6 5 5 5 5 5 5 5 5 5 6 5 5 5 5 5 5 5 5 6 5 5 5 5 5 5 5 5 5 6 6 5 5 5 5 5 5 5 5 5 5 5 5 5 5 5 5 5 5 5 5 5 5 5 5 5 5 5 5 5 5 5 5 5 5 5 6 5 5 5 5 6 5 5 5 5 5 5 5 5 5 5 5 5 5 5 5 5 6 6 5 5 5 5 5 5 5 5 5 6 5 5 5 5 6 5 5 6 5 5 5 5 5 5 5 5 5 5 5 5 5 6 5 5 5 5 5 5 5 5 5 5 5 5 5 5 5 5 5 5 5 5 5 5 5 5 5 6 5 5 5 5 5 6 5 5 5 6 5 5 5 6 6 5 5 5 5 5 5 5 5 5 5 5 5 5 5 6 5 5 5 6 5 5 5 5 6 6 5 5 5 5 5 5 5 5 5 5 5 5 5 5 5 5 5 5 5 5 5 5 5 6 5 5 5 5 5 5 5 5 5 6 5 5 5 5 6 5 6 5 5 5 5 6 5 5 5 5 5 5 5 5 5 5 5 5 5 5 5 6 5 5 6 5 5 5 5 5 5 5 5 5 5 6 6 5 5 5 5 6 5 5 5 6 5 5 5 5 6 6 5 6 5 6 5 6 5 5 6 5 5 6 5 5 6 5 5 5 6 5 5 6 5 6 5 6 5 5 6 5 5 5 5 5 5 5 5 5 5 5 5 5 6 5 5 5 5 5 5 5 5 5 5 5 5 5 5 5 5 6 6 5 5 5 5 5 6 5 5 5 5 6 5 5 6 5 5 5 5 6 5 5 5 5 5 5 5 5 5 5 5 5 5 5 5 5 5 5 5 5 5 5 5 5 5 5 5 5 5 5 5 5 5 5 5 5 5 5 6 5 5 5 5 5 5 5 5 5 5 5 5 5 6 5 6 5 5 5 5 6 5 5 5 5 5 5 5 5 5 5 5 5 5 5 5 5 5 5 6 5 6 5 5 6 5 5 5 6 5 5 5 5 5 5 5 5 5 5 5 5 5 5 5 5 5 5 5 5 5 5 5 5 5 5 5 6 5 5 6 5 5 5 5 5 5 5 5 5 5 5 5 5 5 5 5 5 5 5 5 5 5 5 5 5 5 5 5 5 5 5 5 5 5 5 6 5 6 5 5 5 5 5 5 5 5 5 5 5 5 5 5 5 5 5 6 6 5 5 5 5 5 6 5 5 5 5 6 5 5 5 5 6 5 5 5 5 5 5 5 5 5 5 5 5 5 5 5 5 5 5 6 5 5 5 5 5 5 6 5 5 6 5 5 5 5 5 5 5 5 5 5 5 5 6 5 5 6 5 5 5 5 5 5 5 5 6 5 5 5 5 5 5 6 5 5 6 5 5 5 5 5 5 5 5 5 5 5 5 5 5 5 5 5 5 5 5 5 5 5 5 5 5 5 5 5 5 5 5 5 5 5 5 6 5 5 5 6 5 5 6 5 5 5 5 5 5 6 5 5 5 5 5 6 5 5 5 5 5 5 6 5 5 5 5 6 5 6 5 5 6 5 5 5 6 5 5 5 5 5 5 5 5 5 5 5 5 5 6 5 5 5 5 5 5 5 5 5 5 5 5 5 5 5 5 5 5 5 5 5 5 5 5 6 5 6 5 6 5 6 5 5 5 5 6 5 5 5 5 6 5 5 5 5 5 5 5 5 5 5 5 5 5 5 6 5 5 5 6 5 5 5 6 5 5 6 5 5 5 6 5 5 5 5 6 5 5 5 5 6 5 5 5 5 5 5 5 5 5 5 6 5 5 5 5 5 6 5 6 5 5 5 5 5 6 6 5 5 6 5 6 5 5 6 5 5 5 5 5 5 5 5 5 5 5 5 5 6 5 5 5 5 5 6 5 5 5 5 5 5 5 5 5 5 6 5 6 5 5 6 5 5 6 5 6 5 6 5 5 5 5 5 6 6 5 5 5 5 5 5 5 5 5 5 5 6 5 5 5 5 5 6 5 5 5 6 5 6 5 5 5 5 5 5 5 5 5 5 5 5 5 5 5 6 5 5 5 5 6 5 5 5 5 5 5 5 5 5 5 5 5 5 5 5 5 5 5 5 5 5 5 5 6 5 5 6 5 5 5 5 5 5 5 6 5 5 6 5 6 5 5 5 5 5 5 5 5 5 6 5 5 6 5 5 5 6 5 5 5 5 5 5 5 6 5 5 5 5 6 6 5 5 5 5 5 5 5 5 5 6 5 5 5 5 5 5 5 5 5 5 5 5 5 5 5 5 6 5 6 5 5 5 6 5 5 5 5 5 5 5 5 5 5 5 5 5 6 5 5 5 5 5 6 5 5 5 6 6 5 5 5 6 5 5 6 5 5 5 5 6 6 5 5 5 6 5 5 6 5 5 5 5 6 5 6 5 5 5 6 5 5 5 5 5 5 5 5 5 5 5 5 5 5 5 5 5 5 5 5 5 6 5 5 5 5 5 5 5 5 5 6 5 5 5 6 5 6 5 5 5 5 5 5 5 5 5 5 5 6 5 5 5 5 5 6 5 5 5 5 5 6 5 5 5 5 5 5 5 5 5 5 5 5 5 5 5 5 6 5 5 5 5 5 5 5 5 5 6 5 5 5 5 5 5 5 5 5 5 5 5 5 5 5 6 5 5 5 5 5 5 5 5 5 5 5 5 5 5 5 5 5 5 5 5 5 5 5 5 5 5 5 5 5 6 5 5 5 5 6 5 6 6 5 5 5 5 5 5 6 5 6 5 5 5 6 5 5 6 5 5 5 5 5 5 6 5 5 5 5 5 5 5 6 5 5 5 5 6 5 5 5 5 5 5 6 5 5 5 5 5 5 5 5 5 5 5 5 6 5 6 5 5 5 5 5 5 5 6 6 5 5 5 5 5 5 5 5 6 5 5 5 6 5 5 6 5 5 5 5 5 5 5 5 5 5 5 5 5 5 5 5 5 5 5 5 5 5 5 5 5 6 5 5 6 5 5 5 5 5 6 5 5 6 5 6 5 5 5 6 5 5 5 5 6 5 5 6 6 5 5 5 5 5 6 5 5 6 5 5 5 5 5 6 5 5 5 5 5 5 5 5 5 6 5 5 5 5 6 5 5 5 5 5 5 6 5 6 5 5 5 6 5 6 5 5 6 5 6 5 5 5 6 5 5 5 5 5 5 5 5 5 5 5 5 5 6 5 5 5 5 6 5 5 5 5 5 5 6 5 5 5 5 5 5 5 6 5 5 5 5 5 5 6 5 5 5 5 5 5 5 6 5 5 6 5 5 5 5 5 5 5 5 5 6 6 5 5 5 5 5 5 5 5 5 5 5 5 6 5 5 5 5 5 5 5 6 5 5 5 6 5 6 5 5 6 5 5 5 5 5 6 5 5 5 6 5 5 5 5 6 5 5 5 6 5 5 5 5 5 5 5 6 5 5 6 5 5 5 6 5 5 5 6 5 5 5 5 6 5 5 5 6 5 5 5 5 5 5 5 5 5 6 5 5 5 5 5 5 5 5 5 6 5 5 5 5 6 5 5 6 5 5 5 5 5 5 5 5 5 5 5 5 5 5 5 5 5 5 5 5 5 5 5 5 5 5 6 5 5 5 5 5 5 5 5 5 5 5 6 5 5 5 6 5 5 5 5 5 5 6 5 5 5 5 5 5 5 5 5 5 5 5 5 5 5 5 5 5 5 5 5 5 5 5 5 5 6 5 6 5 5 6 6 5 5 5 5 5 5 5 5 5 5 5 5 5 5 5 5 5 6 5 5 5 5 5 5 5 5 5 5 5 5 5 5 5 5 5 5 5 5 5 5 5 5 5 5 5 5 5 5 5 5 5 5 5 5 5 5 5 5 5 5 5 5 5 5 5 5 5 5 5 5 5 5 5 5 5 5 5 5 5 6 5 5 6 5 5 5 5 6 5 5 5 5 5 5 5 5 5 5 6 5 6 5 5 5 6 5 5 5 6 5 6 5 5 5 6 5 6 5 6 5 5 5 6 5 5 5 5 6 5 6 5 5 5 5 5 6 5 6 6 5 5 5 5 5 5 6 5 5 5 6 5 5 5 5 5 5 5 5 5 5 5 5 5 5 5 5 5 5 5 6 5 5 5 6 6 5 5 5 5 5 6 5 5 5 5 5 5 5 5 5 5 5 5 5 5 6 5 5 6 5 6 5 5 5 6 5 6 5 5 6 5 5 5 5 5 5 5 5 5 5 5 6 5 5 5 5 5 5 5 5 5 5 6 6 5 5 5 5 5 5 5 6 5 5 5 5 5 5 5 5 5 5 5 5 5 5 6 5 5 5 5 5 5 5 5 5 5 6 5 5 5 6 5 6 6 5 5 5 5 5 5 5 5 6 5 5 5 5 5 5 5 5 5 6 5 6 5 6 5 5 5 5 5 5 5 5 6 5 6 5 5 5 5 5 5 6 5 5 6 5 6 5 5 5 5 5 5 5 5 5 5 5 5 5 5 6 5 5 5 5 5 5 5 5 5 5 6 5 5 5 5 5 5 6 5 5 5 5 5 5 5 5 5 5 5 5 5 5 5 5 5 5 5 5 5 5 5 5 5 6 5 5 5 5 5 6 5 5 5 5 5 5 5 5 5 5 5 6 5 5 5 5 6 5 5 5 5 5 6 5 5 5 5 5 6 5 5 6 5 5 5 5 5 5 5 5 5 5 5 5 5 5 5 5 5 5 5 5 5 5 5 5 5 5 6 5 5 6 5 5 5 5 5 5 5 5 5 5 5 5 5 5 5 6 5 5 5 5 5 5 5 5 5 6 5 5 5 5 5 5 5 6 5 5 5 5 5 6 5 5 5 5 5 5 6 5 5 5 5 6 5 5 5 5 5 5 5 6 5 5 6 5 5 6 5 5 5 5 6 5 5 5 5 5 5 5 5 6 5 5 6 5 5 5 5 5 5 5 5 5 6 5 5 5 5 5 6 5 5 5 5 6 5 5 5 6 5 5 5 5 5 5 5 5 5 5 5 6 6 5 5 5 5 5 5 5 5 5 5 5 6 5 5 5 5 5 6 5 6 6 5 6 6 5 5 6 5 5 5 5 5 5 6 5 6 6 5 5 5 5 5 6 5 5 5 5 5 5 5 5 6 5 5 5 5 6 5 5 5 5 5 6 5 5 6 5 5 5 5 5 5 5 6 5 6 5 5 5 5 5 5 5 6 6 5 5 5 5 5 5 5 6 5 5 5 5 5 5 6 5 5 5 5 5 5 5 5 5 5 5 5 5 5 6 5 5 6 5 5 5 5 6 5 5 5 5 6 5 5 5 5 5 5 6 5 5 5 5 5 5 5 6 5 5 5 6 5 5 5 5 6 5 5 6 5 5 5 5 5 5 5 6 5 5 5 5 6 5 6 5 5 5 5 5 5 5 5 5 5 5 5 5 5 6 5 5 5 5 5 5 5 6 5 5 6 5 5 6 5 5 5 5 5 5 5 5 5 6 5 5 5 6 5 5 5 5 5 5 5 5 5 6 5 5 5 5 5 5 5 5 5 5 5 6 5 5 5 6 5 5 5 5 5 5 5 5 5 5 5 6 5 5 5 5 5 5 5 5 5 5 6 5 5 5 5 5 6 5 5 5 5 5 5 5 5 6 5 5 6 5 5 6 5 5 5 5 6 6 5 5 5 5 6 5 5 5 5 6 5 5 6 5 5 5 5 6 5 5 6 5 5 5 5 5 6 5 5 5 5 5 5 5 5 6 5 6 5 5 5 5 5 5 5 5 5 6 6 5 5 5 5 5 5 6 5 5 6 5 5 6 5 6 5 5 5 6 5 5 6 5 5 5 5 5 5 5 5 6 6 5 5 6 6 5 5 5 5 6 5 5 5 6 5 6 5 6 6 6 5 6 5 5 5 6 5 5 5 5 5 5 5 5 5 6 5 5 6 5 5 5 5 5 5 6 5 5 5 5 5 5 6 6 6 5 5 5 5 5 5 5 5 5 5 5 6 5 5 5 5 6 5 5 5 5 5 5 5 5 6 5 5 6 5 5 5 6 5 5 5 5 5 5 5 5 5 6 5 5 5 5 5 5 5 5 6 5 5 5 6 5 5 6 5 5 5 6 5 6 5 5 6 5 6 5 5 6 5 5 5 5 5 5 6 5 5 6 5 5 5 5 5 5 5 5 5 5 5 5 5 5 5 5 5 5 5 5 5 5 5 5 5 5 5 5 5 5 5 5 5 5 5 5 5 5 5 5 5 5 5 5 5 5 5 5 5 5 5 5 5 5 5 5 5 5 5 5 5 5 5 5 5 5 5 5 5 5 5 5 5 5 5 5 5 5 5 5 5 5 5 5 5 5 5 5 5 5 5 5 5 5 5 5 6 5 5 5 5 6 5 5 5 5 5 5 5 5 5 5 5 5 6 6 5 5 5 5 5 5 5 5 5 5 5 5 5 5 5 6 5 5 5 6 5 5 5 5 5 5 5 5 5 5 6 5 6 5 5 5 5 5 5 5 5 5 5 5 5 5 5 5 5 5 5 5 5 5 5 5 5 6 5 5 5 5 6 5 5 5 5 5 5 5 5 6 5 5 5 5 5 5 5 5 5 5 5 5 5 5 5 5 5 5 5 5 5 5 5 5 5 5 5 5 5 5 5 5 5 5 5 5 5 5 5 5 5 5 5 5 5 5 5 5 5 6 5 5 5 5 5 5 5 5 5 5 5 5 5 5 5 5 5 5 5 5 5 5 5 5 5 5 5 5 5 5 5 5 6 5 5 5 5 5 5 6 5 5 5 5 5 5 6 5 5 6 5 6 5 6 5 5 5 5 6 5 5 5 5 5 6 5 5 5 6 6 5 5 5 6 5 5 5 5 6 6 5 5 5 5 5 5 5 5 5 5 5 5 5 5 6 5 5 6 5 5 6 6 5 5 5 5 5 5 5 5 5 5 6 5 6 5 5 5 5 5 5 5 5 5 5 5 6 5 5 5 5 5 5 5 6 5 5 5 5 5 5 5 5 5 5 5 5 5 5 5 5 5 5 6 6 5 5 5 5 5 5 5 5 5 5 5 5 5 5 5 5 5 6 5 5 5 5 5 5 5 5 5 6 5 5 5 5 5 5 5 5 5 5 5 5 6 5 5 5 5 6 5 6 5 5 5 5 5 5 5 5 5 6 5 5 5 5 6 5 5 5 5 6 5 6 5 5 5 5 5 5 5 5 5 5 5 5 6 5 5 5 5 5 5 5 5 5 5 5 5 5 5 5 6 5 6 5 5 6 5 5 5 6 5 6 5 5 6 5 5 6 5 6 5 5 5 5 5 5 5 6 6 5 5 5 5 6 6 5 5 6 6 5 6 5 5 6 6 5 5 6 5 5 6 5 5 5 5 5 5 5 5 6 5 5 6 5 6 5 5 5 6 5 5 5 5 5 5 5 5 6 5 5 5 5 5 5 5 5 5 5 5 5 5 5 5 5 5 5 5 5 5 5 6 5 5 5 5 5 5 5 5 5 5 5 5 5 5 5 5 5 5 
</DataArray>
<DataArray type="Float64" Name="stress" NumberOfComponents="9" format="ascii">
-1852.7961281775788 4374.7007775421407 0 4374.7007775421407 -0.075194029283011332 0 0 0 0 0.36938386654219357 4257.6517801525442 0 4257.6517801525442 -2959.6017383803191 0 0 0 0 -409.86262638895641 3406.7206640542336 0 3406.7206640542336 -4717.1419052345736 0 0 0 0 -724.51816493676233 3992.0950564111863 0 3992.0950564111863 -1900.6230066644493 0 0 0 0 -578.57603551328066 2058.5015623086292 0 2058.5015623086292 -2874.8125206783297 0 0 0 0 110.59138015257486 2397.1975687042905 0 2397.1975687042905 -6668.7620080314664 0 0 0 0 -14.014861702625467 7.8585017994051327 0 7.8585017994051327 -3.9553131913728805 0 0 0 0 -583.16962472466548 930.17234036152877 0 930.17234036152877 -2159.2909476279747 0 0 0 0 -1628.1431409326906 2001.6156523270183 0 2001.6156523270183 -1089.6238995868771 0 0 0 0 -244.23412031470798 1302.1292884205759 0 1302.1292884205759 -1823.8499448528892 0 0 0 0 -24.605532495612579 16.833099088531753 0 16.833099088531753 4.543535030897317 0 0 0 0 -4364.562823105487 2775.4224673953504 0 2775.4224673953504 1059.0568299665174 0 0 0 0 110.99504160415381 687.66221699331072 0 687.66221699331072 -182.87619685710524 0 0 0 0 -813.04437400895404 216.47451165672101 0 216.47451165672101 2873.7981411178553 0 0 0 0 -20.250977175067305 5.5287291925199042 0 5.5287291925199042 1.4260525798649013 0 0 0 0 -3153.1194968100317 2958.2931358265268 0 2958.2931358265268 -1413.8756337134423 0 0 0 0 -1579.9625546006137 3905.262857658432 0 3905.262857658432 -1375.5169915977604 0 0 0 0 -3050.5004389017076 4166.59094390686 0 4166.59094390686 -3101.088246848376 0 0 0 0 -1685.4034332853189 2153.1215662283212 0 2153.1215662283212 -327.4792327542782 0 0 0 0 -1930.6757738704327 936.69372351339553 0 936.69372351339553 -3.5514719840066391 0 0 0 0 -2592.9193572122458 834.21898729979148 0 834.21898729979148 -254.13058397856366 0 0 0 0 -13.593499106625302 3.6481217028753576 0 3.6481217028753576 -0.41192357751725694 0 0 0 0 -50.810048757623463 13.901576920345008 0 13.901576920345008 2.1648788678231483 0 0 0 0 57.940271108964225 622.14042642677668 0 622.14042642677668 1105.9604489814956 0 0 0 0 -25.512242212869751 23.895463354350795 0 23.895463354350795 -163.72080096525315 0 0 0 0 838.44329209117132 718.07248755692854 0 718.07248755692854 582.08026489662006 0 0 0 0 -72.497849415638484 76.425348608419881 0 76.425348608419881 -72.151108582067536 0 0 0 0 2.118467191657146 9.0887165819128768 0 9.0887165819128768 -1.1056594760837442 0 0 0 0 -5.1588457858125878 0.5264508311603322 0 0.5264508311603322 3.113140841236941 0 0 0 0 -35.969535452764831 30.908413824974559 0 30.908413824974559 -1.8018975845698151 0 0 0 0 -30.708436761497012 22.689374050770198 0 22.689374050770198 0.020984755280551326 0 0 0 0 -41.76650414736946 31.096103397171703 0 31.096103397171703 -12.987353915721769 0 0 0 0 -569.75436617454397 793.39462539623491 0 793.39462539623491 -514.0327829766029 0 0 0 0 -9.6809185314291142 27.285413473024903 0 27.285413473024903 -16.120331150149696 0 0 0 0 -147.01414528652822 319.60535632711253 0 319.60535632711253 -685.07700711707002 0 0 0 0 -1636.7716706720894 1317.8840253494855 0 1317.8840253494855 -244.61416413774714 0 0 0 0 -192.873405702936 656.48965210729511 0 656.48965210729511 -736.48013386868115 0 0 0 0 -48.88663399990628 53.687492546426057 0 53.687492546426057 -43.989619997317334 0 0 0 0 156.19242964973091 666.88238084726618 0 666.88238084726618 132.51929866294086 0 0 0 0 1335.1260246899255 156.53557583887959 0 156.53557583887959 -460.83530990558211 0 0 0 0 -12.810458985605408 14.219572882770024 0 14.219572882770024 2.0019072463566658 0 0 0 0 -1662.2956973791443 1467.6298420810999 0 1467.6298420810999 -666.30127284710761 0 0 0 0 -2329.0936917111394 746.2058337823255 0 746.2058337823255 -1283.4037067910976 0 0 0 0 130.61256357039383 712.7914902347984 0 712.7914902347984 -615.0483658425801 0 0 0 0 -123.96855144837173 516.46170198214531 0 516.46170198214531 -614.00802521160222 0 0 0 0 246.26919617102249 234.23026048672909 0 234.23026048672909 -1811.9840862369238 0 0 0 0 -1310.8150925546652 1520.607690405508 0 1520.607690405508 -1427.7375599850784 0 0 0 0 -61.501971546778805 443.51520285029255 0 443.51520285029255 1877.7492068293068 0 0 0 0 -9.8308398494510811 8.0438525920355914 0 8.0438525920355914 2.5114026095314017 0 0 0 0 -897.90636234279373 -81.747548728559195 0 -81.747548728559195 2328.2263026317232 0 0 0 0 -488.47052032111969 1571.9888141737902 0 1571.9888141737902 -1298.6076485062804 0 0 0 0 57.202874250506284 1573.7708195022133 0 1573.7708195022133 -3532.6483873788529 0 0 0 0 -67.02577523412765 423.67199519605492 0 423.67199519605492 -2533.3449138641445 0 0 0 0 -203.76247846745537 296.11925950266595 0 296.11925950266595 -1341.272169327829 0 0 0 0 -323.11693908167945 897.6582974155026 0 897.6582974155026 -1920.8704557446908 0 0 0 0 39.583590981696034 315.66969157180574 0 315.66969157180574 -1437.3585096632341 0 0 0 0 -94.040872355661122 242.85336806126725 0 242.85336806126725 -197.74859056370042 0 0 0 0 -27.133547612332109 34.928813511497367 0 34.928813511497367 19.964416106687821 0 0 0 0 -150.15938748501867 28.586250115710754 0 28.586250115710754 98.917575340747135 0 0 0 0 -111.30414437902073 45.895542030491924 0 45.895542030491924 -226.17201247587218 0 0 0 0 62.450309421222528 61.580353109595592 0 61.580353109595592 -6.1716346364364085 0 0 0 0 -653.12624571286142 745.73574656002165 0 745.73574656002165 -717.40890029710135 0 0 0 0 -39.658938100268585 43.157002424079906 0 43.157002424079906 20.311563175957332 0 0 0 0 1027.346254845892 843.2880324337093 0 843.2880324337093 -1884.1313905721909 0 0 0 0 -4.4092065290593041 17.777489624039916 0 17.777489624039916 15.547125403742427 0 0 0 0 -205.72666586257401 194.08200454169128 0 194.08200454169128 -71.498921692960721 0 0 0 0 -70.286101451976435 68.89463181416609 0 68.89463181416609 -17.190844798121361 0 0 0 0 -118.42023378878366 254.84125975865027 0 254.84125975865027 -290.4235137324722 0 0 0 0 -298.34678186885139 377.69200280842051 0 377.69200280842051 -314.84460043894069 0 0 0 0 -198.1419717745448 374.90024649546103 0 374.90024649546103 -435.80921398766804 0 0 0 0 -215.0882980444967 256.20451315629134 0 256.20451315629134 -157.18734328441496 0 0 0 0 -217.52705314944615 528.61151751359284 0 528.61151751359284 -346.58958099053416 0 0 0 0 -201.37786133248301 509.00883759498174 0 509.00883759498174 -861.96540215797722 0 0 0 0 -224.24079984152922 557.40163138108619 0 557.40163138108619 -469.09404497091236 0 0 0 0 -70.533956867686356 119.55639779310877 0 119.55639779310877 -63.434117975011759 0 0 0 0 -359.05927742314816 181.80029657846535 0 181.80029657846535 -7.6230132262862753 0 0 0 0 -372.49264613518608 466.99484616008704 0 466.99484616008704 -284.97725472448656 0 0 0 0 -250.69299368860084 316.73336671963989 0 316.73336671963989 -201.94069714253419 0 0 0 0 -602.46534403407713 403.97443913405004 0 403.97443913405004 -191.26499756787416 0 0 0 0 -225.00012950375094 212.1559722324746 0 212.1559722324746 -178.92961015134642 0 0 0 0 -240.14483986175037 5.3115073047738406 0 5.3115073047738406 78.263172363251215 0 0 0 0 62.105054140949505 -12.441471807047492 0 -12.441471807047492 -63.042389365888084 0 0 0 0 -41.410887802863726 -74.968511993334687 0 -74.968511993334687 32.077097123205021 0 0 0 0 -3.9691346636220715 11.806927449213447 0 11.806927449213447 0.8947642894553951 0 0 0 0 736.0366247863567 913.67719443747774 0 913.67719443747774 39.377330782721401 0 0 0 0 79.948772548355919 24.884272412054997 0 24.884272412054997 7.8693016704201 0 0 0 0 -643.49268362607108 1606.1357507102657 0 1606.1357507102657 -237.12225657071599 0 0 0 0 -31.780040595476748 1121.5392377697499 0 1121.5392377697499 -927.55477099528798 0 0 0 0 -316.28981625195593 -56.911298061299021 0 -56.911298061299021 134.0807663477899 0 0 0 0 0.81733768891717773 773.66859076893888 0 773.66859076893888 198.72152069720323 0 0 0 0 27.401770452983328 628.00891565855272 0 628.00891565855272 -112.6210098102456 0 0 0 0 -189.00572773642489 -56.349330447788816 0 -56.349330447788816 1895.5475160727656 0 0 0 0 1.5313515145156771 0.10047125867106388 0 0.10047125867106388 -0.47398293089952404 0 0 0 0 -84.802434228389757 68.39090820193087 0 68.39090820193087 1137.5427194526856 0 0 0 0 -40.704394577784115 349.27745008854799 0 349.27745008854799 427.14431564233382 0 0 0 0 3.1934275862666937 9.7974331063359159 0 9.7974331063359159 -2.3336504532716305 0 0 0 0 -1.9151223107532473 18.123975709597858 0 18.123975709597858 -19.399411466446054 0 0 0 0 -1754.3088402399735 1865.0623593912824 0 1865.0623593912824 -1703.2848443835246 0 0 0 0 -320.34858041806365 423.36007063142642 0 423.36007063142642 -542.01661258921376 0 0 0 0 -585.38094957812427 1571.0425178330679 0 1571.0425178330679 -2473.3326797421032 0 0 0 0 -2.6208922746882308 984.60970506787271 0 984.60970506787271 -1900.9115732040009 0 0 0 0 4.1618465912761167 1240.0248118494783 0 1240.0248118494783 -2510.8635337133073 0 0 0 0 53.310993931940175 1453.7321768566471 0 1453.7321768566471 -3082.3803326575726 0 0 0 0 -1363.8991338474152 -975.38123490751605 0 -975.38123490751605 -1282.2428988712054 0 0 0 0 447.18493417353602 513.03911779024929 0 513.03911779024929 -4131.0491224253637 0 0 0 0 -293.88340217173391 2402.1237734937586 0 2402.1237734937586 -3142.7415523998061 0 0 0 0 289.55286147116567 862.75892720591219 0 862.75892720591219 -2167.0268208691423 0 0 0 0 179.08534368411347 791.33556076084278 0 791.33556076084278 -1792.600532327473 0 0 0 0 -426.96373789917561 -458.30418862341321 0 -458.30418862341321 -1009.7981094813222 0 0 0 0 -10.475133218579913 40.497692901430753 0 40.497692901430753 13.233031640467829 0 0 0 0 -11.459361525267013 -30.342088920486276 0 -30.342088920486276 98.559737358620623 0 0 0 0 -18.722304813971277 -840.69208986697777 0 -840.69208986697777 -2915.1554050282866 0 0 0 0 -651.77893397059597 289.43271560550056 0 289.43271560550056 -325.64940811842098 0 0 0 0 -858.65814947958279 660.39240903090104 0 660.39240903090104 -289.69486197493097 0 0 0 0 -1913.6965806405897 1965.2762430446492 0 1965.2762430446492 -741.46304400757072 0 0 0 0 -5.8862141952560876 -2.3786137228901794 0 -2.3786137228901794 -3.4180403251870644 0 0 0 0 -1728.2336557183517 1036.1312205407012 0 1036.1312205407012 72.74887367800693 0 0 0 0 -1598.4011754027451 954.59887560816424 0 954.59887560816424 -950.64169832781772 0 0 0 0 -7.6166738048179354 2.3801578652789885 0 2.3801578652789885 6.6194888430889023 0 0 0 0 -1980.3174707075923 1340.843757114937 0 1340.843757114937 -473.5506899645261 0 0 0 0 -1468.1447040961648 753.3830146179389 0 753.3830146179389 -435.24357604903344 0 0 0 0 -1644.8988216337675 794.6334704853507 0 794.6334704853507 0.30570492806145921 0 0 0 0 -1610.9601503160375 810.80814828634902 0 810.80814828634902 -87.663716094626579 0 0 0 0 -1610.9802144140413 906.17525309129269 0 906.17525309129269 -157.13986087763624 0 0 0 0 -1411.8006580809306 591.17160919946764 0 591.17160919946764 20.103123267239425 0 0 0 0 -843.41091521663475 773.06655304906599 0 773.06655304906599 -241.56937054939044 0 0 0 0 -834.64196334951794 841.44152218096679 0 841.44152218096679 66.759371443797136 0 0 0 0 -843.49466451137414 875.55278156504937 0 875.55278156504937 -0.10061439983837772 0 0 0 0 -283.3821921825147 669.41551547996642 0 669.41551547996642 -114.234967415352 0 0 0 0 -196.23832864504948 945.51526744379589 0 945.51526744379589 -0.46329777628125157 0 0 0 0 214.88510353457241 735.42725148655882 0 735.42725148655882 -305.46014227681735 0 0 0 0 154.40646923016175 1390.5107156405761 0 1390.5107156405761 278.43660736148013 0 0 0 0 -812.88854807172902 473.55461296508292 0 473.55461296508292 0.15379925242450554 0 0 0 0 -1173.7893906168611 1750.0557601070759 0 1750.0557601070759 -232.15462249191296 0 0 0 0 -1591.7616613405535 1081.9339846912662 0 1081.9339846912662 -1168.2135142384504 0 0 0 0 -130.80017737512389 578.96315532964218 0 578.96315532964218 -372.94147370316205 0 0 0 0 3409.5861237763093 47.208815688158211 0 47.208815688158211 -994.49321801653423 0 0 0 0 26.641529963206267 975.78204831764742 0 975.78204831764742 625.72406952604069 0 0 0 0 2.7591587008791532 23.439271493890999 0 23.439271493890999 8.5875627611554819 0 0 0 0 -1130.8297452032712 475.92845921983826 0 475.92845921983826 -407.7437074653717 0 0 0 0 -1119.757009242091 845.55588348783408 0 845.55588348783408 -184.63666479114909 0 0 0 0 -1803.7307235017943 603.11646543856477 0 603.11646543856477 106.90407214527659 0 0 0 0 3454.7933714463143 159.86954269825947 0 159.86954269825947 -289.35126104561641 0 0 0 0 -3549.8778493363498 826.88876065373188 0 826.88876065373188 156.25971379670955 0 0 0 0 0.63439271386377527 6.9106659646874959 0 6.9106659646874959 0.7394651916267776 0 0 0 0 10.526234937089612 870.29392227156495 0 870.29392227156495 -13.603355754876247 0 0 0 0 -120.00319535786548 1210.3656322661191 0 1210.3656322661191 -270.59219656605273 0 0 0 0 -455.41518626312609 1079.62901295146 0 1079.62901295146 0.50766307696176227 0 0 0 0 -784.59249779465608 628.89749549111366 0 628.89749549111366 -543.22484687616816 0 0 0 0 -1196.6841387761961 1699.341496503017 0 1699.341496503017 -446.89428869317635 0 0 0 0 -236.42297355529445 1158.7307541841001 0 1158.7307541841001 -198.55689513314428 0 0 0 0 50.271259957415168 787.78484001409379 0 787.78484001409379 -743.15544222359313 0 0 0 0 -100.25334371143254 832.5888982656179 0 832.5888982656179 273.6361668939353 0 0 0 0 -82.159915052834549 856.58874225705222 0 856.58874225705222 -230.82796152976243 0 0 0 0 730.27319715858903 1027.8280896455835 0 1027.8280896455835 -0.59139447196429873 0 0 0 0 532.16604602744337 731.28257545768429 0 731.28257545768429 -801.21251959257643 0 0 0 0 446.49212230330158 1200.1741085034882 0 1200.1741085034882 -327.31154304314987 0 0 0 0 126.44134965639387 920.77306667428638 0 920.77306667428638 -457.19631071409094 0 0 0 0 -188.74011564959983 627.80691420681251 0 627.80691420681251 -650.91352182964329 0 0 0 0 185.62072073263698 854.35740166039614 0 854.35740166039614 -764.29358871843942 0 0 0 0 -194.31546505665756 947.85347608712618 0 947.85347608712618 -780.39700728604657 0 0 0 0 -130.60031014569176 762.07495417108657 0 762.07495417108657 -509.33110195051995 0 0 0 0 340.48969112880877 846.89139138573955 0 846.89139138573955 -524.04908405366587 0 0 0 0 -447.62260056426749 802.67760932428064 0 802.67760932428064 -143.5627134765673 0 0 0 0 -428.02428608827177 893.69346328187385 0 893.69346328187385 -204.35317899710844 0 0 0 0 -425.75316761818249 804.99050770720351 0 804.99050770720351 264.20562127939775 0 0 0 0 -440.1003187620372 563.33561700870632 0 563.33561700870632 -191.27645441633649 0 0 0 0 56.093166022299556 576.70657187059987 0 576.70657187059987 -45.302329688798636 0 0 0 0 181.57091490749008 1111.2652281088958 0 1111.2652281088958 1305.4755262187682 0 0 0 0 -4.9967879853423938 15.394532194062094 0 15.394532194062094 -19.589704240793651 0 0 0 0 244.82579794156482 582.08660867623985 0 582.08660867623985 38.982776774646481 0 0 0 0 -48.736235089987986 57.329009768337485 0 57.329009768337485 -37.108597054439201 0 0 0 0 299.64352826811955 839.33464203658514 0 839.33464203658514 -466.52462489382197 0 0 0 0 -177.69890467991354 450.32427797957644 0 450.32427797957644 -383.09993328416022 0 0 0 0 205.15019307585317 980.67019155030721 0 980.67019155030721 -443.4110939114471 0 0 0 0 -12.813646216960194 53.131013309258861 0 53.131013309258861 -78.586670401328888 0 0 0 0 -3.8725245170062408 1087.740119063048 0 1087.740119063048 -44.583482030546293 0 0 0 0 -323.55147158241016 422.73842701996909 0 422.73842701996909 -319.92698916549853 0 0 0 0 -228.95916474077239 361.83880858430348 0 361.83880858430348 -390.41322656902776 0 0 0 0 -72.323382770493993 64.219703013921858 0 64.219703013921858 -22.799332084844707 0 0 0 0 -300.16575003361504 477.27966818027198 0 477.27966818027198 -364.13355218415381 0 0 0 0 -207.81582878467452 426.24550858825751 0 426.24550858825751 -513.60058681124065 0 0 0 0 -308.89990184844646 592.13670069014188 0 592.13670069014188 -596.74423631631362 0 0 0 0 -16.706202090607235 21.618096819094887 0 21.618096819094887 -2.3252430984469754 0 0 0 0 -97.448191840890388 76.089198568007802 0 76.089198568007802 6.6943773379204004 0 0 0 0 -62.938666183079476 1281.1085599807484 0 1281.1085599807484 -1869.3476824798636 0 0 0 0 360.00926126845297 1424.4782150005049 0 1424.4782150005049 -1957.1189740733462 0 0 0 0 19.180728196318796 55.046138301037558 0 55.046138301037558 13.163504801073287 0 0 0 0 -307.80670602148894 423.98009837457357 0 423.98009837457357 -380.4180415692972 0 0 0 0 -297.92594456330517 490.84998879697923 0 490.84998879697923 -473.98473032188485 0 0 0 0 -286.2934666913352 344.73315901379101 0 344.73315901379101 -302.0076957171259 0 0 0 0 -35.926073234566516 -458.51941866451597 0 -458.51941866451597 -1650.1932445618731 0 0 0 0 48.593019799181093 38.123489669529818 0 38.123489669529818 -11.236569701199556 0 0 0 0 52.059072301111883 1435.1636013377283 0 1435.1636013377283 -2442.1719910505926 0 0 0 0 -1741.3274021377874 2583.0719707843091 0 2583.0719707843091 -2132.2825123055518 0 0 0 0 -3155.0068921541824 -815.89702046062303 0 -815.89702046062303 -1634.7636751315513 0 0 0 0 195.032281638938 1449.7238434473074 0 1449.7238434473074 -4428.612198912364 0 0 0 0 -4474.6539338362873 3069.6199351233727 0 3069.6199351233727 -888.04583397530951 0 0 0 0 -7.5010570627709399 31.252676417514039 0 31.252676417514039 -5.1205943103614118 0 0 0 0 -2023.9086415627971 -1112.4508881413494 0 -1112.4508881413494 -295.95071838761214 0 0 0 0 -4458.9878971342405 346.58581704953394 0 346.58581704953394 468.36102697212482 0 0 0 0 -36.29163447449767 -180.09995126478327 0 -180.09995126478327 -4061.0498359277844 0 0 0 0 -47.611701765737962 -379.70504174265079 0 -379.70504174265079 -1177.3160403399379 0 0 0 0 12.071590738880815 17.461372283827217 0 17.461372283827217 0.52223568782125085 0 0 0 0 -610.20561289353827 154.73011513330675 0 154.73011513330675 100.41218612785451 0 0 0 0 46.302001972529013 86.540051079686066 0 86.540051079686066 -9.2140435631317246 0 0 0 0 -2356.4796907642376 2193.3329212823955 0 2193.3329212823955 971.09207991795847 0 0 0 0 -2698.6255579020071 1088.9922171292128 0 1088.9922171292128 -295.48441089334665 0 0 0 0 6.1102947661471063 44.15970047168824 0 44.15970047168824 44.245731547944843 0 0 0 0 89.225811500306008 2197.0964905085348 0 2197.0964905085348 -516.05075174442027 0 0 0 0 1241.2050127083785 549.64326560411428 0 549.64326560411428 257.55799610128452 0 0 0 0 -596.87746650625195 453.15922345172294 0 453.15922345172294 40.600357395451283 0 0 0 0 -9.6370822401447072 5.6473419726933685 0 5.6473419726933685 11.030926970332757 0 0 0 0 -69.643078963825246 62.667593864942319 0 62.667593864942319 -109.29481467673031 0 0 0 0 -293.18862929916941 620.70787741029926 0 620.70787741029926 1.9690571799292229 0 0 0 0 -8.1264433079874721 58.803654339165291 0 58.803654339165291 -72.005565072309594 0 0 0 0 -490.91716412594542 521.79295137390727 0 521.79295137390727 51.039984482915315 0 0 0 0 -450.29657568855328 508.92886112993438 0 508.92886112993438 -106.82993867379264 0 0 0 0 -83.703474719844962 617.77604386806888 0 617.77604386806888 -140.54302240884863 0 0 0 0 -882.5302191140363 788.17682933845208 0 788.17682933845208 86.81716116622556 0 0 0 0 -866.19665170708049 227.36964516018884 0 227.36964516018884 -120.05869174617692 0 0 0 0 -1405.4002155761118 -1139.1548671743512 0 -1139.1548671743512 886.63130674679996 0 0 0 0 -1490.6252851262107 3951.6758690808492 0 3951.6758690808492 -2440.6509739170579 0 0 0 0 -702.01259945749189 1705.1808739946646 0 1705.1808739946646 -3886.6231837859668 0 0 0 0 -1900.9849706445384 2702.7908359380817 0 2702.7908359380817 -605.90691772126411 0 0 0 0 -860.678152328328 1684.1971567191504 0 1684.1971567191504 -1193.3118302385005 0 0 0 0 -21.857203626442924 -3.9289555345745271 0 -3.9289555345745271 -30.777882716487454 0 0 0 0 1085.1260794448899 2546.2998340190388 0 2546.2998340190388 2148.5103020481765 0 0 0 0 -1648.4594037400093 1455.2824509966886 0 1455.2824509966886 4488.4415729381144 0 0 0 0 6.039723827996994 10.647579173770566 0 10.647579173770566 -14.652268754995248 0 0 0 0 -1301.5701626660084 276.61809399369668 0 276.61809399369668 2277.8913985722465 0 0 0 0 -137.19786686010775 943.94428778043948 0 943.94428778043948 141.39506344136316 0 0 0 0 276.85015984222991 1454.0084589732578 0 1454.0084589732578 1037.002960653539 0 0 0 0 92.008760893208091 1426.4191738315712 0 1426.4191738315712 1034.6593562161434 0 0 0 0 1716.0901860132653 287.42267659790741 0 287.42267659790741 1307.4968888530857 0 0 0 0 733.37535721750464 1422.3122233919858 0 1422.3122233919858 -42.019032161333598 0 0 0 0 -4.5360258363070898 763.44823485915549 0 763.44823485915549 1194.4044478593351 0 0 0 0 -32.259870414107695 3.8948895233216376 0 3.8948895233216376 -12.405446992023911 0 0 0 0 -1479.106888999755 1019.5737099408288 0 1019.5737099408288 2952.0201903507404 0 0 0 0 357.11924212204758 1050.2165242893971 0 1050.2165242893971 2662.7479189190199 0 0 0 0 -239.33543270886003 1179.4549343847029 0 1179.4549343847029 476.9050482090679 0 0 0 0 -807.73771309992298 603.92090937458852 0 603.92090937458852 2133.568240768509 0 0 0 0 -2082.5078403593507 1690.7591897206148 0 1690.7591897206148 2224.5909007647424 0 0 0 0 -1959.0062249484545 1642.4220750819368 0 1642.4220750819368 1792.94356692984 0 0 0 0 -2570.0394830368168 1699.1178615208482 0 1699.1178615208482 1421.5541303541104 0 0 0 0 -2464.952872102469 1407.7101191599795 0 1407.7101191599795 2102.1309974306205 0 0 0 0 -1891.3482309273386 1809.3446321938536 0 1809.3446321938536 794.10190605703974 0 0 0 0 -2111.1180940778868 1398.4327317324205 0 1398.4327317324205 292.46309985169501 0 0 0 0 -1901.7269223309704 2517.8492910234927 0 2517.8492910234927 -857.20797711194609 0 0 0 0 -594.3087597018457 1191.6928259172419 0 1191.6928259172419 452.70702078330214 0 0 0 0 -620.22318997047478 1327.5904815974573 0 1327.5904815974573 425.15113229217241 0 0 0 0 127.83383831515675 736.49961854224966 0 736.49961854224966 -1903.1953243408789 0 0 0 0 -707.7804430261167 2114.8575460722204 0 2114.8575460722204 -4171.1890006233152 0 0 0 0 628.96298234917049 692.81778735211992 0 692.81778735211992 -1247.6401928233099 0 0 0 0 108.59456911870075 784.27058687315002 0 784.27058687315002 -771.44063646445284 0 0 0 0 386.21127479299321 1298.905481463531 0 1298.905481463531 -1041.6280963803438 0 0 0 0 319.99663820793285 1101.2842443641148 0 1101.2842443641148 -134.27095115411794 0 0 0 0 330.01707262469426 1176.7031511959849 0 1176.7031511959849 5.1828590217628516 0 0 0 0 -418.52027573552914 838.10008913955244 0 838.10008913955244 299.84041336954397 0 0 0 0 118.86221136935875 169.55164629302053 0 169.55164629302053 70.672625421227451 0 0 0 0 21.656162449522526 737.44327303153113 0 737.44327303153113 -569.0862040987995 0 0 0 0 108.04693980857951 141.5769072714821 0 141.5769072714821 41.882875224173915 0 0 0 0 825.22485307422176 267.79455231546308 0 267.79455231546308 -495.00920225423033 0 0 0 0 -275.66603229675093 348.52741635758139 0 348.52741635758139 -41.536649577785283 0 0 0 0 -109.52292189922809 394.24097473850998 0 394.24097473850998 -67.753859862743411 0 0 0 0 -173.32363828381494 515.70331925509527 0 515.70331925509527 -134.04184186685598 0 0 0 0 -190.12652565367171 376.65559181052959 0 376.65559181052959 -119.8288884030444 0 0 0 0 -64.929041685703197 49.360668727269626 0 49.360668727269626 34.06980472147427 0 0 0 0 205.8942144663888 404.63813293076237 0 404.63813293076237 -158.31109703882248 0 0 0 0 102.08220574549341 485.78418859127851 0 485.78418859127851 -141.21036547757103 0 0 0 0 137.98919591781123 439.80312936089103 0 439.80312936089103 -164.29218153719557 0 0 0 0 253.92963776251418 376.35351104372239 0 376.35351104372239 -212.86806101353068 0 0 0 0 152.68261979101953 274.9796614879524 0 274.9796614879524 -98.56755534392596 0 0 0 0 141.91614351486533 291.56281375416984 0 291.56281375416984 -85.672736269509187 0 0 0 0 79.956831767623953 325.97291471809149 0 325.97291471809149 -92.284648925357033 0 0 0 0 408.45742087273538 202.90661943235318 0 202.90661943235318 -91.147322312070173 0 0 0 0 112.02343097097969 103.45357253983454 0 103.45357253983454 -22.847989837061363 0 0 0 0 -410.98480971470417 567.26478667689662 0 567.26478667689662 467.51981649633672 0 0 0 0 -363.59790560185502 1000.6824502921372 0 1000.6824502921372 469.9677063520794 0 0 0 0 -676.68220526186633 404.74387084628688 0 404.74387084628688 -122.27062513150304 0 0 0 0 -69.999998037154228 78.251056655654082 0 78.251056655654082 -4.4177263571130254 0 0 0 0 -689.63671946443355 252.62953953680699 0 252.62953953680699 -150.66476241208147 0 0 0 0 -774.63055393332615 422.32833602922619 0 422.32833602922619 -96.759282450715546 0 0 0 0 25.412621979689774 55.19888087379249 0 55.19888087379249 24.145926405091018 0 0 0 0 -486.59963374855579 280.94795149822312 0 280.94795149822312 -175.36086376864114 0 0 0 0 96.915738766925642 131.06468240714457 0 131.06468240714457 187.48792243073694 0 0 0 0 -16.263680177355127 74.346297133597545 0 74.346297133597545 -10.099429250520188 0 0 0 0 -18.494930299515545 50.495097546867328 0 50.495097546867328 17.364030373777496 0 0 0 0 -26.316604451519112 52.120683620503051 0 52.120683620503051 -11.781516197334042 0 0 0 0 0.84743170556612313 47.348296991331154 0 47.348296991331154 -31.314567942608846 0 0 0 0 -9.4569650125922635 86.014783062895731 0 86.014783062895731 -40.580524838558631 0 0 0 0 32.221701667712424 56.590555679484225 0 56.590555679484225 4.1904147810953418 0 0 0 0 -377.12786646332825 260.5511197521555 0 260.5511197521555 -272.05675821045588 0 0 0 0 -63.852431792689458 69.203932625296147 0 69.203932625296147 -4.7704950474435464 0 0 0 0 -73.954890029035596 58.779471490270225 0 58.779471490270225 -2.8312302651174832 0 0 0 0 -9.3934757027782325 92.454020642973774 0 92.454020642973774 115.94338760976098 0 0 0 0 -30.479028330126312 88.742325493229146 0 88.742325493229146 29.770577939838404 0 0 0 0 -10.204008123341687 8.4286783016339513 0 8.4286783016339513 7.3045949738042282 0 0 0 0 -240.99566282582964 -93.440708006935893 0 -93.440708006935893 21.600906967660535 0 0 0 0 -1.098307687130216 37.06036526707328 0 37.06036526707328 5.2743928356973413 0 0 0 0 30.206569006171776 62.024585634266259 0 62.024585634266259 -42.758842690760503 0 0 0 0 -25.206850346152351 136.58792185702259 0 136.58792185702259 281.20224426369532 0 0 0 0 -63.450535644311458 -51.419710491099977 0 -51.419710491099977 177.85128185992653 0 0 0 0 -43.59827603497979 113.31532023147156 0 113.31532023147156 315.85130131569895 0 0 0 0 -37.195955176670395 189.98422975267022 0 189.98422975267022 186.86263975690235 0 0 0 0 -3.8255556458061619 277.6315285002056 0 277.6315285002056 412.01862170311506 0 0 0 0 143.01868877655215 375.22343178582378 0 375.22343178582378 233.56105800208752 0 0 0 0 73.67022570696281 293.96014236880001 0 293.96014236880001 147.05637913162354 0 0 0 0 25.567546967489761 316.67488153612794 0 316.67488153612794 193.19091299653519 0 0 0 0 91.415517194138374 345.2556175825739 0 345.2556175825739 -94.580041868321132 0 0 0 0 159.5521222715397 460.08768705005059 0 460.08768705005059 90.567944465321489 0 0 0 0 -169.32901741696332 400.04096478997963 0 400.04096478997963 -310.91559544927441 0 0 0 0 -435.67235238807916 639.54053969500819 0 639.54053969500819 -400.98498596565332 0 0 0 0 -115.02145596021728 296.4223717758141 0 296.4223717758141 -215.35524441138841 0 0 0 0 -24.561611713681486 428.86144699890428 0 428.86144699890428 -48.082684757187963 0 0 0 0 33.089076124568237 242.48683002164762 0 242.48683002164762 -16.394534927760105 0 0 0 0 -171.31385770919223 448.93355996447644 0 448.93355996447644 -0.031344249669928104 0 0 0 0 -443.07747465967259 342.97008912089223 0 342.97008912089223 -17.130631078165607 0 0 0 0 2.7550324775958543 -2.8441623095683752 0 -2.8441623095683752 -3.4640235848872862 0 0 0 0 240.71312698206384 305.84000687372463 0 305.84000687372463 42.357220045349095 0 0 0 0 -612.51022886610735 113.26807651147828 0 113.26807651147828 22.684805738297825 0 0 0 0 5.9047099527015234 159.20439136382629 0 159.20439136382629 203.43282709149935 0 0 0 0 -51.335982719816457 64.92411490696395 0 64.92411490696395 153.67493819384254 0 0 0 0 -513.60460604271066 326.24838676352374 0 326.24838676352374 -257.12557078302052 0 0 0 0 18.325293505262721 68.484119133333877 0 68.484119133333877 44.391807733558949 0 0 0 0 90.749880930918692 68.205928266271968 0 68.205928266271968 -66.482894704706496 0 0 0 0 -441.90220086384215 438.3849429544789 0 438.3849429544789 -105.95847848121775 0 0 0 0 -351.05209391503013 -929.61399946238816 0 -929.61399946238816 340.69322090404603 0 0 0 0 -21.298201658188191 170.46218915091595 0 170.46218915091595 -176.19113490806194 0 0 0 0 124.58851860535651 837.56275270897277 0 837.56275270897277 -850.74888027897396 0 0 0 0 -94.668476233378897 190.86918206828886 0 190.86918206828886 -88.512051581812557 0 0 0 0 -84.145417429070221 136.59961689620104 0 136.59961689620104 -52.0561998859921 0 0 0 0 -41.256394619616913 87.779809719067998 0 87.779809719067998 -45.810705420539307 0 0 0 0 2.1948157405859092 146.06579824101573 0 146.06579824101573 -134.93072801901144 0 0 0 0 59.149314458569279 76.074522336573864 0 76.074522336573864 -102.82318236307765 0 0 0 0 36.101785017788643 134.88486856678355 0 134.88486856678355 -57.768737870734185 0 0 0 0 65.807851867731813 75.787619290855019 0 75.787619290855019 -38.570791802615133 0 0 0 0 37.958275706172572 118.36071006153361 0 118.36071006153361 -152.48191710081301 0 0 0 0 -395.56350643545011 239.58671634581879 0 239.58671634581879 11.8041210550291 0 0 0 0 -203.96387947449693 31.90445302403532 0 31.90445302403532 79.474845996519434 0 0 0 0 -358.63547883350111 77.170729488745565 0 77.170729488745565 -35.012749114903272 0 0 0 0 -332.73157022261876 120.93128682112729 0 120.93128682112729 33.483342744206311 0 0 0 0 -166.9156916878128 27.547611498914193 0 27.547611498914193 58.450105733951204 0 0 0 0 -269.51169121699058 49.091867522336543 0 49.091867522336543 76.704040164302569 0 0 0 0 -216.93928071098344 274.97398504803277 0 274.97398504803277 -88.238309937121812 0 0 0 0 -320.6953817778267 158.49520721333101 0 158.49520721333101 47.300395422906149 0 0 0 0 -37.129627584408652 47.878859642376476 0 47.878859642376476 3.5194557652896492 0 0 0 0 -99.039779224760423 97.021276314539136 0 97.021276314539136 11.734088303832323 0 0 0 0 -77.498207906653988 64.670328082072956 0 64.670328082072956 -8.2894372690352611 0 0 0 0 -59.721118502516674 42.94329043392699 0 42.94329043392699 7.0715302382717056 0 0 0 0 -18.097050815517321 19.963024695098881 0 19.963024695098881 9.7631478269172476 0 0 0 0 265.35546018075547 284.78796176228207 0 284.78796176228207 -80.326192071428522 0 0 0 0 12.836061867783428 118.56362085958972 0 118.56362085958972 34.276700675907705 0 0 0 0 -5.2926831057266099 162.33779884701653 0 162.33779884701653 37.741290142585058 0 0 0 0 -11.997433087330705 39.333044327860307 0 39.333044327860307 4.1335919896819959 0 0 0 0 108.85357205342734 47.57773973105941 0 47.57773973105941 43.812504437053576 0 0 0 0 -315.66254187410959 151.66772014454546 0 151.66772014454546 -171.24481624446344 0 0 0 0 -124.34707994900015 69.060880322609677 0 69.060880322609677 40.957969334635919 0 0 0 0 4.5474366205453407 107.14460762836825 0 107.14460762836825 41.593575873790542 0 0 0 0 -57.736122420057654 147.27182708204782 0 147.27182708204782 -28.52122360150679 0 0 0 0 -62.296818409842672 129.20105666603195 0 129.20105666603195 15.100027309235884 0 0 0 0 -94.211943543050438 126.3041383169766 0 126.3041383169766 34.388766757008852 0 0 0 0 -54.051219519635197 102.47013872904063 0 102.47013872904063 56.453004899442021 0 0 0 0 -34.168807183625177 113.69087343552383 0 113.69087343552383 -40.191025775158778 0 0 0 0 -35.220822366070934 122.36621966905659 0 122.36621966905659 28.894852282232023 0 0 0 0 -69.324989891552832 148.68460576345387 0 148.68460576345387 40.756129739951575 0 0 0 0 -48.282993082975736 130.20815105094516 0 130.20815105094516 48.479124774399679 0 0 0 0 -60.788069034344517 154.59085706458427 0 154.59085706458427 84.188383728906047 0 0 0 0 -33.363018925738288 131.9669336744555 0 131.9669336744555 24.498692548426334 0 0 0 0 -29.659650753310416 111.53955408066395 0 111.53955408066395 110.83712423735415 0 0 0 0 -74.403777596511645 170.58190123128588 0 170.58190123128588 7.3979456414017477 0 0 0 0 9.3323204395951507 161.20277078377399 0 161.20277078377399 -140.58560047490755 0 0 0 0 52.76098409864062 159.32432076932309 0 159.32432076932309 -140.74413683188322 0 0 0 0 91.917353283298951 70.952985245318558 0 70.952985245318558 32.256456113270843 0 0 0 0 12.602669454470742 207.20191643437283 0 207.20191643437283 -343.91058505009278 0 0 0 0 -138.74399934860412 68.127295121070347 0 68.127295121070347 -148.47114285390126 0 0 0 0 -190.21629129361827 141.35973283815838 0 141.35973283815838 -55.280010376533028 0 0 0 0 -141.82693567225942 174.56474199317745 0 174.56474199317745 -36.613007871826994 0 0 0 0 -44.813060958724236 123.54015348131361 0 123.54015348131361 -118.51749066569027 0 0 0 0 -51.594623345881701 124.64165329343814 0 124.64165329343814 -35.703409077541437 0 0 0 0 -32.570364039333072 154.7947340223327 0 154.7947340223327 -123.70011073940259 0 0 0 0 -19.935294873866951 168.10153569835529 0 168.10153569835529 -267.7696767624002 0 0 0 0 -26.654405135805746 31.903132873864905 0 31.903132873864905 42.202570218713362 0 0 0 0 -99.678629772970453 186.44619470920588 0 186.44619470920588 -89.370644438837189 0 0 0 0 -224.81564327969681 253.50520221248735 0 253.50520221248735 -104.52611002366757 0 0 0 0 4.828684832205397 13.872787074103194 0 13.872787074103194 15.955830902801608 0 0 0 0 -1186.0197368413064 -142.61991548425431 0 -142.61991548425431 907.46986856337753 0 0 0 0 -823.71433080220595 1227.6767517655026 0 1227.6767517655026 -529.35286236480169 0 0 0 0 -65.892961361329071 1343.7921040072979 0 1343.7921040072979 -515.46991756587158 0 0 0 0 -560.56891760433791 597.33827390322404 0 597.33827390322404 -499.57765448421924 0 0 0 0 -96.140408600015633 83.112589353381367 0 83.112589353381367 16.002886067958457 0 0 0 0 -612.4687464680901 887.48114532519685 0 887.48114532519685 -626.41169650986558 0 0 0 0 -503.62664290488465 1016.6948135099883 0 1016.6948135099883 -1101.5265636847471 0 0 0 0 -411.71899400741677 707.35136255057296 0 707.35136255057296 -840.97331628234679 0 0 0 0 -898.41472701351449 968.35437671652471 0 968.35437671652471 -1064.5940685112291 0 0 0 0 -766.28442693939724 1263.4895164165064 0 1263.4895164165064 -1568.4914153576538 0 0 0 0 -765.59056565121864 1051.3030026857596 0 1051.3030026857596 -945.34187410882441 0 0 0 0 -579.90051076681993 1092.012535723894 0 1092.012535723894 -936.64292537682923 0 0 0 0 -587.06022609199863 1037.3546485449006 0 1037.3546485449006 -1090.7693013898825 0 0 0 0 -491.62332682253327 1097.8442091276229 0 1097.8442091276229 -1201.9527581361763 0 0 0 0 -423.33889830915723 928.88243269491068 0 928.88243269491068 -1188.1469346352815 0 0 0 0 77.968141030258266 101.40471499014529 0 101.40471499014529 -61.786968079322833 0 0 0 0 16.312177208441426 183.09996426025464 0 183.09996426025464 57.98701188506675 0 0 0 0 -26.883973031450296 46.85472460894016 0 46.85472460894016 5.6729092612222303 0 0 0 0 22.587215490588278 164.39562482342808 0 164.39562482342808 -48.57267930348462 0 0 0 0 73.023793990103059 41.990281455520119 0 41.990281455520119 20.241009297904043 0 0 0 0 -18.111788826279394 37.103351076649119 0 37.103351076649119 3.9135280463327717 0 0 0 0 -37.295181674067862 98.129390506044729 0 98.129390506044729 -125.34014957153704 0 0 0 0 -30.875858642888488 66.895951761052856 0 66.895951761052856 131.58518281343277 0 0 0 0 -4.481644285862501 89.436347729963416 0 89.436347729963416 -0.29461056848953149 0 0 0 0 9.139822564690121 61.387202577672554 0 61.387202577672554 7.8521337080783553 0 0 0 0 44.750616785066086 138.81011941948236 0 138.81011941948236 -118.42656058167631 0 0 0 0 -11.510897095695384 12.360568186171804 0 12.360568186171804 -0.14018974587051503 0 0 0 0 64.916321741235151 123.20695824463473 0 123.20695824463473 40.006511393774417 0 0 0 0 8.3319485097092638 91.598425666876665 0 91.598425666876665 4.2585919981618474 0 0 0 0 -9.4926219763874542 95.016102774337924 0 95.016102774337924 96.587483890820295 0 0 0 0 -71.373586742121489 59.921950774053926 0 59.921950774053926 38.62882002568935 0 0 0 0 -122.72662788259913 672.35293484483554 0 672.35293484483554 -20.346018906508107 0 0 0 0 26.726227827486582 -125.98270797338773 0 -125.98270797338773 397.12844311600202 0 0 0 0 -53.198326688263592 45.831969770795411 0 45.831969770795411 38.379120186947326 0 0 0 0 -22.65760440986196 63.360052654228639 0 63.360052654228639 34.269856224302202 0 0 0 0 222.19992073532194 -102.24429417253123 0 -102.24429417253123 -4.0143707771203481 0 0 0 0 154.52920639942749 120.84215973980463 0 120.84215973980463 -257.82114928935334 0 0 0 0 -455.71503908251907 251.45260363822308 0 251.45260363822308 -87.027099642407848 0 0 0 0 -612.11599827458849 -78.798560980165348 0 -78.798560980165348 0.32228997004858684 0 0 0 0 -80.784479928144719 152.20181051192776 0 152.20181051192776 -124.88007040161756 0 0 0 0 -383.34773388179019 81.73934496610309 0 81.73934496610309 -44.026028746680822 0 0 0 0 -270.41219892118534 -76.343884618792799 0 -76.343884618792799 -55.812762078290689 0 0 0 0 -72.928688942163717 72.754056912352098 0 72.754056912352098 -74.708944863406941 0 0 0 0 23.262031598789349 20.944353717180661 0 20.944353717180661 0.63605851118637702 0 0 0 0 -45.441199267619822 76.56101910275828 0 76.56101910275828 13.622553479041983 0 0 0 0 575.51993966246664 435.96019854848964 0 435.96019854848964 25.333498694177251 0 0 0 0 -235.03806028989493 -78.05424325648346 0 -78.05424325648346 -67.201061920510256 0 0 0 0 -9.0032783158087568 4.3964540459508328 0 4.3964540459508328 2.4101655859647622 0 0 0 0 660.46388172794832 53.235537349712104 0 53.235537349712104 380.94195337011479 0 0 0 0 -110.58745001844363 167.16163186756603 0 167.16163186756603 27.448342468764167 0 0 0 0 -46.191422011863324 89.367035526560358 0 89.367035526560358 64.818795481653069 0 0 0 0 416.3726587728072 -293.55603137933497 0 -293.55603137933497 -141.97960485608201 0 0 0 0 416.07483063916152 -324.58853813970927 0 -324.58853813970927 27.263815936516039 0 0 0 0 10.6828186451948 70.112980440077138 0 70.112980440077138 62.997559281899953 0 0 0 0 -14.970789042898105 143.73241476492694 0 143.73241476492694 25.469188131490228 0 0 0 0 -427.76661334720848 395.01589594695542 0 395.01589594695542 -55.274594178654297 0 0 0 0 44.07085055580157 58.482368469175526 0 58.482368469175526 62.918180685778026 0 0 0 0 -425.85803357169061 222.23154533206434 0 222.23154533206434 169.62030693085399 0 0 0 0 72.662326981619117 -353.08626802840081 0 -353.08626802840081 179.05154739676618 0 0 0 0 -8.6342707212897949 48.896131533201697 0 48.896131533201697 217.47323050774867 0 0 0 0 -97.682322667445987 133.55667745707979 0 133.55667745707979 32.998810763048823 0 0 0 0 36.782473079667966 79.794145326985898 0 79.794145326985898 45.84231970957515 0 0 0 0 -9.5040192498418037 96.537093232778716 0 96.537093232778716 22.552739784188361 0 0 0 0 -36.120107620386989 174.74020677011868 0 174.74020677011868 107.9660369019839 0 0 0 0 -42.122947610390838 160.87740235681849 0 160.87740235681849 79.387374344427371 0 0 0 0 -27.314983770316587 89.128971691090868 0 89.128971691090868 32.545385249778491 0 0 0 0 -41.529431689559715 159.41303710816283 0 159.41303710816283 76.677644325100118 0 0 0 0 -16.003252285416238 154.77591960282007 0 154.77591960282007 66.137581791190314 0 0 0 0 -113.7003257413453 104.10614698640711 0 104.10614698640711 20.028635344744544 0 0 0 0 -39.050410174847116 87.611463704436915 0 87.611463704436915 19.421916775722661 0 0 0 0 4.9889914193772711 186.0231148195453 0 186.0231148195453 56.921189690543542 0 0 0 0 10.293494862055425 76.514468064657564 0 76.514468064657564 45.228320430463612 0 0 0 0 21.901952474800055 216.30343315369646 0 216.30343315369646 95.026471226694412 0 0 0 0 37.151966228047968 244.67922917213582 0 244.67922917213582 55.781169277295703 0 0 0 0 -27.367577821334052 45.968041915883859 0 45.968041915883859 -74.705277467003953 0 0 0 0 14.575585195852909 276.77401165846095 0 276.77401165846095 32.431842586156563 0 0 0 0 -22.666484684668831 257.52496447220983 0 257.52496447220983 77.272533712501172 0 0 0 0 -47.573142806249962 246.45655024624648 0 246.45655024624648 276.45405558009224 0 0 0 0 -81.695534634636715 155.16224691113166 0 155.16224691113166 116.85714826461481 0 0 0 0 -191.70435315543727 87.717329582330422 0 87.717329582330422 244.54580566519871 0 0 0 0 -334.53029061343113 235.84380366368714 0 235.84380366368714 300.37933474168312 0 0 0 0 -1592.604705558464 1158.2920522747445 0 1158.2920522747445 -531.77873789681053 0 0 0 0 -156.08977601808147 121.17954606952117 0 121.17954606952117 -305.05198535862291 0 0 0 0 840.31462367488712 27.4896461153985 0 27.4896461153985 -807.33917361732165 0 0 0 0 1362.8371858917453 165.69440176176795 0 165.69440176176795 -2457.8209683658788 0 0 0 0 -426.07145373385356 411.85371320344166 0 411.85371320344166 259.43417661365675 0 0 0 0 -10.821966066732159 26.791181578002195 0 26.791181578002195 -54.146467275556773 0 0 0 0 68.695708375751565 591.8572876261951 0 591.8572876261951 196.89315266192716 0 0 0 0 639.06360877968837 435.46529944603026 0 435.46529944603026 25.979699732502922 0 0 0 0 -773.58579088615079 393.63535296914415 0 393.63535296914415 11.476834034372587 0 0 0 0 -926.01965739089792 236.36505390580351 0 236.36505390580351 -10.886999588023173 0 0 0 0 -1127.9610295726889 205.78246186563047 0 205.78246186563047 -85.317097194150847 0 0 0 0 -419.32227139611496 463.02514844408142 0 463.02514844408142 -121.70250858456711 0 0 0 0 -3.834724522365164 8.8593361798829164 0 8.8593361798829164 -20.79342956198505 0 0 0 0 -3388.4258132746327 728.78007309902023 0 728.78007309902023 -63.861611543528852 0 0 0 0 -1296.944501061691 1852.662075061482 0 1852.662075061482 -1593.7520912457549 0 0 0 0 1617.051288117902 61.081703813208151 0 61.081703813208151 -930.17840747869923 0 0 0 0 -67.880255658898363 13.643802681434835 0 13.643802681434835 -6.4305379402133553 0 0 0 0 864.21784286132606 424.22117118119058 0 424.22117118119058 -1744.2762670696102 0 0 0 0 515.72659021042637 1036.4453354634898 0 1036.4453354634898 -1249.9287845766958 0 0 0 0 148.37958917522337 532.22127591589378 0 532.22127591589378 -948.39237820723793 0 0 0 0 107.19089139718562 733.92812567860892 0 733.92812567860892 -2.9321902367519215 0 0 0 0 211.02669145225809 198.56185758843276 0 198.56185758843276 70.607197210279992 0 0 0 0 -690.79820726683829 1060.4276002027327 0 1060.4276002027327 -445.39455278722744 0 0 0 0 -399.39234292022593 463.00783033747575 0 463.00783033747575 -134.00047948269639 0 0 0 0 -90.459429329946431 119.1478129389052 0 119.1478129389052 12.199945431287404 0 0 0 0 -364.56210340105463 385.28453498759336 0 385.28453498759336 -145.90983380931721 0 0 0 0 -227.85518355935346 543.9171277765563 0 543.9171277765563 -314.52983048863825 0 0 0 0 -386.89148643010412 403.58867504842055 0 403.58867504842055 -286.47620094218291 0 0 0 0 -657.78372348280391 261.05607268669701 0 261.05607268669701 -202.96803909479058 0 0 0 0 -404.12488540061167 315.77909319195169 0 315.77909319195169 -198.1862809917593 0 0 0 0 -27.464325563409261 9.1911279514576165 0 9.1911279514576165 -22.905707422833643 0 0 0 0 -68.737986343694502 57.806569175751065 0 57.806569175751065 -28.608441148840939 0 0 0 0 -52.749840420337108 30.281426841302846 0 30.281426841302846 -8.0333641709279391 0 0 0 0 -39.429581113232416 49.417463339615097 0 49.417463339615097 -43.977118721435545 0 0 0 0 -80.962939523262321 53.704406778910197 0 53.704406778910197 7.0625021384330466 0 0 0 0 -69.181115545870853 64.177960303917644 0 64.177960303917644 6.1672625654027797 0 0 0 0 -375.7581748640232 347.35252140100783 0 347.35252140100783 -384.20096323612961 0 0 0 0 -410.94180701483856 510.44783621112583 0 510.44783621112583 -872.02356002142187 0 0 0 0 -55.559982296340593 53.384589894882509 0 53.384589894882509 11.416248610735011 0 0 0 0 -64.798198600188343 86.118755636739266 0 86.118755636739266 1.9284550759349486 0 0 0 0 -115.42141435117082 215.57547931176668 0 215.57547931176668 155.84068324585678 0 0 0 0 -505.03154600648122 554.15238059006515 0 554.15238059006515 -137.20152282161871 0 0 0 0 -374.47448097485176 493.51429038924107 0 493.51429038924107 -550.2415775678819 0 0 0 0 -12.074278089953594 64.634301333865352 0 64.634301333865352 4.0666986019253173 0 0 0 0 -105.39599496534343 127.08607789346127 0 127.08607789346127 0.8462422451162297 0 0 0 0 -424.86190218050615 473.49212657546741 0 473.49212657546741 -554.68956208010786 0 0 0 0 -109.88812727712914 48.969497059271418 0 48.969497059271418 15.668122366696373 0 0 0 0 -260.15959082762129 424.67883750341571 0 424.67883750341571 -725.82923359848792 0 0 0 0 814.81192043970805 -326.63687865732936 0 -326.63687865732936 481.13497667999877 0 0 0 0 -431.45463102459325 785.47334179245445 0 785.47334179245445 -681.63058195679332 0 0 0 0 -232.90077057509916 394.70112830433936 0 394.70112830433936 -226.71720957463549 0 0 0 0 306.29210877060541 662.28669273592459 0 662.28669273592459 -301.38807355149765 0 0 0 0 120.74978060257854 1261.3708542737295 0 1261.3708542737295 -1168.1258204245387 0 0 0 0 -110.50639917899389 1133.0627226469951 0 1133.0627226469951 -1229.7749617003792 0 0 0 0 1.9125613935076728 8.7864846821572087 0 8.7864846821572087 -26.767360661709915 0 0 0 0 240.04185294614581 1504.7838608988241 0 1504.7838608988241 -1112.4207210317691 0 0 0 0 3708.6374767693924 1792.5934245443677 0 1792.5934245443677 -4241.2225454595755 0 0 0 0 21.708783013629727 860.75703379622428 0 860.75703379622428 463.78616106000095 0 0 0 0 1656.3616964016692 -2686.1784090633446 0 -2686.1784090633446 116.7292986967077 0 0 0 0 411.2943639724399 1074.084616852655 0 1074.084616852655 -3825.2982154955171 0 0 0 0 233.16560905144433 -6.3178542852401733 0 -6.3178542852401733 -1200.983210200342 0 0 0 0 -0.44208472607715521 591.50755363995268 0 591.50755363995268 -609.65322914682474 0 0 0 0 -191.89286169760817 349.15455780539196 0 349.15455780539196 204.74708126951009 0 0 0 0 45.555459531751694 1088.9986857470285 0 1088.9986857470285 947.49841547647338 0 0 0 0 1257.6988631133136 850.04916291545305 0 850.04916291545305 14.409047226363327 0 0 0 0 67.320708078492316 355.77929542199126 0 355.77929542199126 91.894164668323356 0 0 0 0 -161.28067930895486 878.60283800568868 0 878.60283800568868 121.12072334638651 0 0 0 0 -0.19529416105983755 797.21343843713828 0 797.21343843713828 -292.3338362784998 0 0 0 0 -1121.3567559019066 768.82065765039806 0 768.82065765039806 31.451082367886556 0 0 0 0 -0.74033634800949244 7.7578533433007806 0 7.7578533433007806 -15.940171077455659 0 0 0 0 1628.8717630377214 -52.708045829953335 0 -52.708045829953335 -221.49040431224017 0 0 0 0 1501.5534418369352 -162.88375482937408 0 -162.88375482937408 -66.220304938382469 0 0 0 0 -0.46895843365672363 2.5005650445789342 0 2.5005650445789342 -4.5788158967417303 0 0 0 0 1082.2038717317191 758.93257817197446 0 758.93257817197446 -214.33938142286206 0 0 0 0 0.42001187937535178 16.457072859030774 0 16.457072859030774 -42.717648126082508 0 0 0 0 2363.8948086948658 201.06062369864958 0 201.06062369864958 -667.79428523167735 0 0 0 0 -148.46793040006742 315.53002695730538 0 315.53002695730538 -429.59861789751449 0 0 0 0 -27.462761689675972 -3.5502929092763225 0 -3.5502929092763225 -29.408312683972326 0 0 0 0 -300.1663823268027 67.1853341922033 0 67.1853341922033 -364.15138018823927 0 0 0 0 -171.08667756651994 232.63274127073964 0 232.63274127073964 -203.08248093779548 0 0 0 0 -517.66710136062466 183.05614241561852 0 183.05614241561852 -136.88605131437362 0 0 0 0 -430.41796339233406 319.42742372919747 0 319.42742372919747 -331.28899634200206 0 0 0 0 -455.08891822048463 363.99960212895166 0 363.99960212895166 -330.90111243532738 0 0 0 0 -870.83070880547166 463.285784070511 0 463.285784070511 -300.8475650555738 0 0 0 0 -629.80144552166166 623.09323290728207 0 623.09323290728207 -554.84388753460371 0 0 0 0 -1481.8676972276007 800.63121418205264 0 800.63121418205264 -546.80136100020354 0 0 0 0 -876.53190402267501 520.10751749959309 0 520.10751749959309 -492.37104772912062 0 0 0 0 -585.5251573787391 41.856243699097831 0 41.856243699097831 -425.53265492821811 0 0 0 0 -590.13050709583331 195.04797431734914 0 195.04797431734914 -401.26453175992356 0 0 0 0 5.274526278617941 -0.29451301445431 0 -0.29451301445431 -3.8992629425152643 0 0 0 0 -655.54201397905126 1219.7749728921699 0 1219.7749728921699 -803.07364533857617 0 0 0 0 -911.95561375867692 808.79972047341289 0 808.79972047341289 -466.08286795830463 0 0 0 0 -420.78827824145992 682.84908395717866 0 682.84908395717866 -461.17550290658255 0 0 0 0 -757.06962782339542 1124.4825138915185 0 1124.4825138915185 -921.48964427490137 0 0 0 0 -218.4881660490064 934.40980048879283 0 934.40980048879283 -944.17416638597206 0 0 0 0 -490.31901027885033 1158.1090980923618 0 1158.1090980923618 -1091.6564764986688 0 0 0 0 -476.69666973395942 1099.1770664781297 0 1099.1770664781297 -1209.7816526199749 0 0 0 0 -249.64084814599482 1017.7146725614148 0 1017.7146725614148 -1772.0242120622715 0 0 0 0 -720.21098690465442 1277.1037807269167 0 1277.1037807269167 -1309.0433081567899 0 0 0 0 -679.28661194927554 1175.3049306874018 0 1175.3049306874018 -1221.4810680404189 0 0 0 0 -1968.0973074246722 1756.3119465419004 0 1756.3119465419004 -1483.1400332773846 0 0 0 0 -849.47438918950502 1275.0397835351177 0 1275.0397835351177 -1158.9542514944478 0 0 0 0 -173.0044148383422 1412.8782514696723 0 1412.8782514696723 -2083.668292873117 0 0 0 0 -12.212514379090862 877.4834942357993 0 877.4834942357993 -1691.4039808080415 0 0 0 0 -25.253318260045489 55.98777667847753 0 55.98777667847753 161.79632680334907 0 0 0 0 -176.70369725499768 739.34436638099578 0 739.34436638099578 -1486.2004900972825 0 0 0 0 -12.340942833247141 10.286000408310883 0 10.286000408310883 11.479319732487909 0 0 0 0 -417.08668154178304 900.18991828820435 0 900.18991828820435 -1593.8100332459144 0 0 0 0 -617.91768169068382 370.17846621476201 0 370.17846621476201 -1439.3868859878567 0 0 0 0 -869.84855009368039 401.53200184676098 0 401.53200184676098 -817.02709213944036 0 0 0 0 -1429.7722317376756 809.96624255288043 0 809.96624255288043 -871.66857870873719 0 0 0 0 -1799.9061087756909 190.91040503228942 0 190.91040503228942 -1649.1950652680534 0 0 0 0 -983.73837184932199 1195.3336181940103 0 1195.3336181940103 -2777.6338902729185 0 0 0 0 -151.10471406028955 979.47520228238864 0 979.47520228238864 -1795.3308887301828 0 0 0 0 -1096.1975705761579 1032.3097795467474 0 1032.3097795467474 -1301.4365537208796 0 0 0 0 -1849.8494479963847 790.84720110495618 0 790.84720110495618 -495.90797751337232 0 0 0 0 -848.95473743689945 1305.2227212811158 0 1305.2227212811158 -1684.6282463388488 0 0 0 0 -3689.1868571723462 2084.8036460552903 0 2084.8036460552903 -1248.5979609049464 0 0 0 0 -2.6868640011161133 2.7987742313337094 0 2.7987742313337094 -22.278589812114546 0 0 0 0 7.0740701306868239 20.43699080198229 0 20.43699080198229 -63.327629410212694 0 0 0 0 192.9487635933765 174.29569841302146 0 174.29569841302146 -117.62077327698353 0 0 0 0 -1460.467427232652 676.94828717797645 0 676.94828717797645 -294.22154447204957 0 0 0 0 -1312.6455442053557 637.79474899197521 0 637.79474899197521 -488.75987178355854 0 0 0 0 -984.12108392411028 511.93479691745597 0 511.93479691745597 -370.72423467661429 0 0 0 0 -1250.9200819252583 552.47461481643404 0 552.47461481643404 -374.60230028498336 0 0 0 0 -9.8653556386416312 85.971076519213966 0 85.971076519213966 27.791027567232959 0 0 0 0 12.07397286122432 88.57275262568146 0 88.57275262568146 21.220652548654471 0 0 0 0 28.963254995178431 65.636867678666022 0 65.636867678666022 11.745133241842268 0 0 0 0 -82.004393736162456 165.21545810152747 0 165.21545810152747 -1.0958034301002044 0 0 0 0 0.76388253817276563 117.01117319265904 0 117.01117319265904 -16.117369048530236 0 0 0 0 -33.011956491856836 80.398391456867103 0 80.398391456867103 -48.055277793755522 0 0 0 0 208.67006024709553 187.78289960201073 0 187.78289960201073 -1351.9038701296085 0 0 0 0 281.26817589525763 -255.21080669186858 0 -255.21080669186858 -353.60221346703474 0 0 0 0 -103.31077285496394 72.49418313619617 0 72.49418313619617 -3.7231912935385481 0 0 0 0 -92.995592626655707 273.93508741844562 0 273.93508741844562 -68.275725443349074 0 0 0 0 19.506155075097922 -67.423851026193006 0 -67.423851026193006 136.86583437198715 0 0 0 0 13.360761089768687 50.974951729388408 0 50.974951729388408 48.245493788097718 0 0 0 0 -68.124015837849583 92.688969602953875 0 92.688969602953875 -14.862586843402823 0 0 0 0 -21.451187950384337 -37.844790733855916 0 -37.844790733855916 135.36517914398064 0 0 0 0 -57.77885700436309 32.468141931167338 0 32.468141931167338 108.13086366275456 0 0 0 0 47.168024903163314 2.0267537328472827 0 2.0267537328472827 100.10642953376737 0 0 0 0 32.590492447605357 89.545058031915687 0 89.545058031915687 -27.10578663830529 0 0 0 0 69.477820219413843 63.91145057859103 0 63.91145057859103 -34.818564234752557 0 0 0 0 -29.920797855302226 89.387308605422731 0 89.387308605422731 1.7680231617559912 0 0 0 0 29.037200403123109 67.993593148343621 0 67.993593148343621 50.394310409569755 0 0 0 0 71.002653342147141 0.87749406934744911 0 0.87749406934744911 96.327092050967622 0 0 0 0 50.912266224913765 75.126167751015601 0 75.126167751015601 9.2416538845864125 0 0 0 0 17.311337085790001 143.65442910603088 0 143.65442910603088 -55.972268690180499 0 0 0 0 13.2266986615723 126.44191712701286 0 126.44191712701286 -111.29751643596683 0 0 0 0 -102.79067946731811 130.26186706677254 0 130.26186706677254 -73.221654287248384 0 0 0 0 -36.312474993988872 66.520878175189864 0 66.520878175189864 -62.163461769989226 0 0 0 0 -956.21960335082258 420.73694056941895 0 420.73694056941895 -291.71609609690495 0 0 0 0 -1521.1303996922979 541.99865175921332 0 541.99865175921332 -134.45183682435891 0 0 0 0 5.5941462086989695 56.331448080811185 0 56.331448080811185 41.150817087871644 0 0 0 0 -1536.5485363576045 750.65341305078937 0 750.65341305078937 -358.57016581579228 0 0 0 0 -235.8809800647723 -79.214291276512085 0 -79.214291276512085 -47.069949121301761 0 0 0 0 101.41814012441318 84.54059873377264 0 84.54059873377264 -5.551967903636978 0 0 0 0 -12.529817313296519 6.9869524565506822 0 6.9869524565506822 -3.7449163022894254 0 0 0 0 -727.86589390027802 825.6359195879777 0 825.6359195879777 -193.8921914021339 0 0 0 0 -675.39261061363504 276.13085484746261 0 276.13085484746261 183.30322985242674 0 0 0 0 -1279.8444156634796 453.29778213617828 0 453.29778213617828 133.5491903553193 0 0 0 0 -713.98135359614389 755.25164129695622 0 755.25164129695622 -87.615278341079829 0 0 0 0 -524.63709384901449 849.52799168383353 0 849.52799168383353 -56.729539504601689 0 0 0 0 -609.56430894028745 749.48270951928862 0 749.48270951928862 -59.47892332132551 0 0 0 0 -251.82453147441265 933.73966299003587 0 933.73966299003587 -80.552905221207766 0 0 0 0 -602.94964568849537 733.9474827152444 0 733.9474827152444 -127.22035288193001 0 0 0 0 -30.892046143475454 697.37362725006824 0 697.37362725006824 -124.7907229499906 0 0 0 0 -107.13635357196472 566.48888022545361 0 566.48888022545361 -9.0137652739213081 0 0 0 0 736.12442048883531 670.43857571347326 0 670.43857571347326 -180.44809707161039 0 0 0 0 -104.24835682165576 889.20417933857971 0 889.20417933857971 138.46282998629613 0 0 0 0 -365.49737788605853 581.47765110601904 0 581.47765110601904 -5.1974420581809682 0 0 0 0 -571.85046145902015 830.20055113722265 0 830.20055113722265 -208.08403976153932 0 0 0 0 -735.10629120639351 746.69047459698049 0 746.69047459698049 -1029.3906182395585 0 0 0 0 -1020.6268099096342 512.4061117811143 0 512.4061117811143 -37.336602629831759 0 0 0 0 -386.84822982730111 354.64170899455348 0 354.64170899455348 -616.02357407106319 0 0 0 0 932.58328862434428 1110.4853261764947 0 1110.4853261764947 612.89729828418058 0 0 0 0 437.27601759700337 359.66434627379931 0 359.66434627379931 -116.65641507212422 0 0 0 0 -373.84662507119356 579.18622492682334 0 579.18622492682334 137.3215876428003 0 0 0 0 380.48304614963126 -696.73203078921506 0 -696.73203078921506 -1267.9774094517634 0 0 0 0 521.07929934823187 1381.0880917311079 0 1381.0880917311079 -2360.3849570660677 0 0 0 0 346.46566590095244 -764.42749020682459 0 -764.42749020682459 1492.0991313794075 0 0 0 0 122.13846541431849 534.27993237271585 0 534.27993237271585 -1095.5679460905376 0 0 0 0 272.95271837158361 489.59620617784094 0 489.59620617784094 -2769.6587807481192 0 0 0 0 -883.70292869929835 863.69322345263208 0 863.69322345263208 -745.05239589659323 0 0 0 0 0.68754942207306158 723.78949646020919 0 723.78949646020919 -2076.1896332675678 0 0 0 0 5708.0819156562138 -1262.2390132666769 0 -1262.2390132666769 -3124.5417173472524 0 0 0 0 7.8085325454046881 5.1658321357739965 0 5.1658321357739965 -29.007798631940261 0 0 0 0 -1845.804211241164 2145.4664817341909 0 2145.4664817341909 -2006.9150653750694 0 0 0 0 16.521051700460646 14.189577865292392 0 14.189577865292392 -58.882482619629116 0 0 0 0 -299.91460335731972 353.28656316076376 0 353.28656316076376 -472.10899052447348 0 0 0 0 -79.694612773120753 312.79374679798639 0 312.79374679798639 -704.56298105997848 0 0 0 0 -0.98167760530486703 192.68180208855847 0 192.68180208855847 -542.99696408923774 0 0 0 0 -241.73937033122638 198.96553486424091 0 198.96553486424091 -109.25338692503283 0 0 0 0 2291.4814990306768 143.03113566251704 0 143.03113566251704 -244.61555309283722 0 0 0 0 558.47267587616807 82.909243650639837 0 82.909243650639837 167.51398506541591 0 0 0 0 728.22485148400301 260.97993551591208 0 260.97993551591208 -77.034521638852311 0 0 0 0 109.22047411481617 151.9918898891483 0 151.9918898891483 -8.849404605163727 0 0 0 0 327.31917734272429 365.94248052212788 0 365.94248052212788 -112.11318803214817 0 0 0 0 1.2841211891791318 32.995064212867874 0 32.995064212867874 -98.666592584451337 0 0 0 0 0.094072691499604844 31.074261045407184 0 31.074261045407184 -81.041924342003767 0 0 0 0 -4.1896929035428911 35.50485757405113 0 35.50485757405113 -79.597564265830442 0 0 0 0 850.69530440060043 -159.37119923673708 0 -159.37119923673708 -148.46676352160284 0 0 0 0 13.732517951346978 23.839455792895421 0 23.839455792895421 -57.632961882599602 0 0 0 0 -5.6855138101382181 32.204049651772948 0 32.204049651772948 -54.844517721270677 0 0 0 0 -5.4357728327740915 35.949560042086887 0 35.949560042086887 -45.375583004090004 0 0 0 0 -27.779396763187833 38.175472497634473 0 38.175472497634473 -28.526833645795705 0 0 0 0 9.6067405442714744 -4.932526652922121 0 -4.932526652922121 -6.6281927069522339 0 0 0 0 252.42006385506829 89.190214333531912 0 89.190214333531912 239.72082352802681 0 0 0 0 463.98792011704063 -235.84895676617452 0 -235.84895676617452 143.21480966755189 0 0 0 0 472.09705143148312 163.2438745606778 0 163.2438745606778 -63.543605305763776 0 0 0 0 -139.92388733651023 259.82686794793699 0 259.82686794793699 53.18413867793015 0 0 0 0 -243.03523863415467 553.4509551080846 0 553.4509551080846 -103.38609804244152 0 0 0 0 42.022058939852286 62.147908197512152 0 62.147908197512152 49.381250441569136 0 0 0 0 -400.1377702409518 83.377592625707621 0 83.377592625707621 -2.33026833445183 0 0 0 0 -52.747114245779812 56.043887693202123 0 56.043887693202123 -249.78822060459061 0 0 0 0 173.62917015946005 275.05855040837196 0 275.05855040837196 -158.76210113841807 0 0 0 0 367.88283713429701 -272.56727047511959 0 -272.56727047511959 -825.34555890108459 0 0 0 0 645.61979280767264 487.28438849837403 0 487.28438849837403 -424.30717689548328 0 0 0 0 -1037.1076749300701 197.34687813492201 0 197.34687813492201 -231.80267154583453 0 0 0 0 -0.05968950895476155 15.859840803419502 0 15.859840803419502 -27.75765806969946 0 0 0 0 -1.7018725138067623 8.6070480722832485 0 8.6070480722832485 -2.5414502362656606 0 0 0 0 -19.760169860936458 36.430014988549175 0 36.430014988549175 -39.070907302909006 0 0 0 0 -46.4446578332645 34.192414266342894 0 34.192414266342894 249.07247151999036 0 0 0 0 -308.90918536746176 703.6355386333671 0 703.6355386333671 -605.20959398155537 0 0 0 0 -415.2588434664649 913.67454531470867 0 913.67454531470867 -292.19337821434601 0 0 0 0 -593.21593167100218 742.35231685005419 0 742.35231685005419 -138.65930472694163 0 0 0 0 -478.24976961166249 728.56163867811119 0 728.56163867811119 -51.515964221718605 0 0 0 0 -211.10361910826759 520.04392554720107 0 520.04392554720107 -183.380479909727 0 0 0 0 -523.88581496263578 808.35912366686716 0 808.35912366686716 -384.34677923873824 0 0 0 0 -15.450184176841731 -0.025627896497795177 0 -0.025627896497795177 0.23333886733523457 0 0 0 0 -114.56518941585091 760.28648934241937 0 760.28648934241937 -1688.8905473057166 0 0 0 0 -1220.5832035733656 1045.1158172660043 0 1045.1158172660043 -299.1518022447417 0 0 0 0 -21.589609296759591 215.09609735996128 0 215.09609735996128 -427.43677969985583 0 0 0 0 -98.42322667875851 -73.424566647430765 0 -73.424566647430765 934.27279781089965 0 0 0 0 -1166.8307284312323 811.26309390453389 0 811.26309390453389 1827.8053629207498 0 0 0 0 -483.24793155609223 571.87422676236383 0 571.87422676236383 13.099476984025387 0 0 0 0 -2826.3953316172701 100.23488149380137 0 100.23488149380137 384.82949894681406 0 0 0 0 -0.24214392583235167 561.12119506115778 0 561.12119506115778 568.77580657348881 0 0 0 0 244.15274209710333 499.08828015434483 0 499.08828015434483 429.66888743641903 0 0 0 0 -822.93190449316171 958.40491993800242 0 958.40491993800242 333.04496802100402 0 0 0 0 360.03983585751848 659.61429580053482 0 659.61429580053482 458.21689483954833 0 0 0 0 -23.069830116834112 28.787612203600361 0 28.787612203600361 -17.370968826967157 0 0 0 0 -1376.7577143294038 392.74229712957458 0 392.74229712957458 1018.6883180063123 0 0 0 0 264.83196552365553 511.82828678860096 0 511.82828678860096 576.74275412263523 0 0 0 0 229.90796702943044 607.33155035163873 0 607.33155035163873 412.14668559886923 0 0 0 0 0.17657261861767359 745.94575157659165 0 745.94575157659165 329.10992570396047 0 0 0 0 155.24349901205278 598.34421655010738 0 598.34421655010738 -79.444973320605641 0 0 0 0 -187.22673273819964 1316.7009463373506 0 1316.7009463373506 20.491426124839563 0 0 0 0 1298.2955660771695 1056.808454388618 0 1056.808454388618 48.352346235064033 0 0 0 0 -10.811185496741274 12.068339876481502 0 12.068339876481502 -2.3090322966379802 0 0 0 0 331.93705872655846 891.1400972464744 0 891.1400972464744 -472.23564505750619 0 0 0 0 -688.61133063333546 137.31409662803526 0 137.31409662803526 382.10117044089566 0 0 0 0 -1210.7510675122758 775.5907937475522 0 775.5907937475522 250.52075485488604 0 0 0 0 -385.96167694693577 484.12565110357718 0 484.12565110357718 169.56871109134227 0 0 0 0 -334.16011076651921 458.94555108793702 0 458.94555108793702 -187.62847144850821 0 0 0 0 708.01626415422652 -115.99104074193383 0 -115.99104074193383 13.017848760769994 0 0 0 0 -213.30968321817636 401.9586529941098 0 401.9586529941098 -192.83608256268053 0 0 0 0 174.74469039044925 396.69454554294498 0 396.69454554294498 -607.48658957301814 0 0 0 0 -192.14276281543425 547.81717033368841 0 547.81717033368841 -522.11066420940188 0 0 0 0 -222.74805423831276 401.31021610981315 0 401.31021610981315 -656.44356885739398 0 0 0 0 -0.15767719362338539 722.12911468619859 0 722.12911468619859 -777.87411991182853 0 0 0 0 -0.055246700343559496 850.41600241922424 0 850.41600241922424 -264.88755352130102 0 0 0 0 -218.29587177837675 560.51274070468207 0 560.51274070468207 -556.28356402015561 0 0 0 0 -192.15947386881453 681.79460727074184 0 681.79460727074184 -294.54306524750791 0 0 0 0 -38.71062260097824 512.46229606620182 0 512.46229606620182 -863.58189081400371 0 0 0 0 -45.714621578837978 707.45081202510482 0 707.45081202510482 -400.47800359353641 0 0 0 0 -612.81575616587361 579.11148595424493 0 579.11148595424493 -437.34662901424963 0 0 0 0 4.5628580558683325 4.1145267633526146 0 4.1145267633526146 0.37429128601989703 0 0 0 0 156.63811507067294 860.69694265514772 0 860.69694265514772 -853.20876961368083 0 0 0 0 246.32941080656019 930.86425285275254 0 930.86425285275254 -674.32229784073934 0 0 0 0 190.06320174509892 993.55102520344371 0 993.55102520344371 -583.11319571890272 0 0 0 0 187.71303666444146 872.29328339568747 0 872.29328339568747 -662.01925316431152 0 0 0 0 180.21790569127188 774.18348900156707 0 774.18348900156707 -454.27423018035188 0 0 0 0 753.81899856135396 1178.3567466626339 0 1178.3567466626339 203.32641125826922 0 0 0 0 443.74074911864591 683.71201138338074 0 683.71201138338074 -458.11535518874689 0 0 0 0 153.3861641237163 937.76502795472152 0 937.76502795472152 -161.65408915193257 0 0 0 0 -71.035886675264919 204.27134993921027 0 204.27134993921027 -44.849968264425115 0 0 0 0 -56.725996100460179 508.47259272377414 0 508.47259272377414 1037.5047051035326 0 0 0 0 12.545191238481493 3.2738300656131685 0 3.2738300656131685 -0.2137127968463659 0 0 0 0 647.74119776093721 151.11403733184125 0 151.11403733184125 -248.21903545319219 0 0 0 0 984.8776714434498 1.0515859561419347 0 1.0515859561419347 -1916.2060232925942 0 0 0 0 391.6440154911968 1809.5738872575316 0 1809.5738872575316 -803.89019939004356 0 0 0 0 441.31296375158126 -1119.3613565388951 0 -1119.3613565388951 -203.50583862807252 0 0 0 0 -426.04064575998927 -95.820615708689729 0 -95.820615708689729 730.20439819962485 0 0 0 0 19.095156503514659 12.005397359526796 0 12.005397359526796 3.5204238624606887 0 0 0 0 -140.14470959425671 364.25308668688012 0 364.25308668688012 -314.26089549414428 0 0 0 0 -91.358289409159624 363.98216341511488 0 363.98216341511488 -715.49641010518098 0 0 0 0 -420.12192858762864 492.43977896361321 0 492.43977896361321 -717.34572353220938 0 0 0 0 11.135782549496071 10.923522270442476 0 10.923522270442476 4.3544509798458719 0 0 0 0 -297.86824782603071 386.3010535969961 0 386.3010535969961 204.81908480515267 0 0 0 0 -504.96072311588796 25.177867899608827 0 25.177867899608827 559.0431179844818 0 0 0 0 -89.825402844275231 234.46068937949894 0 234.46068937949894 102.61644180814801 0 0 0 0 -264.99974463641411 -81.479130571518908 0 -81.479130571518908 371.0421932259851 0 0 0 0 -88.663733041814453 35.870384801119606 0 35.870384801119606 0.36742614718998823 0 0 0 0 -11.212501949165016 356.55871697503972 0 356.55871697503972 520.24262465906213 0 0 0 0 -55.475205772840127 183.7917020729019 0 183.7917020729019 115.15415987563028 0 0 0 0 412.55106067983434 658.83585867994771 0 658.83585867994771 1512.958962831246 0 0 0 0 364.1767723763187 226.96799344319879 0 226.96799344319879 -208.8486323517136 0 0 0 0 -70.505398051634984 992.36713959150848 0 992.36713959150848 712.51808734134829 0 0 0 0 -185.41701780463336 -172.42677781431848 0 -172.42677781431848 473.39926383772399 0 0 0 0 1195.0842343896511 830.07603886316792 0 830.07603886316792 349.40986258305929 0 0 0 0 -15.587526110487481 12.808604511304623 0 12.808604511304623 22.203075294779978 0 0 0 0 403.48906566128426 656.18576757234769 0 656.18576757234769 793.68419076525606 0 0 0 0 -28.350284148095852 16.937922211758725 0 16.937922211758725 3.3003421435321911 0 0 0 0 -210.57194551895373 160.19822989443492 0 160.19822989443492 -39.730720231236774 0 0 0 0 -261.79170446063199 143.5306927762972 0 143.5306927762972 69.935772349359468 0 0 0 0 -14.374627017206681 53.680515061612454 0 53.680515061612454 32.39337040188434 0 0 0 0 -9.0719544279272668 52.774496270125383 0 52.774496270125383 -38.431601994830999 0 0 0 0 4.1549924826491456 46.766546171647462 0 46.766546171647462 36.021960819318281 0 0 0 0 -39.031902689768685 159.8226836734666 0 159.8226836734666 8.5983379123790655 0 0 0 0 -167.90088128128446 171.89826216525489 0 171.89826216525489 -16.72283716777747 0 0 0 0 -364.01403627730906 257.14236028751475 0 257.14236028751475 -27.235953628383868 0 0 0 0 -228.17886538497987 489.68480333092884 0 489.68480333092884 -209.84136524039786 0 0 0 0 84.411898640915751 310.22518837422831 0 310.22518837422831 21.501616932349862 0 0 0 0 -12.29587821738096 174.20949399309757 0 174.20949399309757 -0.31048829676001333 0 0 0 0 -18.193478092725854 157.10970367238042 0 157.10970367238042 -22.135061037002743 0 0 0 0 -31.108944405685179 178.709267323924 0 178.709267323924 33.526452158555912 0 0 0 0 43.301954296708573 187.96591418996832 0 187.96591418996832 -93.56104453507578 0 0 0 0 -3.807514910811733 196.98880447568354 0 196.98880447568354 -62.0843600059452 0 0 0 0 -208.5695124961203 -4.3345184681165847 0 -4.3345184681165847 -109.49710887853871 0 0 0 0 -24.814545482397079 43.473122434646939 0 43.473122434646939 -133.61968062874803 0 0 0 0 75.759098103138967 32.414564789261931 0 32.414564789261931 -247.4344454081147 0 0 0 0 -137.05446467857109 -42.801404591707978 0 -42.801404591707978 -195.98781706465525 0 0 0 0 32.746792580175679 130.70205065692426 0 130.70205065692426 -129.77467335514666 0 0 0 0 -50.294132916722447 69.878728551240783 0 69.878728551240783 -159.03378942195559 0 0 0 0 137.44720294597209 170.23996016984165 0 170.23996016984165 -183.4695568521347 0 0 0 0 220.20650935353478 114.63173458763049 0 114.63173458763049 -319.8126356342691 0 0 0 0 103.68702684654272 213.71029824602738 0 213.71029824602738 -97.112670339512988 0 0 0 0 -15.421537540678401 -149.30007611520705 0 -149.30007611520705 -543.14767407720137 0 0 0 0 -41.391120742366184 -87.115634867484914 0 -87.115634867484914 -353.43070061480466 0 0 0 0 -387.85636888555018 -86.275272110608057 0 -86.275272110608057 -268.23057788310689 0 0 0 0 -327.76071623899043 -165.18936252620188 0 -165.18936252620188 -290.36086819652701 0 0 0 0 -236.61928399885073 -89.310979651281741 0 -89.310979651281741 -101.44828300010704 0 0 0 0 -168.37560145661701 -163.62264350663463 0 -163.62264350663463 -327.25422777538188 0 0 0 0 602.77620616951026 349.9653050492052 0 349.9653050492052 215.50243406038499 0 0 0 0 -504.14574347203597 -290.67022448897478 0 -290.67022448897478 -132.26935861277161 0 0 0 0 -234.81201240702649 -74.464716427879466 0 -74.464716427879466 -313.37260918223183 0 0 0 0 -114.77201533055631 -71.177552754314092 0 -71.177552754314092 -218.11951591924299 0 0 0 0 -123.46620780252852 -91.622924036157201 0 -91.622924036157201 -229.0538447520812 0 0 0 0 -232.5936979848193 -117.37055391482136 0 -117.37055391482136 -146.63184255294618 0 0 0 0 -163.32175948855001 -71.406424165070348 0 -71.406424165070348 -118.20528031158028 0 0 0 0 -256.40220790152671 -83.278694330052531 0 -83.278694330052531 -100.70402946235845 0 0 0 0 1180.7332851458923 114.02508569747442 0 114.02508569747442 187.43849393437995 0 0 0 0 247.51364467495296 -95.913661680842779 0 -95.913661680842779 490.2638328798057 0 0 0 0 -36.652979313780349 -5.3903414876546663 0 -5.3903414876546663 12.369013501302817 0 0 0 0 410.59823846825748 301.9107711850229 0 301.9107711850229 442.61344098782865 0 0 0 0 -90.553713594330361 167.93300448750233 0 167.93300448750233 70.188049957833528 0 0 0 0 50.074583089810318 10.840911104878245 0 10.840911104878245 -0.57619061528285442 0 0 0 0 -804.472802170043 -85.627371641603531 0 -85.627371641603531 -235.34518648135418 0 0 0 0 -6.269943163410062 428.32154257131333 0 428.32154257131333 -394.70466663889238 0 0 0 0 -920.12508620695735 203.83065694614197 0 203.83065694614197 -29.098373665110557 0 0 0 0 -900.69546761791571 488.96713040714098 0 488.96713040714098 -458.10296852207102 0 0 0 0 -1609.0577823363419 1006.3322376122524 0 1006.3322376122524 -642.4548058737455 0 0 0 0 -2865.9757727739052 199.46903711670893 0 199.46903711670893 -488.01760814096633 0 0 0 0 664.90973146237957 325.53202470844917 0 325.53202470844917 -1275.0058347870799 0 0 0 0 -929.21284899537568 36.929878517483303 0 36.929878517483303 -622.71168071854481 0 0 0 0 -1912.3331072822184 1610.7963704210633 0 1610.7963704210633 -2827.0954417132598 0 0 0 0 -482.76011388959887 -520.09532993166158 0 -520.09532993166158 -796.89074509844068 0 0 0 0 860.93762081577734 965.22319800785044 0 965.22319800785044 -459.53590324622564 0 0 0 0 -114.94374660982893 128.45588026214054 0 128.45588026214054 53.88419607451462 0 0 0 0 1006.3651749729615 647.03275092415788 0 647.03275092415788 217.62207542832402 0 0 0 0 -858.17932201481017 -434.11886091749693 0 -434.11886091749693 -336.4127185599209 0 0 0 0 -431.61128266045125 558.18292031904275 0 558.18292031904275 -1203.1938848568388 0 0 0 0 -1330.426225114099 649.47368949603515 0 649.47368949603515 772.52903400917421 0 0 0 0 -2043.6739403278407 360.47952052367691 0 360.47952052367691 -127.50651173731603 0 0 0 0 -754.07370116810489 2369.6351330526231 0 2369.6351330526231 -1454.6118243898472 0 0 0 0 -1330.4884272037314 657.62370187051522 0 657.62370187051522 128.83881027621101 0 0 0 0 -154.66294065349754 126.58054461944914 0 126.58054461944914 50.720029484273397 0 0 0 0 5.3342233140938333 385.90895517475838 0 385.90895517475838 -423.78419315317296 0 0 0 0 -2.6987954830457852 9.0932817596752216 0 9.0932817596752216 -6.5256278847314775 0 0 0 0 -459.69210390778608 -41.193519545046001 0 -41.193519545046001 -34.906234126743584 0 0 0 0 -116.93007175873495 134.38383127116973 0 134.38383127116973 48.29866336376233 0 0 0 0 498.98901700330316 1347.2005236416335 0 1347.2005236416335 -1548.4268744475048 0 0 0 0 -1161.8952997425804 1278.3993725142718 0 1278.3993725142718 -163.21402566152028 0 0 0 0 -1156.8937520115869 1234.676141925891 0 1234.676141925891 191.93596672287094 0 0 0 0 -1191.3481573682802 811.70711630525329 0 811.70711630525329 1544.0553192660736 0 0 0 0 -16.920491355878767 1754.6528965326579 0 1754.6528965326579 -2171.1721897735929 0 0 0 0 1010.3563207106781 885.87705707125133 0 885.87705707125133 -2150.3138454396508 0 0 0 0 -22.567842627905634 6.5521384200638693 0 6.5521384200638693 -1.1535180644783765 0 0 0 0 -1090.0257308462169 591.09321904849639 0 591.09321904849639 1791.7371402763674 0 0 0 0 3.3722529050073717 4.0583141970010388 0 4.0583141970010388 1.0065320381982872 0 0 0 0 -59.592999588762041 21.207990976782451 0 21.207990976782451 -6.7909115693375597 0 0 0 0 -109.29538732673973 87.232163052591204 0 87.232163052591204 665.35665775645248 0 0 0 0 -714.58054441798595 -339.66829668643913 0 -339.66829668643913 428.42850881470804 0 0 0 0 158.81932763039367 665.6246212128317 0 665.6246212128317 705.65068694968795 0 0 0 0 769.1112121604092 362.49467606118924 0 362.49467606118924 190.19925518213131 0 0 0 0 337.30208132223925 367.65854661623598 0 367.65854661623598 -110.3563894775034 0 0 0 0 84.364173697016668 290.58222647272851 0 290.58222647272851 206.62356004663161 0 0 0 0 243.86176014141529 342.2147530248767 0 342.2147530248767 -418.61213378283901 0 0 0 0 -316.49729385990941 149.87049975839909 0 149.87049975839909 244.80866346550465 0 0 0 0 -402.79386821031221 584.41693760373164 0 584.41693760373164 61.562060487878625 0 0 0 0 152.72436740854755 -248.61522597194562 0 -248.61522597194562 1198.55157489884 0 0 0 0 93.48702442821741 303.93428378254794 0 303.93428378254794 -237.92718189027801 0 0 0 0 72.701496434136061 287.22604547985247 0 287.22604547985247 -12.340888029160851 0 0 0 0 -213.53141891679843 211.71155059465673 0 211.71155059465673 29.724529154445918 0 0 0 0 47.376040575548814 190.07449807616621 0 190.07449807616621 -44.121806049370207 0 0 0 0 72.172753509701579 -190.68351337376589 0 -190.68351337376589 -400.27133621348185 0 0 0 0 49.627530716783667 59.083186862958144 0 59.083186862958144 353.20549136227055 0 0 0 0 58.875480540911667 326.77972729442263 0 326.77972729442263 764.58286247125943 0 0 0 0 -1.0611539706144981 13.19979033211655 0 13.19979033211655 1.8115706269631939 0 0 0 0 -2867.1515566659509 -376.1378428818789 0 -376.1378428818789 -627.41331365593214 0 0 0 0 393.89980520026074 1259.5811299213947 0 1259.5811299213947 -2167.3943471787061 0 0 0 0 505.03160184864828 528.31134636102797 0 528.31134636102797 331.55367488911361 0 0 0 0 249.87905191945174 262.90545957128234 0 262.90545957128234 190.93781217820651 0 0 0 0 256.25178909345414 396.40325150178251 0 396.40325150178251 45.287371050093498 0 0 0 0 460.4894774556742 444.73168253044423 0 444.73168253044423 -91.05301816744759 0 0 0 0 462.18441526539391 199.07151864276966 0 199.07151864276966 -311.68676497208071 0 0 0 0 453.32913454930531 285.94310516220867 0 285.94310516220867 -428.89865898073185 0 0 0 0 317.08633784551057 -48.402977320292848 0 -48.402977320292848 -728.86153822760025 0 0 0 0 318.88196654441344 63.40313989563856 0 63.40313989563856 590.97320488578407 0 0 0 0 -305.00288127560634 987.07931108959019 0 987.07931108959019 -406.19258725985128 0 0 0 0 440.23821194543052 595.62189119967843 0 595.62189119967843 83.809002908848925 0 0 0 0 1068.1827073133318 1251.5557827569501 0 1251.5557827569501 -3483.12416695305 0 0 0 0 -814.32055574921833 147.59762698515624 0 147.59762698515624 2844.3977154858658 0 0 0 0 -6.8756244812925615 12.165682756946353 0 12.165682756946353 0.40016085033700577 0 0 0 0 649.0239573653671 104.98481554500904 0 104.98481554500904 530.73984365125216 0 0 0 0 1329.8522117865505 807.1018548917782 0 807.1018548917782 -2728.3217201554035 0 0 0 0 -201.30923251993954 1624.0761629344597 0 1624.0761629344597 -2632.4132369063445 0 0 0 0 -1337.8456729888567 1577.4311393351527 0 1577.4311393351527 1912.443608253925 0 0 0 0 -967.59992152501945 1845.8296437074459 0 1845.8296437074459 -207.32462890367606 0 0 0 0 -1698.0987907134113 1020.1474241267424 0 1020.1474241267424 63.545779192740156 0 0 0 0 -1439.8508404892054 2291.0150983532949 0 2291.0150983532949 635.73956845366047 0 0 0 0 -336.77527485077735 586.09650985573535 0 586.09650985573535 249.00007518037819 0 0 0 0 -1186.5465593354893 1880.7871709416941 0 1880.7871709416941 -1521.3656772501708 0 0 0 0 -94.810414879524615 97.002868967523682 0 97.002868967523682 -1289.7280571225147 0 0 0 0 117.55631370544143 298.27571859073942 0 298.27571859073942 -1323.5485531931045 0 0 0 0 -478.0450269090361 968.18641616763489 0 968.18641616763489 -3074.3005363147968 0 0 0 0 -3147.2747653591905 2439.0773956852026 0 2439.0773956852026 -1322.5914860484481 0 0 0 0 -7.7502234538605705 9.6037530153747142 0 9.6037530153747142 -14.973896778906919 0 0 0 0 -757.38959116127808 1111.5418167335883 0 1111.5418167335883 -1012.272862191734 0 0 0 0 -1378.227395357615 435.73276088502826 0 435.73276088502826 -443.5976872855972 0 0 0 0 -2145.301802673348 2134.7555063237742 0 2134.7555063237742 -1697.5222432386363 0 0 0 0 -327.30556000471188 -594.77444489453046 0 -594.77444489453046 -694.5767793560517 0 0 0 0 -324.16619127680315 -532.47053145975951 0 -532.47053145975951 -1949.7745348152312 0 0 0 0 110.09671943064313 -268.87717440875713 0 -268.87717440875713 103.11671857260808 0 0 0 0 -557.60978140073712 -114.64325643252232 0 -114.64325643252232 246.9480291652435 0 0 0 0 -835.78725204942748 -242.61398003548675 0 -242.61398003548675 230.51132779338514 0 0 0 0 -355.31581475771964 -359.98109357248177 0 -359.98109357248177 247.94904502942518 0 0 0 0 -49.842179618014292 7.4917006357583773 0 7.4917006357583773 -22.422593871208164 0 0 0 0 -324.17142622364918 -100.68469297738193 0 -100.68469297738193 207.02520533907955 0 0 0 0 -483.9590352812811 -11.658671101646178 0 -11.658671101646178 168.72287828366825 0 0 0 0 -334.43098466368974 50.41896598276071 0 50.41896598276071 107.57874949308462 0 0 0 0 -92.776514262193814 56.669578092078154 0 56.669578092078154 55.07900969513139 0 0 0 0 -315.33928150367865 -117.83631065226837 0 -117.83631065226837 51.136454478109954 0 0 0 0 -20.153999811132621 33.667615531460605 0 33.667615531460605 -31.472286250439339 0 0 0 0 7.8607886550331614 5.7632713704512284 0 5.7632713704512284 -7.0751068437607785 0 0 0 0 173.45197599489984 136.64146602088158 0 136.64146602088158 -92.780758401888306 0 0 0 0 65.707011133024935 -0.60008502454002155 0 -0.60008502454002155 -158.13732249650639 0 0 0 0 -53.353313064813847 37.777112939358631 0 37.777112939358631 52.13906480040896 0 0 0 0 -143.94410484438413 155.06029610123915 0 155.06029610123915 165.95632560018566 0 0 0 0 57.65691870177892 50.738758108032641 0 50.738758108032641 -37.909045875527909 0 0 0 0 -15.810687499214112 53.173648753429525 0 53.173648753429525 -6.0103783931412522 0 0 0 0 62.991938171560832 26.160038979376168 0 26.160038979376168 -175.32182668529276 0 0 0 0 213.78827858064324 33.497848898077791 0 33.497848898077791 -192.44016063434538 0 0 0 0 70.158510016059154 -130.21661970959394 0 -130.21661970959394 -360.70458775751467 0 0 0 0 36.159095325914677 -115.37194683664711 0 -115.37194683664711 -84.792602682820871 0 0 0 0 335.9115417723624 -14.215862955913508 0 -14.215862955913508 -607.49003252352122 0 0 0 0 187.71355029907863 154.77607065613483 0 154.77607065613483 -181.43333428852202 0 0 0 0 286.23020368881407 209.28683032264962 0 209.28683032264962 -262.32134855781624 0 0 0 0 390.95629790379462 193.40428093166247 0 193.40428093166247 -297.52695013236371 0 0 0 0 288.78976910531037 332.50995557217379 0 332.50995557217379 -179.35556725382048 0 0 0 0 178.41962668782799 101.54364331776742 0 101.54364331776742 -320.84552188979796 0 0 0 0 122.55258073074219 137.20466075234435 0 137.20466075234435 -184.32533439999315 0 0 0 0 126.98550533663476 99.225918603091031 0 99.225918603091031 14.033839413686394 0 0 0 0 -66.901224639736711 397.77836976660137 0 397.77836976660137 -12.714831539109582 0 0 0 0 119.19021628642804 133.85177112210658 0 133.85177112210658 -49.996099200325261 0 0 0 0 -55.070408923236755 241.5238595950027 0 241.5238595950027 -173.24326041218592 0 0 0 0 -30.150136266982372 436.02539218617267 0 436.02539218617267 -187.32308527539135 0 0 0 0 132.14882505639468 82.88330410398811 0 82.88330410398811 14.295107330722857 0 0 0 0 121.41474339732304 231.30241196848874 0 231.30241196848874 -205.72890621931219 0 0 0 0 -5.1939965683122864 236.02012209322129 0 236.02012209322129 -184.67023716132098 0 0 0 0 -167.27523535223372 54.708612973657182 0 54.708612973657182 97.499623272909957 0 0 0 0 -78.966575503924105 144.43323022400546 0 144.43323022400546 -103.17133592050959 0 0 0 0 101.23109202408341 357.51499949028766 0 357.51499949028766 -88.509343102909042 0 0 0 0 8.1254003257236036 454.11413772898595 0 454.11413772898595 6.0203772146051051 0 0 0 0 -50.460906283095383 66.696567332256933 0 66.696567332256933 -21.582459319412791 0 0 0 0 -97.135455862327944 186.63748542289977 0 186.63748542289977 25.078186677856138 0 0 0 0 40.799034125113394 91.312279424339067 0 91.312279424339067 16.429658208726323 0 0 0 0 -14.817352873562726 105.48384364374897 0 105.48384364374897 -11.361913590958807 0 0 0 0 -14.955702789156931 117.50146475793008 0 117.50146475793008 -17.686971668656042 0 0 0 0 -41.073960841801124 61.288139657798666 0 61.288139657798666 -40.284539945799636 0 0 0 0 -26.730696549246204 74.544923198536708 0 74.544923198536708 -29.987901670549036 0 0 0 0 -18.289068449217666 136.08460844800629 0 136.08460844800629 -81.906814238769584 0 0 0 0 -70.583379610063275 144.78821786434946 0 144.78821786434946 -40.596805312903598 0 0 0 0 16.993830537134642 49.594829082817512 0 49.594829082817512 21.585707232882271 0 0 0 0 -37.695228572483757 44.084445067965135 0 44.084445067965135 -29.163105411200377 0 0 0 0 66.041252219001763 175.74849206604995 0 175.74849206604995 -12.999664749993826 0 0 0 0 -220.24921601871029 3.3554205997170357 0 3.3554205997170357 -57.065212887890084 0 0 0 0 -245.82874516266747 130.3424408734827 0 130.3424408734827 -199.04841352140647 0 0 0 0 -146.55763226584531 177.97655913317794 0 177.97655913317794 -104.93496855582634 0 0 0 0 -344.69319413269113 90.739571127904128 0 90.739571127904128 -50.70676095255476 0 0 0 0 -691.21032027772162 -111.84102427735343 0 -111.84102427735343 -66.210649393463427 0 0 0 0 50.870028017322397 3.0464664449261818 0 3.0464664449261818 -11.741613372369613 0 0 0 0 -290.8318088435044 170.16189440038579 0 170.16189440038579 -18.525355951613165 0 0 0 0 -258.64398411408183 59.810260290068982 0 59.810260290068982 -9.1123821681794652 0 0 0 0 -278.90015500714071 53.336326886663301 0 53.336326886663301 22.736120097244566 0 0 0 0 -239.31139024836011 105.07844274883973 0 105.07844274883973 -36.912060971662868 0 0 0 0 -72.054550065654894 151.53197288769616 0 151.53197288769616 18.848760284906348 0 0 0 0 -20.108110935036365 24.857592348008978 0 24.857592348008978 -4.9707330272783423 0 0 0 0 206.4223617616226 296.55531272141525 0 296.55531272141525 143.89270062787546 0 0 0 0 18.810529082966241 176.60511941799859 0 176.60511941799859 131.85019234375068 0 0 0 0 37.076089351350447 60.915966817810265 0 60.915966817810265 -2.0285451004796968 0 0 0 0 215.03554356799577 331.35269609303214 0 331.35269609303214 234.40834091079887 0 0 0 0 103.35090768427472 146.32711517550342 0 146.32711517550342 41.917214428132866 0 0 0 0 -148.29277896386338 128.75363207657938 0 128.75363207657938 -19.597686777939089 0 0 0 0 30.827397724044985 122.94018007016837 0 122.94018007016837 -2.8086230686874103 0 0 0 0 -1.587761269040243 200.54299119103038 0 200.54299119103038 52.201229614278319 0 0 0 0 -165.13663997273437 166.62001972677473 0 166.62001972677473 91.40044278236789 0 0 0 0 -76.534789614800843 5.4501474199166751 0 5.4501474199166751 44.156671483721254 0 0 0 0 103.82400244224118 131.60813815611073 0 131.60813815611073 149.39457092500015 0 0 0 0 377.84113329046522 465.74595103443062 0 465.74595103443062 198.87804774317192 0 0 0 0 -49.854828044643206 129.09441360246984 0 129.09441360246984 91.452953574539521 0 0 0 0 247.38636910890636 254.05484706072639 0 254.05484706072639 -0.90426996252790559 0 0 0 0 9.6541127553500701 141.19692720917374 0 141.19692720917374 47.178835652062844 0 0 0 0 305.52572134078946 169.67452697613408 0 169.67452697613408 79.903883775186841 0 0 0 0 20.741031076846411 138.06264631139493 0 138.06264631139493 127.4833381968856 0 0 0 0 -9.9599321104906267 188.19554884402169 0 188.19554884402169 81.270524704115815 0 0 0 0 14.283328470417473 187.5242584491848 0 187.5242584491848 64.987876152590616 0 0 0 0 -86.356309052178403 149.39043064939142 0 149.39043064939142 -18.973890993467649 0 0 0 0 -7.5550047305296175 188.7904950695156 0 188.7904950695156 165.62316481779817 0 0 0 0 -17.446081265158057 97.670625868957202 0 97.670625868957202 -23.725611609092397 0 0 0 0 -15.584830455277938 69.742452467456403 0 69.742452467456403 -37.60048444105405 0 0 0 0 -21.018040568549623 94.687572132208516 0 94.687572132208516 29.591811111313291 0 0 0 0 12.54287899575138 82.646936654902674 0 82.646936654902674 -8.0823616375391794 0 0 0 0 34.650376623612829 189.03459793410184 0 189.03459793410184 44.955038935286211 0 0 0 0 14.294609685290197 163.74141892515809 0 163.74141892515809 26.867978095313447 0 0 0 0 13.359312908927677 192.02461795809722 0 192.02461795809722 48.104025786124112 0 0 0 0 39.76226811268134 187.08697633269912 0 187.08697633269912 -279.4162053532782 0 0 0 0 5.5611301111830471 75.601272018666137 0 75.601272018666137 -57.962417572894331 0 0 0 0 1.3575786408437125 107.0777984820761 0 107.0777984820761 -76.176544769121392 0 0 0 0 -49.84246347114393 44.128235662777811 0 44.128235662777811 -25.070624786642099 0 0 0 0 17.458718144766863 105.15894521740256 0 105.15894521740256 42.424163819167006 0 0 0 0 -641.44894797433517 737.51045966252786 0 737.51045966252786 -347.0987411189908 0 0 0 0 -361.72928573436275 1101.1679097218412 0 1101.1679097218412 -721.694444259796 0 0 0 0 4.2876068406636136 4.0759321194703944 0 4.0759321194703944 -0.26070201115282998 0 0 0 0 -648.52393967629177 685.67821313222157 0 685.67821313222157 -698.81892670608067 0 0 0 0 -377.33421229923988 528.9314734532245 0 528.9314734532245 -924.11876522404054 0 0 0 0 -167.9229105367267 1081.6761311285154 0 1081.6761311285154 -1607.5709288715771 0 0 0 0 -466.90264708612813 1874.9346923455159 0 1874.9346923455159 -575.72038142605743 0 0 0 0 -68.339004100009333 1229.8872236223142 0 1229.8872236223142 -1458.8826649499388 0 0 0 0 -454.03758765646489 1939.9800697915925 0 1939.9800697915925 -1770.2338263254787 0 0 0 0 -1467.0933589785709 1197.6227636294188 0 1197.6227636294188 -45.681847033076338 0 0 0 0 -567.00908734870609 -90.951959521942626 0 -90.951959521942626 305.65739390993986 0 0 0 0 638.59216666818975 133.53522731811972 0 133.53522731811972 -250.55692118030856 0 0 0 0 491.48581371566979 41.943461574643152 0 41.943461574643152 144.84598375369387 0 0 0 0 119.76957349544682 588.83365401974515 0 588.83365401974515 561.26899200564367 0 0 0 0 -390.36951256394968 566.43716016807957 0 566.43716016807957 227.98596194290621 0 0 0 0 186.41385151952272 652.45735954701377 0 652.45735954701377 -270.87009722847142 0 0 0 0 86.333012500603218 -13.951165344300534 0 -13.951165344300534 61.015603731439114 0 0 0 0 194.74568323898711 203.97717548581568 0 203.97717548581568 -37.643169596158259 0 0 0 0 951.30615368351573 224.68854127496161 0 224.68854127496161 -81.608204978925642 0 0 0 0 542.74965880572563 736.23488255444681 0 736.23488255444681 518.93605006438156 0 0 0 0 329.89554472523741 84.677866233490931 0 84.677866233490931 -3.2528547786132549 0 0 0 0 563.56090963879251 222.84538268607139 0 222.84538268607139 -123.71458833523502 0 0 0 0 328.50353147584246 175.2929966709853 0 175.2929966709853 -48.084983776207082 0 0 0 0 337.28308080521674 107.74335555315247 0 107.74335555315247 -209.36135511279281 0 0 0 0 177.75552172627067 64.502627194815432 0 64.502627194815432 -121.79053921870218 0 0 0 0 324.86479850407341 131.15091663120256 0 131.15091663120256 -135.68917242418684 0 0 0 0 96.658755838579964 64.818717231315532 0 64.818717231315532 -225.37596064698209 0 0 0 0 -179.81372304414981 366.9264400808197 0 366.9264400808197 -192.9820234512008 0 0 0 0 -332.28561991383322 164.1978177326182 0 164.1978177326182 -459.89970021529734 0 0 0 0 -659.8373055808479 704.13920061846147 0 704.13920061846147 -522.80839679575638 0 0 0 0 -549.34747940966554 760.3558787463071 0 760.3558787463071 -819.99284963419632 0 0 0 0 7.1921014753836516 7.8082960666083636 0 7.8082960666083636 3.1594382414262157 0 0 0 0 -265.90758360605105 262.55279592301667 0 262.55279592301667 -399.01442472367853 0 0 0 0 -200.0823265745048 410.40375719724187 0 410.40375719724187 -186.94840055987152 0 0 0 0 -208.38985805634911 180.96277704531622 0 180.96277704531622 -47.792832604529394 0 0 0 0 -70.678025728062494 192.81363156417865 0 192.81363156417865 -76.614477748400532 0 0 0 0 -8.7952829267596826 95.282638507007505 0 95.282638507007505 -28.239587707947067 0 0 0 0 7.6371715136920102 307.59546456478529 0 307.59546456478529 -260.77376036883652 0 0 0 0 -109.2992871475908 85.557774379942657 0 85.557774379942657 113.20849775947863 0 0 0 0 -92.582440668920754 176.1482248560169 0 176.1482248560169 -92.166126982516289 0 0 0 0 -247.92052526935538 129.37403596129496 0 129.37403596129496 -10.027499533738592 0 0 0 0 -249.3336920972215 347.56986893351132 0 347.56986893351132 -249.54880248479458 0 0 0 0 126.5374895670393 131.53126865262129 0 131.53126865262129 -104.75072873001045 0 0 0 0 411.96379031692049 66.293978806192172 0 66.293978806192172 -136.41617384037136 0 0 0 0 219.42856640720856 133.64957730960668 0 133.64957730960668 -146.03019701377343 0 0 0 0 314.57828597098342 69.387107904252161 0 69.387107904252161 -57.615988331250264 0 0 0 0 313.43449842039263 90.278006848275254 0 90.278006848275254 -161.29970894174767 0 0 0 0 223.99769349943381 10.851206190927769 0 10.851206190927769 -58.659716864331131 0 0 0 0 280.69080014101928 49.857175500263111 0 49.857175500263111 -68.626705971546471 0 0 0 0 323.68736099098169 -27.01633027346179 0 -27.01633027346179 -60.169697301222186 0 0 0 0 81.083237651793752 255.25025413832191 0 255.25025413832191 226.55751091222919 0 0 0 0 38.140343194914749 97.104350039797282 0 97.104350039797282 -84.791037703269467 0 0 0 0 -38.62082294121501 -69.740329091463991 0 -69.740329091463991 63.12978645125213 0 0 0 0 82.885022235997099 73.825093993941437 0 73.825093993941437 -6.4848309164720055 0 0 0 0 190.39390756134526 50.456694472664822 0 50.456694472664822 -269.02206729370664 0 0 0 0 487.70132659038063 -238.51274825091241 0 -238.51274825091241 -2.2633163346727088 0 0 0 0 28.641348286138964 396.19857678180324 0 396.19857678180324 96.198733259421715 0 0 0 0 47.337496291789421 -32.381589641117863 0 -32.381589641117863 75.659003330533778 0 0 0 0 35.437922936113409 561.80087556148499 0 561.80087556148499 -434.61886206484996 0 0 0 0 11.76567351949052 38.956826693256971 0 38.956826693256971 -0.50896198752070632 0 0 0 0 -364.1521490518644 -32.280568233099984 0 -32.280568233099984 271.45514027301789 0 0 0 0 130.34207395378326 229.1302048271657 0 229.1302048271657 286.03128672675575 0 0 0 0 399.16987167895422 127.19505620803989 0 127.19505620803989 78.065446648830402 0 0 0 0 0.65767882683533685 0.78961556366863306 0 0.78961556366863306 8.2463328030539351 0 0 0 0 -158.92946275320719 -190.80013597242169 0 -190.80013597242169 204.79581989415402 0 0 0 0 1149.6443925650674 500.50178043258575 0 500.50178043258575 -70.599198397905639 0 0 0 0 -160.27843713096809 -167.27829731492693 0 -167.27829731492693 100.79975839147872 0 0 0 0 -264.58820307027781 -91.6909877563603 0 -91.6909877563603 232.41304288686842 0 0 0 0 -250.83103923116869 -142.66413734789876 0 -142.66413734789876 385.75070538110413 0 0 0 0 88.58993781573372 89.720070480259892 0 89.720070480259892 -68.364243734657066 0 0 0 0 17.958355221709212 -11.520969727612396 0 -11.520969727612396 -35.10932729166106 0 0 0 0 42.104510523571548 131.49627807827341 0 131.49627807827341 -197.82675945886149 0 0 0 0 41.936528261809144 92.588354600593448 0 92.588354600593448 213.78052171392483 0 0 0 0 80.589541732799262 26.180094503935834 0 26.180094503935834 -43.068732475803699 0 0 0 0 130.18807440961245 129.23488881753292 0 129.23488881753292 -126.91523015622806 0 0 0 0 -18.243748147768201 -6.8907554235192947 0 -6.8907554235192947 -38.088452952586522 0 0 0 0 67.707401658282038 77.753918900794162 0 77.753918900794162 -0.47765637261329053 0 0 0 0 1334.6313792238943 82.647551505728188 0 82.647551505728188 279.18247346395447 0 0 0 0 35.420383201155346 -83.674897272576345 0 -83.674897272576345 71.153408587319063 0 0 0 0 -180.94684531249368 946.52098773983926 0 946.52098773983926 477.08790008686628 0 0 0 0 -173.21483797751716 292.88291377829592 0 292.88291377829592 -696.8342523677602 0 0 0 0 -94.419103503896622 210.77578127165179 0 210.77578127165179 684.33138016824523 0 0 0 0 -21.832214368342932 20.523924356034755 0 20.523924356034755 1.7862715658429886 0 0 0 0 -101.56949524467927 226.96454483147318 0 226.96454483147318 -648.25617685602629 0 0 0 0 6.3463566364953294 54.493430795992026 0 54.493430795992026 395.30867980404946 0 0 0 0 -0.35711606779295835 181.62817262110639 0 181.62817262110639 356.28560043868492 0 0 0 0 -75.084499186436005 152.11395669893682 0 152.11395669893682 87.109640753711574 0 0 0 0 16.623737803514814 193.4674129360792 0 193.4674129360792 150.71503514009964 0 0 0 0 86.739814942557132 288.85970411694143 0 288.85970411694143 -21.856461065295662 0 0 0 0 17.041183339482814 283.60282489774045 0 283.60282489774045 214.4609380240654 0 0 0 0 27.194348351022199 233.07000929048536 0 233.07000929048536 79.735133999616664 0 0 0 0 -17.514468345791101 197.75178187936399 0 197.75178187936399 150.74071168742375 0 0 0 0 -9.2295734342187643 122.86168195135542 0 122.86168195135542 -119.83754229881424 0 0 0 0 -32.749930678579403 36.517660136996824 0 36.517660136996824 3.0934526443153594 0 0 0 0 4.6866920056427261 115.06969925850086 0 115.06969925850086 129.59414490149356 0 0 0 0 -9.3609330094550387 81.856486849334033 0 81.856486849334033 -432.50388711306732 0 0 0 0 -92.381429390152334 66.937075012878267 0 66.937075012878267 52.751203225590871 0 0 0 0 -38.959570626931963 131.0486909087449 0 131.0486909087449 129.04410974972006 0 0 0 0 6.0886099979551318 135.28413558520612 0 135.28413558520612 -28.740258330285599 0 0 0 0 -20.970057919115192 73.515022902396055 0 73.515022902396055 -16.622130772303109 0 0 0 0 -33.91295115131652 170.5437375324509 0 170.5437375324509 45.085644042213971 0 0 0 0 -36.528962772492378 159.92059151353715 0 159.92059151353715 75.934748166109785 0 0 0 0 -36.958162311283367 122.52292098584314 0 122.52292098584314 29.79927845479645 0 0 0 0 273.26127450007334 102.06372420697335 0 102.06372420697335 -48.772039257150027 0 0 0 0 -78.833321494050324 152.49710432768916 0 152.49710432768916 78.00662958160683 0 0 0 0 254.30772393627558 59.970913795856177 0 59.970913795856177 -13.371586147501148 0 0 0 0 270.07842848327709 89.933104818948777 0 89.933104818948777 -21.538381550039048 0 0 0 0 5.0345674777024669 17.10719487603329 0 17.10719487603329 -4.0853077902725401 0 0 0 0 -57.240401060611475 175.2104289421477 0 175.2104289421477 363.7863462785308 0 0 0 0 210.50526603354956 -17.413355360800779 0 -17.413355360800779 -8.6745692664480885 0 0 0 0 -70.997655230505458 68.648923714456345 0 68.648923714456345 -3.031981830714841 0 0 0 0 28.547075774637051 95.703095008750097 0 95.703095008750097 0.7412174991768552 0 0 0 0 24.26751692101243 31.616369973715337 0 31.616369973715337 7.6920584794170281 0 0 0 0 -339.77422213379759 18.450406369305711 0 18.450406369305711 314.11779568562906 0 0 0 0 155.44959156322875 183.29427016555201 0 183.29427016555201 -184.08064218022628 0 0 0 0 29.793138625580468 93.541908969182259 0 93.541908969182259 4.8481088807093329 0 0 0 0 93.19771076730251 82.960412479901265 0 82.960412479901265 -28.259759226046967 0 0 0 0 -2.4908180293382429 -1.1526493457147566 0 -1.1526493457147566 0.14218458981662163 0 0 0 0 98.11252488521859 -262.89823850899666 0 -262.89823850899666 804.10134923515784 0 0 0 0 -188.00888962732279 391.52522594068887 0 391.52522594068887 66.323411739156654 0 0 0 0 202.07026380722527 296.90717971711911 0 296.90717971711911 -992.77010987277481 0 0 0 0 -387.73391440807609 -176.89703352487868 0 -176.89703352487868 -176.80786055156204 0 0 0 0 -118.32509000191931 -252.78473169519293 0 -252.78473169519293 -611.38479065168394 0 0 0 0 186.44194630224956 -226.01148319780077 0 -226.01148319780077 -176.32622821610175 0 0 0 0 -17.229003112401415 23.238181246069619 0 23.238181246069619 4.8287492847728721 0 0 0 0 555.14045624481514 415.90029718424557 0 415.90029718424557 -271.16962614292606 0 0 0 0 -768.89144421744277 -459.39742333209233 0 -459.39742333209233 1338.8243143861373 0 0 0 0 128.13777650054544 422.93373483861478 0 422.93373483861478 -550.38437546118075 0 0 0 0 330.76371579233091 569.70566380753007 0 569.70566380753007 -309.0415758639092 0 0 0 0 69.61858042422682 575.22417964419492 0 575.22417964419492 -302.96282935538693 0 0 0 0 -289.29141144459572 320.38015075345277 0 320.38015075345277 -265.94094999130903 0 0 0 0 127.63063352240715 352.852648950814 0 352.852648950814 522.17687391800246 0 0 0 0 -68.15643493515347 69.643602897018496 0 69.643602897018496 -25.368029855142368 0 0 0 0 -16.388830012819483 86.516019940909473 0 86.516019940909473 0.13498500237312783 0 0 0 0 -15.901614956965204 426.49092638161164 0 426.49092638161164 -6.2599608288346644 0 0 0 0 -19.50034389164648 128.48515100908162 0 128.48515100908162 6.5225043898317381 0 0 0 0 -21.266793260263512 121.69714258097883 0 121.69714258097883 0.38010448604882185 0 0 0 0 -42.493911430316757 119.73954258997705 0 119.73954258997705 -9.838732293069576 0 0 0 0 -24.879321435961174 194.71258428556757 0 194.71258428556757 -187.94820079608326 0 0 0 0 -253.19235163641861 343.02861033802037 0 343.02861033802037 -219.75941597901692 0 0 0 0 -1.6311809670878574 342.08119591241848 0 342.08119591241848 -286.3054431238852 0 0 0 0 -87.288098971661611 128.12922506838075 0 128.12922506838075 -21.209988436087421 0 0 0 0 -91.857028551588883 268.52470662153792 0 268.52470662153792 131.37950631696731 0 0 0 0 -140.95897927932674 38.929621166982088 0 38.929621166982088 -362.855987691265 0 0 0 0 -65.942238222639787 56.277675746877691 0 56.277675746877691 4.7801523569580517 0 0 0 0 671.19665429290035 996.03287590478681 0 996.03287590478681 -1049.5136132353964 0 0 0 0 -73.03114388218907 108.69847585535481 0 108.69847585535481 25.368513665043565 0 0 0 0 1135.6980294244859 142.01418423055543 0 142.01418423055543 -1732.2625075347405 0 0 0 0 -202.36245173757197 -732.3402246851474 0 -732.3402246851474 593.53516515658521 0 0 0 0 -89.881952104478842 136.31927199954544 0 136.31927199954544 -47.148571106494273 0 0 0 0 -14.839781896826423 97.911549703053979 0 97.911549703053979 -4.5585903165531612 0 0 0 0 -62.895947014767444 100.92611841649159 0 100.92611841649159 -93.107191080986013 0 0 0 0 -1.2869857237528777 147.31743704273686 0 147.31743704273686 36.825688507280574 0 0 0 0 -46.124753345703937 107.23899416791468 0 107.23899416791468 34.950963994055179 0 0 0 0 -6.5594303204100584 14.597350176866996 0 14.597350176866996 4.6560009662385546 0 0 0 0 -145.92895424683229 426.83122834684036 0 426.83122834684036 -876.89297617601551 0 0 0 0 -163.48180852949736 -24.161682957877929 0 -24.161682957877929 895.70187033472757 0 0 0 0 -174.73743826952341 119.04209099614491 0 119.04209099614491 747.5689086666971 0 0 0 0 -305.31730430796597 503.22153134809014 0 503.22153134809014 -584.14815123764856 0 0 0 0 -42.105066387368424 129.84250926404042 0 129.84250926404042 16.903779539562493 0 0 0 0 250.19710437877802 296.76571581561711 0 296.76571581561711 42.07497264968697 0 0 0 0 -52.695988881842652 81.174823084537977 0 81.174823084537977 -16.992731745568896 0 0 0 0 430.6869118235627 -36.992993359010143 0 -36.992993359010143 3.761159804375211 0 0 0 0 112.05113998125574 111.59176942605592 0 111.59176942605592 -33.453934332742776 0 0 0 0 -34.857300158822909 113.42625723809851 0 113.42625723809851 19.845746073097871 0 0 0 0 4.8183888563104915 -0.9224925813584548 0 -0.9224925813584548 -6.2481548991198785 0 0 0 0 477.74448339636729 550.74621482260477 0 550.74621482260477 318.75832302904666 0 0 0 0 -892.62767321435967 788.79767053357955 0 788.79767053357955 -278.99908199949095 0 0 0 0 -851.10258950496791 785.28850775258229 0 785.28850775258229 -885.35691993416913 0 0 0 0 7.8117278263817411 5.8766976796405572 0 5.8766976796405572 -5.460442825938328 0 0 0 0 58.836109419833349 21.732072073794427 0 21.732072073794427 -29.221802740617846 0 0 0 0 46.461939435968816 57.526650551998159 0 57.526650551998159 1.7247816463768686 0 0 0 0 23.829348712610368 35.828221852774902 0 35.828221852774902 13.386744737812041 0 0 0 0 -683.1997238038166 311.04097425767304 0 311.04097425767304 119.56793704389293 0 0 0 0 -507.01230726664653 408.22093835021315 0 408.22093835021315 161.33481798995945 0 0 0 0 -538.66098361028526 505.39693507712906 0 505.39693507712906 -88.651106573231118 0 0 0 0 -564.73582658893429 172.69670272477197 0 172.69670272477197 -94.247067767450062 0 0 0 0 -1977.7084705758607 279.55621040762617 0 279.55621040762617 -102.3256343486787 0 0 0 0 -240.26748177173431 547.27633366860755 0 547.27633366860755 -708.11857340174447 0 0 0 0 -621.46314294278272 -414.68972821659031 0 -414.68972821659031 -232.04600992852829 0 0 0 0 -1328.2551742031355 384.85320604576555 0 384.85320604576555 64.59803577653156 0 0 0 0 205.4010054540413 83.563399395515262 0 83.563399395515262 -281.99229909236328 0 0 0 0 151.67989822939853 183.32634449529769 0 183.32634449529769 73.457429663490075 0 0 0 0 529.68237948752358 -278.15556858630225 0 -278.15556858630225 68.245864393785268 0 0 0 0 301.5833515834529 -5.9323320395164956 0 -5.9323320395164956 118.08206703225369 0 0 0 0 192.04399973290856 200.5083290343091 0 200.5083290343091 52.593170448294131 0 0 0 0 87.61707780953293 233.5781857156644 0 233.5781857156644 192.86832079113901 0 0 0 0 74.445840897213202 286.93372842150711 0 286.93372842150711 -22.328640010139679 0 0 0 0 242.39901623929109 502.63506518573962 0 502.63506518573962 215.05206019431535 0 0 0 0 4.4379774266780032 2.2941846017369585 0 2.2941846017369585 0.79078339157502331 0 0 0 0 7.349894604383735 220.31368512174708 0 220.31368512174708 757.50170624442671 0 0 0 0 79.410667926400492 380.87343616984606 0 380.87343616984606 -607.23794524187724 0 0 0 0 135.02903902899561 59.957277564810056 0 59.957277564810056 156.13769958025296 0 0 0 0 160.05908132005425 566.61473638936332 0 566.61473638936332 -279.46326997876713 0 0 0 0 -53.378543224127498 182.90890641484384 0 182.90890641484384 -228.20323652174591 0 0 0 0 -31.747349504425074 204.37271758764905 0 204.37271758764905 -502.2590339701519 0 0 0 0 -22.979373927679262 312.56549582498246 0 312.56549582498246 -210.48846070613763 0 0 0 0 15.459813664394332 59.331194546566536 0 59.331194546566536 43.829264169064558 0 0 0 0 -12.706905589353482 123.53402658004029 0 123.53402658004029 -76.331184636663238 0 0 0 0 -85.526336556387832 169.85073789041508 0 169.85073789041508 -109.12205918654035 0 0 0 0 -177.23725054820534 443.60928400947796 0 443.60928400947796 -320.10565178037268 0 0 0 0 -110.51200416724896 44.325844847608096 0 44.325844847608096 109.19299342843078 0 0 0 0 -612.54237173133879 213.50486574169372 0 213.50486574169372 157.11075658455957 0 0 0 0 -21.282252017067094 25.957396268650072 0 25.957396268650072 23.130329114019592 0 0 0 0 -422.54864663671469 133.78901580041929 0 133.78901580041929 287.12994831083051 0 0 0 0 -529.73161740694195 345.9087680378052 0 345.9087680378052 412.57545657371793 0 0 0 0 -615.26088605789118 682.45927227819266 0 682.45927227819266 -469.18239072529286 0 0 0 0 50.892659341192257 61.125673548801039 0 61.125673548801039 23.142027808971662 0 0 0 0 16.068790821300354 119.65531724974971 0 119.65531724974971 62.836491112453587 0 0 0 0 -18.203550200891186 193.96926315580617 0 193.96926315580617 -25.653789393567422 0 0 0 0 23.01084908550547 157.86696115181257 0 157.86696115181257 74.242303703784273 0 0 0 0 58.31175679199805 140.47795846705958 0 140.47795846705958 -57.139029017413122 0 0 0 0 80.255569715531067 95.650529825604906 0 95.650529825604906 60.292330695687255 0 0 0 0 56.012068578027538 127.80646219207392 0 127.80646219207392 -101.39222822530428 0 0 0 0 2.042234905649309 22.784581793345268 0 22.784581793345268 17.342814791515018 0 0 0 0 21.825891251002759 150.92689535758336 0 150.92689535758336 67.337390348489862 0 0 0 0 84.678880584337662 90.10968065589762 0 90.10968065589762 27.804257165806376 0 0 0 0 6.9610178559232736 212.24997972857454 0 212.24997972857454 -53.278750007131748 0 0 0 0 88.456855311203981 147.27580288508398 0 147.27580288508398 -40.455763217774802 0 0 0 0 71.489151510511874 104.60200763967077 0 104.60200763967077 -27.674841305977679 0 0 0 0 88.846617222501663 98.215195993983798 0 98.215195993983798 29.901930167035061 0 0 0 0 23.270555294597784 80.621255191988027 0 80.621255191988027 -37.312799604990204 0 0 0 0 146.79451429959227 133.76027582557586 0 133.76027582557586 116.88385013326706 0 0 0 0 48.007945317425765 46.528698230613827 0 46.528698230613827 63.770621960918106 0 0 0 0 0.012005880482092834 4.0976931338698819 0 4.0976931338698819 22.673821651266856 0 0 0 0 11.32765657507116 96.533236508765185 0 96.533236508765185 -30.945297604850452 0 0 0 0 -417.06850757438224 46.926584882464482 0 46.926584882464482 256.22431759065466 0 0 0 0 -12.803548521565972 -99.167466908098049 0 -99.167466908098049 -8.3525512386980836 0 0 0 0 157.70013472659048 144.39882985417057 0 144.39882985417057 101.58129349908336 0 0 0 0 113.2127634556964 247.87189783360736 0 247.87189783360736 19.304652940617444 0 0 0 0 12.871226843868499 262.83924942554916 0 262.83924942554916 224.83539494089109 0 0 0 0 65.173693714139517 134.92052922842959 0 134.92052922842959 446.4012241842679 0 0 0 0 182.73259850917384 216.09276988864605 0 216.09276988864605 186.34908059524787 0 0 0 0 23.331278262194246 111.17363619944126 0 111.17363619944126 293.46677670438339 0 0 0 0 92.658729615286575 95.893785866376902 0 95.893785866376902 108.53293830088114 0 0 0 0 15.482075665175216 40.502961095665341 0 40.502961095665341 161.59487281723 0 0 0 0 12.578503617727506 5.9564875580819319 0 5.9564875580819319 1.549861119211327 0 0 0 0 -112.14032422013406 177.13604594659319 0 177.13604594659319 -291.19367838311246 0 0 0 0 -31.418594137518085 142.0427715819153 0 142.0427715819153 -203.45584319835143 0 0 0 0 -93.270957314147381 212.41404210673454 0 212.41404210673454 -282.77923801242832 0 0 0 0 -103.31471153920575 99.64856002201509 0 99.64856002201509 -56.470955347884228 0 0 0 0 19.07223826746457 9.4767146142764886 0 9.4767146142764886 9.6414386036256126 0 0 0 0 19.516904318676097 -1.9352443337425029 0 -1.9352443337425029 51.892347392744796 0 0 0 0 35.717847670573974 13.363643321430345 0 13.363643321430345 23.511979102346686 0 0 0 0 16.992201232671505 17.158660188632211 0 17.158660188632211 80.783809472415669 0 0 0 0 -294.55421799627948 186.61968641048088 0 186.61968641048088 44.353613179701824 0 0 0 0 7.6186724051214867 10.449885552565433 0 10.449885552565433 32.186782632890676 0 0 0 0 28.760174625131185 20.319865353147179 0 20.319865353147179 47.396616886975153 0 0 0 0 -221.10264759484562 219.89765115414002 0 219.89765115414002 13.943880660338436 0 0 0 0 -221.87254696158925 178.82117804916834 0 178.82117804916834 -36.486146615159669 0 0 0 0 -135.85942865803372 181.48659046539069 0 181.48659046539069 -135.49519321461412 0 0 0 0 31.732042319868924 58.881102675653892 0 58.881102675653892 -102.73195176898844 0 0 0 0 -222.86968303385402 150.93748308179147 0 150.93748308179147 -73.280155445259879 0 0 0 0 10.540563168368081 10.385337465684415 0 10.385337465684415 8.1351458055845143 0 0 0 0 -227.72730084700743 224.15313643224181 0 224.15313643224181 -118.15645802511062 0 0 0 0 -25.555424986261642 109.96159870732299 0 109.96159870732299 -113.13196908415193 0 0 0 0 83.679340822302038 18.156391115317092 0 18.156391115317092 -19.221148315909431 0 0 0 0 34.949292241066587 29.771506064031897 0 29.771506064031897 24.414044481633411 0 0 0 0 -188.37185207923176 148.19423208595254 0 148.19423208595254 -81.36473028085129 0 0 0 0 6.004463841165375 3.0511280693171159 0 3.0511280693171159 -5.8848581606926622 0 0 0 0 -9.3165017409577331 4.2127756689956044 0 4.2127756689956044 8.4851472298855448 0 0 0 0 71.000391954381485 397.03471129486525 0 397.03471129486525 -763.90112482440691 0 0 0 0 -17.818958762392867 586.89876543538685 0 586.89876543538685 -499.03717196091202 0 0 0 0 -228.8561944309622 305.33612509583418 0 305.33612509583418 139.66152354572296 0 0 0 0 -197.55686947435606 289.45634671534208 0 289.45634671534208 -206.99437832172043 0 0 0 0 -306.35649957438 194.93145085433025 0 194.93145085433025 4.9517417807110178 0 0 0 0 -270.41761833736382 85.544754484691566 0 85.544754484691566 -349.19244481815986 0 0 0 0 -351.15327766066184 48.857244299286322 0 48.857244299286322 -336.74890334251177 0 0 0 0 -216.76073605567217 283.64010642381982 0 283.64010642381982 -258.41613854314346 0 0 0 0 -753.99431160930544 272.55595367773094 0 272.55595367773094 -188.15369377397292 0 0 0 0 -182.40236605745304 727.66910401841471 0 727.66910401841471 310.86520887944243 0 0 0 0 16.358143878769624 -357.86578247662987 0 -357.86578247662987 24.236599104872766 0 0 0 0 268.26629012895864 -204.02440620001789 0 -204.02440620001789 152.43734670734739 0 0 0 0 -65.04318117647199 -191.41660953586415 0 -191.41660953586415 486.83472017836721 0 0 0 0 64.373218809138052 -84.851637083041169 0 -84.851637083041169 82.835358845732117 0 0 0 0 -255.479455040826 174.28308082851163 0 174.28308082851163 56.343328737739284 0 0 0 0 -203.2498325635097 175.04542673372271 0 175.04542673372271 -0.90801874655790016 0 0 0 0 -186.91590321919648 77.33584148706268 0 77.33584148706268 125.20633412686311 0 0 0 0 -239.11635353032034 70.198848353085168 0 70.198848353085168 179.12984647903249 0 0 0 0 53.904997705481946 -104.48998039737398 0 -104.48998039737398 174.22447302766801 0 0 0 0 -126.42039332438435 32.546668936717651 0 32.546668936717651 83.717052170687566 0 0 0 0 -82.434493712498806 73.618683407677963 0 73.618683407677963 81.819368870078506 0 0 0 0 87.083243379092892 -107.43850437788956 0 -107.43850437788956 93.477391551902656 0 0 0 0 60.990268662280869 -81.845736677154036 0 -81.845736677154036 227.77084289212371 0 0 0 0 61.874744320346508 -72.058679409494289 0 -72.058679409494289 102.90185496910863 0 0 0 0 158.9098508246243 -79.419080120156877 0 -79.419080120156877 79.601864551645576 0 0 0 0 40.371885187894804 47.287664957737277 0 47.287664957737277 77.806786888146206 0 0 0 0 67.292038331012009 33.704047340544776 0 33.704047340544776 69.01465590292355 0 0 0 0 29.156956913968315 35.786420930841132 0 35.786420930841132 152.89228464199363 0 0 0 0 12.043897353871046 8.3194100730728167 0 8.3194100730728167 19.726836949924451 0 0 0 0 54.928287160422769 45.358249500160596 0 45.358249500160596 73.022631377804686 0 0 0 0 27.816560527251568 23.294457127442456 0 23.294457127442456 271.30691858625096 0 0 0 0 4.204243569267021 0.150914141714793 0 0.150914141714793 -1.9301814662241941 0 0 0 0 27.279538724280656 27.014581133478316 0 27.014581133478316 23.767209340362079 0 0 0 0 40.052343856106745 44.812673989155527 0 44.812673989155527 62.227236217194275 0 0 0 0 47.985151178598358 46.477152361046706 0 46.477152361046706 28.414351925472495 0 0 0 0 1.5266951410158072 34.612125942304601 0 34.612125942304601 77.822914156374509 0 0 0 0 89.019278207968455 25.153000882374158 0 25.153000882374158 29.072623018286322 0 0 0 0 23.953466922452208 58.560538230294242 0 58.560538230294242 77.329313992565403 0 0 0 0 51.707051213103114 62.107544869268622 0 62.107544869268622 205.98769882716579 0 0 0 0 20.238456436727688 -9.0526867261330324 0 -9.0526867261330324 15.264834959127144 0 0 0 0 18.88671778979915 1.4963772116177552 0 1.4963772116177552 62.179644978349188 0 0 0 0 106.78365241005667 85.087602353098646 0 85.087602353098646 212.61829637102073 0 0 0 0 6.3288466039788318 -4.60899203630035 0 -4.60899203630035 2.0385985688593351 0 0 0 0 97.688245091310819 53.410980307574391 0 53.410980307574391 122.5621166917972 0 0 0 0 190.00324259770423 -32.16961401437635 0 -32.16961401437635 47.104678195888027 0 0 0 0 20.763871034374461 64.261951846914599 0 64.261951846914599 551.71960975892398 0 0 0 0 222.64376930944854 56.807061891951889 0 56.807061891951889 117.12656123542297 0 0 0 0 78.311826774239307 132.49219274468442 0 132.49219274468442 134.56549376943531 0 0 0 0 163.07806561997859 163.89822184372952 0 163.89822184372952 136.2644897012845 0 0 0 0 166.68398314298247 142.60308663181581 0 142.60308663181581 8.8262683526954788 0 0 0 0 93.474508599872934 209.22581350671089 0 209.22581350671089 175.46688605709875 0 0 0 0 78.994103604054544 215.98619957139181 0 215.98619957139181 174.90811530135011 0 0 0 0 181.50394156211405 129.87863229137247 0 129.87863229137247 -34.953931157052466 0 0 0 0 36.844098558809492 50.587174116731148 0 50.587174116731148 276.18981514538336 0 0 0 0 17.720728406566195 28.97665031131146 0 28.97665031131146 534.89182667864588 0 0 0 0 106.84113676459674 313.40678731213939 0 313.40678731213939 514.43187944792589 0 0 0 0 36.403672027910943 136.28199779804982 0 136.28199779804982 226.38166929806175 0 0 0 0 33.997865500918124 124.86969924410187 0 124.86969924410187 376.73971087801056 0 0 0 0 0.95763801963767037 17.384243389149105 0 17.384243389149105 -13.115812543460606 0 0 0 0 173.76075631205458 -22.172211062161296 0 -22.172211062161296 -274.51130473294921 0 0 0 0 187.18340211361647 156.3323654350188 0 156.3323654350188 -276.51349939998727 0 0 0 0 -165.5638425128418 163.00567843066256 0 163.00567843066256 -21.566673066339717 0 0 0 0 388.95516085624695 275.07230698933381 0 275.07230698933381 -63.437767878242767 0 0 0 0 199.00064370600739 90.837515302289376 0 90.837515302289376 -78.292000898241895 0 0 0 0 199.74294716407894 190.33371154193674 0 190.33371154193674 82.437616167813758 0 0 0 0 305.6274812616175 130.78688376571154 0 130.78688376571154 -161.77262513770984 0 0 0 0 353.8312502214394 333.52170461708647 0 333.52170461708647 83.879845477617664 0 0 0 0 809.02889934123959 737.85784189305014 0 737.85784189305014 479.5386559655135 0 0 0 0 290.36330452219408 225.5418600987764 0 225.5418600987764 202.65659483483432 0 0 0 0 -0.26504977863805834 -5.8519231283312365 0 -5.8519231283312365 -454.55594723869581 0 0 0 0 -398.66262128017843 -489.95844526348469 0 -489.95844526348469 256.03740509290037 0 0 0 0 -2.4800250631184895 4.6794893647200411 0 4.6794893647200411 -6.1131214866891277 0 0 0 0 283.27296981435939 -176.72646733450665 0 -176.72646733450665 40.254463856701477 0 0 0 0 106.23709136166144 -80.93578288601384 0 -80.93578288601384 120.00959772416627 0 0 0 0 1286.6567778968893 -219.53790618511402 0 -219.53790618511402 -262.94006180536235 0 0 0 0 -919.85272037715185 1226.6160253625967 0 1226.6160253625967 -1224.0176160962874 0 0 0 0 226.29815454260097 -420.55694183771357 0 -420.55694183771357 439.63161158531329 0 0 0 0 498.79955929130665 -900.20802777949893 0 -900.20802777949893 69.813346113445732 0 0 0 0 -0.18819952166813891 387.1505637219143 0 387.1505637219143 -63.493123078264034 0 0 0 0 632.51712683134247 938.34053819983728 0 938.34053819983728 413.67589469661687 0 0 0 0 11.740328306358606 3.7913985222242559 0 3.7913985222242559 1.2615811158121257 0 0 0 0 307.35092078625894 132.45221407555209 0 132.45221407555209 -182.88983648471003 0 0 0 0 45.385412026749691 232.7038930599515 0 232.7038930599515 1352.8988204084553 0 0 0 0 -118.66901787342795 273.88793367703511 0 273.88793367703511 -220.47916049848482 0 0 0 0 268.87901578500168 222.90560571961214 0 222.90560571961214 -491.81632837548023 0 0 0 0 250.58432959366473 325.93154330694597 0 325.93154330694597 -93.378951028702431 0 0 0 0 44.839836005907273 55.25689721537583 0 55.25689721537583 281.24954204197866 0 0 0 0 46.654395973993815 57.691036219267971 0 57.691036219267971 261.8298204443754 0 0 0 0 31.884249447982597 12.311017468404941 0 12.311017468404941 9.0321780087249426 0 0 0 0 -167.1451612452438 70.446139997292562 0 70.446139997292562 28.943771919563005 0 0 0 0 -1.3769547507070001 5.8081171989405789 0 5.8081171989405789 12.844693351734371 0 0 0 0 -124.416074319568 -174.29295175777588 0 -174.29295175777588 112.82177116947787 0 0 0 0 -71.291271715657786 439.80312440121088 0 439.80312440121088 -559.98541918084993 0 0 0 0 31.604861865496787 451.83203047231621 0 451.83203047231621 285.55146569788121 0 0 0 0 -7.3117034630030275 -0.35443402521670464 0 -0.35443402521670464 1.5749125603535639 0 0 0 0 -644.09791152604157 579.24506268524055 0 579.24506268524055 686.93681476510756 0 0 0 0 -42.991300926252734 154.99351277964161 0 154.99351277964161 -740.52410232496732 0 0 0 0 239.70754524294171 -181.95834620243113 0 -181.95834620243113 -1049.212675467712 0 0 0 0 -1184.6312661207412 773.68956687914215 0 773.68956687914215 735.60899765097201 0 0 0 0 -566.48042375926161 814.44955168538218 0 814.44955168538218 -2992.2224540010648 0 0 0 0 -500.54209529273794 462.15749578257373 0 462.15749578257373 -1568.5648519874303 0 0 0 0 25.89302155666519 205.06831240649808 0 205.06831240649808 554.0675403624482 0 0 0 0 -4.0747261058720596 -0.77542367040990712 0 -0.77542367040990712 5.5713041778929471 0 0 0 0 -949.03784592583543 1406.321309579529 0 1406.321309579529 -2017.9714692455891 0 0 0 0 -6.9774576029225841 1.834230159368488 0 1.834230159368488 9.9769534376019635 0 0 0 0 -741.06979193078587 106.86692844001936 0 106.86692844001936 779.061080330408 0 0 0 0 0.39592119323788211 247.71818239867389 0 247.71818239867389 -113.63482129010117 0 0 0 0 60.865983798226807 -56.526705069143645 0 -56.526705069143645 -314.5641717733979 0 0 0 0 556.60309790365864 283.16173301498384 0 283.16173301498384 -1692.2017580502943 0 0 0 0 55.31924429970968 141.02516423213092 0 141.02516423213092 71.653544619492095 0 0 0 0 -6.6311935922274188 0.1660807356468581 0 0.1660807356468581 -0.26641806942342328 0 0 0 0 394.34947638816084 493.74739589439196 0 493.74739589439196 -1918.7023809978145 0 0 0 0 67.283151418836496 529.72361645306751 0 529.72361645306751 -1195.7795322051388 0 0 0 0 0.28161848135641776 746.55037398125387 0 746.55037398125387 -1554.6499604279525 0 0 0 0 64.791618029150413 500.0149348255618 0 500.0149348255618 -1512.9212096000556 0 0 0 0 172.69550388798234 387.03153592141825 0 387.03153592141825 -1719.2742991445775 0 0 0 0 -194.4358778129681 457.81520962841023 0 457.81520962841023 -677.36565367802177 0 0 0 0 -2.2803222569054924 473.91759882579936 0 473.91759882579936 -1109.6342584180966 0 0 0 0 1.1647034580237232 341.0971820215982 0 341.0971820215982 -1184.5573270802997 0 0 0 0 -3.9515188439363556 458.71363537235925 0 458.71363537235925 -1177.2285364917334 0 0 0 0 -405.78016405116068 678.94856232324673 0 678.94856232324673 -1450.910330515318 0 0 0 0 131.53850988872 128.57245826613507 0 128.57245826613507 -3213.5545614241346 0 0 0 0 -978.3342962441493 692.91580854660583 0 692.91580854660583 -1451.2496036852463 0 0 0 0 -583.65723095080466 357.25480268684259 0 357.25480268684259 -1443.1339077629964 0 0 0 0 -879.80932354590186 24.052388139210962 0 24.052388139210962 -1815.7647944314376 0 0 0 0 221.61298249318497 292.22213467185793 0 292.22213467185793 -1535.6353341509966 0 0 0 0 -76.181291054177564 -45.013596244032669 0 -45.013596244032669 -1753.7624896049911 0 0 0 0 -17.025974711446906 260.27473424266464 0 260.27473424266464 -1531.4514559826275 0 0 0 0 -309.0044833131833 128.19349600377245 0 128.19349600377245 -1366.0201168683052 0 0 0 0 -165.71236791858973 369.26688635591927 0 369.26688635591927 -1034.6939203327784 0 0 0 0 -276.74857860371412 283.83272610105087 0 283.83272610105087 -1034.658118299827 0 0 0 0 -330.44253763518645 307.06182829619138 0 307.06182829619138 -653.05694167068577 0 0 0 0 -175.72285486914916 629.13274987268414 0 629.13274987268414 -760.16836969799624 0 0 0 0 -196.02470450925466 355.12907868794173 0 355.12907868794173 -1024.4996607807007 0 0 0 0 -121.23828598128239 779.35392480479891 0 779.35392480479891 -1055.4614637283448 0 0 0 0 19.984230529342312 541.71857114025624 0 541.71857114025624 -750.10705346588657 0 0 0 0 21.108769975631731 60.851832698193903 0 60.851832698193903 -1417.5386253836041 0 0 0 0 40.667730555607704 370.36247367794203 0 370.36247367794203 -834.90033919158304 0 0 0 0 306.48836075598956 434.07149326569925 0 434.07149326569925 -917.01449121280166 0 0 0 0 -0.27809025231545093 753.21056942128371 0 753.21056942128371 -312.18712342324579 0 0 0 0 144.67886389963678 786.78442371576602 0 786.78442371576602 -251.85618186282954 0 0 0 0 -518.7686770894361 330.223482527128 0 330.223482527128 -193.84590448861127 0 0 0 0 -500.02036756697635 699.36081551776624 0 699.36081551776624 -148.13853217655196 0 0 0 0 -140.85990074423535 509.82196267418885 0 509.82196267418885 -493.81792171551933 0 0 0 0 -121.80578546028119 362.47702723438852 0 362.47702723438852 -158.14389184355969 0 0 0 0 8.4359348549623974 276.61301056825687 0 276.61301056825687 -347.74622072961938 0 0 0 0 29.502265805727802 23.824637827238803 0 23.824637827238803 39.205121589468035 0 0 0 0 149.86825471295742 203.2146860531584 0 203.2146860531584 -1136.2539968009187 0 0 0 0 -70.25172834075056 259.46491703152788 0 259.46491703152788 -337.20479510377481 0 0 0 0 11.22906997660175 47.078205545283708 0 47.078205545283708 21.781838359948324 0 0 0 0 18.783826451473033 33.011450151196875 0 33.011450151196875 10.097167357689329 0 0 0 0 28.447212702611978 49.072006893884691 0 49.072006893884691 16.927762951763913 0 0 0 0 -169.97726507961488 70.116304237547922 0 70.116304237547922 83.767131464146587 0 0 0 0 34.801613793737488 30.394859761664975 0 30.394859761664975 63.153709342382172 0 0 0 0 10.126656157366142 45.433315587002454 0 45.433315587002454 40.008363406479077 0 0 0 0 33.067365451286605 30.836013738023695 0 30.836013738023695 92.966734614832149 0 0 0 0 5.1631296518899035 64.940891454711164 0 64.940891454711164 26.701083859928076 0 0 0 0 196.02824591659009 138.74665398048455 0 138.74665398048455 80.808803395471841 0 0 0 0 -32.126343282120047 17.184885826213304 0 17.184885826213304 23.607267650996292 0 0 0 0 -2.9263859614147805 35.293095781275952 0 35.293095781275952 52.334768509350397 0 0 0 0 189.35034349534544 7.4074169136802084 0 7.4074169136802084 -208.91731931162758 0 0 0 0 36.257179826177889 237.62162899278064 0 237.62162899278064 -1713.7567593017702 0 0 0 0 -21.917692145064677 -5.8902292000850451 0 -5.8902292000850451 19.854230619678454 0 0 0 0 2.0119721159985602 24.753814402718433 0 24.753814402718433 -2.4371602880904293 0 0 0 0 -20.590327387326397 26.976316356951429 0 26.976316356951429 106.12351839177063 0 0 0 0 35.311871727986727 42.339216547450633 0 42.339216547450633 53.002492713647825 0 0 0 0 11.220560317610648 26.818927817353362 0 26.818927817353362 -5.3368081143816681 0 0 0 0 -10.610972539434442 45.32674472058352 0 45.32674472058352 74.670945183337608 0 0 0 0 -538.22486988273886 1637.5824846014266 0 1637.5824846014266 -747.31912320642004 0 0 0 0 -1580.6091979028715 1190.8836627941791 0 1190.8836627941791 746.92060073741231 0 0 0 0 -2485.7424591929584 696.41349270370665 0 696.41349270370665 1850.9374421748616 0 0 0 0 -2373.8720435366995 1988.0976729764789 0 1988.0976729764789 -52.985083300354745 0 0 0 0 -2212.6811644977352 776.63110568433285 0 776.63110568433285 1174.4663400723493 0 0 0 0 -1662.1307261333131 768.91112741951065 0 768.91112741951065 1117.9423997006622 0 0 0 0 -2252.1767942891165 446.80403308603854 0 446.80403308603854 1761.3889249092308 0 0 0 0 -2385.6337708885549 608.50446154428755 0 608.50446154428755 1617.1752552358812 0 0 0 0 -1637.6970801711286 209.58475257210375 0 209.58475257210375 409.44600897818964 0 0 0 0 -9.5723378259244782 3172.3571851754659 0 3172.3571851754659 -615.08511013662974 0 0 0 0 -1608.8238703223469 -904.09823365952252 0 -904.09823365952252 2383.2849371749653 0 0 0 0 -1087.0308370373823 1644.5522555191515 0 1644.5522555191515 1753.9552949652102 0 0 0 0 -1949.4191664473183 1137.5359977681337 0 1137.5359977681337 3314.0986605199687 0 0 0 0 -235.42872246132174 76.696644865201961 0 76.696644865201961 -590.24452606630621 0 0 0 0 573.59919745568186 465.13321734400233 0 465.13321734400233 -2142.5196351148211 0 0 0 0 -367.98574912162439 44.196971180719629 0 44.196971180719629 1196.6198656353645 0 0 0 0 -557.41232391681842 462.37093361361212 0 462.37093361361212 381.83849137736979 0 0 0 0 -239.74843163626429 225.25079285325558 0 225.25079285325558 -5.1996205228351755 0 0 0 0 -147.62625794544874 177.79590081153674 0 177.79590081153674 19.175259404951248 0 0 0 0 -91.597718998600612 180.33436695970704 0 180.33436695970704 -133.49895214890194 0 0 0 0 -48.89030153850473 31.166347194868294 0 31.166347194868294 9.536096292447187 0 0 0 0 488.05941411986532 393.30550008705097 0 393.30550008705097 212.27654524665923 0 0 0 0 -18.40482877312337 6.5273705835216589 0 6.5273705835216589 -4.402530767179071 0 0 0 0 -388.44035868461651 1092.8411551941226 0 1092.8411551941226 1233.4449777150785 0 0 0 0 486.2951701211714 428.74473957045484 0 428.74473957045484 -498.55757011573587 0 0 0 0 510.93474806315498 -29.928094599696124 0 -29.928094599696124 -373.26099677647881 0 0 0 0 497.49023307646348 104.51319504688217 0 104.51319504688217 -75.824828737449934 0 0 0 0 1610.8683587345949 -434.08048723088541 0 -434.08048723088541 -110.65817292653537 0 0 0 0 495.69367753405095 84.587034997356568 0 84.587034997356568 2.7443017910300114 0 0 0 0 -159.68200798504404 742.15993481988608 0 742.15993481988608 -3.2293014893803047 0 0 0 0 -772.70826204871628 -278.96489038387563 0 -278.96489038387563 -1427.2699895204278 0 0 0 0 -1114.878725375369 2147.240130375536 0 2147.240130375536 -1183.7180302600973 0 0 0 0 -2418.689961795706 1004.4353780182028 0 1004.4353780182028 235.1524969749189 0 0 0 0 -1847.3249684901803 2059.3750045713778 0 2059.3750045713778 -826.93707464519321 0 0 0 0 -993.51376361640723 1229.592657909383 0 1229.592657909383 -115.43628582581368 0 0 0 0 -688.03124504599691 1067.6866533146967 0 1067.6866533146967 -165.79864718933095 0 0 0 0 -867.51637246048631 1357.0727179728856 0 1357.0727179728856 -561.23591474803652 0 0 0 0 -219.02000530177975 544.55093000636248 0 544.55093000636248 -307.13653499895008 0 0 0 0 -268.35081652944791 875.77546122940475 0 875.77546122940475 -1055.0790289270153 0 0 0 0 50.512265324316104 331.12642192414933 0 331.12642192414933 -533.77183877717471 0 0 0 0 -304.03547119002178 212.53840704680806 0 212.53840704680806 21.751192805579194 0 0 0 0 -174.81698451023112 1094.1810070360752 0 1094.1810070360752 -2611.569406452958 0 0 0 0 -369.22049534138205 490.82224935981685 0 490.82224935981685 156.93766221092665 0 0 0 0 -487.67393942931085 602.06776042941237 0 602.06776042941237 104.60342680095619 0 0 0 0 -350.92270854192611 397.10781354577193 0 397.10781354577193 26.120967076462875 0 0 0 0 -441.35298013118154 647.53610235689302 0 647.53610235689302 -101.29652088524017 0 0 0 0 -423.17811191818328 824.13179248550659 0 824.13179248550659 -553.33036309106319 0 0 0 0 -476.20111313680536 669.28982473840188 0 669.28982473840188 -104.12581864827371 0 0 0 0 -382.01038564297778 500.27088485878448 0 500.27088485878448 -239.25969962935051 0 0 0 0 -294.0192432179756 271.04971854348696 0 271.04971854348696 -159.41849978306709 0 0 0 0 -367.75425608089427 282.18704486825482 0 282.18704486825482 28.069022713701997 0 0 0 0 -389.61052735419798 412.90804983268208 0 412.90804983268208 55.584933541409555 0 0 0 0 -334.65451943206426 434.65619426927515 0 434.65619426927515 -157.85627219642902 0 0 0 0 -313.89745599548041 231.06180749025953 0 231.06180749025953 43.066435706373113 0 0 0 0 -331.33509451751161 205.3190366095414 0 205.3190366095414 221.1603201623002 0 0 0 0 -283.44393090170342 313.81472685394328 0 313.81472685394328 151.32447643886917 0 0 0 0 -368.96251202209532 393.78713172649987 0 393.78713172649987 257.39623811269848 0 0 0 0 -318.62536700986675 142.7562810078125 0 142.7562810078125 110.07891846177517 0 0 0 0 -317.30745110037969 148.75782413025445 0 148.75782413025445 125.28942618308884 0 0 0 0 -339.25221337645053 233.94140896434419 0 233.94140896434419 121.76815197525139 0 0 0 0 -299.66723799203464 143.71667460644676 0 143.71667460644676 96.118700096376415 0 0 0 0 -250.97473110725696 207.53706686261285 0 207.53706686261285 51.497890636424927 0 0 0 0 -20.694356376690848 -69.458513409611442 0 -69.458513409611442 1663.0534629784088 0 0 0 0 303.94314791100624 1899.5581324021452 0 1899.5581324021452 -858.24908939321153 0 0 0 0 422.37333542297711 -1647.8767642590265 0 -1647.8767642590265 -2547.8617626866508 0 0 0 0 -311.44783749162161 96.984769603479435 0 96.984769603479435 64.92214904287539 0 0 0 0 -349.78207623344497 81.506280347530264 0 81.506280347530264 119.0280100655541 0 0 0 0 -228.14328651539108 807.24955960570969 0 807.24955960570969 605.08965121037363 0 0 0 0 -17.233229999639974 8.1238814984651668 0 8.1238814984651668 -4.0424398016787286 0 0 0 0 682.50970567169884 1668.5611616937158 0 1668.5611616937158 -2431.7755406200749 0 0 0 0 -71.433564069427575 49.813623171986045 0 49.813623171986045 -27.641437499524205 0 0 0 0 -1098.1670035108073 65.258900796474791 0 65.258900796474791 1349.1347439396177 0 0 0 0 -30.759219362729084 14.59238460570468 0 14.59238460570468 -6.2477122071696165 0 0 0 0 -196.7024611117813 1095.7508459128967 0 1095.7508459128967 2159.0378700602987 0 0 0 0 -330.11800128133473 276.03985692769857 0 276.03985692769857 50.683307445870014 0 0 0 0 -70.99062011211231 40.664975383769793 0 40.664975383769793 -18.488192921573766 0 0 0 0 329.85598589834262 731.10903920373494 0 731.10903920373494 232.39182428319805 0 0 0 0 458.30470087846334 1103.2993917092494 0 1103.2993917092494 681.98387517621632 0 0 0 0 490.36360815531953 953.54502098647311 0 953.54502098647311 -570.51046934425335 0 0 0 0 73.886595819298236 356.66644570698281 0 356.66644570698281 652.43022407800436 0 0 0 0 -552.31351371731398 660.24411108949971 0 660.24411108949971 0.15637010603177259 0 0 0 0 -1402.1486154317972 961.76466269429818 0 961.76466269429818 445.25079118337715 0 0 0 0 -1030.7369059771008 535.80819604337887 0 535.80819604337887 100.32976029230986 0 0 0 0 -278.3482044460834 764.3830774047151 0 764.3830774047151 40.321085722975567 0 0 0 0 -426.60546605295895 932.0457774306077 0 932.0457774306077 200.6813047669857 0 0 0 0 465.95306217763573 1343.1262726215061 0 1343.1262726215061 65.01772054170533 0 0 0 0 137.08027503404446 1174.1722612691174 0 1174.1722612691174 81.858292306633302 0 0 0 0 -46.331840847393323 1131.7063352245891 0 1131.7063352245891 542.34020283143354 0 0 0 0 -410.56878157130268 672.10325713475731 0 672.10325713475731 368.58028216182527 0 0 0 0 -83.131488720126072 657.82003652553544 0 657.82003652553544 195.06380974871354 0 0 0 0 -1012.9657545687587 503.54177735131793 0 503.54177735131793 30.694776869058842 0 0 0 0 -652.49881465887302 328.91386717560158 0 328.91386717560158 -78.691819446697991 0 0 0 0 -625.80716104681778 895.06526819780015 0 895.06526819780015 78.877344087331039 0 0 0 0 -266.9663885346381 129.43255686409157 0 129.43255686409157 167.3580362255816 0 0 0 0 28.193260779162756 -0.30210623321947594 0 -0.30210623321947594 112.38925621442104 0 0 0 0 467.53508282954863 48.144655528228895 0 48.144655528228895 -268.67500404886141 0 0 0 0 1062.1117730727128 1306.5119900948891 0 1306.5119900948891 171.00843669350695 0 0 0 0 -1007.5071922962234 1066.1157835027634 0 1066.1157835027634 143.11209344406188 0 0 0 0 239.08814047362102 1621.3462704946362 0 1621.3462704946362 996.76126962507442 0 0 0 0 -88.954201470369298 728.47309495293587 0 728.47309495293587 1434.5500743271787 0 0 0 0 967.21281809765787 228.10315906126607 0 228.10315906126607 532.87286145130656 0 0 0 0 1130.0105879728362 1278.1232465450016 0 1278.1232465450016 1336.0955193566951 0 0 0 0 61.824705295628519 612.97277764242426 0 612.97277764242426 2866.2367773731044 0 0 0 0 12.817362103940809 -0.36481708556456738 0 -0.36481708556456738 0.033231493311113969 0 0 0 0 402.6510919898974 921.0273755460978 0 921.0273755460978 1187.1385659754087 0 0 0 0 21.25477493703147 141.52653046929481 0 141.52653046929481 1263.7666449097569 0 0 0 0 424.05637108579685 626.94332663736895 0 626.94332663736895 437.08975670609107 0 0 0 0 541.6889018840775 606.97196196694995 0 606.97196196694995 -49.932209026017517 0 0 0 0 715.87474818550618 539.20378532082782 0 539.20378532082782 462.14405423207791 0 0 0 0 48.112941703722754 282.00314606099982 0 282.00314606099982 610.24027708508811 0 0 0 0 698.82275017469874 424.09589055030165 0 424.09589055030165 -92.576153094260007 0 0 0 0 122.98786297073093 419.9211046925052 0 419.9211046925052 -230.44309060141495 0 0 0 0 149.52575044956757 338.23834393385278 0 338.23834393385278 -19.428288312681616 0 0 0 0 428.22956717698253 552.81290854690133 0 552.81290854690133 -295.51332358385116 0 0 0 0 296.6736829943984 555.64618456758762 0 555.64618456758762 -32.992964124735636 0 0 0 0 -718.25362353007222 393.45811614354739 0 393.45811614354739 71.50064927085441 0 0 0 0 -862.09604638283417 138.72372100936877 0 138.72372100936877 -195.67663677917972 0 0 0 0 47.354536611048388 379.50046330721466 0 379.50046330721466 2.5899350226536626 0 0 0 0 -343.72923317052482 124.77987908222349 0 124.77987908222349 178.31226406178325 0 0 0 0 -61.506365289737005 79.252604399627671 0 79.252604399627671 -115.01470625624097 0 0 0 0 -373.44847797995317 287.67567818547468 0 287.67567818547468 -207.92725696101479 0 0 0 0 -373.52516082559305 263.9836993539011 0 263.9836993539011 137.50244596436914 0 0 0 0 -770.09554234099778 117.7320250053408 0 117.7320250053408 -26.515811097297956 0 0 0 0 -805.41841806501179 221.19960028167225 0 221.19960028167225 -204.08496189043308 0 0 0 0 -373.42355663064518 170.72210433461714 0 170.72210433461714 -155.28762817139068 0 0 0 0 -1140.238695538108 276.933799155835 0 276.933799155835 -161.97226910431618 0 0 0 0 -1230.826395290821 285.87878283496082 0 285.87878283496082 -121.67071761077023 0 0 0 0 -1493.6628640812996 420.24440480129761 0 420.24440480129761 -122.02543447236235 0 0 0 0 -1238.7036696314026 177.37393133885053 0 177.37393133885053 32.15594173988211 0 0 0 0 -1481.6332634906576 486.61485606241786 0 486.61485606241786 -160.20844651659399 0 0 0 0 -1482.9565257002469 440.50519702807196 0 440.50519702807196 -84.894546722496671 0 0 0 0 -1637.9298289088474 602.74667115006741 0 602.74667115006741 -197.41171364953152 0 0 0 0 -1575.483299041407 660.92325277105647 0 660.92325277105647 -181.29350587122099 0 0 0 0 -1699.6154366777628 693.38772597003936 0 693.38772597003936 -119.18859349201921 0 0 0 0 -1742.6635149254216 755.19084349707464 0 755.19084349707464 -185.29130263966545 0 0 0 0 -1889.9244113586174 563.79969380933289 0 563.79969380933289 -76.227735500844574 0 0 0 0 -1880.622297521506 787.13247994257017 0 787.13247994257017 -146.75322036438411 0 0 0 0 -1937.8777182794729 758.96010722505343 0 758.96010722505343 -159.30226910816782 0 0 0 0 -1343.6108034260396 319.72656897875368 0 319.72656897875368 9.0409946706710116 0 0 0 0 -1352.6446316748188 425.2981175586483 0 425.2981175586483 -104.08606874455666 0 0 0 0 -1498.3055590429212 331.7960264025628 0 331.7960264025628 -95.43258645118749 0 0 0 0 -2094.2631281524082 310.54617719454018 0 310.54617719454018 -57.342025948821174 0 0 0 0 -1373.2865463018752 93.053576942452082 0 93.053576942452082 -291.08581481567489 0 0 0 0 -1374.0238507743488 890.3405157568684 0 890.3405157568684 -180.21927298746806 0 0 0 0 -1394.6689460926573 763.52814229053081 0 763.52814229053081 -863.12422288360608 0 0 0 0 -1533.8887386446822 522.38365566935909 0 522.38365566935909 -291.85041110126622 0 0 0 0 -2349.0941915747826 117.57839688698687 0 117.57839688698687 -363.07998087076612 0 0 0 0 -2240.1041921038268 782.72937788199829 0 782.72937788199829 -643.43643382418486 0 0 0 0 -2825.4984083487361 908.45358979448338 0 908.45358979448338 -184.33090409288934 0 0 0 0 -1668.3397637071903 1149.3510362546049 0 1149.3510362546049 -587.82203016239146 0 0 0 0 -3616.142104982282 1625.2811876141261 0 1625.2811876141261 -752.02229538194115 0 0 0 0 -1374.1062030642352 1888.6323010322685 0 1888.6323010322685 -2467.9550464407175 0 0 0 0 -3789.6249658520392 1721.2749831924157 0 1721.2749831924157 -740.73872122284092 0 0 0 0 -3.1634131535853385 1.2265565795683315 0 1.2265565795683315 -5.0870255806662641 0 0 0 0 -2869.9028468113174 400.84934546408408 0 400.84934546408408 -839.89349520953692 0 0 0 0 -3667.7497934308776 1534.8049826019319 0 1534.8049826019319 -898.5321758454171 0 0 0 0 -2564.0253308228203 266.59000721440958 0 266.59000721440958 -588.63880587379299 0 0 0 0 -774.04083826769056 -95.419014171790195 0 -95.419014171790195 -51.516570084174418 0 0 0 0 -10.774232671373085 0.59871550270355556 0 0.59871550270355556 -10.854746976592228 0 0 0 0 -918.95306690658617 -547.00344030511314 0 -547.00344030511314 -121.88079148547604 0 0 0 0 -1199.7735843952833 1406.3964730719636 0 1406.3964730719636 1255.682591232887 0 0 0 0 -3526.754971923132 264.44564216308754 0 264.44564216308754 814.70615666665526 0 0 0 0 -1993.0334560816118 1591.9523705861504 0 1591.9523705861504 -240.21441987241428 0 0 0 0 -280.65917356915816 125.29397934817507 0 125.29397934817507 254.85327575470546 0 0 0 0 -144.31696189135255 186.63595744927625 0 186.63595744927625 24.312256983216685 0 0 0 0 84.169664605869912 -53.783586040893169 0 -53.783586040893169 180.24132908866159 0 0 0 0 -42.51820364991363 68.620098755322033 0 68.620098755322033 117.09043695426953 0 0 0 0 -9.7730686064542169 26.301430252057855 0 26.301430252057855 24.418829001562756 0 0 0 0 49.2625417473173 -295.02237847222659 0 -295.02237847222659 546.88584220543271 0 0 0 0 -118.48135284334421 -76.349197355533761 0 -76.349197355533761 422.13180316595549 0 0 0 0 -173.98496206595155 237.75310421144241 0 237.75310421144241 -55.224035350593113 0 0 0 0 -47.195228027447229 119.77238178768494 0 119.77238178768494 -36.889821601496806 0 0 0 0 -193.86755508456554 245.2800219130188 0 245.2800219130188 -800.97193980106476 0 0 0 0 -44.367077924535721 23.725111010939706 0 23.725111010939706 3.5740411314569451 0 0 0 0 -4.28254018407074 17.184153744766704 0 17.184153744766704 -37.323436860868597 0 0 0 0 -0.99843470500232456 31.533376548143664 0 31.533376548143664 -69.490530176407617 0 0 0 0 -22.037232698494336 44.276054847177875 0 44.276054847177875 -35.684806307827785 0 0 0 0 -1678.1046127741211 1176.8604077754944 0 1176.8604077754944 -557.62470309352375 0 0 0 0 -1386.8370493170805 1097.3343350243686 0 1097.3343350243686 -546.6275996548784 0 0 0 0 -23.283903865307366 272.84847724123392 0 272.84847724123392 -176.06353504130857 0 0 0 0 -67.205081078454327 84.168185407782744 0 84.168185407782744 -14.254882065943093 0 0 0 0 -6.5736402919853703 14.443695061798238 0 14.443695061798238 1.0695008200806484 0 0 0 0 86.889449317495746 -96.587149767990923 0 -96.587149767990923 -326.44202042828692 0 0 0 0 21.953015988015977 94.718843233885309 0 94.718843233885309 -117.79511732369429 0 0 0 0 15.200425165718585 12.320858749075995 0 12.320858749075995 -36.174827514867474 0 0 0 0 -1201.055483169921 578.89677109499348 0 578.89677109499348 -366.49461232067188 0 0 0 0 -1199.7291931478976 955.34642653654464 0 955.34642653654464 -561.92190895329259 0 0 0 0 -1566.5056830325484 878.51741774857146 0 878.51741774857146 -255.26204962260454 0 0 0 0 -1924.8793416386156 1104.4263513255082 0 1104.4263513255082 -330.72545682901182 0 0 0 0 -2048.4819489739602 404.55967947484532 0 404.55967947484532 278.66203297060565 0 0 0 0 -1428.093522315954 695.1796895224461 0 695.1796895224461 -297.3464776955152 0 0 0 0 -1608.0827910305525 838.54832624743176 0 838.54832624743176 -259.34736800869268 0 0 0 0 -1621.9058685113705 706.2154012635292 0 706.2154012635292 -283.44715124824143 0 0 0 0 -1611.8429517865807 718.57654424622524 0 718.57654424622524 -272.63722658917686 0 0 0 0 -1702.679243861392 638.04207760319696 0 638.04207760319696 -295.52465533557768 0 0 0 0 -2001.5433352793334 970.05969954963803 0 970.05969954963803 -466.75555316659666 0 0 0 0 -1499.7075791832031 592.67204162227608 0 592.67204162227608 -286.38745098571917 0 0 0 0 -118.31336559350893 23.947833610567159 0 23.947833610567159 18.429745803956394 0 0 0 0 166.89060340961441 44.816351094979836 0 44.816351094979836 -101.12487964840511 0 0 0 0 35.200293950823351 37.845576347676115 0 37.845576347676115 21.273802061479408 0 0 0 0 -9.9026218135792021 7.866920640518174 0 7.866920640518174 -0.17907642300034254 0 0 0 0 90.786552960555127 -66.0148893953683 0 -66.0148893953683 116.04925349699897 0 0 0 0 -6.4580878989757764 2.2752706878448876 0 2.2752706878448876 11.498011183216718 0 0 0 0 -39.254391884141114 129.55672256548633 0 129.55672256548633 -41.334287157588733 0 0 0 0 -272.86879012719874 234.55908859023293 0 234.55908859023293 93.132972509301908 0 0 0 0 -113.21399892628688 -98.852890180582108 0 -98.852890180582108 116.82170644996336 0 0 0 0 -118.03506320424276 411.40238795185178 0 411.40238795185178 -382.74158589194849 0 0 0 0 85.653787988652766 200.51080869228099 0 200.51080869228099 -181.13853121937063 0 0 0 0 -352.10399464564398 335.47411136327355 0 335.47411136327355 -3.0719414204431814 0 0 0 0 -567.06991499487049 813.64130078393282 0 813.64130078393282 -804.16909658515578 0 0 0 0 -11.261344917123097 360.14548069690886 0 360.14548069690886 -438.44960596985766 0 0 0 0 90.494496688465006 260.43207930523567 0 260.43207930523567 -641.97116969304989 0 0 0 0 -21.156366069568321 442.00199330016767 0 442.00199330016767 -396.59945700461685 0 0 0 0 105.87330420526268 -111.80053021274944 0 -111.80053021274944 -374.47222119273829 0 0 0 0 215.5722247615995 -5.1619172227419767 0 -5.1619172227419767 -336.10119526131166 0 0 0 0 -196.21817854036635 -328.86688919500011 0 -328.86688919500011 839.02700744875983 0 0 0 0 398.78238621280616 245.96110880330707 0 245.96110880330707 -1803.6108634601696 0 0 0 0 353.74528152293351 -1048.5382105478748 0 -1048.5382105478748 -675.53860159855503 0 0 0 0 165.6352530984027 301.66171064734726 0 301.66171064734726 125.65451142275197 0 0 0 0 30.23239312232181 505.39112216658305 0 505.39112216658305 516.40824879310094 0 0 0 0 182.14789238098092 459.02975537216025 0 459.02975537216025 -49.754895246797787 0 0 0 0 4.5406507117837407 14.518877093059629 0 14.518877093059629 11.316244737463389 0 0 0 0 106.45179602479675 402.34574179557376 0 402.34574179557376 -686.24376396663502 0 0 0 0 -415.2390138466435 193.14093121604674 0 193.14093121604674 1312.6526742158712 0 0 0 0 2.9488795916622621 21.621340096375874 0 21.621340096375874 -319.76482152132928 0 0 0 0 247.21857737249684 -9.9497824409650093 0 -9.9497824409650093 185.86902619661851 0 0 0 0 30.751955752560207 515.94580503714315 0 515.94580503714315 96.072832498311982 0 0 0 0 27.440962074968411 -95.247070244835413 0 -95.247070244835413 207.1467640234614 0 0 0 0 21.738502347985616 37.68135999054963 0 37.68135999054963 -1.5393766073516275 0 0 0 0 13.035756856821536 332.21217169296642 0 332.21217169296642 -360.55999657084135 0 0 0 0 180.16622838025251 152.65875992301471 0 152.65875992301471 -30.381561284721101 0 0 0 0 56.812721053807763 31.388741439401201 0 31.388741439401201 -129.40377002794048 0 0 0 0 280.07507155812471 54.607831301625993 0 54.607831301625993 -82.323648821431561 0 0 0 0 254.4679345675886 221.31258399947546 0 221.31258399947546 -98.28198523589117 0 0 0 0 217.20670419856833 138.92392886343441 0 138.92392886343441 -252.93396879656211 0 0 0 0 264.57583216569492 121.30524985609736 0 121.30524985609736 -216.19189846992958 0 0 0 0 230.83212934805306 200.95239040444721 0 200.95239040444721 -309.56845770893415 0 0 0 0 6.9906570123239362 246.6779648955162 0 246.6779648955162 -260.16853513206297 0 0 0 0 186.75977893191157 216.10563733771596 0 216.10563733771596 -361.2330923585323 0 0 0 0 382.31561959635292 460.65868193020287 0 460.65868193020287 -1176.5584235449896 0 0 0 0 -677.66016228308854 1883.2022252197075 0 1883.2022252197075 209.29601897214889 0 0 0 0 267.29118875617678 361.60771546788965 0 361.60771546788965 104.66351635527644 0 0 0 0 308.43611362752017 206.4058273483588 0 206.4058273483588 -343.42668105570192 0 0 0 0 375.76272748311067 519.59583485584881 0 519.59583485584881 -666.67816373495589 0 0 0 0 296.99426287414099 38.72888717931346 0 38.72888717931346 -446.39778212640158 0 0 0 0 309.83697227863922 118.51073572256428 0 118.51073572256428 -306.70431402567738 0 0 0 0 350.79552275785136 57.98125223948955 0 57.98125223948955 -452.68399168189353 0 0 0 0 9.3336818278648828 -3.1735801719725849 0 -3.1735801719725849 -23.911272102385112 0 0 0 0 149.46396698728495 -134.93324150396802 0 -134.93324150396802 -596.54614048506483 0 0 0 0 -718.18899722638162 201.16498050818154 0 201.16498050818154 -230.79334173421375 0 0 0 0 294.018334695058 90.945365669460443 0 90.945365669460443 -1043.8700938034017 0 0 0 0 -208.96949811382365 -41.589620059981826 0 -41.589620059981826 -128.01747255196824 0 0 0 0 232.51973242158783 173.98454864955784 0 173.98454864955784 -76.697536137071438 0 0 0 0 119.35359382539446 132.88606022263411 0 132.88606022263411 121.01981070504553 0 0 0 0 152.76027113382668 -97.5967390939295 0 -97.5967390939295 -173.88481766520999 0 0 0 0 69.823448252308481 233.44294316747255 0 233.44294316747255 22.006179498253914 0 0 0 0 -8.6681342181909713 -46.239122797882374 0 -46.239122797882374 348.5330585847405 0 0 0 0 11.666740390247224 38.901073688598736 0 38.901073688598736 -20.892278277480742 0 0 0 0 -270.53428164406796 212.70535539962293 0 212.70535539962293 461.4382674230219 0 0 0 0 53.980800361725414 -93.052316202752991 0 -93.052316202752991 468.54048169217276 0 0 0 0 12.641519087358787 24.544595126106891 0 24.544595126106891 -29.585375443941061 0 0 0 0 67.849356964165054 286.92798797412252 0 286.92798797412252 -212.3478275999878 0 0 0 0 143.25663764831916 214.6817166358087 0 214.6817166358087 -291.80697466990387 0 0 0 0 115.55247734512739 171.29525757842111 0 171.29525757842111 -118.81250557464955 0 0 0 0 138.37991926987161 277.04371176358836 0 277.04371176358836 -128.28861271544156 0 0 0 0 180.2666039899741 202.0408399013686 0 202.0408399013686 -210.78215894669847 0 0 0 0 144.76353448831287 225.20112998621698 0 225.20112998621698 -225.5409400620556 0 0 0 0 171.17252853895661 180.11093295678438 0 180.11093295678438 -220.52488588505958 0 0 0 0 74.648867363868703 268.24672582172207 0 268.24672582172207 56.686060902153258 0 0 0 0 110.78808415393178 275.74792763686128 0 275.74792763686128 5.5053960811637808 0 0 0 0 101.7931246337248 356.83880893531023 0 356.83880893531023 66.311658692822675 0 0 0 0 110.73149065985886 267.08471822427515 0 267.08471822427515 -86.020929361577146 0 0 0 0 124.46824832980201 338.44963784455467 0 338.44963784455467 -85.159334148011112 0 0 0 0 92.792175411876087 277.49264266201862 0 277.49264266201862 -162.79944928562327 0 0 0 0 125.05966764721961 240.92345604484944 0 240.92345604484944 -179.12931008971645 0 0 0 0 42.619318911434675 79.596200552327048 0 79.596200552327048 -6.8292975271087926 0 0 0 0 87.027553946219996 147.41696538614133 0 147.41696538614133 23.0201927045606 0 0 0 0 -29.057013463807799 69.61842423605863 0 69.61842423605863 -26.82299219145467 0 0 0 0 511.32868790621615 56.78337329007627 0 56.78337329007627 62.911129755921138 0 0 0 0 52.572726289395298 90.309343354791238 0 90.309343354791238 -36.005466938618355 0 0 0 0 48.469460229614924 300.17709151979216 0 300.17709151979216 155.01745845471305 0 0 0 0 64.019696587779436 161.3182809501518 0 161.3182809501518 -24.858290889216732 0 0 0 0 48.181308706888558 139.60641346835837 0 139.60641346835837 -48.274799523282809 0 0 0 0 139.43789214262051 129.62338093304243 0 129.62338093304243 -88.475748186145211 0 0 0 0 30.79921283884784 95.761213285930154 0 95.761213285930154 -23.491038115757746 0 0 0 0 12.223250494448621 161.38836834562153 0 161.38836834562153 -33.28341029692092 0 0 0 0 6.2381382899644535 90.999826746363027 0 90.999826746363027 0.6529643225932138 0 0 0 0 -113.25531647595926 124.99087415697431 0 124.99087415697431 237.24807510117444 0 0 0 0 -3.1326909583731322 96.961995921132939 0 96.961995921132939 6.6199876975158531 0 0 0 0 -15.850272283608561 72.693533778376874 0 72.693533778376874 -9.0051631187027432 0 0 0 0 -42.846459874231044 86.503413971731618 0 86.503413971731618 1.3797881986770406 0 0 0 0 -139.69085626616288 158.39769451384291 0 158.39769451384291 17.033556041480551 0 0 0 0 -137.63784585033136 171.60787901013646 0 171.60787901013646 62.710452063079629 0 0 0 0 -83.737968161012148 91.177795781596444 0 91.177795781596444 -21.965704085711124 0 0 0 0 -145.95565463360072 191.474918562124 0 191.474918562124 32.184304093509127 0 0 0 0 -472.49492107126571 47.485787520012309 0 47.485787520012309 212.81879129347226 0 0 0 0 62.130781519237644 310.27899970810358 0 310.27899970810358 -418.50975736110195 0 0 0 0 -12.024614030950133 10.795705810252525 0 10.795705810252525 16.97387293810732 0 0 0 0 81.12540023469046 226.27371737924523 0 226.27371737924523 -250.90214116786956 0 0 0 0 -83.593534676903801 187.81889623220923 0 187.81889623220923 -35.06035664456067 0 0 0 0 -383.79903701654257 482.6123995503367 0 482.6123995503367 -232.14223617324024 0 0 0 0 -100.37511772192011 137.78351269066843 0 137.78351269066843 247.78425125467038 0 0 0 0 24.575053180975374 174.23884975161491 0 174.23884975161491 -18.758633341012569 0 0 0 0 -48.265344247571193 135.7710245998569 0 135.7710245998569 -3.7435666831024719 0 0 0 0 10.93890353793455 14.359946732355439 0 14.359946732355439 13.445049787165189 0 0 0 0 67.067229544656584 119.58227717366185 0 119.58227717366185 -33.559222534172591 0 0 0 0 8.6745235487978789 233.95424882838051 0 233.95424882838051 77.393073505198117 0 0 0 0 27.307041712556384 224.48132005819571 0 224.48132005819571 -102.70215040850599 0 0 0 0 10.576524847758066 72.78825717860741 0 72.78825717860741 -73.953816089349317 0 0 0 0 49.039020055519359 329.38818970272405 0 329.38818970272405 15.599075137884938 0 0 0 0 -5.5321371730824467 179.50843307367268 0 179.50843307367268 54.623129161861243 0 0 0 0 -235.39529711316573 205.1665953698739 0 205.1665953698739 52.674877682438819 0 0 0 0 -980.95161273970734 -1430.3543459761131 0 -1430.3543459761131 -1414.5627219556191 0 0 0 0 35.721573179236628 59.740483856308046 0 59.740483856308046 19.046581100269965 0 0 0 0 -315.37334955960978 406.63407229147924 0 406.63407229147924 -0.027727877083634667 0 0 0 0 23.819918782130117 92.289204208032061 0 92.289204208032061 -4.6081667335911334 0 0 0 0 3846.1501527119617 2369.4337066940043 0 2369.4337066940043 -4017.0022087000689 0 0 0 0 8.3002736987982644 -101.33585265916554 0 -101.33585265916554 -277.06220985851542 0 0 0 0 416.56018628622405 592.70772711381142 0 592.70772711381142 83.321005722085829 0 0 0 0 210.89230801962185 50.984787196372054 0 50.984787196372054 -821.73946201538274 0 0 0 0 197.94475432482432 28.008698022562385 0 28.008698022562385 -812.77257670433755 0 0 0 0 -1.4052454295612051 13.041737750444014 0 13.041737750444014 -23.42878571047742 0 0 0 0 -191.92963241263897 91.896775963878099 0 91.896775963878099 81.662222401639156 0 0 0 0 736.39516399335116 -251.50433592352238 0 -251.50433592352238 -1429.8215997020725 0 0 0 0 -55.443459925641946 57.856356253952981 0 57.856356253952981 84.670357658291323 0 0 0 0 86.638797813309793 125.07032155969364 0 125.07032155969364 -19.903850903838247 0 0 0 0 -9.3218458580813603 156.24494918553592 0 156.24494918553592 -28.129553447496619 0 0 0 0 -11.045824712826487 46.389333591242412 0 46.389333591242412 -33.22039210328002 0 0 0 0 -140.34401706072822 492.59138866009062 0 492.59138866009062 280.87380657751351 0 0 0 0 184.20364338014406 52.766793209463685 0 52.766793209463685 -72.533066246542148 0 0 0 0 8.4293957753423818 -9.4689312218574244 0 -9.4689312218574244 -7.5371213763717293 0 0 0 0 57.244639090618875 144.33149430374033 0 144.33149430374033 -670.72936159316305 0 0 0 0 -603.53699568908996 334.98155139613118 0 334.98155139613118 -147.14680329485418 0 0 0 0 -840.52824190402316 276.0354223245522 0 276.0354223245522 385.77694907036584 0 0 0 0 -296.22722430190333 -226.85949538870045 0 -226.85949538870045 -188.41126660503141 0 0 0 0 -277.63719241194121 450.45549560579275 0 450.45549560579275 -457.41120226031489 0 0 0 0 3.4861607858983916 231.34906318729918 0 231.34906318729918 -324.07692351064361 0 0 0 0 -110.21440774279472 176.07551664821585 0 176.07551664821585 -128.46373637155921 0 0 0 0 -14.705941171937312 14.543592272704487 0 14.543592272704487 18.750120741444746 0 0 0 0 2.1882980197005963 196.08781642659778 0 196.08781642659778 -203.70590704424831 0 0 0 0 -229.86861507914 326.33798421822576 0 326.33798421822576 -235.88123370549874 0 0 0 0 -349.88820644342923 157.99685677045636 0 157.99685677045636 -107.2119259524261 0 0 0 0 32.381429310821865 42.977951803754408 0 42.977951803754408 42.775165875314542 0 0 0 0 -11.357466890388878 99.625280500534174 0 99.625280500534174 12.7141137750342 0 0 0 0 -275.18114047630297 70.703211531845227 0 70.703211531845227 552.08688353278194 0 0 0 0 23.372606028766313 112.94173893861756 0 112.94173893861756 -46.479865390342454 0 0 0 0 21.084040838795772 20.029952266952023 0 20.029952266952023 260.22788530171965 0 0 0 0 -68.148030448199208 60.645207993446711 0 60.645207993446711 162.63589507751624 0 0 0 0 -2.4443096262693871 133.65952921578719 0 133.65952921578719 310.79536092694798 0 0 0 0 23.332378456005245 121.0132771564322 0 121.0132771564322 53.318656175866636 0 0 0 0 4.64468227148609 85.054843037932187 0 85.054843037932187 -3.7182917887666918 0 0 0 0 -7.8793743485730374 146.85162066874727 0 146.85162066874727 43.129615577382538 0 0 0 0 -67.850908354241938 71.624724319600247 0 71.624724319600247 169.31103760233464 0 0 0 0 7.6302796522884364 40.608104866585421 0 40.608104866585421 14.696457065706422 0 0 0 0 3.1445114828436544 71.034702597765659 0 71.034702597765659 53.827079702313824 0 0 0 0 18.714640785554565 48.237016080852442 0 48.237016080852442 46.40502138630017 0 0 0 0 16.121898139208497 38.299992112959444 0 38.299992112959444 112.29721295816648 0 0 0 0 3.8112204717214127 85.175872634086332 0 85.175872634086332 -3.8399765854283032 0 0 0 0 2.3024938104354078 64.74906180103244 0 64.74906180103244 -1.5271701975325414 0 0 0 0 -15.609236727905227 96.260446558706462 0 96.260446558706462 -4.9955391562575642 0 0 0 0 -37.053967978688888 103.38096725964216 0 103.38096725964216 6.4390960081584581 0 0 0 0 -37.100328429747606 103.9761540974223 0 103.9761540974223 65.143915117367214 0 0 0 0 -39.72554438579391 126.72401615627587 0 126.72401615627587 27.980963672075632 0 0 0 0 -32.284621258469997 134.12601372080087 0 134.12601372080087 -28.897498976270185 0 0 0 0 0.43404987682879437 108.30152282607014 0 108.30152282607014 3.3127264754211865 0 0 0 0 -15.065722970114052 72.174080754381919 0 72.174080754381919 42.067818795718964 0 0 0 0 -29.329245681190685 95.051579863353723 0 95.051579863353723 -1.522834013050776 0 0 0 0 108.86115663520104 52.448008453966395 0 52.448008453966395 415.04086058085522 0 0 0 0 -37.672208631404402 77.866026583709811 0 77.866026583709811 22.145943022607263 0 0 0 0 -44.137905860690807 124.16941042726467 0 124.16941042726467 35.524545180725909 0 0 0 0 -46.771807012815771 105.98783988729031 0 105.98783988729031 5.2274481597414706 0 0 0 0 -33.607746790978126 84.684623183267831 0 84.684623183267831 34.728235845602967 0 0 0 0 -391.41979079210432 295.38290666868124 0 295.38290666868124 -70.911386165516888 0 0 0 0 -101.20460088085383 -70.745047203803551 0 -70.745047203803551 523.14195282755099 0 0 0 0 -8.0589358426607873 17.219364379961135 0 17.219364379961135 4.947767101997691 0 0 0 0 -35.128298771989648 98.791970962296546 0 98.791970962296546 34.459411549702963 0 0 0 0 29.795307971930015 67.979288237541368 0 67.979288237541368 266.20602007002162 0 0 0 0 -0.54079184741996755 21.612381825890083 0 21.612381825890083 23.350837623637091 0 0 0 0 -25.357882003881969 23.472765048136353 0 23.472765048136353 287.48588498223762 0 0 0 0 -35.57391506757395 88.591001182666105 0 88.591001182666105 52.917229308765265 0 0 0 0 18.867896886687959 99.856355813757546 0 99.856355813757546 -56.556626233143106 0 0 0 0 38.438838593901892 125.24524444548661 0 125.24524444548661 -32.076487329715746 0 0 0 0 -33.501849331287445 73.086229260159769 0 73.086229260159769 49.600144346242814 0 0 0 0 -29.990792012578055 86.142381740472416 0 86.142381740472416 -10.372755338171508 0 0 0 0 -45.128250275576931 89.314730929272358 0 89.314730929272358 3.6335687344189864 0 0 0 0 -31.793200734224229 112.27763901746084 0 112.27763901746084 3.421953649615034 0 0 0 0 11.725818226051935 64.760759927649673 0 64.760759927649673 -37.25745311182898 0 0 0 0 21.62108202186937 114.41845176411971 0 114.41845176411971 -34.600181037225582 0 0 0 0 -1.1194338903660537 82.216361609182059 0 82.216361609182059 -32.641515771303517 0 0 0 0 16.128958324246923 101.55927625535469 0 101.55927625535469 -14.48112993110135 0 0 0 0 3.6238162821000515 104.65375415865697 0 104.65375415865697 -0.19668284526051139 0 0 0 0 18.504478476301301 134.31402216414335 0 134.31402216414335 2.5475064976789099 0 0 0 0 42.650945458790375 120.55597707752668 0 120.55597707752668 9.7697874785235399 0 0 0 0 12.077867885440355 117.34572493667065 0 117.34572493667065 50.395011707996673 0 0 0 0 -25.661050444425484 77.24928943375123 0 77.24928943375123 37.134057819672734 0 0 0 0 9.8153063718127669 133.61098999387787 0 133.61098999387787 8.8637077078738002 0 0 0 0 -27.107468122259888 70.155622362930444 0 70.155622362930444 70.439748489567137 0 0 0 0 -16.507399896507483 48.079894910152731 0 48.079894910152731 89.410205201758998 0 0 0 0 -1.6426090645896068 66.214331180707774 0 66.214331180707774 38.574883087392145 0 0 0 0 -20.931329114522669 67.740852172519226 0 67.740852172519226 60.811162527026681 0 0 0 0 -49.876411889053998 88.195915095153396 0 88.195915095153396 148.35754702448321 0 0 0 0 -28.278088511900016 44.298875450915077 0 44.298875450915077 53.970641605020177 0 0 0 0 -1.4718033004032804 119.1644707462292 0 119.1644707462292 265.47702321858378 0 0 0 0 -14.350034325448874 37.439128271719625 0 37.439128271719625 77.0061428543099 0 0 0 0 10.441142251031124 66.576861715751875 0 66.576861715751875 53.773744544363581 0 0 0 0 -8.8348667009013298 55.36372029982158 0 55.36372029982158 54.735459058458218 0 0 0 0 -17.950419093368211 50.093991953118945 0 50.093991953118945 63.907909270656347 0 0 0 0 -3.555104675135226 62.904090450501826 0 62.904090450501826 65.465302085591247 0 0 0 0 452.99033704723411 -51.77588391644673 0 -51.77588391644673 54.004092940769624 0 0 0 0 -4.4807351844645673 29.364404453702065 0 29.364404453702065 39.444792186161223 0 0 0 0 6.2506445869221352 51.647521272789163 0 51.647521272789163 20.732452969066799 0 0 0 0 31.102718646921645 52.158763389782472 0 52.158763389782472 1.0026007745381662 0 0 0 0 49.429359230121918 15.189181173642282 0 15.189181173642282 -153.26918965466029 0 0 0 0 72.153067842118617 121.79414935862587 0 121.79414935862587 905.83841810754529 0 0 0 0 42.879225582673826 21.320924212457612 0 21.320924212457612 -144.65452303734492 0 0 0 0 8.5661690251681293 4.953435399073939 0 4.953435399073939 -6.6333236863656779 0 0 0 0 44.348670405049177 44.790873717351019 0 44.790873717351019 -8.7144427996245213 0 0 0 0 23.438882333044603 -1.4422952152672224 0 -1.4422952152672224 -97.632386530167423 0 0 0 0 -3.4383924872892266 38.109440530205255 0 38.109440530205255 -28.392499970448398 0 0 0 0 88.141759719743277 70.002701002344111 0 70.002701002344111 -131.67460628306435 0 0 0 0 22.409121602663468 41.434173929287539 0 41.434173929287539 -49.946071642476028 0 0 0 0 38.097567897425392 -1.4937837503874221 0 -1.4937837503874221 -91.261020419682609 0 0 0 0 51.14496598768892 60.74208866727713 0 60.74208866727713 11.535321828418091 0 0 0 0 -14.180183767275258 39.394061160560518 0 39.394061160560518 -10.298566121840338 0 0 0 0 -48.434094903233927 117.31213545706123 0 117.31213545706123 -303.76416537879413 0 0 0 0 1.6965297256340932 17.952236675749724 0 17.952236675749724 -2.2606939284235992 0 0 0 0 -209.8807779036797 169.11170168206627 0 169.11170168206627 -19.843217042263859 0 0 0 0 75.968333022959996 -15.963495180698374 0 -15.963495180698374 -176.8647961833849 0 0 0 0 116.66707419096929 76.258672663096604 0 76.258672663096604 -207.27302372397389 0 0 0 0 126.55385218183801 121.78952823041618 0 121.78952823041618 -98.524552932848792 0 0 0 0 5.0806189593476745 42.876644661238068 0 42.876644661238068 -59.302331233106997 0 0 0 0 13.803638334786207 39.181508903231204 0 39.181508903231204 -63.253376211106556 0 0 0 0 -172.76323974539991 300.62001910646723 0 300.62001910646723 342.51223099759045 0 0 0 0 -197.11976627269178 -157.0583872651041 0 -157.0583872651041 375.61199927913913 0 0 0 0 -20.25041039595817 -256.99225217575031 0 -256.99225217575031 -168.1344304184604 0 0 0 0 356.54665344285604 -114.48207345909032 0 -114.48207345909032 79.328247042685689 0 0 0 0 -37.528909796266817 -95.539300400952925 0 -95.539300400952925 154.03341281189932 0 0 0 0 344.20858688536828 -13.001901149713376 0 -13.001901149713376 170.09525217462215 0 0 0 0 -588.51200850251189 -403.36751145835296 0 -403.36751145835296 232.48813876746863 0 0 0 0 312.2653559796745 539.94207741216815 0 539.94207741216815 -1793.2939714175009 0 0 0 0 -155.891447099988 653.13393435596663 0 653.13393435596663 -92.308770138297405 0 0 0 0 -8.8342051209934596 16.201296607111559 0 16.201296607111559 1.1766240922617222 0 0 0 0 -522.54662997370178 -72.153145999902335 0 -72.153145999902335 1413.0702458177548 0 0 0 0 -208.01118305675482 1098.4559374397468 0 1098.4559374397468 -916.35169251002662 0 0 0 0 -786.83042390673654 513.93152646500675 0 513.93152646500675 982.19477018904581 0 0 0 0 -326.63597844219476 311.29582370791104 0 311.29582370791104 -174.07117804118207 0 0 0 0 -528.14907828794458 91.513383746438194 0 91.513383746438194 18.282945237282547 0 0 0 0 178.77317510922148 -68.089963782495033 0 -68.089963782495033 21.776797415692272 0 0 0 0 -403.53143591838307 -60.134883531984087 0 -60.134883531984087 110.19578351156815 0 0 0 0 -120.28277442036779 -53.600606577478175 0 -53.600606577478175 -53.583967819766258 0 0 0 0 -173.97377042360313 111.24617075313654 0 111.24617075313654 336.43207228607207 0 0 0 0 169.43733203131706 269.63999522192171 0 269.63999522192171 110.82314804564703 0 0 0 0 111.31886854048935 366.27166101687908 0 366.27166101687908 451.19666682355091 0 0 0 0 453.93919587922574 25.250892679840035 0 25.250892679840035 348.20947912539486 0 0 0 0 43.180504695439595 -119.65248642558436 0 -119.65248642558436 -1062.9182476221467 0 0 0 0 -101.64984240625927 297.38073326934682 0 297.38073326934682 -759.37391938134169 0 0 0 0 68.872147035508533 182.95711978021245 0 182.95711978021245 93.813552011524735 0 0 0 0 -321.71547617566102 282.33500266110059 0 282.33500266110059 89.558747991854034 0 0 0 0 -58.165606861959532 138.65361077212401 0 138.65361077212401 79.133163757796865 0 0 0 0 360.92742451714003 340.41421139697923 0 340.41421139697923 -281.77742164079973 0 0 0 0 9.1027006557991239 32.940379081746421 0 32.940379081746421 8.2869816302579267 0 0 0 0 -47.614746731681691 121.11471529910307 0 121.11471529910307 73.173792493407745 0 0 0 0 -45.614805591972981 100.16101885238822 0 100.16101885238822 1.5283815297771071 0 0 0 0 -735.75007048114458 382.19228652306765 0 382.19228652306765 -53.302939806984796 0 0 0 0 -300.4604589102164 395.81599282630123 0 395.81599282630123 -79.757108814455933 0 0 0 0 6.2617965718119564 58.92314263726179 0 58.92314263726179 65.36760646095675 0 0 0 0 -110.49832639561646 187.61326577513773 0 187.61326577513773 -12.966991460520148 0 0 0 0 -150.7834119485924 182.01896228336045 0 182.01896228336045 32.436554294657185 0 0 0 0 -25.603645487684844 192.20052508595472 0 192.20052508595472 -108.59323877183488 0 0 0 0 -13.073468279333838 256.14378438815606 0 256.14378438815606 29.432256635074737 0 0 0 0 14.538952447561002 73.013914266389691 0 73.013914266389691 80.074691631860276 0 0 0 0 -83.756359738239553 153.30758116728248 0 153.30758116728248 15.236849292564102 0 0 0 0 39.754903352938527 135.07691659996544 0 135.07691659996544 13.873167839115922 0 0 0 0 -11.997149813877741 57.771644753991346 0 57.771644753991346 -63.751758316731994 0 0 0 0 39.46354042774783 138.51731584291156 0 138.51731584291156 -26.134626744112211 0 0 0 0 15.81913268123418 115.68830834367077 0 115.68830834367077 38.910364488502182 0 0 0 0 130.56989974164375 122.72249121495847 0 122.72249121495847 -37.917939207578456 0 0 0 0 -32.508287299153857 48.12926657352368 0 48.12926657352368 -27.311425925021652 0 0 0 0 47.668024084076478 141.12911271996549 0 141.12911271996549 7.8793056441477347 0 0 0 0 182.58733954850561 195.17367322741848 0 195.17367322741848 190.46776998210044 0 0 0 0 -5.5229100463445686 20.513462770550657 0 20.513462770550657 -42.105585834615979 0 0 0 0 79.257645010342458 73.468327552778646 0 73.468327552778646 16.224943343325322 0 0 0 0 130.3610799939961 118.62670772359979 0 118.62670772359979 -8.0861348321850528 0 0 0 0 155.01639242209421 76.969778932067129 0 76.969778932067129 31.347888714091823 0 0 0 0 59.294528956645081 114.44310533645512 0 114.44310533645512 158.59167203866673 0 0 0 0 -10.567149654035656 26.577381968304444 0 26.577381968304444 8.8179393943944682 0 0 0 0 121.91691766311851 130.46884981429685 0 130.46884981429685 -15.425452397954359 0 0 0 0 191.90504298523956 176.36257130086597 0 176.36257130086597 9.5916558076460205 0 0 0 0 182.08227604113199 46.141863417757122 0 46.141863417757122 -270.22056801036524 0 0 0 0 269.77664908406223 249.32443091536697 0 249.32443091536697 64.832233591878321 0 0 0 0 104.34996887546731 133.11841624001681 0 133.11841624001681 226.55315050610443 0 0 0 0 72.926631519122836 74.642344497518607 0 74.642344497518607 -44.979031286935083 0 0 0 0 15.206394368789915 66.40435753147176 0 66.40435753147176 -121.1118122879052 0 0 0 0 -15.553147435777646 -25.852567218636977 0 -25.852567218636977 160.41948875075468 0 0 0 0 89.798800709517309 163.04042791493885 0 163.04042791493885 0.83480141896507121 0 0 0 0 3.2375249189270789 37.039053439450235 0 37.039053439450235 22.440120347967401 0 0 0 0 -0.80430263228499221 0.70882237918585389 0 0.70882237918585389 1.7615740912000604 0 0 0 0 238.74361720222805 309.0622648124845 0 309.0622648124845 209.79527636541752 0 0 0 0 66.568635413343145 195.14850764243602 0 195.14850764243602 796.21691283050677 0 0 0 0 1.8210236703118028 0.37422905676980633 0 0.37422905676980633 0.19814323187931393 0 0 0 0 54.829910933536667 -70.626986832749026 0 -70.626986832749026 -323.16517570926226 0 0 0 0 -45.739091297778941 17.968022262153681 0 17.968022262153681 -128.69550531932327 0 0 0 0 279.62784839505548 93.65608993263595 0 93.65608993263595 128.44619733958461 0 0 0 0 171.43782452058076 201.54083635154529 0 201.54083635154529 212.51512043699768 0 0 0 0 -472.34004798922069 116.08595332101004 0 116.08595332101004 3.6955281663686037 0 0 0 0 -37.949244434013522 128.38101393964061 0 128.38101393964061 108.09197793872501 0 0 0 0 137.04549530550298 69.479052198310399 0 69.479052198310399 -40.552200070267673 0 0 0 0 166.7990688040868 162.33921202521924 0 162.33921202521924 107.10338033328298 0 0 0 0 247.04800575235276 172.96395338566072 0 172.96395338566072 -10.949881337954139 0 0 0 0 -410.6019584924943 112.98192003447912 0 112.98192003447912 -19.824524868898152 0 0 0 0 -408.54686847103585 189.37610916246558 0 189.37610916246558 61.503215477301637 0 0 0 0 7.2347400972983138 34.441131986819741 0 34.441131986819741 37.792892149067882 0 0 0 0 -138.5853723643886 34.05352625276646 0 34.05352625276646 -8.5903771171251719 0 0 0 0 -430.91782055005024 102.78106068784109 0 102.78106068784109 -24.640488340939555 0 0 0 0 -4.8123372550689965 487.80379678321879 0 487.80379678321879 295.71954544998516 0 0 0 0 -158.89317225355626 89.477389565683552 0 89.477389565683552 163.3943253020534 0 0 0 0 -34.444268715896889 123.82615836819539 0 123.82615836819539 117.53457361576369 0 0 0 0 -570.34096016543117 69.095087030093964 0 69.095087030093964 373.60547790633245 0 0 0 0 193.89976783617385 119.83036482148145 0 119.83036482148145 143.78676957380958 0 0 0 0 293.4379043751087 272.32816971100601 0 272.32816971100601 341.6823307260056 0 0 0 0 338.91704779150496 147.50005592147136 0 147.50005592147136 101.97048756100412 0 0 0 0 233.61105247930027 165.09881558290726 0 165.09881558290726 111.14225927705411 0 0 0 0 -110.56094827763445 6.6164034904941218 0 6.6164034904941218 365.15382655333087 0 0 0 0 137.85321577941795 184.80347173927657 0 184.80347173927657 335.54696667210374 0 0 0 0 186.00028281848427 27.268566405808087 0 27.268566405808087 105.31245435652818 0 0 0 0 22.178108734064153 160.26646670541959 0 160.26646670541959 -113.86695741955191 0 0 0 0 175.89110475694702 152.948997813598 0 152.948997813598 -141.27424543013331 0 0 0 0 200.0317579996954 259.89548681659653 0 259.89548681659653 -115.32555150976259 0 0 0 0 223.71597719333295 228.91467552553513 0 228.91467552553513 -316.69402694115706 0 0 0 0 -34.556260873880092 461.28121390158049 0 461.28121390158049 -18.176765696865914 0 0 0 0 242.2969315350656 152.34697229327139 0 152.34697229327139 87.331277993827825 0 0 0 0 113.23480046899931 255.6358369463851 0 255.6358369463851 58.600099550929372 0 0 0 0 99.483812862611558 284.56955496907722 0 284.56955496907722 157.94299536137987 0 0 0 0 -123.173176287346 280.86998172839594 0 280.86998172839594 227.61019655814744 0 0 0 0 64.190377115550291 357.20341200991606 0 357.20341200991606 13.655843523316435 0 0 0 0 64.393712343715379 190.19203901666333 0 190.19203901666333 250.75132625270635 0 0 0 0 96.237868381130511 315.39651602271897 0 315.39651602271897 185.2245035551241 0 0 0 0 -39.154470517070877 94.727035232619528 0 94.727035232619528 240.37904067962518 0 0 0 0 74.532735680957558 280.95154542694945 0 280.95154542694945 98.318389508531709 0 0 0 0 189.98870248363528 324.36531636580548 0 324.36531636580548 104.88390194782187 0 0 0 0 194.85256752679561 349.26019360196733 0 349.26019360196733 20.608364393141528 0 0 0 0 159.36939150248509 301.63924231381316 0 301.63924231381316 -3.2807879730535205 0 0 0 0 527.1698781021696 419.63365581652761 0 419.63365581652761 33.977813415242053 0 0 0 0 420.10260378784733 406.94883245468918 0 406.94883245468918 160.10692288037899 0 0 0 0 136.04037663822601 463.86436415909429 0 463.86436415909429 226.61087748647697 0 0 0 0 -39.102472979390484 123.5679014246181 0 123.5679014246181 123.59439848128477 0 0 0 0 -370.37120258151299 280.62505863486922 0 280.62505863486922 333.7055210224753 0 0 0 0 -338.357892688417 166.45799240621272 0 166.45799240621272 -46.360783165233443 0 0 0 0 80.713776443444658 12.319002994907351 0 12.319002994907351 -28.266301289389958 0 0 0 0 -275.50835311556148 -191.16042373322125 0 -191.16042373322125 5.9164990997505811 0 0 0 0 -342.78720460284967 197.37157820438733 0 197.37157820438733 -46.545956457033753 0 0 0 0 -342.78720460282057 197.37157820443826 0 197.37157820443826 -46.545956456953718 0 0 0 0 -20.136382383410819 195.24977826305621 0 195.24977826305621 -51.141156046687684 0 0 0 0 -342.78720460283512 197.37157820443099 0 197.37157820443099 -46.545956456844578 0 0 0 0 -252.23440312975436 -59.551763666160696 0 -59.551763666160696 -47.074631573355873 0 0 0 0 -113.31836498421762 59.028289086498262 0 59.028289086498262 -378.05797346584222 0 0 0 0 -321.35791004271596 -9.4149843076629622 0 -9.4149843076629622 -69.873632902359532 0 0 0 0 -55.909963326811464 90.241173495062768 0 90.241173495062768 -28.925814920796711 0 0 0 0 -268.43377311664517 225.715553488757 0 225.715553488757 -126.94504971946299 0 0 0 0 -128.25924787333133 364.60124301210453 0 364.60124301210453 237.43372250509856 0 0 0 0 -65.846696178341517 91.554115134087624 0 91.554115134087624 -49.875774466010625 0 0 0 0 1080.7589994356094 -121.73949579981854 0 -121.73949579981854 -318.28837592990021 0 0 0 0 -10.684641593603004 9.6954483900745458 0 9.6954483900745458 -6.9437187762971462 0 0 0 0 -76.36963830861248 261.01371121169814 0 261.01371121169814 -256.84885803764337 0 0 0 0 -114.72858013265068 276.583658864678 0 276.583658864678 -170.9098942261262 0 0 0 0 -45.360411297384417 93.808877882198431 0 93.808877882198431 -131.82697468611877 0 0 0 0 -36.956749697248739 80.074388691819195 0 80.074388691819195 -50.596505856087525 0 0 0 0 -197.7561753380578 -20.877315752004506 0 -20.877315752004506 109.89285869515152 0 0 0 0 -23.810207803180674 34.475268870475702 0 34.475268870475702 -90.536785002565011 0 0 0 0 -17.949071091208452 17.442339718795569 0 17.442339718795569 21.090196625918821 0 0 0 0 -123.09443898440804 291.73644841476926 0 291.73644841476926 -197.53881619678577 0 0 0 0 -200.12040040512147 318.89380261312181 0 318.89380261312181 -203.06202078240312 0 0 0 0 192.0249172913791 2315.9178917395438 0 2315.9178917395438 -1206.4684387778398 0 0 0 0 -362.0598114774366 199.5601776644362 0 199.5601776644362 -30.610169002320617 0 0 0 0 1493.9354031707517 852.27907673353548 0 852.27907673353548 -723.21048988788971 0 0 0 0 -0.58003852037462234 4.883162549200236 0 4.883162549200236 8.6619321408198005 0 0 0 0 703.0907148949409 24.610211785591673 0 24.610211785591673 352.36736354412278 0 0 0 0 -74.265097640600288 323.1697072507086 0 323.1697072507086 671.99983222634182 0 0 0 0 -108.66962398815667 -44.151259016638505 0 -44.151259016638505 529.42973802195775 0 0 0 0 339.70944221408718 632.8644834730294 0 632.8644834730294 38.5912078745896 0 0 0 0 -50.819208321707265 145.60399007148953 0 145.60399007148953 -10.586366170173278 0 0 0 0 -1104.6551411115433 600.61029260631767 0 600.61029260631767 59.730985099966347 0 0 0 0 -789.39440443570493 -164.12328333711775 0 -164.12328333711775 -126.05721089583676 0 0 0 0 -221.02058781412052 240.06396373318421 0 240.06396373318421 422.02189840372012 0 0 0 0 7.7792393226209242 46.17971105637389 0 46.17971105637389 -913.37131259599118 0 0 0 0 -47.811376138342894 546.8396769164101 0 546.8396769164101 -550.20662834205723 0 0 0 0 -345.15910598843948 466.43352542980938 0 466.43352542980938 138.00055179077026 0 0 0 0 -40.191531113552628 183.26421262709482 0 183.26421262709482 237.55639798062475 0 0 0 0 -123.42615744366594 132.81716444097037 0 132.81716444097037 298.49167051778932 0 0 0 0 133.84429503920364 53.703819483984262 0 53.703819483984262 301.02494981967902 0 0 0 0 514.59942432895696 224.37244351689878 0 224.37244351689878 287.08629655035645 0 0 0 0 -3.2267925819433003 179.73253429123724 0 179.73253429123724 286.37933528902067 0 0 0 0 -250.13019624476874 98.294181182587636 0 98.294181182587636 349.5185807588723 0 0 0 0 47.54185496914215 5.0037512371200137 0 5.0037512371200137 358.40064740980233 0 0 0 0 -30.840158612871164 63.304486542263476 0 63.304486542263476 331.43882873755865 0 0 0 0 127.57905251831653 277.62701081181876 0 277.62701081181876 494.39796851510619 0 0 0 0 -34.560706668285647 25.458017382868576 0 25.458017382868576 -15.927300064418944 0 0 0 0 -214.9070221564034 135.6560669669434 0 135.6560669669434 466.38615068400395 0 0 0 0 71.478179630872546 179.38078779025091 0 179.38078779025091 263.29922340646772 0 0 0 0 -413.78448647543337 410.74352202665614 0 410.74352202665614 168.0277823311153 0 0 0 0 28.721438104264962 269.22762511974361 0 269.22762511974361 120.93075559093995 0 0 0 0 30.403623795375097 498.25335850252304 0 498.25335850252304 379.40272078360067 0 0 0 0 -59.464362086725018 33.790227394918745 0 33.790227394918745 -20.889655972555943 0 0 0 0 -194.37931933094296 127.86816058289696 0 127.86816058289696 381.17627480880765 0 0 0 0 104.49096097375332 75.131876044428282 0 75.131876044428282 -53.474959783685335 0 0 0 0 120.82654479740268 219.62909207918347 0 219.62909207918347 -429.45302114940932 0 0 0 0 29.200425695162266 445.60343280572852 0 445.60343280572852 -199.07926162367949 0 0 0 0 -12.353359593093046 308.82881281903246 0 308.82881281903246 -35.102531198048382 0 0 0 0 -526.30282204529703 825.55155846943035 0 825.55155846943035 -553.80369766709919 0 0 0 0 227.71652878240275 81.068281904939795 0 81.068281904939795 -867.02756403033527 0 0 0 0 -1.7130335915399684 3.9701326566550712 0 3.9701326566550712 -5.4944863499084704 0 0 0 0 -827.9426610469327 577.76553292238168 0 577.76553292238168 -52.267006793466862 0 0 0 0 -239.04233355962788 828.43041590377834 0 828.43041590377834 -643.79618941446438 0 0 0 0 61.993526082531389 522.47873026615343 0 522.47873026615343 -396.68016830530541 0 0 0 0 -120.11303980754201 139.33868500545577 0 139.33868500545577 -617.1000765702629 0 0 0 0 -731.93065399082889 180.03080201033572 0 180.03080201033572 169.41625388487591 0 0 0 0 -173.86109227575071 77.055033930202626 0 77.055033930202626 171.88929913715401 0 0 0 0 528.50566707501093 325.846216281745 0 325.846216281745 -347.54009450219746 0 0 0 0 75.331800770518385 -158.14883777590876 0 -158.14883777590876 416.3505725133291 0 0 0 0 -43.911590281848476 463.54619016576908 0 463.54619016576908 426.82129817431075 0 0 0 0 -84.684802410889461 393.83945587728158 0 393.83945587728158 -316.43508945354552 0 0 0 0 -1.6647163177894981 429.52249945603035 0 429.52249945603035 -629.99387173528521 0 0 0 0 -142.84508664539499 211.50564032661714 0 211.50564032661714 -647.35146865135903 0 0 0 0 -77.09929030575222 244.85149435723724 0 244.85149435723724 -665.84247892231269 0 0 0 0 5.5058860466655233 -1.0004911993775636 0 -1.0004911993775636 -0.38629762866652761 0 0 0 0 -85.5561068558236 82.059626006484905 0 82.059626006484905 -277.49096803588327 0 0 0 0 -283.26182919614439 431.30757052122135 0 431.30757052122135 -278.38169564804411 0 0 0 0 -174.83172328061846 493.87035987185664 0 493.87035987185664 -393.67711181144114 0 0 0 0 -28.3422646716499 126.42226350798592 0 126.42226350798592 62.077329881163678 0 0 0 0 251.95811033379323 269.9130596556497 0 269.9130596556497 -232.57769292414014 0 0 0 0 26.352933361403956 14.060048651121413 0 14.060048651121413 -15.960290986143178 0 0 0 0 -1.2207244054527635 39.300739064149781 0 39.300739064149781 -3.3564218385495099 0 0 0 0 518.98250709145577 178.35897427899181 0 178.35897427899181 -693.35205351271361 0 0 0 0 26.387414640825227 217.74943757416986 0 217.74943757416986 -211.34281832035049 0 0 0 0 234.40896114207862 36.614378337471862 0 36.614378337471862 -339.81283891505154 0 0 0 0 -146.10421897902052 204.7357882856013 0 204.7357882856013 -293.33658105629729 0 0 0 0 7.7020010489206641 119.47758439455481 0 119.47758439455481 -22.651482326845951 0 0 0 0 311.38084371654259 -37.413213854975766 0 -37.413213854975766 -1.5374371546204202 0 0 0 0 -20.511902211981877 3.3358158386189984 0 3.3358158386189984 8.9103274381168376 0 0 0 0 -140.90853861352662 208.04978327422577 0 208.04978327422577 5.7983246704916382 0 0 0 0 62.15137557068374 74.129648526650271 0 74.129648526650271 -53.985982400888133 0 0 0 0 -53.256402404316759 121.32054175395024 0 121.32054175395024 -181.06569360461435 0 0 0 0 31.752554990302542 50.034792314636761 0 50.034792314636761 -4.3379650325813639 0 0 0 0 103.56857850380696 86.659675321321913 0 86.659675321321913 0.11956129748611488 0 0 0 0 -207.95887074049097 346.89604834190686 0 346.89604834190686 -85.905999839962533 0 0 0 0 124.04344131823291 81.994850590377609 0 81.994850590377609 -52.529320114779694 0 0 0 0 217.32517345767539 187.66853509063472 0 187.66853509063472 84.687143962904287 0 0 0 0 589.55801592921125 228.17014262239536 0 228.17014262239536 -502.14817241473065 0 0 0 0 180.67025183233045 203.91498962615049 0 203.91498962615049 154.57028966708458 0 0 0 0 243.58383471457637 220.24915359715305 0 220.24915359715305 3.5726334448245325 0 0 0 0 187.27782003696035 150.69608600860221 0 150.69608600860221 71.724762616929496 0 0 0 0 179.25137239098422 218.23134005571683 0 218.23134005571683 29.961604430049192 0 0 0 0 193.53466644853324 252.10905405878111 0 252.10905405878111 43.163452995642729 0 0 0 0 197.56704157515924 264.90015059605685 0 264.90015059605685 4.4729071837500669 0 0 0 0 176.6741167189648 307.51973215401267 0 307.51973215401267 83.896794851641971 0 0 0 0 -9.7982442572865232 138.66172474316573 0 138.66172474316573 128.89033841256037 0 0 0 0 188.03499137428298 284.06129895607137 0 284.06129895607137 119.16276696083514 0 0 0 0 -71.677977190478487 133.52270496502751 0 133.52270496502751 195.1416398631045 0 0 0 0 -0.72355166851707509 27.43826954377495 0 27.43826954377495 12.477013223953008 0 0 0 0 9.0564628719335047 -2.6368050374054235 0 -2.6368050374054235 -2.396295445628212 0 0 0 0 188.93638626653774 -23.69664526773704 0 -23.69664526773704 14.868689152976003 0 0 0 0 -16.168336382688722 202.4220410746093 0 202.4220410746093 724.61896459358832 0 0 0 0 179.41382357987823 252.77807627627044 0 252.77807627627044 -337.53953677552636 0 0 0 0 -74.614794215951406 205.65085581709718 0 205.65085581709718 -182.8675027341742 0 0 0 0 -52.349183625390197 38.867610762786626 0 38.867610762786626 41.416760482934478 0 0 0 0 -27.613252957662553 244.71102364134276 0 244.71102364134276 -248.29218032417339 0 0 0 0 31.231999467801799 28.440956753365956 0 28.440956753365956 -80.904042708700388 0 0 0 0 11.472188527985054 146.07056183375971 0 146.07056183375971 -468.87502065009176 0 0 0 0 -279.44433267505156 391.86312747810734 0 391.86312747810734 -342.70710748376018 0 0 0 0 2.2434635940901444 3.580821428314664 0 3.580821428314664 0.11712650893695198 0 0 0 0 81.293052917473688 460.21375557359715 0 460.21375557359715 -1487.1875069346715 0 0 0 0 -412.39135062361311 550.15578543065931 0 550.15578543065931 -458.85122173792433 0 0 0 0 -630.09110532595332 76.390955369493895 0 76.390955369493895 4231.4296971394797 0 0 0 0 -1291.1461738644721 319.47215488542497 0 319.47215488542497 674.03624837026291 0 0 0 0 -5.7048973508109828 -3.0299191904452663 0 -3.0299191904452663 -21.952409738917481 0 0 0 0 -235.18200053722558 978.11415854624647 0 978.11415854624647 3071.5911270345168 0 0 0 0 901.3604074731652 1169.7456826940324 0 1169.7456826940324 451.93199335412646 0 0 0 0 1635.5647850337559 2487.3928913162526 0 2487.3928913162526 1171.5542550179234 0 0 0 0 2820.0039647708254 1535.3034990613669 0 1535.3034990613669 -928.61119288898772 0 0 0 0 54.60713524271091 -351.5622733865157 0 -351.5622733865157 -962.43730723099725 0 0 0 0 1791.5927604706339 64.341651098227885 0 64.341651098227885 -1703.6636359181284 0 0 0 0 -196.27812619775978 487.86921754488867 0 487.86921754488867 -57.75424612662755 0 0 0 0 650.65186628185347 647.756736409734 0 647.756736409734 -632.21429906151207 0 0 0 0 198.14682444245409 607.82683291501962 0 607.82683291501962 -635.33539067105448 0 0 0 0 -394.81866590947948 826.4339378265413 0 826.4339378265413 843.43554832106747 0 0 0 0 -335.42801737242371 359.29695032344898 0 359.29695032344898 1016.8584811913788 0 0 0 0 -454.8854597369741 497.96382917423034 0 497.96382917423034 993.39069761941209 0 0 0 0 -309.52491706110595 311.17897578355041 0 311.17897578355041 637.28694142338645 0 0 0 0 -370.47389938919332 403.57376068481244 0 403.57376068481244 511.14918339542055 0 0 0 0 -329.28054290846922 213.82565804572369 0 213.82565804572369 158.66528958765048 0 0 0 0 -91.713679880260315 98.356456724010059 0 98.356456724010059 204.4972798151648 0 0 0 0 -65.39022407709308 69.639691493368446 0 69.639691493368446 176.6823866750492 0 0 0 0 -2.3396295527736584 168.6060348698029 0 168.6060348698029 102.6862921664142 0 0 0 0 54.4134349974629 93.10295955278707 0 93.10295955278707 18.851863564337691 0 0 0 0 81.981110175320282 80.836119139386142 0 80.836119139386142 34.584914081636882 0 0 0 0 59.030134072592773 227.55417553898587 0 227.55417553898587 9.7575467954811756 0 0 0 0 34.410265349718294 41.708530456450944 0 41.708530456450944 33.850083311747483 0 0 0 0 109.52579261401115 391.95951221257565 0 391.95951221257565 -725.75833725585107 0 0 0 0 -360.93683293374738 983.63504113611179 0 983.63504113611179 99.168270738198771 0 0 0 0 323.05196618501213 740.83974527909959 0 740.83974527909959 1915.4962463942793 0 0 0 0 5.7423229771012672 -6.2083125816572924 0 -6.2083125816572924 10.118116899799901 0 0 0 0 400.99097955624165 1156.6715235011216 0 1156.6715235011216 1246.1543117605543 0 0 0 0 74.520536009938752 46.219791627063643 0 46.219791627063643 28.643616094705052 0 0 0 0 -352.62625002210189 -505.367381354401 0 -505.367381354401 -113.89191834325902 0 0 0 0 27.217579891814097 -6.2493866785799526 0 -6.2493866785799526 13.900265789753746 0 0 0 0 -85.499826109138667 58.499465224369487 0 58.499465224369487 112.97014516312447 0 0 0 0 100.9960572009295 57.707798864605138 0 57.707798864605138 111.94931093499326 0 0 0 0 37.545462594936296 44.379403068033724 0 44.379403068033724 58.869880909412672 0 0 0 0 30.869434395019198 46.966176087888016 0 46.966176087888016 10.972025865026808 0 0 0 0 83.079066128339036 86.894647976390843 0 86.894647976390843 62.609463964650786 0 0 0 0 54.408821456717106 67.966100295132748 0 67.966100295132748 48.864086206372235 0 0 0 0 30.530692913464321 78.778468810223927 0 78.778468810223927 73.383519209306797 0 0 0 0 -15.303763759656192 37.58405750800209 0 37.58405750800209 -0.018886634240203648 0 0 0 0 44.433591598368366 91.780589726673497 0 91.780589726673497 87.506018756212143 0 0 0 0 68.321484057085399 104.60346171612537 0 104.60346171612537 86.205620129472663 0 0 0 0 64.438533930995618 87.548999734684912 0 87.548999734684912 68.012052289159328 0 0 0 0 51.738280382832755 57.293933593009882 0 57.293933593009882 38.662086488522171 0 0 0 0 133.36114652300603 59.305672226624665 0 59.305672226624665 18.240461170233175 0 0 0 0 66.639879800422932 82.569712243249796 0 82.569712243249796 6.869006585329771 0 0 0 0 69.670864597370382 68.47041664457538 0 68.47041664457538 38.162354106374551 0 0 0 0 64.635176650899666 77.31421575441118 0 77.31421575441118 41.138752470702457 0 0 0 0 75.641683448877302 103.43661612918095 0 103.43661612918095 43.447988332703972 0 0 0 0 126.19878078858892 121.62660959210302 0 121.62660959210302 49.678639137757273 0 0 0 0 -13.461636259222246 24.326685610090948 0 24.326685610090948 -8.7010394242583544 0 0 0 0 -118.39375964527426 338.69115968807819 0 338.69115968807819 -217.34334768867848 0 0 0 0 -149.49018806478125 193.23863037487899 0 193.23863037487899 -233.45773233435921 0 0 0 0 -360.89951656447374 250.40875169288483 0 250.40875169288483 155.17145820564474 0 0 0 0 42.089757288071269 39.848756328728996 0 39.848756328728996 116.14084261303651 0 0 0 0 -111.52751469908981 151.58483692114714 0 151.58483692114714 46.077929979459441 0 0 0 0 177.73587064457752 126.9190806684619 0 126.9190806684619 16.912796856930072 0 0 0 0 50.710259732142731 107.9405827178889 0 107.9405827178889 74.307546980595362 0 0 0 0 72.570431516245463 61.970083780180246 0 61.970083780180246 -9.8706277288922024 0 0 0 0 75.418077736090709 58.142927161419266 0 58.142927161419266 -512.08056819904959 0 0 0 0 3.4809747911273377 6.6538550336407241 0 6.6538550336407241 -1.7203001929302815 0 0 0 0 824.68231394195755 130.82597257305315 0 130.82597257305315 -259.5370427004782 0 0 0 0 347.51133566186763 116.3982994238977 0 116.3982994238977 8.3590710675953233 0 0 0 0 259.29550080012996 292.86711351293525 0 292.86711351293525 -56.697120915720006 0 0 0 0 -10.267590280418517 422.60745419568048 0 422.60745419568048 -43.647473758379419 0 0 0 0 1326.7353711666074 345.3870877892623 0 345.3870877892623 -1130.5192231533656 0 0 0 0 309.21634862577775 538.07906664825532 0 538.07906664825532 726.18445435151807 0 0 0 0 169.15525344907292 784.20748065799398 0 784.20748065799398 -858.47798923966911 0 0 0 0 -1.3274638970150932 4.257509986801459 0 4.257509986801459 -0.83280534886885693 0 0 0 0 565.95480542533915 654.592927529593 0 654.592927529593 331.14958729795035 0 0 0 0 418.17612693463161 441.96302598928742 0 441.96302598928742 251.37566794722989 0 0 0 0 553.89977788380202 463.26035129764932 0 463.26035129764932 188.38103039187263 0 0 0 0 524.82597483236168 443.27263864954148 0 443.27263864954148 223.35624228661436 0 0 0 0 580.44296674011275 -165.71811162165432 0 -165.71811162165432 344.78539875659044 0 0 0 0 702.5488941630465 383.44762790662571 0 383.44762790662571 206.38314237708437 0 0 0 0 523.47013234643691 429.5818028686673 0 429.5818028686673 254.84796119426755 0 0 0 0 109.34806223093165 -119.29739251845331 0 -119.29739251845331 275.58369456954097 0 0 0 0 -339.43729886098299 -291.61923342748923 0 -291.61923342748923 -756.99645931195482 0 0 0 0 161.17626316785754 286.5320329843853 0 286.5320329843853 463.15183194832753 0 0 0 0 76.725616866628116 31.602917763340884 0 31.602917763340884 -591.18734606888029 0 0 0 0 -9.6166906213197763 8.4265991179447539 0 8.4265991179447539 -1.5241260407858359 0 0 0 0 44.008229052502429 -42.136352219553373 0 -42.136352219553373 189.15557815752891 0 0 0 0 381.41017318908052 -429.18776430480557 0 -429.18776430480557 -666.73927060513597 0 0 0 0 -7.7026037948290025 5.3245892893773146 0 5.3245892893773146 -6.0069889726022581 0 0 0 0 -58.301106546309256 137.58108679878808 0 137.58108679878808 39.82323866909428 0 0 0 0 -288.04985900041356 260.32521652021387 0 260.32521652021387 152.26701508446422 0 0 0 0 -71.432443598309419 -33.032686338104895 0 -33.032686338104895 258.00802836770163 0 0 0 0 -324.95093482344237 417.56410078199769 0 417.56410078199769 32.847868729326365 0 0 0 0 11.844402680726489 26.734843652746349 0 26.734843652746349 354.3693644219893 0 0 0 0 11.870541295807925 9.5245976255791902 0 9.5245976255791902 201.93313681700965 0 0 0 0 -326.66512346484524 168.53072067095127 0 168.53072067095127 460.63740116030385 0 0 0 0 -286.62207151938856 317.82153990415645 0 317.82153990415645 274.86265493585961 0 0 0 0 -208.33219979468595 54.47507015060728 0 54.47507015060728 630.49653561711602 0 0 0 0 -434.15306232927105 486.90022045833393 0 486.90022045833393 203.96489869687866 0 0 0 0 -1014.6969440750618 852.38578643471556 0 852.38578643471556 128.68567651455669 0 0 0 0 -458.4852172424944 329.83795049536275 0 329.83795049536275 554.98522311182751 0 0 0 0 -1232.8215906762052 836.34367177105378 0 836.34367177105378 465.9131079556646 0 0 0 0 -543.85087543517875 537.71737901498636 0 537.71737901498636 226.26331261118796 0 0 0 0 -549.53919393072329 496.91972090472643 0 496.91972090472643 1029.69364507098 0 0 0 0 1219.3373907567511 603.21963420160318 0 603.21963420160318 -238.01921508282703 0 0 0 0 10.233959072377942 8.8294057519641882 0 8.8294057519641882 13.073344162783144 0 0 0 0 -239.10288978103563 41.514729232695572 0 41.514729232695572 503.03403020496626 0 0 0 0 205.3144022860215 688.56903320232595 0 688.56903320232595 758.52977566339177 0 0 0 0 1468.391241927493 467.25438224404934 0 467.25438224404934 188.3424453269472 0 0 0 0 507.90553331865522 -404.70418272350435 0 -404.70418272350435 918.47724764855457 0 0 0 0 -811.47747054410138 1002.0344777321689 0 1002.0344777321689 -226.7741688514725 0 0 0 0 -925.78315745333384 915.71885778003889 0 915.71885778003889 20.148024119517686 0 0 0 0 -521.32686680540792 651.61457612062077 0 651.61457612062077 -309.25371252102923 0 0 0 0 -544.06420307529334 733.98011447115096 0 733.98011447115096 -26.328467843761246 0 0 0 0 -529.06124566554354 785.93264641062797 0 785.93264641062797 137.53653209574259 0 0 0 0 -783.7644408201777 849.56946230192034 0 849.56946230192034 32.933119874534896 0 0 0 0 -721.38638389715925 1018.5879710459192 0 1018.5879710459192 -114.47387615817206 0 0 0 0 -783.10443578437844 959.72442296873123 0 959.72442296873123 119.97786538223227 0 0 0 0 -1082.0510858884463 1275.458806372689 0 1275.458806372689 -54.164508404486696 0 0 0 0 -1069.1653102390555 1050.2081870942093 0 1050.2081870942093 -34.933380311698784 0 0 0 0 -645.55831973909517 936.52950471470103 0 936.52950471470103 -244.9051642517552 0 0 0 0 -945.08404168222842 1171.8050566435022 0 1171.8050566435022 -119.58676014807497 0 0 0 0 -1095.5666573868584 1500.2586758427015 0 1500.2586758427015 -796.1863867567572 0 0 0 0 -168.34834434729328 806.70715604403756 0 806.70715604403756 -1866.4248735640904 0 0 0 0 -750.63123308609647 820.29900000965972 0 820.29900000965972 -141.22618313659041 0 0 0 0 -243.1099901307025 431.49365135078915 0 431.49365135078915 -284.84682378548678 0 0 0 0 -84.748644959850935 197.20903373240253 0 197.20903373240253 -99.172220213664332 0 0 0 0 -19.122385571619958 9.7119645190442938 0 9.7119645190442938 -1.5654708502136563 0 0 0 0 -1550.681276085088 761.42964424562524 0 761.42964424562524 -316.82192050878075 0 0 0 0 -226.50871070514404 228.58246448848695 0 228.58246448848695 6.7539422036752512 0 0 0 0 950.21565890957208 1015.8571377168037 0 1015.8571377168037 -1015.5166983786912 0 0 0 0 -10.998979725495388 4.3871145279648402 0 4.3871145279648402 -0.97902994858881343 0 0 0 0 -596.59558820049278 165.87844856976153 0 165.87844856976153 1130.5005342174554 0 0 0 0 1125.6354798861039 -276.93644160049962 0 -276.93644160049962 -18.719609182080603 0 0 0 0 -1403.1946732495271 1043.5280920097011 0 1043.5280920097011 235.87392517686203 0 0 0 0 -1141.8232852169895 1342.5898979857866 0 1342.5898979857866 -596.48200475265367 0 0 0 0 -1587.2232437122584 1064.2465878212524 0 1064.2465878212524 -118.81635771874789 0 0 0 0 -719.22854999266929 648.23817608134232 0 648.23817608134232 -879.37383228647377 0 0 0 0 -371.72349409513845 1079.5864979279668 0 1079.5864979279668 -390.680559232625 0 0 0 0 -125.27996088057262 916.25467747904258 0 916.25467747904258 -1060.7694658772016 0 0 0 0 -43.469174247744377 644.29793458180575 0 644.29793458180575 -1192.7682354242424 0 0 0 0 52.646214446562226 51.272276808314928 0 51.272276808314928 -1255.6156303452776 0 0 0 0 -7.692323366088317 4.9564047414439898 0 4.9564047414439898 -3.0897579029096818 0 0 0 0 -501.15051597701677 509.19110865673974 0 509.19110865673974 313.37923618452987 0 0 0 0 -269.15793654872687 1591.057487759721 0 1591.057487759721 -382.80025592610036 0 0 0 0 103.67227350671601 1172.7599241071002 0 1172.7599241071002 68.771601419935905 0 0 0 0 -602.53374241752317 898.49179640754846 0 898.49179640754846 -196.80422494930099 0 0 0 0 265.88111909248983 560.55394414053808 0 560.55394414053808 -210.13114604663497 0 0 0 0 19.749043959047412 244.37665987284345 0 244.37665987284345 -277.8797535946378 0 0 0 0 95.34185889129003 369.72429313042812 0 369.72429313042812 -231.58705137789912 0 0 0 0 -84.463231670451933 610.49004631152093 0 610.49004631152093 -547.50271143448481 0 0 0 0 79.042164843616774 -90.197081910973793 0 -90.197081910973793 -614.9519100086668 0 0 0 0 80.41662265388004 102.73627465177742 0 102.73627465177742 -58.32232766958623 0 0 0 0 -21.043463733681364 13.08639451512154 0 13.08639451512154 -10.484978696885349 0 0 0 0 9.5969429075921653 53.961801702160301 0 53.961801702160301 55.597028855609096 0 0 0 0 38.730210935798823 136.6746687916966 0 136.6746687916966 -45.833791769458912 0 0 0 0 18.498389266256709 178.31999984003778 0 178.31999984003778 -18.963441219551896 0 0 0 0 31.85501397374901 63.877865176700652 0 63.877865176700652 145.40627062285785 0 0 0 0 319.20546346644551 -51.111584712367403 0 -51.111584712367403 118.55215852720721 0 0 0 0 164.71184505248675 141.7754706362648 0 141.7754706362648 180.72912605877355 0 0 0 0 28.861317093110102 16.72178011271486 0 16.72178011271486 12.630749329870021 0 0 0 0 5.6896878684710828 18.97138384651771 0 18.97138384651771 132.63654802589008 0 0 0 0 1134.721771532284 -2.6618567108562274 0 -2.6618567108562274 -260.04259043138154 0 0 0 0 935.81021993033937 386.32220464482089 0 386.32220464482089 1134.2780741452007 0 0 0 0 91.741028028740743 50.132327063035575 0 50.132327063035575 16.678529026798145 0 0 0 0 -7.4600307413493283 255.71644047976588 0 255.71644047976588 -37.442318620413062 0 0 0 0 -121.05140349233989 199.29038723486883 0 199.29038723486883 100.59946984587259 0 0 0 0 686.06347502105928 529.10620725718036 0 529.10620725718036 1078.9211146454982 0 0 0 0 709.49450311993132 1368.4012023342466 0 1368.4012023342466 113.2314394175628 0 0 0 0 392.52393919895985 616.77416696293403 0 616.77416696293403 94.586148984159081 0 0 0 0 613.73832269739069 511.95470229586499 0 511.95470229586499 96.630150892386155 0 0 0 0 1827.0003083396441 1430.36784899349 0 1430.36784899349 526.5222726646316 0 0 0 0 139.51772232742223 1037.8116611330443 0 1037.8116611330443 1298.0950331581735 0 0 0 0 439.65539682813414 576.13091682323488 0 576.13091682323488 504.23492333862669 0 0 0 0 433.94748567860006 339.42871137806605 0 339.42871137806605 3283.631511241183 0 0 0 0 3083.7911961982172 -293.23784356864417 0 -293.23784356864417 88.154215298858617 0 0 0 0 716.8194545364604 444.14289945764904 0 444.14289945764904 -122.06949983164668 0 0 0 0 1269.6326984786792 32.391231321917076 0 32.391231321917076 -436.03636275407916 0 0 0 0 577.56161116693693 -267.5526565817745 0 -267.5526565817745 513.91407205607538 0 0 0 0 706.44169217196759 216.33370190932328 0 216.33370190932328 -446.99849041526613 0 0 0 0 671.31655256399245 240.55310035868024 0 240.55310035868024 -460.38099422273081 0 0 0 0 616.50206303880623 537.97094467927764 0 537.97094467927764 -852.1853186493172 0 0 0 0 800.559125779233 234.44503575652197 0 234.44503575652197 -652.64045104671095 0 0 0 0 626.16844354154455 629.64927575183719 0 629.64927575183719 -54.755852144066012 0 0 0 0 806.00976733191055 491.01701735628012 0 491.01701735628012 -660.11025802720928 0 0 0 0 620.20391295698209 316.99346256110948 0 316.99346256110948 -582.61518842307851 0 0 0 0 59.188494478340033 66.935890639597602 0 66.935890639597602 43.392302896678984 0 0 0 0 -1.5711419706349261 390.20354237814172 0 390.20354237814172 -519.82767082241844 0 0 0 0 250.50908295698173 228.86780177599576 0 228.86780177599576 -313.21630143318725 0 0 0 0 368.23856122481084 213.38322331809104 0 213.38322331809104 -409.67139879491151 0 0 0 0 465.13810360569187 211.91426380448138 0 211.91426380448138 -453.9551628841582 0 0 0 0 641.3142017896389 469.86082276873276 0 469.86082276873276 -256.09308204936679 0 0 0 0 186.84464338120662 110.30172551944122 0 110.30172551944122 5.738991875147903 0 0 0 0 519.46841982292972 31.6062490024824 0 31.6062490024824 -534.2155226108116 0 0 0 0 -208.68521489687555 661.25814014645948 0 661.25814014645948 -442.68553880800027 0 0 0 0 81.239279745675702 24.357757452509858 0 24.357757452509858 -69.408713713871862 0 0 0 0 36.253779591876082 719.4372246949697 0 719.4372246949697 -671.20908676043473 0 0 0 0 141.45645450204029 -26.373408185634617 0 -26.373408185634617 -94.02641776791279 0 0 0 0 610.34060711440543 -250.62103652066071 0 -250.62103652066071 -85.848896923045686 0 0 0 0 1091.5058877981792 -247.87096324655067 0 -247.87096324655067 -49.444627598924853 0 0 0 0 602.80216554765502 -163.12449305024711 0 -163.12449305024711 55.863117935441551 0 0 0 0 528.77025805179437 150.90618516118775 0 150.90618516118775 -570.21735140818419 0 0 0 0 -6.821342677549751 0.22632067666042133 0 0.22632067666042133 -4.7254176591232806 0 0 0 0 -1364.6768873471956 1995.1513057795373 0 1995.1513057795373 -354.52375075178134 0 0 0 0 -2015.6556168232491 -919.32957139632344 0 -919.32957139632344 4926.8552252933878 0 0 0 0 -620.78915765648708 -433.82089509093203 0 -433.82089509093203 -579.41833528520101 0 0 0 0 705.33219991488295 1964.0416580879755 0 1964.0416580879755 3469.1620429019167 0 0 0 0 0.23255189313396585 2.3986257848943637 0 2.3986257848943637 5.084884140442 0 0 0 0 2330.1597799014053 630.93232704304864 0 630.93232704304864 573.43932122658589 0 0 0 0 -3524.1300868649232 658.05413703425256 0 658.05413703425256 3149.272648338665 0 0 0 0 1101.4308311748464 1616.5463454633209 0 1616.5463454633209 1887.26300109405 0 0 0 0 570.39046134510863 824.08871190557329 0 824.08871190557329 1870.6095608877367 0 0 0 0 60.822159648851084 424.5674617942841 0 424.5674617942841 1921.917681029372 0 0 0 0 773.51095340884058 444.04120073526428 0 444.04120073526428 1195.0815806916507 0 0 0 0 790.93622410705575 629.48172970301675 0 629.48172970301675 896.62995911211328 0 0 0 0 123.68411928005753 349.79938455006504 0 349.79938455006504 1219.3484241779297 0 0 0 0 110.9816562130145 540.43906625587988 0 540.43906625587988 932.82701512892527 0 0 0 0 397.17459627844073 249.35384012401664 0 249.35384012401664 79.667996563635825 0 0 0 0 1243.8486617997933 578.86245334848536 0 578.86245334848536 573.67207571792824 0 0 0 0 839.51589345336834 95.043946287682047 0 95.043946287682047 10.684389788209955 0 0 0 0 473.42130853160779 536.01303907572947 0 536.01303907572947 873.8044256655412 0 0 0 0 -437.0914139210654 -354.32351100722371 0 -354.32351100722371 600.81935586303734 0 0 0 0 -239.40897738262493 -332.61670827751004 0 -332.61670827751004 -11.305489232487162 0 0 0 0 -507.3005345426127 -118.26212062606828 0 -118.26212062606828 338.25717319568503 0 0 0 0 2.2233528523979658 1366.1635793015985 0 1366.1635793015985 1985.332232298606 0 0 0 0 -373.13508772338173 -372.84310355193156 0 -372.84310355193156 -54.29664045892423 0 0 0 0 14.217403697256223 -0.95347947911163544 0 -0.95347947911163544 -5.0982312605477347 0 0 0 0 384.90583520587461 320.4410939809386 0 320.4410939809386 1065.90757923399 0 0 0 0 196.32776352717337 -30.988501212143092 0 -30.988501212143092 -564.66761975854024 0 0 0 0 -987.6365082903103 207.85064652895016 0 207.85064652895016 1608.6538908603288 0 0 0 0 151.43902324605324 1225.6751487595066 0 1225.6751487595066 361.65567205901607 0 0 0 0 34.017348636320094 244.03152378077357 0 244.03152378077357 -1.0775108939124038 0 0 0 0 65.038265550040848 70.847585757821747 0 70.847585757821747 75.012891956702163 0 0 0 0 91.971068814628779 51.988333505096307 0 51.988333505096307 -23.825548657114268 0 0 0 0 3.4923381652374701 190.55195028993421 0 190.55195028993421 29.133660878200317 0 0 0 0 94.247932840797148 858.83896227726655 0 858.83896227726655 -681.40034034200971 0 0 0 0 127.24861811248911 104.85058221057034 0 104.85058221057034 65.294743960560396 0 0 0 0 -156.22306848893641 581.47655863521504 0 581.47655863521504 -102.58002634096192 0 0 0 0 83.467226927817393 102.79450473832294 0 102.79450473832294 56.566780926641357 0 0 0 0 -282.76900197466966 -80.313562143990566 0 -80.313562143990566 468.05807833108702 0 0 0 0 585.25028231259785 137.17429054955574 0 137.17429054955574 -771.10452149572666 0 0 0 0 479.35616649375152 223.89701952396354 0 223.89701952396354 -32.895825520601647 0 0 0 0 433.5871441004897 79.10914396772273 0 79.10914396772273 -263.94459406044916 0 0 0 0 392.46660298494544 556.09247089275709 0 556.09247089275709 -93.257451169149135 0 0 0 0 -40.723050078166125 248.07502664738604 0 248.07502664738604 -311.39584489587651 0 0 0 0 507.16055284193862 -143.01651862565632 0 -143.01651862565632 -47.681981134213856 0 0 0 0 149.05494834725314 99.725761348285332 0 99.725761348285332 29.870017224042925 0 0 0 0 426.20599551181294 357.62903652438399 0 357.62903652438399 -833.33130617527058 0 0 0 0 150.6820703502367 177.62453949925839 0 177.62453949925839 -113.90736266237218 0 0 0 0 214.7123134102003 438.70342069276012 0 438.70342069276012 -417.56388087898085 0 0 0 0 146.662675663486 136.15436326011033 0 136.15436326011033 61.938480653598901 0 0 0 0 149.4556321533133 118.68110038923524 0 118.68110038923524 65.564154549364162 0 0 0 0 394.02804714295962 228.87579838814509 0 228.87579838814509 61.915266807773151 0 0 0 0 178.23972907067861 83.221253618037736 0 83.221253618037736 -21.177850051986752 0 0 0 0 -228.06228728732094 484.46739620236622 0 484.46739620236622 -268.78974313483923 0 0 0 0 422.1525346381095 46.223202118286281 0 46.223202118286281 -106.40266923754825 0 0 0 0 -471.50572665753498 1031.9448825028157 0 1031.9448825028157 749.15550618423731 0 0 0 0 -11.8098778852777 4.0035142211283414 0 4.0035142211283414 -1.8144990574239444 0 0 0 0 -72.317873594380217 -42.590003555451403 0 -42.590003555451403 -5305.8712145630852 0 0 0 0 -79.570449297774758 -166.73533537768526 0 -166.73533537768526 -1557.4531194583469 0 0 0 0 300.32930018563911 470.03822715064416 0 470.03822715064416 -2656.0909567368508 0 0 0 0 -6.1613692084734737 37.530032689133748 0 37.530032689133748 4.9968669979886613 0 0 0 0 -25.310835405864054 -48.595671303555719 0 -48.595671303555719 -1493.2777720525555 0 0 0 0 -501.00644224162534 684.30505663399526 0 684.30505663399526 -751.54334227574827 0 0 0 0 -286.8582384565234 983.31955903284688 0 983.31955903284688 -1812.9714260285255 0 0 0 0 -63.208450835438271 513.79899602538353 0 513.79899602538353 -1801.2029362438188 0 0 0 0 -588.34016040206916 1119.3041868815781 0 1119.3041868815781 -1198.0575237941957 0 0 0 0 194.49848961298994 175.59205395128811 0 175.59205395128811 -829.97596412186977 0 0 0 0 144.30183352325912 473.36823043336335 0 473.36823043336335 -1007.5138498078886 0 0 0 0 227.05961001045762 1337.6408924065436 0 1337.6408924065436 -3408.0184096464945 0 0 0 0 -984.02306084840347 2348.3062876045078 0 2348.3062876045078 -1975.9052975976956 0 0 0 0 92.304297554772347 896.18418306442618 0 896.18418306442618 -3656.397647051781 0 0 0 0 -151.56207687642018 989.88256101381558 0 989.88256101381558 -2543.8781251165856 0 0 0 0 144.79096477994608 978.51522410078178 0 978.51522410078178 -2548.2729659131437 0 0 0 0 -44.229241444023501 235.37958598456316 0 235.37958598456316 429.30425756820478 0 0 0 0 67.293583142360148 451.56600852151314 0 451.56600852151314 820.99620136436715 0 0 0 0 -91.395851850073086 1093.9413127513835 0 1093.9413127513835 -3304.2911100365964 0 0 0 0 16.302399143227689 25.583824658615526 0 25.583824658615526 11.48025809856577 0 0 0 0 -572.35723803001019 669.80315018832334 0 669.80315018832334 -3488.4491583400813 0 0 0 0 -50.816450428967073 407.57320412428817 0 407.57320412428817 1087.8561851828854 0 0 0 0 43.061826307784941 468.22433391211962 0 468.22433391211962 685.36774387380865 0 0 0 0 406.42337993388355 852.22823206431349 0 852.22823206431349 621.58992266337373 0 0 0 0 -57.085292819392635 1674.3504265182492 0 1674.3504265182492 391.13252780935727 0 0 0 0 -83.01867234925885 2514.7028545506619 0 2514.7028545506619 -1858.8040071806463 0 0 0 0 5.4624577531375564 8.392847399021889 0 8.392847399021889 2.2885375583711038 0 0 0 0 -313.86856002252171 1798.9385549536091 0 1798.9385549536091 -4078.0745336803084 0 0 0 0 -1415.540792466858 1740.3485629095157 0 1740.3485629095157 -3814.5627519185946 0 0 0 0 -219.417378939841 540.44367917364798 0 540.44367917364798 3249.3652664474357 0 0 0 0 401.50446131471836 1562.5804511749448 0 1562.5804511749448 1162.37650092064 0 0 0 0 205.45161949645262 1107.47736841187 0 1107.47736841187 304.83636461861533 0 0 0 0 75.622530544049368 1222.3213555144175 0 1222.3213555144175 262.56464255438186 0 0 0 0 184.10193310857721 1165.9879637503473 0 1165.9879637503473 -131.58240542130079 0 0 0 0 210.84150339498592 1844.2352776324187 0 1844.2352776324187 -792.35314755688887 0 0 0 0 438.21034849209536 1459.5084057113563 0 1459.5084057113563 -141.39493323488114 0 0 0 0 332.75178416796552 1027.7277999243524 0 1027.7277999243524 -925.39919359447958 0 0 0 0 104.11479821482862 249.19331322589278 0 249.19331322589278 -991.2231478135509 0 0 0 0 15.31429817819955 10.234725797165623 0 10.234725797165623 1.3275078014386281 0 0 0 0 1747.2481362853432 844.20332814149151 0 844.20332814149151 313.8964781287068 0 0 0 0 1053.7714856376115 1165.8890531759826 0 1165.8890531759826 -602.39626836190291 0 0 0 0 662.86490270423383 1156.9104422315722 0 1156.9104422315722 -400.2733823825838 0 0 0 0 426.05046815328751 1374.3983774130102 0 1374.3983774130102 -536.14800210326212 0 0 0 0 -65.078086552282912 777.03558404793148 0 777.03558404793148 -78.276882525562542 0 0 0 0 287.85994210938043 965.28493134988821 0 965.28493134988821 -473.60595640205429 0 0 0 0 -184.41443945933861 473.07052132856188 0 473.07052132856188 -577.91191316479672 0 0 0 0 352.05535570066877 41.831771172684967 0 41.831771172684967 -96.577975003689062 0 0 0 0 319.95317581880408 156.91870276076224 0 156.91870276076224 -85.946701625885908 0 0 0 0 2.9040993009990697 48.053813311666204 0 48.053813311666204 -78.217778178061849 0 0 0 0 5.8377089418099786 147.60175058347522 0 147.60175058347522 42.487897001818055 0 0 0 0 163.82790312719999 197.57254715045565 0 197.57254715045565 37.375703586367308 0 0 0 0 2.8091208330870359 173.40722839590489 0 173.40722839590489 29.856855567806633 0 0 0 0 -232.1602710520383 795.14786765101599 0 795.14786765101599 -412.69050306795543 0 0 0 0 41.272391695818378 86.240454965415765 0 86.240454965415765 35.612973729266344 0 0 0 0 -63.819401883163295 53.755268405268794 0 53.755268405268794 -20.637083560037809 0 0 0 0 43.818541670945706 125.97815777019423 0 125.97815777019423 10.507810735336534 0 0 0 0 -113.73611192210774 543.89799260763175 0 543.89799260763175 1019.1607439508371 0 0 0 0 228.91846798422921 1080.4184968332702 0 1080.4184968332702 961.67565180099336 0 0 0 0 202.33626323673525 2615.2827614744601 0 2615.2827614744601 1722.0285575040616 0 0 0 0 38.901644083729479 26.046316817213665 0 26.046316817213665 2770.7480623879237 0 0 0 0 149.46288632336336 164.75533392704529 0 164.75533392704529 57.54288340228959 0 0 0 0 40.165326995919273 170.38606669601995 0 170.38606669601995 70.504361361861811 0 0 0 0 436.97220400875085 177.49872602512187 0 177.49872602512187 -525.37026229442563 0 0 0 0 343.70961276330081 207.3248144089529 0 207.3248144089529 29.042892668100137 0 0 0 0 -31.291548123803437 86.616218860000629 0 86.616218860000629 28.149106895783575 0 0 0 0 382.11975193274702 620.61811069619762 0 620.61811069619762 134.96834895198117 0 0 0 0 387.93989660823809 196.12093089618298 0 196.12093089618298 10.369808632961124 0 0 0 0 670.11836155930359 213.44556617709168 0 213.44556617709168 -563.02399486160721 0 0 0 0 427.13842214459874 1548.3658322693809 0 1548.3658322693809 -969.21478813936119 0 0 0 0 804.47175926833734 323.94760134043463 0 323.94760134043463 -1029.2161781084142 0 0 0 0 286.42613535261626 346.59475194594415 0 346.59475194594415 107.10527315267245 0 0 0 0 661.17776867063367 338.07340813821065 0 338.07340813821065 -664.3373644053936 0 0 0 0 161.99705800111792 82.199381023924587 0 82.199381023924587 -81.010246076716953 0 0 0 0 878.65319363087474 147.11721088641207 0 147.11721088641207 -768.55243460077327 0 0 0 0 2951.1552330767736 -683.04457425896544 0 -683.04457425896544 -1130.3147000484751 0 0 0 0 -113.02287949201491 1559.5014018418515 0 1559.5014018418515 -1702.8240424956894 0 0 0 0 586.95683345868383 -178.5066969900472 0 -178.5066969900472 -613.90306959720328 0 0 0 0 593.94729556745733 -213.09743537876057 0 -213.09743537876057 -544.99963421403663 0 0 0 0 177.91188536625492 178.20902118914091 0 178.20902118914091 28.041777635829931 0 0 0 0 190.25387177534148 86.426007142258101 0 86.426007142258101 -37.461241960644173 0 0 0 0 -621.38285773943062 -290.01652163953986 0 -290.01652163953986 -547.49133144576081 0 0 0 0 38.446170245328744 -3.8774510075205342 0 -3.8774510075205342 -46.824672899142115 0 0 0 0 -20.346323890102212 729.36047240626067 0 729.36047240626067 -172.6036649368325 0 0 0 0 635.27959550074593 3.238635880232323 0 3.238635880232323 -889.71902558818692 0 0 0 0 723.39776720866212 -349.48014539674477 0 -349.48014539674477 459.46583664091304 0 0 0 0 -297.5899632085202 -20.620036580730812 0 -20.620036580730812 -1167.294883871451 0 0 0 0 25.818257524297223 -188.31478382035857 0 -188.31478382035857 -1140.8486629627296 0 0 0 0 375.19328779218813 896.51272564252213 0 896.51272564252213 -687.78457738162251 0 0 0 0 562.80485222209245 1472.4311549671038 0 1472.4311549671038 -107.41571583022596 0 0 0 0 439.18049842654727 490.61237249600526 0 490.61237249600526 -202.89817319455324 0 0 0 0 1502.9186535434565 1842.039001120429 0 1842.039001120429 400.93077915057074 0 0 0 0 1022.8767180609429 620.63365650738706 0 620.63365650738706 370.63802213219606 0 0 0 0 -8.2149634397548823 13.277385203899598 0 13.277385203899598 12.652491376331398 0 0 0 0 3315.488235293029 1027.5786984672886 0 1027.5786984672886 267.88830990444694 0 0 0 0 1348.1970911158787 -1297.5110863565351 0 -1297.5110863565351 2123.6614318864886 0 0 0 0 1743.8110508182654 1790.5501413124875 0 1790.5501413124875 2267.7793142607552 0 0 0 0 1253.3726498475735 -383.46838060871232 0 -383.46838060871232 -603.82675828274841 0 0 0 0 692.32350257523649 909.97252877535357 0 909.97252877535357 466.66933717840584 0 0 0 0 -749.86523067270173 618.37236579793171 0 618.37236579793171 -392.39082651541685 0 0 0 0 20.140802287473704 11.65063476145707 0 11.65063476145707 -52.456175583702816 0 0 0 0 -561.21230864765676 613.30083160036884 0 613.30083160036884 -530.59876074688509 0 0 0 0 -678.80056844359933 440.65706527221482 0 440.65706527221482 -264.71058844259824 0 0 0 0 -439.54923012437939 521.92694583932462 0 521.92694583932462 -527.92739564250223 0 0 0 0 -389.33795803361863 542.49515495437663 0 542.49515495437663 -522.68027720827376 0 0 0 0 2769.8658830854256 46.300821557728341 0 46.300821557728341 -1576.0170365394442 0 0 0 0 -14.231857504393702 290.59821883496261 0 290.59821883496261 319.12619801219262 0 0 0 0 -391.88076720212484 -920.77831318474637 0 -920.77831318474637 -1822.9314391872613 0 0 0 0 1366.1101547530106 2912.4940303585099 0 2912.4940303585099 -6564.8394225612719 0 0 0 0 -41.176425949581443 26.998032359649358 0 26.998032359649358 -49.610216712583735 0 0 0 0 -309.90648913245604 46.634986342585762 0 46.634986342585762 -323.29928084373387 0 0 0 0 375.40433656465939 1500.264902797222 0 1500.264902797222 206.05792922817636 0 0 0 0 -528.45158216824348 269.93247911967046 0 269.93247911967046 -114.6119471997954 0 0 0 0 3749.8777920055509 2759.1820915480857 0 2759.1820915480857 -1975.11407180471 0 0 0 0 -1325.8793584465129 -188.71855747285736 0 -188.71855747285736 1205.8448230944268 0 0 0 0 -98.649333103567471 127.84475537232345 0 127.84475537232345 0.39880604840044498 0 0 0 0 -1189.0415983640196 1590.7866364268957 0 1590.7866364268957 -784.48685351345921 0 0 0 0 585.19921214913484 1224.0493428493392 0 1224.0493428493392 -767.67851862721727 0 0 0 0 -92.604301527170264 131.78731199928265 0 131.78731199928265 2.5654811551123373 0 0 0 0 596.38442089724413 373.96397171968783 0 373.96397171968783 -573.82829503907124 0 0 0 0 494.49701600510161 23.564239173661917 0 23.564239173661917 -1349.7711996348226 0 0 0 0 -681.19157191461636 -408.84252939141879 0 -408.84252939141879 -176.20038248470519 0 0 0 0 -204.62569347883982 444.04458356772375 0 444.04458356772375 2594.3214948097157 0 0 0 0 -1283.0769200743434 1645.9172701186326 0 1645.9172701186326 6854.056236063414 0 0 0 0 336.07156433462296 -560.2608463020224 0 -560.2608463020224 2791.1847337783511 0 0 0 0 17.579262615128066 13.517734602337271 0 13.517734602337271 2.8165984071886641 0 0 0 0 -20.005569342003582 467.22667170173372 0 467.22667170173372 2631.6494958695694 0 0 0 0 745.31044709094203 45.274246799650427 0 45.274246799650427 1627.8700112831248 0 0 0 0 312.6741762391739 1000.5372627128145 0 1000.5372627128145 1115.6456295507087 0 0 0 0 357.55452454538317 584.56301351026923 0 584.56301351026923 168.3161141785713 0 0 0 0 -75.595235063554355 43.368196970568533 0 43.368196970568533 351.25703568402969 0 0 0 0 -89.597902585594056 556.41897001646066 0 556.41897001646066 1229.8074757283466 0 0 0 0 230.34384155280713 171.89245824028694 0 171.89245824028694 1252.1318871643962 0 0 0 0 135.92800382532005 1097.1552388556811 0 1097.1552388556811 -4726.7170899507546 0 0 0 0 36.207635821788188 48.943640906703905 0 48.943640906703905 12.618159574581895 0 0 0 0 -902.98961523430717 1832.0827333326888 0 1832.0827333326888 -1447.3411910633149 0 0 0 0 1085.4215050109196 604.22162055330409 0 604.22162055330409 -1761.891209446916 0 0 0 0 -413.54984969306588 1354.8951051679142 0 1354.8951051679142 -1457.616553922795 0 0 0 0 -168.24982439656196 940.83281654386883 0 940.83281654386883 -1603.7230490080983 0 0 0 0 42.981021060590891 67.665147663540296 0 67.665147663540296 19.160799713312329 0 0 0 0 -91.930133448258857 1095.4635626538075 0 1095.4635626538075 -2850.5037773951335 0 0 0 0 -313.49389971649362 127.70636644151818 0 127.70636644151818 1621.4375870837594 0 0 0 0 -49.93337334561329 301.71119260385967 0 301.71119260385967 851.03133018720837 0 0 0 0 76.419218672544957 470.12738357946364 0 470.12738357946364 1069.7819736851743 0 0 0 0 -115.82163481854877 591.80574897128099 0 591.80574897128099 1458.7577093368182 0 0 0 0 -402.85060329853877 1050.7427728219081 0 1050.7427728219081 725.7412199722603 0 0 0 0 -791.69278438385118 973.96441310070441 0 973.96441310070441 598.6995193118637 0 0 0 0 129.99271171657983 262.80622244954611 0 262.80622244954611 564.81175405278918 0 0 0 0 808.62934801840288 77.677482758376073 0 77.677482758376073 -45.47571277305542 0 0 0 0 780.58263594841264 1148.0663616599413 0 1148.0663616599413 -629.89350101968739 0 0 0 0 20.771093122437261 25.056472300749718 0 25.056472300749718 30.75657829467346 0 0 0 0 1575.1544578546454 -259.46054746470327 0 -259.46054746470327 -194.20043535711011 0 0 0 0 2013.9279872258958 745.85106780079514 0 745.85106780079514 -726.34795363912417 0 0 0 0 -211.1070907822841 -654.23961775124189 0 -654.23961775124189 675.39651379966381 0 0 0 0 -235.74530842803733 -722.90174754922919 0 -722.90174754922919 2574.2012157585814 0 0 0 0 -519.21480588166094 -145.479291847475 0 -145.479291847475 1479.471265207947 0 0 0 0 -6.3880082320865768 146.15600562313193 0 146.15600562313193 117.45451817348658 0 0 0 0 111.4817312406085 115.50026745921787 0 115.50026745921787 82.791774305369472 0 0 0 0 12.322175934164989 105.186184826518 0 105.186184826518 189.8377908199891 0 0 0 0 153.64767615829987 273.35981573998652 0 273.35981573998652 526.39055755711161 0 0 0 0 49.077047351921451 79.116471124554806 0 79.116471124554806 23.678595759923688 0 0 0 0 33.239098033751361 844.12851140198472 0 844.12851140198472 -1479.2547102371173 0 0 0 0 -257.26761194002756 954.40415606510214 0 954.40415606510214 -1394.9162026823433 0 0 0 0 -195.04971600363206 188.71493604648276 0 188.71493604648276 -866.39901824248955 0 0 0 0 -521.66480965318988 493.06636379711199 0 493.06636379711199 -2.1158746553264791 0 0 0 0 64.612659863327991 78.399528017471624 0 78.399528017471624 20.81543465978536 0 0 0 0 -1397.4660381210415 881.87605857210292 0 881.87605857210292 -1832.5182260822348 0 0 0 0 -605.63600171085272 917.75826783930825 0 917.75826783930825 -992.5428607189242 0 0 0 0 -366.13558397351153 747.97095551298116 0 747.97095551298116 -1840.1291485783004 0 0 0 0 -214.38819398704572 1056.1729829598698 0 1056.1729829598698 -2053.1505380591552 0 0 0 0 -671.60901163738163 1122.2429165179637 0 1122.2429165179637 -1334.9273427853041 0 0 0 0 -777.14204637485818 1583.5981674865907 0 1583.5981674865907 -2237.4870510401233 0 0 0 0 265.37495211706482 409.0050376779036 0 409.0050376779036 -3787.9661847197567 0 0 0 0 57.706634561887768 3.7082273861706199 0 3.7082273861706199 -88.294433726041461 0 0 0 0 8.0768455580559646 -3.3915823890658601 0 -3.3915823890658601 -16.501467353864527 0 0 0 0 -102.88379228904887 682.51782940592602 0 682.51782940592602 -1838.8535015735397 0 0 0 0 27.947060042582166 38.066774251157995 0 38.066774251157995 0.81381807284387264 0 0 0 0 -303.44062945084806 515.52360875091836 0 515.52360875091836 -2844.7181887427869 0 0 0 0 -111.6447261655785 1257.1457883602779 0 1257.1457883602779 -2945.9644526759803 0 0 0 0 -1154.4855556183902 1516.6226889401005 0 1516.6226889401005 -1866.6159012632997 0 0 0 0 -0.36721160652800222 8.1392311740864898 0 8.1392311740864898 2.7241103363800221 0 0 0 0 182.47801662229176 91.024896735325456 0 91.024896735325456 19.445195528867771 0 0 0 0 107.86424351453752 183.49851842342468 0 183.49851842342468 -53.512489622458816 0 0 0 0 128.85841993190115 197.44964219892427 0 197.44964219892427 111.5143043755088 0 0 0 0 298.97811752070993 352.40504681883613 0 352.40504681883613 132.07394996238145 0 0 0 0 200.86557606012866 194.38996317586134 0 194.38996317586134 -64.641905191441765 0 0 0 0 -12.728614880026726 48.945337538309104 0 48.945337538309104 92.67302229476627 0 0 0 0 691.51063931248791 453.34456091681204 0 453.34456091681204 135.11558718604647 0 0 0 0 27.941774393191736 -42.608423613011837 0 -42.608423613011837 -111.09311218190123 0 0 0 0 8.9000496912756546 38.52520108288644 0 38.52520108288644 -66.71245572129078 0 0 0 0 -4.7380629506369587 133.74586500063742 0 133.74586500063742 -51.366280295282195 0 0 0 0 60.397459234849521 -5.1261662535544019 0 -5.1261662535544019 -141.43962265847222 0 0 0 0 5.9949700090874103 -17.75912230850372 0 -17.75912230850372 -150.54088088337448 0 0 0 0 11.721518808167119 37.281953689967438 0 37.281953689967438 -75.28822064641065 0 0 0 0 -276.76361184983762 -163.03422706697893 0 -163.03422706697893 -146.21924939660312 0 0 0 0 -567.03914316109876 70.496970506173966 0 70.496970506173966 -76.386473786446004 0 0 0 0 -5.8359809374719589 145.6304368188903 0 145.6304368188903 -172.52456737670582 0 0 0 0 10.977952057856598 7.3061239386915133 0 7.3061239386915133 -22.25003630703543 0 0 0 0 57.337646073068754 14.858697340721847 0 14.858697340721847 -267.30476894742606 0 0 0 0 -556.34978039066482 45.812129281861417 0 45.812129281861417 -14.267498531757155 0 0 0 0 2.0632828544777624 -1.9615844376870655 0 -1.9615844376870655 -1.2734228247588533 0 0 0 0 -172.66699216970301 829.011931689427 0 829.011931689427 -1979.8579070457199 0 0 0 0 -210.8902629481745 1099.7504383904597 0 1099.7504383904597 -1648.0370074403181 0 0 0 0 -334.1211178635931 718.71994262995395 0 718.71994262995395 -1151.135953630961 0 0 0 0 -574.74229020093662 611.0408483956744 0 611.0408483956744 -329.65373781217204 0 0 0 0 -182.3317399388834 957.6881372093485 0 957.6881372093485 -1665.1597747506239 0 0 0 0 507.13061567197292 725.5988413579762 0 725.5988413579762 -428.62929880808224 0 0 0 0 290.3744962433575 483.36929387787677 0 483.36929387787677 237.07418690630584 0 0 0 0 1365.1797294763091 74.241921248598373 0 74.241921248598373 87.048361478635343 0 0 0 0 1963.6757454070976 661.15529874939239 0 661.15529874939239 -158.43785490380833 0 0 0 0 1077.8976285609388 499.49867775369785 0 499.49867775369785 623.45526311616413 0 0 0 0 2010.5639546650345 1153.53014508466 0 1153.53014508466 247.05968207538535 0 0 0 0 455.59215789094014 542.8089984317412 0 542.8089984317412 340.45787750851014 0 0 0 0 668.76560780557338 102.52952574376832 0 102.52952574376832 189.05065237195231 0 0 0 0 -341.23805763315613 424.50891098441207 0 424.50891098441207 85.758911978278775 0 0 0 0 170.32683662536147 155.32299195336236 0 155.32299195336236 -118.90790313437901 0 0 0 0 -266.09861348417326 -404.20273810443177 0 -404.20273810443177 145.48832657914318 0 0 0 0 132.12088970473997 -8.3727162482100539 0 -8.3727162482100539 -261.7361010943423 0 0 0 0 -563.50772658421374 -142.04623189400093 0 -142.04623189400093 138.46517392923124 0 0 0 0 173.41241620748769 -110.48089165965212 0 -110.48089165965212 -11.531469789566472 0 0 0 0 143.34206662241922 -367.52341959290789 0 -367.52341959290789 7.8487827147182543 0 0 0 0 -61.200404835612062 -192.12958420683935 0 -192.12958420683935 -112.20610673772171 0 0 0 0 -95.099601348476426 -293.33277101871499 0 -293.33277101871499 -105.92952547284949 0 0 0 0 407.43423221506964 -124.47738944721641 0 -124.47738944721641 -178.92725616812459 0 0 0 0 447.55351432991301 -204.32313367763709 0 -204.32313367763709 -34.633680581289809 0 0 0 0 890.19088301377633 -117.23871957602387 0 -117.23871957602387 -46.706850844231667 0 0 0 0 1177.4114534943074 104.55889416493301 0 104.55889416493301 481.70705185236875 0 0 0 0 270.61003742317916 -293.74078203891258 0 -293.74078203891258 331.00992000475526 0 0 0 0 666.41494822165987 -65.311815164546715 0 -65.311815164546715 180.5256576478132 0 0 0 0 127.36412119261013 60.265238292363392 0 60.265238292363392 638.68163106762222 0 0 0 0 932.74152968529597 564.55433098317008 0 564.55433098317008 887.34820791179664 0 0 0 0 769.38192258924028 -315.86182406084117 0 -315.86182406084117 779.44794181163888 0 0 0 0 1305.7353735078359 1208.4043640469317 0 1208.4043640469317 2587.2144553216203 0 0 0 0 1612.2599190925393 -587.66104140595417 0 -587.66104140595417 1582.4795725396689 0 0 0 0 2413.7054326594807 396.31678801515955 0 396.31678801515955 336.57111586729297 0 0 0 0 1149.3234247944129 1102.8995361978596 0 1102.8995361978596 1046.7092920531577 0 0 0 0 960.95447456375405 397.93129346641945 0 397.93129346641945 341.7284096749554 0 0 0 0 1090.5399924894045 734.13209953221303 0 734.13209953221303 287.12603190619848 0 0 0 0 961.11094460531604 -270.30278715421446 0 -270.30278715421446 265.15574730471417 0 0 0 0 684.44957597448229 147.18502742072451 0 147.18502742072451 -66.466712044471933 0 0 0 0 1320.597948587154 285.54070066502027 0 285.54070066502027 -37.13190991137526 0 0 0 0 857.30490161420312 286.74504694190546 0 286.74504694190546 -211.86222757774522 0 0 0 0 605.63021757784736 531.32803137325391 0 531.32803137325391 65.121466655196855 0 0 0 0 867.93168300040998 36.48037312591623 0 36.48037312591623 -240.81354350459878 0 0 0 0 276.12274238732061 410.97378465143265 0 410.97378465143265 -59.560053599914681 0 0 0 0 318.35240886687825 500.07853903705109 0 500.07853903705109 127.90155311880517 0 0 0 0 545.24365843868873 422.86009118030779 0 422.86009118030779 -128.2261244554893 0 0 0 0 523.42673967294104 439.72082770500856 0 439.72082770500856 135.02441011980409 0 0 0 0 527.28707810021297 567.322645999011 0 567.322645999011 148.27229244852788 0 0 0 0 136.26723517093706 434.90976044902891 0 434.90976044902891 472.9167498461029 0 0 0 0 286.11799314120435 531.52076633888646 0 531.52076633888646 756.22126202138315 0 0 0 0 304.47766146516369 464.92275247127691 0 464.92275247127691 456.76514425157802 0 0 0 0 -33.411098551630857 288.5715987169533 0 288.5715987169533 771.26038635798614 0 0 0 0 -16.602252063836204 75.287430088981637 0 75.287430088981637 -60.619612838279863 0 0 0 0 -2.3894598240816833 33.115619893861776 0 33.115619893861776 9.3356356323423171 0 0 0 0 94.792097970668692 79.24175163047039 0 79.24175163047039 -37.211366488365456 0 0 0 0 46.586080172091897 -169.54955272967345 0 -169.54955272967345 363.63855210140173 0 0 0 0 1816.6051995945891 -401.61958570819115 0 -401.61958570819115 92.726965472393204 0 0 0 0 11.161107509168161 12.963956502424764 0 12.963956502424764 -0.014008263988785075 0 0 0 0 10.108946287866274 286.90469582089281 0 286.90469582089281 1306.8364719808487 0 0 0 0 -946.49107979834662 2749.6202303410901 0 2749.6202303410901 -384.16894086185494 0 0 0 0 2236.6326815801294 -100.67686245159712 0 -100.67686245159712 -4129.1890287189744 0 0 0 0 2314.9005532258088 1710.2508940482512 0 1710.2508940482512 335.95568958518561 0 0 0 0 2189.4224975292454 1077.8854274380719 0 1077.8854274380719 -732.43897585949162 0 0 0 0 2060.5396103493549 475.89512894788641 0 475.89512894788641 -666.20911549817538 0 0 0 0 0.024980244216536107 6.8292136871209834 0 6.8292136871209834 -1.8615498231141245 0 0 0 0 2218.6676269818327 -908.80365245559369 0 -908.80365245559369 22.4557888298732 0 0 0 0 7.3298179500238447 5.7144552018286419 0 5.7144552018286419 -22.074713025986853 0 0 0 0 4161.2358875204009 -508.51573027903942 0 -508.51573027903942 -845.54775544481527 0 0 0 0 -1573.8288805092161 1450.3951815306064 0 1450.3951815306064 -755.71937641029399 0 0 0 0 -1070.6865748794544 327.37646294086699 0 327.37646294086699 -365.7223025495332 0 0 0 0 -343.18963959780012 456.82050764664018 0 456.82050764664018 -583.45130230076029 0 0 0 0 44.29077613971026 15.209974707806055 0 15.209974707806055 -20.479860633704817 0 0 0 0 3.5572179595254738 3.0891850543833357 0 3.0891850543833357 -3.0637236861120982 0 0 0 0 401.45516998769017 -194.15554447368049 0 -194.15554447368049 -1019.5467028634885 0 0 0 0 103.57613483354362 226.00057168827334 0 226.00057168827334 -124.96401087971753 0 0 0 0 188.85574987216387 -271.17806058668066 0 -271.17806058668066 -502.15261911836569 0 0 0 0 35.539593741959834 231.73814631947607 0 231.73814631947607 -58.497123937326251 0 0 0 0 255.86153429487604 329.36771311097982 0 329.36771311097982 -418.80843915368314 0 0 0 0 360.91360893368255 195.31071285983489 0 195.31071285983489 157.3380005001527 0 0 0 0 27.382778234888974 540.95642056991346 0 540.95642056991346 872.78929239041463 0 0 0 0 195.45177704856178 256.64769736032758 0 256.64769736032758 -189.417098248814 0 0 0 0 162.47624716634436 132.39208954985406 0 132.39208954985406 -369.33677714792429 0 0 0 0 252.47166203363304 372.80704922493169 0 372.80704922493169 -221.42700217111269 0 0 0 0 364.29022209401955 310.73813739784237 0 310.73813739784237 -327.44352094762144 0 0 0 0 379.62654188627494 421.28752837167121 0 421.28752837167121 -128.16591978924043 0 0 0 0 252.91504055296537 472.08105931604223 0 472.08105931604223 -63.029522132505917 0 0 0 0 389.90670146498451 408.01097362104338 0 408.01097362104338 -216.40670205946662 0 0 0 0 582.62088923112242 103.71649957745103 0 103.71649957745103 -369.89017411126406 0 0 0 0 398.79538935499295 -17.734189772032551 0 -17.734189772032551 -236.78983596252874 0 0 0 0 537.11707015815045 315.93551888148068 0 315.93551888148068 -304.38654721554485 0 0 0 0 452.22066720719158 261.39108900327119 0 261.39108900327119 -204.09717173954232 0 0 0 0 285.20000008259376 237.29782931148657 0 237.29782931148657 -318.91552825655162 0 0 0 0 230.74144632518437 80.197609025446582 0 80.197609025446582 -350.27957316939137 0 0 0 0 104.26412457972037 141.0413122305763 0 141.0413122305763 -429.62121693298104 0 0 0 0 269.17983611593809 121.30626555869094 0 121.30626555869094 -559.42158738392754 0 0 0 0 99.419252565192011 73.600823334653342 0 73.600823334653342 -38.093279868457074 0 0 0 0 35.518425621184178 -120.43759462336311 0 -120.43759462336311 -473.50347202786361 0 0 0 0 386.11280316627381 160.33751160206157 0 160.33751160206157 -450.28856577147963 0 0 0 0 92.6065445121029 70.414850389646404 0 70.414850389646404 -58.867738190768932 0 0 0 0 190.07138129178202 -145.23602862338885 0 -145.23602862338885 -678.31073573713365 0 0 0 0 83.968378882185789 59.599883685848908 0 59.599883685848908 496.44316380983219 0 0 0 0 5.4598972489475273 254.4799209368357 0 254.4799209368357 1130.7732130517834 0 0 0 0 9.6835965786148961 14.202269037641003 0 14.202269037641003 20.147444300884786 0 0 0 0 4.6676858220453141 -36.130552039583563 0 -36.130552039583563 -510.71924973386194 0 0 0 0 183.21237156946154 -98.720436561045062 0 -98.720436561045062 -353.81589552786318 0 0 0 0 335.7582816069189 -8.6613265306514222 0 -8.6613265306514222 -477.54868329441115 0 0 0 0 -27.490410603350028 -204.34664020358468 0 -204.34664020358468 -287.19276878267192 0 0 0 0 220.06576252222294 -128.3881682991705 0 -128.3881682991705 -476.02091956985532 0 0 0 0 228.34658605122968 -236.07109447052062 0 -236.07109447052062 -184.67077624274771 0 0 0 0 192.13597209943691 -173.39760973028024 0 -173.39760973028024 -292.08726419415325 0 0 0 0 458.61633911932222 -54.446805778781709 0 -54.446805778781709 -363.94056806195294 0 0 0 0 -274.70207874188782 -213.64694689293538 0 -213.64694689293538 -118.77459657481813 0 0 0 0 37.434830832158696 -275.16788687811277 0 -275.16788687811277 -371.8351933939266 0 0 0 0 -92.176736443274422 -167.58188697743026 0 -167.58188697743026 -318.66828074606019 0 0 0 0 50.458373978050076 -322.25107159542677 0 -322.25107159542677 -151.90255894999427 0 0 0 0 28.43687321266043 13.604967254199437 0 13.604967254199437 -172.86411722518824 0 0 0 0 176.44150445277046 628.84522753514466 0 628.84522753514466 1024.3649838322162 0 0 0 0 12.67192229570577 -6.8456185977471478 0 -6.8456185977471478 -23.000252109476705 0 0 0 0 -133.48370563654134 -258.39234145591581 0 -258.39234145591581 -365.89066972212458 0 0 0 0 4.4784004594069131 9.1122334169855321 0 9.1122334169855321 -8.6809481770514765 0 0 0 0 409.6586923552386 264.24715414969251 0 264.24715414969251 385.35090743785258 0 0 0 0 59.401585844913711 43.13660359270925 0 43.13660359270925 -97.287348542549751 0 0 0 0 204.56762250052998 116.78945887509326 0 116.78945887509326 709.04579808554263 0 0 0 0 -191.57059282757109 34.071242658712436 0 34.071242658712436 341.07474468590226 0 0 0 0 -49.297544126049615 123.86637823216734 0 123.86637823216734 261.00859077362111 0 0 0 0 -2.3203895959595684 79.864408131339587 0 79.864408131339587 157.18571925358265 0 0 0 0 0.73661687862477265 214.38042724158731 0 214.38042724158731 354.92346306267427 0 0 0 0 20.101419455328141 444.68164752236044 0 444.68164752236044 411.21155442565214 0 0 0 0 140.37641415471444 395.16138889687136 0 395.16138889687136 267.44595860136906 0 0 0 0 199.96869471174432 462.17744082215359 0 462.17744082215359 246.4960802893911 0 0 0 0 226.11651945557969 313.36940933440928 0 313.36940933440928 -73.725139164831489 0 0 0 0 111.9353230056513 310.03939225734212 0 310.03939225734212 92.894811158301309 0 0 0 0 52.540196642446972 238.97747820359655 0 238.97747820359655 141.06386114493944 0 0 0 0 67.632908953528386 213.46119229256874 0 213.46119229256874 126.11866299819667 0 0 0 0 57.283900427937624 193.46823710462195 0 193.46823710462195 151.69507296336815 0 0 0 0 49.532372219022363 232.80636783252703 0 232.80636783252703 184.24581286153989 0 0 0 0 98.712867031859787 447.5832632798847 0 447.5832632798847 577.75750799840898 0 0 0 0 245.29519664027612 -6.2318284172797576 0 -6.2318284172797576 -467.98570098847267 0 0 0 0 113.1561996434757 434.84859334910288 0 434.84859334910288 565.59792361037398 0 0 0 0 7.4169336065635321 7.0981998974855287 0 7.0981998974855287 -6.7006083873200737 0 0 0 0 -74.376419860578608 21.654114283039235 0 21.654114283039235 -75.098957627313212 0 0 0 0 119.40977192604623 183.64481635138509 0 183.64481635138509 -197.41557060519699 0 0 0 0 -77.232339247886557 149.8486634347064 0 149.8486634347064 122.30998328217538 0 0 0 0 425.82551680550387 508.7267281582026 0 508.7267281582026 -13.191361649194732 0 0 0 0 256.81166024503182 267.83494977975352 0 267.83494977975352 -152.91169356685714 0 0 0 0 453.40596747136442 753.36547993643035 0 753.36547993643035 239.36170080570446 0 0 0 0 300.37954697800888 581.7051140780386 0 581.7051140780386 88.398987372027477 0 0 0 0 391.17822579752828 950.29721253747994 0 950.29721253747994 469.80618743089144 0 0 0 0 298.04637032633764 726.54613951978536 0 726.54613951978536 461.7628604946658 0 0 0 0 204.73388093834365 529.83481846397626 0 529.83481846397626 157.22210334037663 0 0 0 0 258.79538597348437 1008.217956899578 0 1008.217956899578 627.59487048575829 0 0 0 0 213.87244641038706 811.34102495104889 0 811.34102495104889 378.25853500369703 0 0 0 0 281.89927256314695 974.09179749507166 0 974.09179749507166 676.39836012443993 0 0 0 0 459.75888216170279 1046.6753450677788 0 1046.6753450677788 285.10689088358777 0 0 0 0 559.52778607061191 1202.0734536573145 0 1202.0734536573145 521.05850188191107 0 0 0 0 469.48227737238631 1287.5942654813698 0 1287.5942654813698 778.48573275767558 0 0 0 0 422.89421028835204 1224.3643553172151 0 1224.3643553172151 729.69958567788126 0 0 0 0 -55.862535614702949 509.76980858388794 0 509.76980858388794 2307.4318874051678 0 0 0 0 760.45979852878372 1919.1512396746184 0 1919.1512396746184 2013.1163628927316 0 0 0 0 -52.248792579921428 199.04224510584027 0 199.04224510584027 654.40292221971322 0 0 0 0 -94.512650807591854 500.27060191085911 0 500.27060191085911 1302.2025531579275 0 0 0 0 -119.37292535602137 296.4588855411057 0 296.4588855411057 810.45572978298878 0 0 0 0 -48.680320241372101 902.79706461480237 0 902.79706461480237 1452.3157309968228 0 0 0 0 377.58775787110062 1225.9303624425957 0 1225.9303624425957 994.41570830275305 0 0 0 0 30.699477436923189 777.24714144353493 0 777.24714144353493 961.0618904355797 0 0 0 0 -63.613471097603906 635.02190945550683 0 635.02190945550683 747.23780981698656 0 0 0 0 63.020812559312617 557.75009732326725 0 557.75009732326725 621.63118206907529 0 0 0 0 -180.18824535110616 232.84653900534613 0 232.84653900534613 539.03254001939786 0 0 0 0 -75.25807235884713 400.99802381367772 0 400.99802381367772 537.7343649463146 0 0 0 0 -121.34060519211926 237.47844525438268 0 237.47844525438268 496.35244367306586 0 0 0 0 60.070870525116334 -70.56102457511588 0 -70.56102457511588 -263.90805603968329 0 0 0 0 390.65729289327282 1146.9049493892817 0 1146.9049493892817 259.02170048485277 0 0 0 0 -327.93958127721271 90.628718793799635 0 90.628718793799635 433.07198062419775 0 0 0 0 2.7117059092581997 -0.30211940886368893 0 -0.30211940886368893 0.40667524365170493 0 0 0 0 -565.20212908679605 -315.13843494737375 0 -315.13843494737375 1583.8895361247996 0 0 0 0 -368.95401333400514 321.3539305710583 0 321.3539305710583 561.25372575235087 0 0 0 0 29.62516912308638 445.49666192507721 0 445.49666192507721 419.10452134138905 0 0 0 0 66.472692064369767 5.0521376929318649 0 5.0521376929318649 -192.93485102336854 0 0 0 0 39.967500918224687 36.206129464117112 0 36.206129464117112 -103.63106594470446 0 0 0 0 -5.0037344031843531 -71.958197753374407 0 -71.958197753374407 -167.73477457568515 0 0 0 0 58.136535844313286 24.151617821892685 0 24.151617821892685 -105.62304897676535 0 0 0 0 7.0683334851928521 133.68832868621394 0 133.68832868621394 26.677663783484604 0 0 0 0 307.18686598365821 654.13425406163151 0 654.13425406163151 111.66714467282873 0 0 0 0 41.123430057399531 47.726378296875225 0 47.726378296875225 -0.29585220306944393 0 0 0 0 6.0779484977962284 36.293082327916181 0 36.293082327916181 -156.67235351406271 0 0 0 0 9.0616380741182638 14.520859658206518 0 14.520859658206518 8.7468275730122969 0 0 0 0 371.76742620961159 -299.16126669602818 0 -299.16126669602818 141.27983037763624 0 0 0 0 1110.8435582657112 406.31410495418822 0 406.31410495418822 157.04043506539892 0 0 0 0 -9.512417571697398 22.239108528762017 0 22.239108528762017 -6.7361855209940984 0 0 0 0 -28.414539310997498 -403.28897036597482 0 -403.28897036597482 1421.7251455920341 0 0 0 0 2505.4667274456006 507.31890378068783 0 507.31890378068783 260.86132778099272 0 0 0 0 1908.9656372390455 2208.6133188429085 0 2208.6133188429085 1693.4277404182212 0 0 0 0 2.8385043598855049 16.099829020598946 0 16.099829020598946 24.657968748056078 0 0 0 0 231.05054449429736 -245.86128375603585 0 -245.86128375603585 49.92676797619788 0 0 0 0 1554.9960534066049 270.91449389321497 0 270.91449389321497 -471.12625139247393 0 0 0 0 152.86386734587722 132.87261440986185 0 132.87261440986185 84.185390561819077 0 0 0 0 233.01710790176003 55.553948201355524 0 55.553948201355524 37.857364235969726 0 0 0 0 127.16645706084819 188.6306337207061 0 188.6306337207061 6.9059656544704922 0 0 0 0 209.02218192606233 111.60775620199274 0 111.60775620199274 -42.354544141620863 0 0 0 0 218.76400245181139 610.26524981451803 0 610.26524981451803 312.43389240835677 0 0 0 0 901.64673789157678 1026.9094316674018 0 1026.9094316674018 332.9464684164559 0 0 0 0 712.88917562209917 1298.9946945821575 0 1298.9946945821575 952.60548388914322 0 0 0 0 1094.728648335109 1279.1368708127156 0 1279.1368708127156 660.64690672239522 0 0 0 0 670.93026798565552 1155.3010291242972 0 1155.3010291242972 876.29246762082039 0 0 0 0 167.48598803475215 687.8256376532936 0 687.8256376532936 1262.0710033608775 0 0 0 0 230.07904861145653 1022.3489139798621 0 1022.3489139798621 2944.1221489676682 0 0 0 0 2001.3243114228899 1397.7420290585142 0 1397.7420290585142 524.01488168671494 0 0 0 0 1247.0719684692376 -70.476056977713597 0 -70.476056977713597 1408.9221392987383 0 0 0 0 389.20165400970654 748.50356690469926 0 748.50356690469926 638.95388008403825 0 0 0 0 -13.550712871499854 322.42636560746905 0 322.42636560746905 435.02589695883216 0 0 0 0 756.07563657445644 1134.8870783829334 0 1134.8870783829334 38.436017357220408 0 0 0 0 555.47368617648317 1129.1093959577993 0 1129.1093959577993 474.24534752812542 0 0 0 0 -522.8989308573 1157.4637853666063 0 1157.4637853666063 45.45197305702095 0 0 0 0 515.98443723360833 1438.7966462082113 0 1438.7966462082113 -780.63227904422092 0 0 0 0 -393.86848735584636 442.08231565701863 0 442.08231565701863 52.360563712078147 0 0 0 0 -147.41886308443281 895.56599011858634 0 895.56599011858634 -499.96327265925356 0 0 0 0 -2559.3670040423312 1452.6017235723848 0 1452.6017235723848 0.10074642657127697 0 0 0 0 -275.46427848449093 736.9078695919452 0 736.9078695919452 1590.0499979939486 0 0 0 0 1.669510194099928 6.269073560678379 0 6.269073560678379 -4.901798301366 0 0 0 0 411.99875304454326 260.24819461778679 0 260.24819461778679 -1269.4930971614522 0 0 0 0 585.80851928166521 816.19557587674353 0 816.19557587674353 500.09317667192227 0 0 0 0 698.7643094707164 936.66153669622145 0 936.66153669622145 558.89121521425841 0 0 0 0 892.61756855249223 1075.564617760896 0 1075.564617760896 18.205215819034493 0 0 0 0 2.3828796472901388 10.829165792429365 0 10.829165792429365 -7.3343481742123799 0 0 0 0 557.36055956292694 980.65922021109509 0 980.65922021109509 -0.12741929931507912 0 0 0 0 396.33968558692868 698.64724974792625 0 698.64724974792625 963.42202177544823 0 0 0 0 3.8174969854878782 7.6194939496407414 0 7.6194939496407414 -3.903074603642807 0 0 0 0 276.30095405595057 314.02377843092472 0 314.02377843092472 0.76156844692013692 0 0 0 0 720.24925190993599 840.66219580039251 0 840.66219580039251 852.08771585370414 0 0 0 0 884.11858477602073 1055.5716902733257 0 1055.5716902733257 349.16169867638382 0 0 0 0 1009.4859553819406 1283.8901954269386 0 1283.8901954269386 615.46450140472734 0 0 0 0 888.23039198291008 1241.0868534938563 0 1241.0868534938563 206.94505233337986 0 0 0 0 985.75010972385644 1309.9323672320315 0 1309.9323672320315 254.65836169239628 0 0 0 0 547.12494013371906 1155.3133016944703 0 1155.3133016944703 61.659957609139383 0 0 0 0 793.79619132599328 1362.905595946635 0 1362.905595946635 69.040479120620148 0 0 0 0 944.55075837196273 1439.5263427449245 0 1439.5263427449245 46.047893298586132 0 0 0 0 783.51437746439842 1532.8068176570887 0 1532.8068176570887 538.09206389004248 0 0 0 0 704.55170074423222 1349.5113633657747 0 1349.5113633657747 182.12143389435369 0 0 0 0 804.24671056036459 1223.4846001033293 0 1223.4846001033293 337.25370450616174 0 0 0 0 659.41981612007658 950.94728795983974 0 950.94728795983974 137.54030736887944 0 0 0 0 746.71025416908378 873.97633088228031 0 873.97633088228031 168.18047033002949 0 0 0 0 662.73274958931142 590.21568079937424 0 590.21568079937424 -46.703410578586045 0 0 0 0 551.8210367722786 666.37896488227125 0 666.37896488227125 124.43552647915203 0 0 0 0 1002.4540596974912 736.313244758363 0 736.313244758363 82.023813243165932 0 0 0 0 999.93253324826219 800.2602189770987 0 800.2602189770987 196.95011154570966 0 0 0 0 1063.6978327720826 1138.6828766316758 0 1138.6828766316758 224.6149479963351 0 0 0 0 939.33181044722733 1125.6487309474178 0 1125.6487309474178 371.12766991109356 0 0 0 0 1182.0096732003003 1298.1131383188767 0 1298.1131383188767 833.82011144020362 0 0 0 0 1116.8912937759887 1065.9130180032516 0 1065.9130180032516 369.45172333259461 0 0 0 0 1003.4816391008353 1542.804258438784 0 1542.804258438784 732.44641000547563 0 0 0 0 806.10581000386446 1555.5849282291892 0 1555.5849282291892 2016.980421372471 0 0 0 0 1884.6649729390701 1708.1029545302663 0 1708.1029545302663 6.4802877756446833 0 0 0 0 1884.0834653931743 963.73800840237527 0 963.73800840237527 144.47307881357847 0 0 0 0 1077.0163818661531 324.07871355998213 0 324.07871355998213 176.18644256120024 0 0 0 0 1409.6336468286754 381.5856032801421 0 381.5856032801421 30.560995864099823 0 0 0 0 -1891.3488559949983 1251.2718515510278 0 1251.2718515510278 121.24519101105398 0 0 0 0 4126.8321172219366 508.49029664757836 0 508.49029664757836 -104.42701560116257 0 0 0 0 5.1395546203609399 5.8360591413389216 0 5.8360591413389216 3.4868334346524534 0 0 0 0 -1876.1100236345519 1226.3196121136825 0 1226.3196121136825 -586.75053297053091 0 0 0 0 -1590.1581776911917 739.18975740516908 0 739.18975740516908 118.06257967386773 0 0 0 0 -1504.0461889430881 621.84855386002164 0 621.84855386002164 -8.2898092231916962 0 0 0 0 -6.6540357705800375 1.256794166856082 0 1.256794166856082 6.0615845243636386 0 0 0 0 -1338.9981546627823 1200.826379186823 0 1200.826379186823 -0.48707802148419432 0 0 0 0 -1504.3135391859396 641.54144848018768 0 641.54144848018768 -210.82840940763708 0 0 0 0 -1028.0592439956163 559.33865254175907 0 559.33865254175907 -630.09838864159337 0 0 0 0 625.2372986018454 -119.74424650920264 0 -119.74424650920264 79.340912689607649 0 0 0 0 14.161354302361261 18.291551637356235 0 18.291551637356235 9.6876504294431243 0 0 0 0 -1074.2435115432891 898.74274116251036 0 898.74274116251036 -448.59656062227441 0 0 0 0 1284.9133067461589 29.698955699692306 0 29.698955699692306 90.387610022968147 0 0 0 0 1066.9534553733993 273.35780882935069 0 273.35780882935069 121.64561196646537 0 0 0 0 744.47803178885079 443.2562443488132 0 443.2562443488132 49.681205008469988 0 0 0 0 491.52108352935829 152.25591391989292 0 152.25591391989292 -228.78793067482184 0 0 0 0 17.977708615102799 24.239450473133502 0 24.239450473133502 25.627491025829386 0 0 0 0 385.30036820918758 -139.75099948669958 0 -139.75099948669958 -235.58775319951019 0 0 0 0 314.14255073577806 121.4579053985799 0 121.4579053985799 -81.528401791932993 0 0 0 0 26.69991937990585 76.251681278052274 0 76.251681278052274 74.591326692519942 0 0 0 0 51.656436511023458 165.66374700327287 0 165.66374700327287 142.73311854331769 0 0 0 0 -103.08615556043662 46.755837596745749 0 46.755837596745749 43.309051463739479 0 0 0 0 -63.959120488150802 149.09257595659437 0 149.09257595659437 208.10142524802359 0 0 0 0 4.3178892629016445 116.47820088495791 0 116.47820088495791 119.18895821149636 0 0 0 0 45.148554534509685 153.41876607930317 0 153.41876607930317 104.3684020605142 0 0 0 0 3.2905793171260029 178.10315133993572 0 178.10315133993572 225.80575830084854 0 0 0 0 -274.50416072097687 204.65916673392348 0 204.65916673392348 486.26450015430237 0 0 0 0 -152.70906356010914 353.22366243822034 0 353.22366243822034 431.53630441432324 0 0 0 0 -212.06861562416339 54.049487401920487 0 54.049487401920487 159.55569253923022 0 0 0 0 -173.51262622806189 -30.975737099223807 0 -30.975737099223807 220.28396163480647 0 0 0 0 -460.84253952553195 325.19331876226352 0 325.19331876226352 6.7779606748517836 0 0 0 0 -190.09587419724232 -65.9645580301476 0 -65.9645580301476 -17.422242207481759 0 0 0 0 -445.10524016068729 311.77647126977536 0 311.77647126977536 -414.74718248091813 0 0 0 0 -167.73998464326871 579.77448796878889 0 579.77448796878889 -182.20541713836428 0 0 0 0 -1483.2682758052451 1294.8998310708484 0 1294.8998310708484 -1018.5171718556958 0 0 0 0 -98.016952215360106 -8.0128443702851655 0 -8.0128443702851655 -817.07573108568613 0 0 0 0 -2.5568477056035341 -3.1212920492525029 0 -3.1212920492525029 -6.5548059227644444 0 0 0 0 -28.715656123420004 2.5984434777126495 0 2.5984434777126495 -28.184405786548609 0 0 0 0 -886.99949544393132 1048.8062859584788 0 1048.8062859584788 -567.54185361818236 0 0 0 0 -102.37835080116317 75.81046083327081 0 75.81046083327081 22.614267780323189 0 0 0 0 73.697297498794796 726.36799001554027 0 726.36799001554027 -205.21070112286543 0 0 0 0 -114.74119140119726 57.726638626126714 0 57.726638626126714 32.556431377270485 0 0 0 0 77.994766300984338 196.52898115869175 0 196.52898115869175 -43.671603404785856 0 0 0 0 -1.6429765944703831 275.5703005547839 0 275.5703005547839 188.75493861996802 0 0 0 0 75.213199698457174 596.25228959711967 0 596.25228959711967 373.21593095100252 0 0 0 0 164.10544590262725 693.11148386755667 0 693.11148386755667 448.12262742192252 0 0 0 0 18.449489504928351 673.38825707051728 0 673.38825707051728 1024.2715055941626 0 0 0 0 267.46115877900957 882.0907301024854 0 882.0907301024854 882.58444215590134 0 0 0 0 -157.81203763200028 566.95624041811971 0 566.95624041811971 724.55833563131455 0 0 0 0 -86.051569445837231 347.07401537890837 0 347.07401537890837 555.35617334771086 0 0 0 0 -161.53687128532692 186.46696247073123 0 186.46696247073123 345.6165457367315 0 0 0 0 260.06963344067481 1094.4742851792398 0 1094.4742851792398 936.3790336419188 0 0 0 0 103.84804199006612 921.17581350811815 0 921.17581350811815 744.14576986372413 0 0 0 0 -23.169916515311343 1036.9583769604214 0 1036.9583769604214 1306.8205848785474 0 0 0 0 61.235489147598855 1012.095719836303 0 1012.095719836303 1059.3558013261063 0 0 0 0 -191.71847840065311 992.21512988630275 0 992.21512988630275 1088.6124799316021 0 0 0 0 -31.639808147313488 998.95790948195281 0 998.95790948195281 947.13649008260109 0 0 0 0 -75.162018732691649 1126.0387764703919 0 1126.0387764703919 1718.9280191086 0 0 0 0 -421.50714867164061 463.85725700874173 0 463.85725700874173 1184.7756984286825 0 0 0 0 -696.95186404989363 -231.28007154318038 0 -231.28007154318038 415.9761333625911 0 0 0 0 -443.39156211544105 729.01123105554143 0 729.01123105554143 402.64286212917068 0 0 0 0 -56.110280797744053 -15.214311500196345 0 -15.214311500196345 758.2755010223409 0 0 0 0 -166.19891951120371 827.63384911146568 0 827.63384911146568 1287.898939713501 0 0 0 0 -37.05811272955907 204.6236989574827 0 204.6236989574827 245.66753839018202 0 0 0 0 -791.02780446513498 29.493303451803513 0 29.493303451803513 509.62362180012133 0 0 0 0 -132.57533649772813 511.41557764546451 0 511.41557764546451 793.51985126004729 0 0 0 0 -102.21916958836664 10.117045906874409 0 10.117045906874409 167.6873380455072 0 0 0 0 -20.394113071252747 6.5261920744679855 0 6.5261920744679855 6.5335538776763542 0 0 0 0 -88.683212544272692 42.032550589838337 0 42.032550589838337 65.468782892473769 0 0 0 0 -96.94169245181547 22.831720524503908 0 22.831720524503908 135.78129028905096 0 0 0 0 -3.4090811045225564 123.4221038231608 0 123.4221038231608 20.370215574977919 0 0 0 0 22.612743419088567 84.019858741303437 0 84.019858741303437 73.686345743152515 0 0 0 0 -634.25278882326529 90.495832815722679 0 90.495832815722679 8.4523126682834118 0 0 0 0 -820.5662191531228 261.37080699548824 0 261.37080699548824 -48.198528327484382 0 0 0 0 -32.935828419757676 42.599330555974959 0 42.599330555974959 -21.284069740153029 0 0 0 0 21.980678130170418 69.131680106598651 0 69.131680106598651 23.6275286709581 0 0 0 0 -1.5727389560051961 133.55683939401933 0 133.55683939401933 24.570936047006398 0 0 0 0 -871.31872250145534 -187.16475526707654 0 -187.16475526707654 309.72833686246304 0 0 0 0 -283.45308445485716 248.60890356772143 0 248.60890356772143 452.33094829801121 0 0 0 0 -656.40411006148815 -146.84949847708413 0 -146.84949847708413 213.95027955682599 0 0 0 0 -929.60464870767282 47.178730398019979 0 47.178730398019979 160.45750064210733 0 0 0 0 -1174.3694468090689 -381.20203382417094 0 -381.20203382417094 -18.820783791137728 0 0 0 0 -566.18028718497953 -228.58726178303914 0 -228.58726178303914 -42.835351068599266 0 0 0 0 -343.92214115866227 603.88245792557427 0 603.88245792557427 198.53266095793515 0 0 0 0 -1127.2561583713123 -477.67570474521199 0 -477.67570474521199 -399.73619253808283 0 0 0 0 -1839.1852795184022 711.94581877766177 0 711.94581877766177 111.79323543362261 0 0 0 0 -22.801308418571821 19.57687025242889 0 19.57687025242889 -19.709167806949324 0 0 0 0 70.703867521300708 64.136051453198888 0 64.136051453198888 0.057061624669586308 0 0 0 0 -3165.6532572436336 -1212.6499261489662 0 -1212.6499261489662 -214.17055505423559 0 0 0 0 -8.4126245786826246 5.3958072371813728 0 5.3958072371813728 -7.4231002852901611 0 0 0 0 18.862120003302152 86.279302979815839 0 86.279302979815839 -64.935617549926974 0 0 0 0 -49.701452756642539 60.864976652577752 0 60.864976652577752 -3.8512938456005941 0 0 0 0 64.269493768188113 99.222865242401895 0 99.222865242401895 11.509950155596016 0 0 0 0 45.923213874091743 49.38625245905132 0 49.38625245905132 9.3103088903712887 0 0 0 0 18.082337601545078 70.929272189685435 0 70.929272189685435 -0.03745271239313297 0 0 0 0 -11.931679825496758 47.508894042839529 0 47.508894042839529 -9.768987793737324 0 0 0 0 -29.888272143867653 65.019242058093369 0 65.019242058093369 0.097394675220130011 0 0 0 0 -3.5128429720116401 60.465434615965933 0 60.465434615965933 -18.371744813426631 0 0 0 0 10.829384760139419 52.737866454972391 0 52.737866454972391 -42.102365793805802 0 0 0 0 12.277580344682519 73.278844589935034 0 73.278844589935034 -54.686932290351251 0 0 0 0 -42.657718966140237 104.10467061614327 0 104.10467061614327 -59.628112822392723 0 0 0 0 -20.539401161731803 143.76369299311773 0 143.76369299311773 -1.6684581866575172 0 0 0 0 13.156447830571778 55.634804478744627 0 55.634804478744627 -131.89835976465838 0 0 0 0 -44.071997062234004 65.318037224671571 0 65.318037224671571 51.965470465031103 0 0 0 0 43.285554010922638 65.959334192474955 0 65.959334192474955 46.14833440774396 0 0 0 0 7.3462561951324972 8.5572325879618063 0 8.5572325879618063 7.6139635318054388 0 0 0 0 30.320862106740606 -5.0978416949801613 0 -5.0978416949801613 -51.863032522825051 0 0 0 0 39.065906920936307 53.256704077258803 0 53.256704077258803 -52.839763609563306 0 0 0 0 2.9663801192091306 6.253306107848374 0 6.253306107848374 -4.0342538407105621 0 0 0 0 37.731209513360227 -27.21355524493265 0 -27.21355524493265 -51.482091025587124 0 0 0 0 117.59300628003996 91.521319625862816 0 91.521319625862816 -105.05223976983689 0 0 0 0 31.622187504588055 139.83369551326177 0 139.83369551326177 63.875406996463425 0 0 0 0 -5.1881018086438644 141.08014666057352 0 141.08014666057352 69.467253889975837 0 0 0 0 -1.335096780169591 7.2060799717366422 0 7.2060799717366422 -27.1814124466609 0 0 0 0 -5.4824658477264165 112.52525517749018 0 112.52525517749018 106.67876938118752 0 0 0 0 35.142951970560489 137.18730484871776 0 137.18730484871776 4.235682849859586 0 0 0 0 115.72205428104144 608.2602098093239 0 608.2602098093239 -420.50638089624408 0 0 0 0 86.516374098660606 38.547993271472194 0 38.547993271472194 -11.375116345642155 0 0 0 0 -46.418421354276127 57.391449948567981 0 57.391449948567981 -43.72389615557131 0 0 0 0 -148.1510093569907 316.22310485685011 0 316.22310485685011 101.96300506565603 0 0 0 0 9.2266987977411645 31.260420246282592 0 31.260420246282592 -82.894835700164549 0 0 0 0 68.489887966989045 -2.5577912939770613 0 -2.5577912939770613 -87.507859733043006 0 0 0 0 36.754426619976812 -30.684963345556753 0 -30.684963345556753 -105.16179542166356 0 0 0 0 178.27972933684123 58.114390329952585 0 58.114390329952585 -246.76406898623827 0 0 0 0 338.75823385557635 112.88475792983081 0 112.88475792983081 -37.043817879282869 0 0 0 0 151.71722329365002 -121.18251829124347 0 -121.18251829124347 70.128717969433637 0 0 0 0 -3.2116643304232149 3.150246768560919 0 3.150246768560919 6.1611248369108012 0 0 0 0 -20.312470601400491 124.42318115624948 0 124.42318115624948 95.670980388124008 0 0 0 0 266.92348902668027 97.093006438648445 0 97.093006438648445 -0.027063322384492494 0 0 0 0 249.46411335132041 75.86954879797122 0 75.86954879797122 151.46313051666948 0 0 0 0 186.79734079847822 176.24100028288376 0 176.24100028288376 0.082714823278365657 0 0 0 0 207.88535617109574 402.68425564820063 0 402.68425564820063 314.11502878335887 0 0 0 0 121.69540848559427 236.35692499350989 0 236.35692499350989 126.62379335664446 0 0 0 0 -4.8689148656831094 129.23965343269811 0 129.23965343269811 285.12861900218286 0 0 0 0 89.913722839967249 193.95510205393657 0 193.95510205393657 191.2119295559969 0 0 0 0 70.71266724150837 149.32843140896875 0 149.32843140896875 198.02533334554755 0 0 0 0 62.651960315252836 35.725592716480605 0 35.725592716480605 9.2768651675141882 0 0 0 0 1024.3068402406079 1093.4773484426187 0 1093.4773484426187 707.98493108741241 0 0 0 0 358.95473834261247 396.90811067748291 0 396.90811067748291 0.83554023746828532 0 0 0 0 -8.4568404435649427 180.83596331535955 0 180.83596331535955 621.64216970539201 0 0 0 0 557.0079072630615 1075.1201891802411 0 1075.1201891802411 2000.2911281414708 0 0 0 0 510.36840545048653 -163.37401383955148 0 -163.37401383955148 -902.93116549489787 0 0 0 0 173.79442104162172 220.15606612549891 0 220.15606612549891 113.54328835467459 0 0 0 0 53.271989543376989 22.19413413567662 0 22.19413413567662 5.3749819051590464 0 0 0 0 256.14927552646259 285.69145054114779 0 285.69145054114779 -1287.7239620429609 0 0 0 0 -24.413518892568391 196.01191059569101 0 196.01191059569101 -242.21450607340375 0 0 0 0 -125.31121238021842 215.85290613161487 0 215.85290613161487 -617.11468023060297 0 0 0 0 212.36469776769445 -1.4982919962494634 0 -1.4982919962494634 -600.16766054435902 0 0 0 0 75.280299641019454 29.284068916854665 0 29.284068916854665 10.095045003592162 0 0 0 0 171.20084262445198 178.28106745011246 0 178.28106745011246 -205.12434712218237 0 0 0 0 138.80699147897758 -78.932664947365993 0 -78.932664947365993 -749.09553249925375 0 0 0 0 181.85530164289958 532.16238578484626 0 532.16238578484626 -908.32449687470216 0 0 0 0 -1.5745109753852375 26.429295648471452 0 26.429295648471452 -114.31150648983021 0 0 0 0 378.94973662891425 776.51361989008001 0 776.51361989008001 143.28066942638543 0 0 0 0 -952.0039281037707 454.19522668937861 0 454.19522668937861 455.55976202505803 0 0 0 0 -47.068442585895184 982.99274112761486 0 982.99274112761486 459.13853723667853 0 0 0 0 -49.677545559469053 50.376523162491139 0 50.376523162491139 -45.624796492918108 0 0 0 0 166.28037674972165 157.81507596513438 0 157.81507596513438 531.77300567485509 0 0 0 0 427.38971159652647 320.31305000493012 0 320.31305000493012 -306.50157446900266 0 0 0 0 108.89337748619437 0.83936874261416961 0 0.83936874261416961 -460.66665680360165 0 0 0 0 -72.556481768115191 393.10088487934991 0 393.10088487934991 -411.41169719895697 0 0 0 0 12.639018539372046 114.85537033233413 0 114.85537033233413 222.65888443656149 0 0 0 0 674.94130462241446 453.94894740251766 0 453.94894740251766 118.73947637003948 0 0 0 0 383.56884884801184 959.53005955505068 0 959.53005955505068 762.61757358978502 0 0 0 0 -32.545777816949567 38.642003554146385 0 38.642003554146385 -35.989015224031164 0 0 0 0 208.93534691414243 865.28392940424237 0 865.28392940424237 673.42879498143157 0 0 0 0 -298.38482783562358 151.07725228944037 0 151.07725228944037 636.9043125945318 0 0 0 0 -10.768781484349091 14.120458675897396 0 14.120458675897396 -14.822627437852248 0 0 0 0 219.09665265574222 -362.66738451188576 0 -362.66738451188576 -1993.2679532956681 0 0 0 0 364.57537665512791 1089.8899722563219 0 1089.8899722563219 -1875.7148207563932 0 0 0 0 161.84601910724177 99.795732038321148 0 99.795732038321148 -359.18266704454436 0 0 0 0 -2.7122517529223842 -176.90979457242429 0 -176.90979457242429 -785.09841679257806 0 0 0 0 406.47904858659422 2.3625398072472308 0 2.3625398072472308 -281.11136743528186 0 0 0 0 423.47453884895367 54.043327706422133 0 54.043327706422133 -572.97135335946223 0 0 0 0 540.65824294516278 -340.81004556901462 0 -340.81004556901462 -98.705799563384062 0 0 0 0 395.48027735224969 24.717398029766628 0 24.717398029766628 -315.5002886527509 0 0 0 0 377.24763313764197 34.089977026291308 0 34.089977026291308 -137.37580981004794 0 0 0 0 501.71779570938088 -198.7908231486872 0 -198.7908231486872 -587.49795226095011 0 0 0 0 625.4476286566769 113.37261624178063 0 113.37261624178063 -858.55649507806811 0 0 0 0 595.5614090755389 336.33990149779129 0 336.33990149779129 -295.4842377177265 0 0 0 0 0.90985332817217568 743.88887660580804 0 743.88887660580804 3.5194828235835303 0 0 0 0 1107.7379449681175 917.66800296292058 0 917.66800296292058 245.59758094575955 0 0 0 0 -54.633330112083058 910.32389241181954 0 910.32389241181954 792.77049740560142 0 0 0 0 -2.5991939378188391 4.2817162545134124 0 4.2817162545134124 -1.322243231740174 0 0 0 0 537.64597221818622 1096.0686323675545 0 1096.0686323675545 1395.5590230961971 0 0 0 0 377.05616672967517 150.47318392619491 0 150.47318392619491 292.5655677569157 0 0 0 0 36.926261091357446 226.55758633934602 0 226.55758633934602 714.29253708093893 0 0 0 0 -76.323488661240845 476.63418871966132 0 476.63418871966132 274.62867443927098 0 0 0 0 -1022.852194282008 380.86480161114014 0 380.86480161114014 199.5088800957019 0 0 0 0 -488.1076263922223 440.41301505986485 0 440.41301505986485 59.417401100887218 0 0 0 0 -530.52213846468658 255.62180027288559 0 255.62180027288559 -165.15818328852765 0 0 0 0 -138.21495064130613 309.44830255862325 0 309.44830255862325 1.2479067321692128 0 0 0 0 2.7060657277704649 9.6133513758388567 0 9.6133513758388567 -15.105077648675206 0 0 0 0 -1079.3561826076657 514.53001998408581 0 514.53001998408581 55.17192250007065 0 0 0 0 603.87696884499746 683.52076054288773 0 683.52076054288773 -2230.4483770200168 0 0 0 0 443.73031234655355 482.89102318109508 0 482.89102318109508 -112.40741881909344 0 0 0 0 -290.15791133024322 729.35458192272927 0 729.35458192272927 260.80002173376852 0 0 0 0 -375.49801416489208 223.80446576458053 0 223.80446576458053 -188.89606701672892 0 0 0 0 -99.463738864724291 908.16939708200516 0 908.16939708200516 34.301641548423504 0 0 0 0 208.85058041064258 801.56770003823476 0 801.56770003823476 -21.089623666543048 0 0 0 0 3.6634559729456271 11.636389329577415 0 11.636389329577415 -8.3764133533790073 0 0 0 0 -722.66240736595864 545.55521553627477 0 545.55521553627477 273.40762708312832 0 0 0 0 -1611.3686937533603 587.38404762270511 0 587.38404762270511 -212.76158470872906 0 0 0 0 -330.73992848182206 89.552028291906026 0 89.552028291906026 -190.27596120594535 0 0 0 0 2614.8489009661171 734.53459659920918 0 734.53459659920918 -387.67616215100861 0 0 0 0 724.64463311147119 748.39651782135479 0 748.39651782135479 64.954229926865082 0 0 0 0 2.0378415946772037 4.9288271937616983 0 4.9288271937616983 -2.9121356194907548 0 0 0 0 773.02352536827175 1383.1858261127086 0 1383.1858261127086 -597.76719502423657 0 0 0 0 550.90239963457861 1850.7383858984831 0 1850.7383858984831 -306.33955815064837 0 0 0 0 334.83331983730022 1623.1806957373847 0 1623.1806957373847 396.62233300512889 0 0 0 0 494.35684434287214 1582.1935350916247 0 1582.1935350916247 -1443.3934641583764 0 0 0 0 2.3671130625790511 7.5548719360229484 0 7.5548719360229484 4.9717826319657661 0 0 0 0 -74.82195799103647 740.59512423269916 0 740.59512423269916 1622.8007522698317 0 0 0 0 -100.5474695015655 671.80046353884973 0 671.80046353884973 -1040.8346839856822 0 0 0 0 164.80625009599316 1192.0056827459193 0 1192.0056827459193 -24.607030389815918 0 0 0 0 -340.54961249885673 1293.6601183488092 0 1293.6601183488092 257.60054283651698 0 0 0 0 668.40013689989064 1055.3651939278207 0 1055.3651939278207 -93.299435872922913 0 0 0 0 773.65850718636284 1366.7957829724473 0 1366.7957829724473 -157.08651438102243 0 0 0 0 382.86717743800182 1237.2463944260235 0 1237.2463944260235 609.19881846950739 0 0 0 0 389.05616617272608 1215.8143911948937 0 1215.8143911948937 181.71909076685188 0 0 0 0 -333.91637419456947 748.84391477440658 0 748.84391477440658 -876.1206700658804 0 0 0 0 998.43747322960553 1510.4415808947815 0 1510.4415808947815 -105.21712513885723 0 0 0 0 565.10499570298634 1511.6195677014621 0 1511.6195677014621 1018.7447793703323 0 0 0 0 1207.4468075888744 1860.2811552413623 0 1860.2811552413623 480.03796393924858 0 0 0 0 19.425238605909016 9.8579685988942174 0 9.8579685988942174 3.617968775383801 0 0 0 0 2003.8394474981578 943.6463096474472 0 943.6463096474472 -873.71722828304087 0 0 0 0 2020.8302964422091 1383.9776186140589 0 1383.9776186140589 467.14262515089649 0 0 0 0 1607.6477769796738 470.84363923481578 0 470.84363923481578 426.27831913121918 0 0 0 0 1292.6413129728371 800.53468252085804 0 800.53468252085804 -0.32620917313033715 0 0 0 0 -449.5376266583371 1559.3506024034941 0 1559.3506024034941 209.13612054835539 0 0 0 0 674.5352852145752 1247.7536933836454 0 1247.7536933836454 0.4654320854897378 0 0 0 0 262.65506778160307 740.13586154034419 0 740.13586154034419 15.008216105590691 0 0 0 0 -673.43909297766368 1257.5593626000627 0 1257.5593626000627 -0.59427225943363737 0 0 0 0 -1315.9550997005899 1725.0008752450158 0 1725.0008752450158 -285.28879337212129 0 0 0 0 -1279.8123862428329 413.97215112716367 0 413.97215112716367 -616.96504763491612 0 0 0 0 -2373.9786961703539 890.71167484944453 0 890.71167484944453 0.73405545324203558 0 0 0 0 -1139.5918399173934 1225.3760535152396 0 1225.3760535152396 -1130.846623149162 0 0 0 0 -153.66896033605371 88.402511866297573 0 88.402511866297573 -1.7931628051010193 0 0 0 0 -504.69286852794176 -149.78871203726158 0 -149.78871203726158 285.94647005050865 0 0 0 0 -20.687070006558343 5.1939803401455151 0 5.1939803401455151 -1.3115491660881631 0 0 0 0 -2011.0790865950803 615.56810774897167 0 615.56810774897167 944.97169562325871 0 0 0 0 -33.152840733248013 202.29545962383054 0 202.29545962383054 256.69893000213779 0 0 0 0 -9.5911173788626911 170.02798934844759 0 170.02798934844759 267.38399600019329 0 0 0 0 -417.07894111871065 253.12420096575806 0 253.12420096575806 751.94733263262242 0 0 0 0 -577.01814035060306 384.40536320221145 0 384.40536320221145 2089.0061657744518 0 0 0 0 -843.27057585042348 973.35416789872397 0 973.35416789872397 395.86145671362465 0 0 0 0 -412.6787880836373 1040.5066368224907 0 1040.5066368224907 218.96393568385975 0 0 0 0 -701.42809109409063 1114.9716712538357 0 1114.9716712538357 485.00477838719962 0 0 0 0 -803.8170111306772 1093.1838048819445 0 1093.1838048819445 485.33553958355333 0 0 0 0 85.523574599857966 261.21194089851633 0 261.21194089851633 0.28129098071076442 0 0 0 0 -90.500622712905169 176.61483921439503 0 176.61483921439503 656.83103360160021 0 0 0 0 734.98411256156396 24.467327038008079 0 24.467327038008079 -84.682334489989444 0 0 0 0 606.73142545803603 481.12538190861596 0 481.12538190861596 260.84162296235445 0 0 0 0 9.7154232568722705 11.698005523075494 0 11.698005523075494 -3.6432818538738871 0 0 0 0 -1.6632734860445311 -2.9338251722438429 0 -2.9338251722438429 -2.7653653500404403 0 0 0 0 309.73287100825473 187.53181738293642 0 187.53181738293642 0.22533193902927451 0 0 0 0 -184.19367055188923 63.716170844047156 0 63.716170844047156 -12.87797860275532 0 0 0 0 -55.751706300813055 15.704932117244823 0 15.704932117244823 -1.631775206491092 0 0 0 0 66.166879660086124 164.21152557089954 0 164.21152557089954 125.09439608474167 0 0 0 0 1.5430419804542908 366.40885982102191 0 366.40885982102191 604.8572262347152 0 0 0 0 164.8355890486273 294.51258136257093 0 294.51258136257093 137.21727039709913 0 0 0 0 -43.144697921183251 94.730755129960016 0 94.730755129960016 178.50644983554957 0 0 0 0 -47.153253348637008 45.07346785188787 0 45.07346785188787 -17.63294756690982 0 0 0 0 653.599519122723 133.08926523387345 0 133.08926523387345 -171.62449149944587 0 0 0 0 442.01152380126587 -81.657715236236982 0 -81.657715236236982 2.3723406200952013 0 0 0 0 -394.92179386512726 460.80087120592361 0 460.80087120592361 1123.946388348355 0 0 0 0 -43.968186553331464 51.146574534823429 0 51.146574534823429 -31.394643006451702 0 0 0 0 140.92431833174305 286.93655464642507 0 286.93655464642507 170.44067733921111 0 0 0 0 -62.529000654700212 871.62222532533633 0 871.62222532533633 -333.40186098797858 0 0 0 0 -1.0572431067067498 6.953427642658184 0 6.953427642658184 11.803121616216515 0 0 0 0 -25.969789095755004 1146.214819696198 0 1146.214819696198 -958.65583854427678 0 0 0 0 -3.3695274041165248 321.10904422911699 0 321.10904422911699 -847.30117415473796 0 0 0 0 202.14442601238261 741.04275114197662 0 741.04275114197662 -101.44120476261014 0 0 0 0 508.92628865827692 137.46138414305369 0 137.46138414305369 -53.917943754524458 0 0 0 0 -55.604675838840649 67.182497447522508 0 67.182497447522508 -41.684720053181934 0 0 0 0 437.81588417395687 -281.30886481499329 0 -281.30886481499329 -775.84202215363621 0 0 0 0 474.99474747477507 542.99716791463288 0 542.99716791463288 142.58713189628907 0 0 0 0 468.00374822500817 676.18897062689211 0 676.18897062689211 550.01461292448221 0 0 0 0 189.35838035618281 660.92859889462989 0 660.92859889462989 454.79601214212016 0 0 0 0 182.16077925243007 564.17009008864989 0 564.17009008864989 633.07689643758931 0 0 0 0 -5.7934134068491403 577.47444364547118 0 577.47444364547118 473.65944136723556 0 0 0 0 34.991575686930446 413.8716592015262 0 413.8716592015262 733.26011243925313 0 0 0 0 -30.728020411319449 502.12459811211011 0 502.12459811211011 825.32324580461136 0 0 0 0 -63.994229094096227 335.93177938347071 0 335.93177938347071 826.60247118963161 0 0 0 0 -129.38643177841004 368.62936126985005 0 368.62936126985005 1213.7618552514468 0 0 0 0 8.9631263612245675 261.06187984683493 0 261.06187984683493 1171.5717988397373 0 0 0 0 -52.485408901298797 423.80932214709901 0 423.80932214709901 1227.7373705085483 0 0 0 0 -14.879562421992887 316.33559798453643 0 316.33559798453643 1525.0187904871709 0 0 0 0 204.39253105151147 589.84515352010203 0 589.84515352010203 1230.7166230463481 0 0 0 0 35.012459756497265 266.81267350808048 0 266.81267350808048 1483.382707930461 0 0 0 0 119.60193879991857 532.96839102878585 0 532.96839102878585 883.30726335974759 0 0 0 0 116.39597781479938 475.6804566872388 0 475.6804566872388 1116.651272077288 0 0 0 0 354.42747545991733 660.65954717725981 0 660.65954717725981 672.31567998183164 0 0 0 0 340.64942438812432 663.44155253203644 0 663.44155253203644 1065.0572912005009 0 0 0 0 581.45861064628116 558.17726714142191 0 558.17726714142191 639.08628047502134 0 0 0 0 576.03706193760445 811.06294436549069 0 811.06294436549069 1097.7360027037357 0 0 0 0 207.67898419311359 544.27059114508211 0 544.27059114508211 1526.0812883993494 0 0 0 0 60.457877608147101 358.69396028007031 0 358.69396028007031 1591.5227125471574 0 0 0 0 64.486899756273488 318.20419699605554 0 318.20419699605554 1997.7017358967569 0 0 0 0 257.52325585103245 658.47531169086869 0 658.47531169086869 1623.5228353609564 0 0 0 0 275.86080917749678 768.1785297843835 0 768.1785297843835 2031.1515576006786 0 0 0 0 847.33199656830402 1141.9762540374941 0 1141.9762540374941 1529.1329984202312 0 0 0 0 223.48586451383017 934.54988197563216 0 934.54988197563216 2253.583998394126 0 0 0 0 279.9982100530051 1255.1970733286125 0 1255.1970733286125 3322.4593022049521 0 0 0 0 926.49138711608521 813.9440024916421 0 813.9440024916421 1143.1380747054645 0 0 0 0 565.96670294533033 815.24692252981185 0 815.24692252981185 1216.7135082339228 0 0 0 0 595.14279600152804 779.12022752265329 0 779.12022752265329 1138.375396973337 0 0 0 0 939.23549971284228 944.06217317975825 0 944.06217317975825 1051.6502941480721 0 0 0 0 821.83756533287669 1014.6972550087085 0 1014.6972550087085 1108.2898976549623 0 0 0 0 -3.0958515059036529 21.76573243473041 0 21.76573243473041 3.2416755147164338 0 0 0 0 -294.39162463571483 574.11630798110127 0 574.11630798110127 -139.75756458270916 0 0 0 0 -398.99623658246674 418.29399808462404 0 418.29399808462404 1461.4649798724568 0 0 0 0 -772.37484166942158 745.48079675874033 0 745.48079675874033 130.80750827064912 0 0 0 0 3.5662669564374596 12.098226858206345 0 12.098226858206345 9.0487733408198494 0 0 0 0 -742.49360096053715 854.41399734058905 0 854.41399734058905 490.93423540526419 0 0 0 0 0.5324614303076487 5.2140500931586189 0 5.2140500931586189 4.3681891882030186 0 0 0 0 -41.867256839577749 787.38386326825275 0 787.38386326825275 -1082.0010219207979 0 0 0 0 -168.94342413270351 766.3201815485736 0 766.3201815485736 382.08512156654615 0 0 0 0 -91.347151250774914 317.68256257202302 0 317.68256257202302 314.18246400164571 0 0 0 0 -343.25128940724971 204.46678172929387 0 204.46678172929387 381.80174908917979 0 0 0 0 -355.69491563935208 465.77486116844557 0 465.77486116844557 763.41147634675144 0 0 0 0 -387.16496669376284 308.26810782001121 0 308.26810782001121 908.64247948888806 0 0 0 0 -233.34087611136783 291.61315695777739 0 291.61315695777739 1157.3885374705133 0 0 0 0 -218.03842502601128 366.26120291128063 0 366.26120291128063 923.82014045046526 0 0 0 0 -308.3871686510538 321.15366840839124 0 321.15366840839124 932.82464772339154 0 0 0 0 -347.360232754545 354.17402973526623 0 354.17402973526623 1128.9316935075276 0 0 0 0 -264.96219998101151 230.29043372590968 0 230.29043372590968 999.28885408039787 0 0 0 0 179.0660260940349 691.06521652786614 0 691.06521652786614 862.48007763674195 0 0 0 0 -266.10814928796754 18.569877840709523 0 18.569877840709523 772.04286433148081 0 0 0 0 279.87762957582891 697.75158685534552 0 697.75158685534552 1093.6716824402974 0 0 0 0 -6.549969204570175 7.0769746432459897 0 7.0769746432459897 -2.3958292555317939 0 0 0 0 45.945614424665109 853.12598442353919 0 853.12598442353919 1316.6773090031566 0 0 0 0 422.47749967543496 563.00716407234722 0 563.00716407234722 682.81283685716335 0 0 0 0 167.47900925522117 176.32680103070015 0 176.32680103070015 472.09375000410364 0 0 0 0 174.04364749934757 174.3665528090205 0 174.3665528090205 472.51572571335419 0 0 0 0 177.6076363137654 216.7431574109105 0 216.7431574109105 605.1174538397463 0 0 0 0 50.217037154203354 -94.863971199069056 0 -94.863971199069056 208.05916656419868 0 0 0 0 -86.263448021536533 179.39900922856759 0 179.39900922856759 651.01265624607913 0 0 0 0 84.787198473059107 80.868105652218219 0 80.868105652218219 709.11849206276383 0 0 0 0 19.305796367536061 10.677611539430529 0 10.677611539430529 0.028200929862933322 0 0 0 0 216.65609570900415 374.23836533885333 0 374.23836533885333 751.482101199319 0 0 0 0 -52.551506832329324 -280.23509324013139 0 -280.23509324013139 754.03799398792398 0 0 0 0 472.3568024232809 453.05651815532474 0 453.05651815532474 567.43570136274138 0 0 0 0 -2.9093141734873171 3.5885441736234611 0 3.5885441736234611 -1.0106537344681783 0 0 0 0 293.10324022844543 639.54943524140617 0 639.54943524140617 894.55899497901555 0 0 0 0 -415.65379260158807 179.16598212107783 0 179.16598212107783 992.57114448989887 0 0 0 0 -490.09638561567408 267.14145613908477 0 267.14145613908477 1167.3635810688429 0 0 0 0 -331.10254033163073 236.97717715229373 0 236.97717715229373 1125.6757484847858 0 0 0 0 -195.46550389409276 215.00427464150562 0 215.00427464150562 1304.4089240571775 0 0 0 0 -158.58997069922771 276.57709375233389 0 276.57709375233389 1058.655941666977 0 0 0 0 -331.7249398778149 364.75695355184143 0 364.75695355184143 1093.8284384428407 0 0 0 0 -12.747060799849322 83.880559002374099 0 83.880559002374099 12.009934400067635 0 0 0 0 -211.17122988129995 347.446689553959 0 347.446689553959 -65.155890387963154 0 0 0 0 15.778955836558822 8.6900421930638458 0 8.6900421930638458 22.216558722216053 0 0 0 0 -259.69197636544413 -14.497330752295966 0 -14.497330752295966 1499.8592754810379 0 0 0 0 -17.287553542474598 -143.54291115905107 0 -143.54291115905107 739.42970057726779 0 0 0 0 30.1423396498285 348.20441750908503 0 348.20441750908503 865.42156474384501 0 0 0 0 -251.57828430473455 -344.93184918272891 0 -344.93184918272891 921.82013220366207 0 0 0 0 106.22396922477492 -309.61320597589656 0 -309.61320597589656 -88.021863612200832 0 0 0 0 716.27646798106434 10.538867132941959 0 10.538867132941959 -566.10071065818192 0 0 0 0 356.42995390268334 558.89289129950339 0 558.89289129950339 -436.06158475606935 0 0 0 0 -131.95051544385933 558.51624897857255 0 558.51624897857255 -420.53797878194018 0 0 0 0 47.085904674589983 -1.6783261066302657 0 -1.6783261066302657 -556.95548459557904 0 0 0 0 159.97057020447392 178.3404362192523 0 178.3404362192523 -895.84808105864795 0 0 0 0 -81.630783670472738 94.010144699641387 0 94.010144699641387 -1027.646292397967 0 0 0 0 -183.89141191096132 150.46839299659769 0 150.46839299659769 -284.45896254452964 0 0 0 0 53.788246006726695 492.88398917537415 0 492.88398917537415 -872.2425810083223 0 0 0 0 -1335.3053542490015 250.40356538396736 0 250.40356538396736 289.69003976808563 0 0 0 0 -16.515376283882603 10.050274213626068 0 10.050274213626068 -0.40335822245463504 0 0 0 0 88.495281563409662 596.10109360044589 0 596.10109360044589 -1712.6625558358064 0 0 0 0 -337.51782048635141 47.303706836042693 0 47.303706836042693 -907.67314372508554 0 0 0 0 -6.8544323743013535 2.4526906588026804 0 2.4526906588026804 -1.3060941454955639 0 0 0 0 163.78921094699035 579.28485287106014 0 579.28485287106014 -2634.755160186327 0 0 0 0 -618.60374574659818 887.68078297663851 0 887.68078297663851 -644.78712038215599 0 0 0 0 -73.39060769144271 359.27245484178275 0 359.27245484178275 -947.16283045362798 0 0 0 0 -504.6200317866128 -54.282930555207258 0 -54.282930555207258 -596.19522930879612 0 0 0 0 -41.698831054978655 191.67083936963172 0 191.67083936963172 -469.7070503859868 0 0 0 0 -136.03948350530845 701.69962672219845 0 701.69962672219845 -113.65264578536153 0 0 0 0 524.08097210760388 -195.78347551943079 0 -195.78347551943079 -357.71644080709666 0 0 0 0 -13.719049592130972 83.799678461858662 0 83.799678461858662 31.177059543921338 0 0 0 0 -539.80381823040079 498.92607479900471 0 498.92607479900471 296.71979305773857 0 0 0 0 -599.11690561240539 -7.8783193419512827 0 -7.8783193419512827 480.08788845038362 0 0 0 0 -652.04144643864129 224.58059500023955 0 224.58059500023955 -114.48717963625859 0 0 0 0 -609.3527966023812 -4.5823561731795053 0 -4.5823561731795053 -123.95276826666668 0 0 0 0 -171.1648308573931 411.03332928160671 0 411.03332928160671 -791.14406375908584 0 0 0 0 -53.160433874098089 386.90455136826677 0 386.90455136826677 -1734.2770362488809 0 0 0 0 -22.709499314594723 248.86235769641644 0 248.86235769641644 -1213.646195473586 0 0 0 0 -1272.8425302203395 -305.12688272882951 0 -305.12688272882951 1831.8642114586401 0 0 0 0 -91.758966683599283 -393.15678921663493 0 -393.15678921663493 2904.0143412082689 0 0 0 0 -1.0603820919495774 107.66479556533159 0 107.66479556533159 1956.0087612251518 0 0 0 0 51.960011988183396 541.3730756281293 0 541.3730756281293 2987.1630939289462 0 0 0 0 -95.159520237517427 252.66592176145059 0 252.66592176145059 2577.7223340857963 0 0 0 0 13.355716704092629 257.26997484796448 0 257.26997484796448 2299.1654853625223 0 0 0 0 -87.62407504033763 -24.835666024242528 0 -24.835666024242528 2407.4447803309595 0 0 0 0 -38.882532441333751 -125.45633832766907 0 -125.45633832766907 2223.1159552901518 0 0 0 0 -82.496292311130674 -114.79469786588743 0 -114.79469786588743 2312.6999561091652 0 0 0 0 -42.465138607090921 -96.538074608106399 0 -96.538074608106399 2181.8851419875282 0 0 0 0 -26.750336114191668 19.007353342789429 0 19.007353342789429 2054.8071227824548 0 0 0 0 -29.227025422354927 -0.04533718031598255 0 -0.04533718031598255 2264.7642999321397 0 0 0 0 20.308945023494744 223.3418120493734 0 223.3418120493734 1927.0043922010809 0 0 0 0 33.781891839666059 86.228489543806063 0 86.228489543806063 2094.1855527672742 0 0 0 0 31.762686049621607 118.48359198685375 0 118.48359198685375 1793.8028160209069 0 0 0 0 19.251494240423199 -116.29187667032238 0 -116.29187667032238 2146.2211804811668 0 0 0 0 6.53200312271656 -65.737898263207171 0 -65.737898263207171 1979.214694416034 0 0 0 0 4.7340128910873318 -168.25528130392922 0 -168.25528130392922 1993.9748540948494 0 0 0 0 -43.393301786709344 -208.68290863279253 0 -208.68290863279253 2220.633065056194 0 0 0 0 43.480046387529001 -293.54871369490866 0 -293.54871369490866 2102.3153657083458 0 0 0 0 3.1772840651018157 3.8191212988668894 0 3.8191212988668894 4.1337784258272734 0 0 0 0 -9.4016911290673306 267.18190187981963 0 267.18190187981963 -1192.9566157474619 0 0 0 0 9.4747703577450011 279.52147917382536 0 279.52147917382536 -1203.6778439799673 0 0 0 0 29.088960515944677 76.956817228569463 0 76.956817228569463 4.1008071704728977 0 0 0 0 -32.909468520490918 120.89391908294056 0 120.89391908294056 -602.11371875731857 0 0 0 0 221.32052580836171 32.92150840973045 0 32.92150840973045 -676.37955805905221 0 0 0 0 -19.934484202589374 -161.17340690508718 0 -161.17340690508718 2214.2006115938129 0 0 0 0 5.1641644109771789 76.506041235540977 0 76.506041235540977 28.16132703323149 0 0 0 0 12.132205645575596 -152.81658316319954 0 -152.81658316319954 1634.5129534297594 0 0 0 0 10.568380181815883 82.900769198553462 0 82.900769198553462 -570.92600365362887 0 0 0 0 10.900857152141953 11.416868274131218 0 11.416868274131218 -13.945130615408175 0 0 0 0 -24.931614151792019 302.05476247452316 0 302.05476247452316 -601.50657653385861 0 0 0 0 17.20215481336345 257.37311051235883 0 257.37311051235883 -672.9438151033246 0 0 0 0 9.3011769715449191 223.15596714200365 0 223.15596714200365 -783.48851043527247 0 0 0 0 97.425002305928501 -235.74514809237371 0 -235.74514809237371 1713.0835664807237 0 0 0 0 63.923350785451476 -79.31822308266419 0 -79.31822308266419 1909.1790129051369 0 0 0 0 9.6333471951693355 30.639975992969994 0 30.639975992969994 1709.3989692032919 0 0 0 0 53.599138041288825 119.39128985951538 0 119.39128985951538 1784.5723519838648 0 0 0 0 26.119417587982753 216.34652523781187 0 216.34652523781187 1450.5906055390078 0 0 0 0 7.9798658952568076 -14.269908906731871 0 -14.269908906731871 1639.4003684252966 0 0 0 0 -9.9178379560617032 105.08626358245965 0 105.08626358245965 1287.9859112139311 0 0 0 0 -63.737977589968068 128.11707556076726 0 128.11707556076726 1396.3439621500147 0 0 0 0 103.47059130027628 38.416234726537368 0 38.416234726537368 1173.943899724989 0 0 0 0 110.48522510568728 -173.23503830940172 0 -173.23503830940172 1523.8418244185668 0 0 0 0 68.577789094022592 207.47083507119532 0 207.47083507119532 -674.034310850373 0 0 0 0 0.99159600098573719 364.73222292517676 0 364.73222292517676 -668.52927654684754 0 0 0 0 33.011746315314667 340.07870795870258 0 340.07870795870258 -787.0173302254243 0 0 0 0 -241.18827718117245 368.76721874964278 0 368.76721874964278 -724.35002417018404 0 0 0 0 37.511747876473237 389.8015381306177 0 389.8015381306177 -1023.0610447490762 0 0 0 0 -315.83592745337228 812.84072334243683 0 812.84072334243683 -2464.5494887689856 0 0 0 0 -12.245956036797651 14.016632978726619 0 14.016632978726619 -1.3486138378509978 0 0 0 0 598.93586284194316 -328.60984529175039 0 -328.60984529175039 -2252.175028973681 0 0 0 0 -368.37022606898972 933.79195652383351 0 933.79195652383351 -1999.9155297206598 0 0 0 0 13.940291606726532 245.65054172427335 0 245.65054172427335 -588.92856373230461 0 0 0 0 38.006152798465337 348.08916732243961 0 348.08916732243961 -675.11319587053731 0 0 0 0 50.60884768156393 249.79853725836438 0 249.79853725836438 -799.87594753623125 0 0 0 0 50.51427689340926 245.44998197290988 0 245.44998197290988 -737.58900594332954 0 0 0 0 33.993951113161529 331.53375359209167 0 331.53375359209167 -713.76886159705464 0 0 0 0 43.814919734759314 355.76555588611518 0 355.76555588611518 -802.65830857021501 0 0 0 0 -144.74236592427769 630.59550222175312 0 630.59550222175312 -729.0226229410182 0 0 0 0 85.068664767342852 525.62076399091166 0 525.62076399091166 -1107.2910874942754 0 0 0 0 0.69736033106164541 420.12761335805408 0 420.12761335805408 -602.35166961845243 0 0 0 0 54.104653222424531 169.62737643584478 0 169.62737643584478 -1048.3722824805591 0 0 0 0 -226.80897563809413 499.69206240091444 0 499.69206240091444 -30.997489912741003 0 0 0 0 -2.7652191654589728 7.6243707860819825 0 7.6243707860819825 -1.6907194517516082 0 0 0 0 91.318605061940616 826.24835788963537 0 826.24835788963537 -3509.4759145743228 0 0 0 0 -305.75120590259758 587.17897373213782 0 587.17897373213782 -1703.0733188193408 0 0 0 0 -498.80721393606655 696.66035218162142 0 696.66035218162142 -1625.702558265446 0 0 0 0 -150.57789091083373 762.60199067065878 0 762.60199067065878 -1358.3877793051361 0 0 0 0 -63.617406503966777 679.06894283454312 0 679.06894283454312 -1632.2045200249995 0 0 0 0 -1.8075404807386803 260.01426243720925 0 260.01426243720925 -1237.1200815913471 0 0 0 0 -935.0064280607512 949.36671801118064 0 949.36671801118064 -1156.6242208937183 0 0 0 0 -1093.4209187087545 1206.223986727593 0 1206.223986727593 -1474.3791804852081 0 0 0 0 -673.92221272339521 462.02407328427944 0 462.02407328427944 -921.97020119184162 0 0 0 0 -794.04251489743183 781.03412031108746 0 781.03412031108746 -1762.1004066919522 0 0 0 0 -324.16265280712105 686.49791615642607 0 686.49791615642607 -1995.4215304482495 0 0 0 0 -549.25578870465688 698.78654241425102 0 698.78654241425102 -1163.8449655236182 0 0 0 0 -1179.7511436348141 886.81097496731672 0 886.81097496731672 -615.03471733270271 0 0 0 0 -413.47983568729251 783.50374134462618 0 783.50374134462618 -637.12583905134488 0 0 0 0 -583.0376750478099 599.59911446326623 0 599.59911446326623 -487.56068279000465 0 0 0 0 1542.143084692274 -142.59604437056987 0 -142.59604437056987 -783.40704944061508 0 0 0 0 762.22815664237714 -479.18460067279375 0 -479.18460067279375 -755.30130391538842 0 0 0 0 2440.0270489851755 760.61382371968648 0 760.61382371968648 -2059.3844160826993 0 0 0 0 -3903.8439293634328 3983.1365804787674 0 3983.1365804787674 -2645.4065868702019 0 0 0 0 12.553169738213597 6.3493998060830279 0 6.3493998060830279 -16.246557550532657 0 0 0 0 487.81723659420095 1882.3858617792139 0 1882.3858617792139 -3912.8382700753573 0 0 0 0 5244.9521462755292 -2448.1753981393631 0 -2448.1753981393631 -831.49855017880327 0 0 0 0 1221.0911755187844 215.79612769783125 0 215.79612769783125 413.00764573006745 0 0 0 0 1163.7250792370487 -1235.679471032432 0 -1235.679471032432 1017.5373083998275 0 0 0 0 903.2731794554802 -202.4958790855253 0 -202.4958790855253 277.72798441228224 0 0 0 0 1358.0679805638574 606.42312564543681 0 606.42312564543681 -1119.1475737221481 0 0 0 0 424.26632104080636 1075.1068111109344 0 1075.1068111109344 -797.98202368109196 0 0 0 0 -16.339981870172778 1017.5403995945962 0 1017.5403995945962 -603.31104075009353 0 0 0 0 -106.89066098074181 799.76593005291579 0 799.76593005291579 -1012.5603122618922 0 0 0 0 -1339.181601298289 1387.4462315814017 0 1387.4462315814017 -734.46717268662178 0 0 0 0 -40.852189013829047 823.35103518074902 0 823.35103518074902 -1212.7218732994806 0 0 0 0 112.08523438378324 1113.3088258754578 0 1113.3088258754578 -730.1967579867196 0 0 0 0 1310.7301451627136 -186.49526049255655 0 -186.49526049255655 -967.85132023494225 0 0 0 0 -1166.9511759191591 -46.650357907281432 0 -46.650357907281432 -1479.3160732918768 0 0 0 0 -2001.3755248249072 1566.3912267609085 0 1566.3912267609085 -1104.0331502215995 0 0 0 0 -551.93841092938965 1499.1765752769425 0 1499.1765752769425 -2808.2301340096456 0 0 0 0 -0.90743576359389522 4.8873281019699846 0 4.8873281019699846 -6.5181181805711503 0 0 0 0 -1025.3169963005348 1977.3015997323091 0 1977.3015997323091 -2361.8811586154407 0 0 0 0 -3358.6408536780364 1231.1081277527992 0 1231.1081277527992 -407.35010217534727 0 0 0 0 -2.5392255573137987 11.401355837026017 0 11.401355837026017 -1.3864925599861522 0 0 0 0 -1443.2524447318283 829.26194602319447 0 829.26194602319447 -356.50180016682134 0 0 0 0 -32.625668758699703 8.8843424011752177 0 8.8843424011752177 -101.98765372188063 0 0 0 0 -27.764326101379993 80.112731562490808 0 80.112731562490808 -184.05534718584386 0 0 0 0 -28.834067945129362 34.434496359074274 0 34.434496359074274 -48.459312116767933 0 0 0 0 107.74583397791866 149.5032084385748 0 149.5032084385748 -76.030153609339322 0 0 0 0 380.0211634644802 -36.661590310504835 0 -36.661590310504835 -57.205673591190134 0 0 0 0 6.7694353194768269 8.2201905218809799 0 8.2201905218809799 -14.688248856427322 0 0 0 0 -683.11455075182312 1011.0779608499142 0 1011.0779608499142 -1565.6474054519313 0 0 0 0 -637.15075829048146 946.4610824171541 0 946.4610824171541 -1331.1424659408985 0 0 0 0 -280.77545197821564 304.47667928848568 0 304.47667928848568 -1019.2478532798559 0 0 0 0 -171.94795320751655 426.15619036094722 0 426.15619036094722 -888.10281971107179 0 0 0 0 -143.97705303035036 263.08937560157938 0 263.08937560157938 -905.78100410511252 0 0 0 0 -531.78858480865529 352.53618363899523 0 352.53618363899523 -766.29546835800284 0 0 0 0 -540.8075462890265 418.47919013745559 0 418.47919013745559 330.28083457666617 0 0 0 0 -311.86197961831931 1365.7362224444005 0 1365.7362224444005 -1725.0704133455802 0 0 0 0 -114.81338148080977 -33.73529047898046 0 -33.73529047898046 -964.54673591921892 0 0 0 0 -1497.2556734298396 964.20435933879708 0 964.20435933879708 -1503.8537318521703 0 0 0 0 -2135.131395478933 2104.9786936650489 0 2104.9786936650489 -1784.1251157793868 0 0 0 0 -1446.5321088752589 912.26330096889433 0 912.26330096889433 -947.64547386649065 0 0 0 0 -1366.9111567527307 1005.5442070518729 0 1005.5442070518729 -1242.7776066281658 0 0 0 0 3110.0235079923186 -829.53546162800558 0 -829.53546162800558 -309.62280548355193 0 0 0 0 38.672845290627336 19.953160778703626 0 19.953160778703626 -41.649397569411235 0 0 0 0 742.01578818975395 460.07537071069964 0 460.07537071069964 -282.2290635903264 0 0 0 0 1344.1011680605552 -465.84204137587585 0 -465.84204137587585 3.9046811091975542 0 0 0 0 55.483784820924171 32.004109865262286 0 32.004109865262286 -49.944287728210668 0 0 0 0 -2160.1243780510849 1640.632882457161 0 1640.632882457161 -1168.1126361717606 0 0 0 0 -1906.012672896115 883.61948813247 0 883.61948813247 -818.84804048456135 0 0 0 0 -725.95439725422693 581.44796203934675 0 581.44796203934675 -1148.1193212688522 0 0 0 0 -629.2401661551994 725.48011431547638 0 725.48011431547638 -1093.1446168541988 0 0 0 0 -253.91981732295244 339.27071413817612 0 339.27071413817612 -899.21052335860441 0 0 0 0 -1141.6582074710896 533.90353498871264 0 533.90353498871264 -552.87207943634712 0 0 0 0 -113.33716522010582 710.37212325781002 0 710.37212325781002 -1092.6516440338164 0 0 0 0 1.9321184358559549 474.41464601927873 0 474.41464601927873 -641.39411035247031 0 0 0 0 338.23728775703421 682.33662171106698 0 682.33662171106698 -627.89471928137937 0 0 0 0 459.58345350698437 587.27651027745378 0 587.27651027745378 -910.9654594038584 0 0 0 0 338.15396964009415 563.41229617124554 0 563.41229617124554 -837.12788189611456 0 0 0 0 206.70954994559725 412.50447700510267 0 412.50447700510267 -848.56653556825404 0 0 0 0 103.97462158435155 540.81137485273939 0 540.81137485273939 -996.24424240554799 0 0 0 0 -20.776518092057813 291.65059324806134 0 291.65059324806134 -903.16267142268771 0 0 0 0 190.75869690938998 404.66634165716823 0 404.66634165716823 -859.97818762612587 0 0 0 0 197.74945546680101 366.47890670490233 0 366.47890670490233 -680.59771031991113 0 0 0 0 267.81843413512979 469.67969238614751 0 469.67969238614751 -864.93351037980756 0 0 0 0 133.75204811120057 309.07021057717066 0 309.07021057717066 -607.07192141517589 0 0 0 0 111.77202222061896 227.76399946921447 0 227.76399946921447 -706.2839182103271 0 0 0 0 -26.323270385433716 393.48087272611883 0 393.48087272611883 -810.24499641115835 0 0 0 0 -29.339417922172288 384.46775701794104 0 384.46775701794104 -275.24366680117964 0 0 0 0 5.375024999899324 256.28872569446685 0 256.28872569446685 -14.982366534855828 0 0 0 0 -222.53569752907788 580.72687822725129 0 580.72687822725129 -164.12167832070554 0 0 0 0 175.38200193084776 232.34612506687699 0 232.34612506687699 -473.85894471756183 0 0 0 0 171.08246109330503 406.64712046874047 0 406.64712046874047 -588.52317555786431 0 0 0 0 142.13824502879834 426.33902953498546 0 426.33902953498546 -582.01758208085084 0 0 0 0 133.61274253475131 374.55828294402454 0 374.55828294402454 -404.50492497063533 0 0 0 0 183.67851521967532 629.36252807605342 0 629.36252807605342 -764.40330926947354 0 0 0 0 273.6619523008485 508.89605890470557 0 508.89605890470557 -614.28997582285592 0 0 0 0 63.112189021710947 628.63446854899667 0 628.63446854899667 -567.41717253663228 0 0 0 0 91.272068302925618 567.34155051877315 0 567.34155051877315 -466.4129065120942 0 0 0 0 -38.37349976781843 720.46065664052003 0 720.46065664052003 -754.14513917942531 0 0 0 0 -51.17617750413774 722.00151795120837 0 722.00151795120837 -642.32475995828281 0 0 0 0 95.419284057199548 836.467838598448 0 836.467838598448 -685.32047493034042 0 0 0 0 -48.566631142603001 568.81615468468226 0 568.81615468468226 -757.40809707806329 0 0 0 0 -57.816421811177861 575.83004834395979 0 575.83004834395979 -649.67381001344893 0 0 0 0 33.558885352251764 42.701896465987801 0 42.701896465987801 -116.98607412718735 0 0 0 0 357.79100745045434 523.83288968986744 0 523.83288968986744 -767.49773200853087 0 0 0 0 402.68244971915556 640.73385610469268 0 640.73385610469268 -764.06672443325351 0 0 0 0 672.37366221602133 812.27466545685456 0 812.27466545685456 -693.53236720591849 0 0 0 0 560.15117572991585 407.55990125240351 0 407.55990125240351 -408.28689554522862 0 0 0 0 22.668151582530328 34.036345381711158 0 34.036345381711158 -123.35658848774423 0 0 0 0 -245.8728691686556 542.81549118318071 0 542.81549118318071 -821.55430424533552 0 0 0 0 -404.0849665486021 746.68892938020144 0 746.68892938020144 -174.41477675926762 0 0 0 0 -118.13770707407093 312.68573214347998 0 312.68573214347998 -506.42526395162713 0 0 0 0 -304.78096286691289 588.69276169018485 0 588.69276169018485 -912.1765057083976 0 0 0 0 -901.61005976125307 140.51193218402477 0 140.51193218402477 -803.05265678734554 0 0 0 0 -38.373499767738394 720.4606566405273 0 720.4606566405273 -754.1451391794435 0 0 0 0 249.76569878364535 563.16697928597932 0 563.16697928597932 678.12568703210127 0 0 0 0 216.38448807466193 364.71669819263116 0 364.71669819263116 18.559839986681254 0 0 0 0 54.050380747969029 419.04062182120288 0 419.04062182120288 -652.21319907926227 0 0 0 0 83.54426210829115 254.49093152182922 0 254.49093152182922 197.63482015727641 0 0 0 0 353.49319850682514 194.82463623776857 0 194.82463623776857 -324.54694291156648 0 0 0 0 640.52327374812194 -66.497602845789743 0 -66.497602845789743 -400.24542072258191 0 0 0 0 302.32012704815133 -128.75211618148751 0 -128.75211618148751 -254.13290937883721 0 0 0 0 83.755257280194201 -22.040927635327535 0 -22.040927635327535 -226.0750003978319 0 0 0 0 90.526342069976408 -153.35884079965786 0 -153.35884079965786 -514.46085911646514 0 0 0 0 61.92634052977715 37.447516524485366 0 37.447516524485366 -95.847186853616051 0 0 0 0 150.23654470017209 163.25763195005129 0 163.25763195005129 156.55084430798888 0 0 0 0 -10.905415884049418 56.23130931134628 0 56.23130931134628 -2.0139751326609598 0 0 0 0 101.29684724843506 86.651880140500737 0 86.651880140500737 -41.573783543449224 0 0 0 0 296.00070509052603 32.708285542368685 0 32.708285542368685 -418.09308264765241 0 0 0 0 324.18867168701399 64.199960575668229 0 64.199960575668229 -404.26128029860774 0 0 0 0 -24.351061306682368 31.272340960322367 0 31.272340960322367 -5.8018903966380435 0 0 0 0 -290.2701376167679 703.44691868358495 0 703.44691868358495 -383.76740875453106 0 0 0 0 63.833501675626792 32.228382330671622 0 32.228382330671622 -106.78771825607834 0 0 0 0 -264.1298697942766 405.51606043034553 0 405.51606043034553 149.90250558892149 0 0 0 0 -38.37349976785481 720.46065664043999 0 720.46065664043999 -754.14513917942531 0 0 0 0 191.70265015134646 211.89235637646925 0 211.89235637646925 217.1807097751298 0 0 0 0 -77.303672603549785 -85.863289667624485 0 -85.863289667624485 -304.20285960490764 0 0 0 0 -76.104254941659747 -93.408721948722814 0 -93.408721948722814 -1366.4926682369423 0 0 0 0 208.72037846851163 279.08304053988832 0 279.08304053988832 91.879923344560666 0 0 0 0 90.870619353816437 37.818838405655697 0 37.818838405655697 60.257370540561169 0 0 0 0 27.809182660583247 243.89221129758334 0 243.89221129758334 -75.387892780796392 0 0 0 0 136.28618843945748 121.98308337077933 0 121.98308337077933 21.632794389517798 0 0 0 0 226.90084226475665 187.59672817748651 0 187.59672817748651 72.008059303712798 0 0 0 0 236.05056273962873 405.07179851680121 0 405.07179851680121 556.51773543420495 0 0 0 0 -0.63813347322071934 7.9278189261273155 0 7.9278189261273155 1.0651602934283346 0 0 0 0 -5.6335229986584636 121.31814552095784 0 121.31814552095784 974.8288639869279 0 0 0 0 -63.003896618040017 -18.524876353467334 0 -18.524876353467334 869.43566233718593 0 0 0 0 167.01879560833186 232.10440513140929 0 232.10440513140929 78.179239192890236 0 0 0 0 160.20689107737917 184.25356780350558 0 184.25356780350558 82.237691105692647 0 0 0 0 134.36643538707213 117.24929905657282 0 117.24929905657282 0.7196615196793914 0 0 0 0 25.734482136052559 62.743474433610373 0 62.743474433610373 -30.401335984392574 0 0 0 0 202.98812599285793 287.42886246603666 0 287.42886246603666 165.01794615125982 0 0 0 0 -7.3879136864942652 32.647958600089481 0 32.647958600089481 -78.20622347787247 0 0 0 0 317.62776701223265 401.42482191963791 0 401.42482191963791 21.330570679623634 0 0 0 0 139.3898327500392 442.62297720705828 0 442.62297720705828 -101.94104314755532 0 0 0 0 251.90144216942826 267.22608006169321 0 267.22608006169321 156.05333864096974 0 0 0 0 321.84995810554028 190.51891606068239 0 190.51891606068239 -279.91978842866229 0 0 0 0 190.1718331734246 317.49457455518132 0 317.49457455518132 -397.08157422736986 0 0 0 0 327.0373181178411 174.35667537171685 0 174.35667537171685 -46.814711383627582 0 0 0 0 345.4000537102886 239.3592311216089 0 239.3592311216089 -235.20718264221796 0 0 0 0 44.135255412802508 349.54864591127262 0 349.54864591127262 -300.26758320028966 0 0 0 0 630.11105454801509 131.20743199352728 0 131.20743199352728 -328.39784848736599 0 0 0 0 412.36150328777967 71.627285118658619 0 71.627285118658619 -226.91844253896852 0 0 0 0 412.85092009575055 84.809624909506965 0 84.809624909506965 -379.77034893661039 0 0 0 0 146.58334437896474 452.89636848544797 0 452.89636848544797 -422.23960374324815 0 0 0 0 299.52886666538689 326.86981286329683 0 326.86981286329683 -706.82250411312634 0 0 0 0 77.995330451587506 383.84514665071038 0 383.84514665071038 -306.87310332209745 0 0 0 0 160.31814412836047 279.16660134830454 0 279.16660134830454 -359.56542763719335 0 0 0 0 65.500741807241866 506.30888271611184 0 506.30888271611184 -709.1862449955679 0 0 0 0 35.99849349287706 261.61241257686925 0 261.61241257686925 -531.00983660714701 0 0 0 0 225.84511338997254 51.359591772015847 0 51.359591772015847 -16.294270894431975 0 0 0 0 -106.09104957458476 480.65891070946236 0 480.65891070946236 -224.86300165929424 0 0 0 0 -2215.2910324337081 821.42049580212188 0 821.42049580212188 307.49136332285707 0 0 0 0 -1455.0499445287933 1824.3086400336033 0 1824.3086400336033 1168.9564438589441 0 0 0 0 -0.65857514876382695 -0.012273297575667641 0 -0.012273297575667641 -8.6041629780129369 0 0 0 0 22.543378595793456 -447.79859448044408 0 -447.79859448044408 847.59748520955327 0 0 0 0 1150.1299938724005 -463.23678643054154 0 -463.23678643054154 -133.781648579592 0 0 0 0 -1300.616825284571 -77.699690489040222 0 -77.699690489040222 -295.38450343965087 0 0 0 0 -691.93510876521032 503.65858628219576 0 503.65858628219576 -472.64820362676983 0 0 0 0 -1146.6178656477932 79.470686739310622 0 79.470686739310622 58.235166080485214 0 0 0 0 -1317.0160184474053 1313.0498515490217 0 1313.0498515490217 -78.5209139426006 0 0 0 0 -316.42162677189481 1179.8779319173482 0 1179.8779319173482 -499.64836900688533 0 0 0 0 270.85842587955995 -466.8945425922866 0 -466.8945425922866 190.30794026637159 0 0 0 0 727.22018382132956 145.88208302174462 0 145.88208302174462 -381.12093208052647 0 0 0 0 -481.72128279092431 529.26032224766095 0 529.26032224766095 -359.41461543207151 0 0 0 0 114.20271975580545 -24.090460317936959 0 -24.090460317936959 -216.88754477660405 0 0 0 0 -933.4714806404445 214.01221424403775 0 214.01221424403775 -227.31760816636961 0 0 0 0 -63.662952231898089 -80.017386572930263 0 -80.017386572930263 -1.0794891357945744 0 0 0 0 -214.38191489137535 -14.188582108239643 0 -14.188582108239643 -117.65068156964844 0 0 0 0 -487.64837380351673 429.15664873013156 0 429.15664873013156 -311.10991160347476 0 0 0 0 -536.4746022370382 326.03566357758245 0 326.03566357758245 -229.03922262108699 0 0 0 0 -66.695406777951575 203.34851094978512 0 203.34851094978512 -310.08580059267115 0 0 0 0 -72.904491879853595 208.92076335604361 0 208.92076335604361 70.818000480852788 0 0 0 0 128.17230904885218 99.649276270385599 0 99.649276270385599 99.739218710652494 0 0 0 0 121.99846703302319 46.756484210767667 0 46.756484210767667 93.000904776388779 0 0 0 0 -100.39860120959929 95.416482480388368 0 95.416482480388368 -41.619331779024833 0 0 0 0 83.608088700610097 -23.846192894940032 0 -23.846192894940032 -36.825841069279704 0 0 0 0 209.11389817900999 267.65000254056213 0 267.65000254056213 229.30622592751752 0 0 0 0 114.69878675183645 19.075675685904571 0 19.075675685904571 269.75469007337233 0 0 0 0 169.22706460009067 -25.77998623350868 0 -25.77998623350868 177.04507856603595 0 0 0 0 19.399044724281339 10.182469767324278 0 10.182469767324278 2.083182751882898 0 0 0 0 231.01809898150532 24.989777355222031 0 24.989777355222031 43.414108065029723 0 0 0 0 260.35758357655141 91.898868788361142 0 91.898868788361142 168.07437623507576 0 0 0 0 -13.29905396396498 -18.589695775473956 0 -18.589695775473956 221.21539936383488 0 0 0 0 75.717973457460175 73.082676995109068 0 73.082676995109068 169.11637588232406 0 0 0 0 -70.231065657491854 -266.79501866294595 0 -266.79501866294595 465.90231944722473 0 0 0 0 8.8946054347360501 9.4830281901730018 0 9.4830281901730018 1.8474999960389873 0 0 0 0 57.512971717347682 -154.3573678828252 0 -154.3573678828252 -50.266789545934444 0 0 0 0 15.633731461093703 -144.51720776797447 0 -144.51720776797447 248.20760715942015 0 0 0 0 75.126314661130891 -105.71707614467596 0 -105.71707614467596 89.507423170504808 0 0 0 0 123.73219759877247 -23.18003879126627 0 -23.18003879126627 219.94392481230898 0 0 0 0 5.1920029815883026 -59.084303472292959 0 -59.084303472292959 306.48269009278738 0 0 0 0 42.949264118557039 95.255026384686062 0 95.255026384686062 -101.88771898829145 0 0 0 0 232.93680024043351 296.87868429821538 0 296.87868429821538 506.59121014917037 0 0 0 0 -133.70695337590587 -128.34917885408504 0 -128.34917885408504 177.0560797351136 0 0 0 0 -19.8248138630006 129.07742369204061 0 129.07742369204061 35.411150743180769 0 0 0 0 5.2045580362930082 87.524107197144673 0 87.524107197144673 29.314771241219603 0 0 0 0 -90.171778180767433 -387.43860286014387 0 -387.43860286014387 834.96221100259572 0 0 0 0 153.5276962975986 200.836128502473 0 200.836128502473 -231.70246339356527 0 0 0 0 45.694027603043651 223.16651279561484 0 223.16651279561484 -494.45797586256231 0 0 0 0 177.90529963669542 23.647599044808885 0 23.647599044808885 -493.16751570829365 0 0 0 0 -25.374580950734071 -139.03090791102613 0 -139.03090791102613 -185.61305144798825 0 0 0 0 39.335579526807123 108.61799721549323 0 108.61799721549323 -705.81955671292599 0 0 0 0 172.10947194072651 84.244442405448353 0 84.244442405448353 -478.56842201377731 0 0 0 0 107.79412612694432 191.98645414327621 0 191.98645414327621 -361.65440218169533 0 0 0 0 171.91556395008956 48.486009467116673 0 48.486009467116673 -265.67050460216706 0 0 0 0 57.846102828400035 205.6306216801604 0 205.6306216801604 -160.93773619865533 0 0 0 0 86.170334823880694 296.07461777181015 0 296.07461777181015 -388.63532014771772 0 0 0 0 105.02690327669188 140.31359554092523 0 140.31359554092523 -250.88838167395443 0 0 0 0 122.27990910306107 180.44012006736011 0 180.44012006736011 -219.8378055380781 0 0 0 0 41.014475087380561 257.89814606531581 0 257.89814606531581 -195.70760888038785 0 0 0 0 68.967406720315921 210.3958212850157 0 210.3958212850157 -133.08990004978841 0 0 0 0 -0.84271902464388404 162.34617931870162 0 162.34617931870162 27.342062715841166 0 0 0 0 119.91747862148623 145.79926153969427 0 145.79926153969427 -162.07239792571636 0 0 0 0 86.470140827333395 106.45749910433983 0 106.45749910433983 35.293864438024386 0 0 0 0 0.14083355306495093 10.87630716672885 0 10.87630716672885 1.7788675906709912 0 0 0 0 171.25232598954608 257.05016482473002 0 257.05016482473002 576.96087400299257 0 0 0 0 -104.96176440089039 -320.62000466353493 0 -320.62000466353493 923.09514896759356 0 0 0 0 40.354291345095618 96.607384545663677 0 96.607384545663677 31.118187066017526 0 0 0 0 592.17521892972582 1072.3779241951561 0 1072.3779241951561 -294.58140697710405 0 0 0 0 527.30692045403703 -950.18277613510872 0 -950.18277613510872 -5748.3121368995053 0 0 0 0 -3.1534889944887254 1945.2944894608663 0 1945.2944894608663 0.15307939947524574 0 0 0 0 0.20423332990037579 8.3149846311943634 0 8.3149846311943634 11.166505463106148 0 0 0 0 3326.1994521041779 2246.2640354235118 0 2246.2640354235118 -1775.3738094969231 0 0 0 0 -684.03026092579239 1357.3153669054591 0 1357.3153669054591 -306.18689873504627 0 0 0 0 -1587.4635534985719 658.88305024164947 0 658.88305024164947 -197.32783476822078 0 0 0 0 -340.09214703160978 957.44176700957178 0 957.44176700957178 -652.61971712300146 0 0 0 0 -416.65198098294059 829.90650479204487 0 829.90650479204487 315.95789683487965 0 0 0 0 -235.6974578705267 1070.7871093662925 0 1070.7871093662925 -442.47131351901044 0 0 0 0 454.96437618968775 909.5131485265083 0 909.5131485265083 -555.18929862849473 0 0 0 0 68.053915331780445 133.67349395224301 0 133.67349395224301 -248.81179939910362 0 0 0 0 127.05478061721078 214.12202590015659 0 214.12202590015659 -1298.3675342395363 0 0 0 0 211.63409955785028 1043.2664176289836 0 1043.2664176289836 4115.9145309386295 0 0 0 0 16.79525163427104 83.665290531642654 0 83.665290531642654 16.399435978396539 0 0 0 0 240.1218370993156 -753.98151591839269 0 -753.98151591839269 3128.6475978829549 0 0 0 0 149.93181996021303 58.816210536533617 0 58.816210536533617 -1107.147382424715 0 0 0 0 -8.1491420010866022 11.115576190797356 0 11.115576190797356 29.91326590342652 0 0 0 0 -1283.6582084019319 522.0355478211568 0 522.0355478211568 9493.8857246749503 0 0 0 0 -12.584086144136677 38.626197035087728 0 38.626197035087728 -26.244259795810422 0 0 0 0 57.103528599109268 71.445908160327235 0 71.445908160327235 -59.808590886328602 0 0 0 0 1300.4301578615268 1638.2655255111313 0 1638.2655255111313 6806.7993446207256 0 0 0 0 495.53816785006074 397.81504335950467 0 397.81504335950467 -1761.1303290268406 0 0 0 0 -97.733981780693284 -504.8939855699482 0 -504.8939855699482 -1923.3689269005408 0 0 0 0 -7.2534171137893395 6.8299167955884741 0 6.8299167955884741 -16.024196157459414 0 0 0 0 0.17273764885612763 91.176819391395838 0 91.176819391395838 46.480770731519442 0 0 0 0 28.23916151560843 53.530231644093874 0 53.530231644093874 37.510319274006179 0 0 0 0 -0.10591662440189374 102.44051594538071 0 102.44051594538071 -17.110868302697781 0 0 0 0 23.177097818900165 17.676391474207691 0 17.676391474207691 4.6882285108407729 0 0 0 0 57.75263977854047 96.28094052078086 0 96.28094052078086 -78.509158889828541 0 0 0 0 -0.75448498368496075 3686.7068830388962 0 3686.7068830388962 6016.3890419828895 0 0 0 0 1659.6929607684651 2924.2400803872879 0 2924.2400803872879 2.8730520135504776 0 0 0 0 593.47748784953728 799.38455288138357 0 799.38455288138357 5901.4948012518144 0 0 0 0 -180.36956157952955 1694.7881015523817 0 1694.7881015523817 5488.3903294050542 0 0 0 0 1093.6227431746811 742.4420276976598 0 742.4420276976598 1282.1679361603165 0 0 0 0 3.098757485142869 9.7656214592718698 0 9.7656214592718698 7.022063879122534 0 0 0 0 -6.4322974876849912 4638.5164931601867 0 4638.5164931601867 5766.8217045657266 0 0 0 0 878.49559715238865 3679.0836609460966 0 3679.0836609460966 855.8755499215622 0 0 0 0 557.58646291241166 3326.7523351995915 0 3326.7523351995915 1202.5398829955084 0 0 0 0 620.38011499956338 2068.4170137566243 0 2068.4170137566243 1985.7762166270113 0 0 0 0 769.02251103888557 2803.3689950818225 0 2803.3689950818225 2490.6079641975812 0 0 0 0 51.840086046489887 2048.4443474505824 0 2048.4443474505824 5976.4049256156186 0 0 0 0 3.1442561454679208 11.119066482271251 0 11.119066482271251 5.370536691225082 0 0 0 0 570.78406790414738 1115.2842137871266 0 1115.2842137871266 3942.3750638542406 0 0 0 0 -248.14321466664114 111.36500837112908 0 111.36500837112908 2498.2002827559772 0 0 0 0 551.07715444272617 2630.4973722619907 0 2630.4973722619907 4833.8446219027101 0 0 0 0 313.68379834105144 1678.071523815408 0 1678.071523815408 2773.9361836692296 0 0 0 0 261.92947198398178 1276.9243591921841 0 1276.9243591921841 1413.0009789291944 0 0 0 0 758.21839341644954 1055.4959335058375 0 1055.4959335058375 652.98587188540841 0 0 0 0 118.58539545377425 -51.219254267823999 0 -51.219254267823999 987.52685640046184 0 0 0 0 1685.9309730360546 1893.4719433020236 0 1893.4719433020236 460.23876060445036 0 0 0 0 793.44574483369979 1381.5453340839085 0 1381.5453340839085 896.80687346993363 0 0 0 0 835.81006751477253 2513.5853800663317 0 2513.5853800663317 959.73539638640068 0 0 0 0 682.02474371711651 1835.5635209925185 0 1835.5635209925185 1740.8055113854061 0 0 0 0 1134.6537670377293 2788.5951035282924 0 2788.5951035282924 1154.0516880129144 0 0 0 0 2324.2889791256312 1810.8947774193148 0 1810.8947774193148 1162.4960110794577 0 0 0 0 993.67236522273015 2152.2685557153673 0 2152.2685557153673 3359.6620994881087 0 0 0 0 11.952363974295679 9.6070649312761134 0 9.6070649312761134 -0.095356368575870931 0 0 0 0 147.30212299749837 -709.68998619118065 0 -709.68998619118065 -1282.7137949397475 0 0 0 0 557.56266649079771 1042.534231870035 0 1042.534231870035 922.33420289825881 0 0 0 0 24.495052831363409 18.47806996302387 0 18.47806996302387 -2.8799872736419658 0 0 0 0 558.53787203351749 617.05589129972577 0 617.05589129972577 -1318.0053336042474 0 0 0 0 103.20674703431723 299.38513843496185 0 299.38513843496185 -529.01293173644808 0 0 0 0 -262.26003700419096 507.39677128659969 0 507.39677128659969 26.629310913645895 0 0 0 0 -3.1426890114505568 11.345817620673586 0 11.345817620673586 -1.1945539982783622 0 0 0 0 -1.4715977409711058 5.8764084915020476 0 5.8764084915020476 -0.85516043663876218 0 0 0 0 510.65365532669239 289.10725219882443 0 289.10725219882443 -1283.1885214992094 0 0 0 0 -306.38623619035934 171.30805847588636 0 171.30805847588636 377.03492966084741 0 0 0 0 24.789904114644742 18.030054124406888 0 18.030054124406888 416.48067065533542 0 0 0 0 -49.747261859156424 140.80513125043944 0 140.80513125043944 279.18859678607259 0 0 0 0 -186.53615586581873 276.2872771298571 0 276.2872771298571 545.09175306704128 0 0 0 0 136.55602190247737 5.8430133605870651 0 5.8430133605870651 673.92379290709505 0 0 0 0 -44.000361988888471 312.48215129651726 0 312.48215129651726 658.61059672560077 0 0 0 0 -115.16415849619352 218.87396731620083 0 218.87396731620083 49.254776857735123 0 0 0 0 -29.466611303461832 467.09477520822838 0 467.09477520822838 -454.14993804877304 0 0 0 0 -75.971890695742331 218.22300955977698 0 218.22300955977698 877.15317490370944 0 0 0 0 19.403595796198545 99.267849582774716 0 99.267849582774716 22.999412733505054 0 0 0 0 -186.5075772233613 -55.580438448334462 0 -55.580438448334462 1252.6489512293774 0 0 0 0 401.28433690140082 446.14539508874441 0 446.14539508874441 -913.73701931189862 0 0 0 0 319.84442552275141 305.62862670476898 0 305.62862670476898 1593.1739796580659 0 0 0 0 23.871266805432015 91.915765199286483 0 91.915765199286483 21.997762717799262 0 0 0 0 -147.23209578465321 568.97245945105897 0 568.97245945105897 368.33354477690591 0 0 0 0 -116.85616136530007 -33.319308850077505 0 -33.319308850077505 676.88624873802473 0 0 0 0 8.876924875061377 805.3959949745331 0 805.3959949745331 -856.28668897806347 0 0 0 0 -155.99675801681587 1266.6187531885807 0 1266.6187531885807 -191.6475053546601 0 0 0 0 0.41633617613496199 7.6300667000723692 0 7.6300667000723692 9.6589546852333683 0 0 0 0 -163.55656972029828 167.95246979511285 0 167.95246979511285 113.52008532838954 0 0 0 0 -154.84340990384953 183.51030433175038 0 183.51030433175038 -68.890133922206587 0 0 0 0 -109.73838823113329 250.95941309115369 0 250.95941309115369 103.8672417000198 0 0 0 0 -215.58246862294618 208.77961042902461 0 208.77961042902461 88.546909647877328 0 0 0 0 -26.669988184716203 95.896563700305705 0 95.896563700305705 113.63768852846079 0 0 0 0 -48.015473685445613 178.0199314635538 0 178.0199314635538 64.66068554875983 0 0 0 0 -169.03395170447766 195.84431532669987 0 195.84431532669987 69.420006993974312 0 0 0 0 -76.606391465949855 168.64589399902252 0 168.64589399902252 -59.705539687973214 0 0 0 0 -88.023544103275185 53.626811199826733 0 53.626811199826733 20.84994457865821 0 0 0 0 -75.967780008169939 183.8519283382775 0 183.8519283382775 82.756858809771074 0 0 0 0 -873.77824397869517 -714.44207811559681 0 -714.44207811559681 969.01130018004915 0 0 0 0 -54.818715141969733 1095.9070973417984 0 1095.9070973417984 1606.5415425317988 0 0 0 0 379.38508011851718 -280.53702834477281 0 -280.53702834477281 -63.98384449891455 0 0 0 0 -551.49184288288234 -250.16985561278125 0 -250.16985561278125 -24.983586584774457 0 0 0 0 -88.518118226115121 57.070908202078812 0 57.070908202078812 54.427309475864774 0 0 0 0 15.086159678018873 113.35105378453775 0 113.35105378453775 24.164830324535856 0 0 0 0 15.716717404488008 143.95744325737542 0 143.95744325737542 153.01535598155897 0 0 0 0 25.032965128149954 244.8099158408877 0 244.8099158408877 414.47652186617779 0 0 0 0 -190.6116654496509 66.088254055561265 0 66.088254055561265 238.551596223042 0 0 0 0 -118.9253179484121 83.247554336734709 0 83.247554336734709 30.566197263340186 0 0 0 0 421.36824649118353 81.599069048294041 0 81.599069048294041 -733.16272935380402 0 0 0 0 -15.960167101730093 20.145026833545103 0 20.145026833545103 40.030480899150177 0 0 0 0 11.173538990625786 -4.1077627351974115 0 -4.1077627351974115 -8.8494075656077484 0 0 0 0 7.2180578830157174 224.65919816138921 0 224.65919816138921 396.28838093401282 0 0 0 0 63.38004291523248 257.52786347315123 0 257.52786347315123 399.58272182216569 0 0 0 0 27.201226655190112 286.83919572795276 0 286.83919572795276 467.65653219776868 0 0 0 0 -20.278150243320852 243.42539491241041 0 243.42539491241041 429.00260301168601 0 0 0 0 36.364443276019301 143.40513877011108 0 143.40513877011108 547.75630313550937 0 0 0 0 16.369438320354334 100.7614598394556 0 100.7614598394556 23.943742680775244 0 0 0 0 -136.49826676488738 141.67372172202158 0 141.67372172202158 925.16900824257755 0 0 0 0 -30.500076261261711 141.38674012561387 0 141.38674012561387 458.92052469516057 0 0 0 0 379.82644311988406 349.62652477918891 0 349.62652477918891 1.9041049919032957 0 0 0 0 -95.112465222129686 315.64883587324039 0 315.64883587324039 459.30984545365209 0 0 0 0 -124.32159805641641 381.29955743505707 0 381.29955743505707 234.40972140795202 0 0 0 0 -21.373170266917441 206.14452236646321 0 206.14452236646321 277.31544910296361 0 0 0 0 -1.909049296702392 11.722908229613381 0 11.722908229613381 -0.87730757947717386 0 0 0 0 30.089101489880704 171.13294139552454 0 171.13294139552454 176.32509215080063 0 0 0 0 -101.28792737633921 183.13941744047042 0 183.13941744047042 292.57587159012473 0 0 0 0 -61.98805190193525 27.802106026399997 0 27.802106026399997 -22.764864327327814 0 0 0 0 -262.5274821689527 -68.655187763113645 0 -68.655187763113645 -184.849760595308 0 0 0 0 0.40367596168653108 115.78753511574178 0 115.78753511574178 351.99438837847083 0 0 0 0 193.65808683876821 198.38260903079572 0 198.38260903079572 -922.27580322392168 0 0 0 0 -43.611420362634817 66.597454673676111 0 66.597454673676111 -534.59377247332304 0 0 0 0 23.583192157880376 23.444365176938788 0 23.444365176938788 -4.2533704793031575 0 0 0 0 45.19501518832476 151.86825080906601 0 151.86825080906601 -149.32783156042569 0 0 0 0 37.639233119087294 176.01334897695051 0 176.01334897695051 178.84539279996534 0 0 0 0 18.830952297321858 26.333781563473849 0 26.333781563473849 -4.9451954558736304 0 0 0 0 -40.840667499447591 64.27875163423596 0 64.27875163423596 -544.87777431029099 0 0 0 0 125.65549817450665 54.299613754650636 0 54.299613754650636 -775.65192711773852 0 0 0 0 -0.15403989323800715 8.1497545089341656 0 8.1497545089341656 -0.47727852836646711 0 0 0 0 32.570847548107849 167.40031503808859 0 167.40031503808859 570.9909644456784 0 0 0 0 14.984287052677246 219.26837499819521 0 219.26837499819521 644.23586428571434 0 0 0 0 12.993767970314366 88.280225803704525 0 88.280225803704525 339.15288738210802 0 0 0 0 -34.704046538370676 257.67051786072807 0 257.67051786072807 493.11002015238046 0 0 0 0 54.19711595211993 154.68435298016993 0 154.68435298016993 578.46775529818842 0 0 0 0 237.2699830217025 489.32867119680304 0 489.32867119680304 699.97950309558655 0 0 0 0 55.658098785032053 128.8063808930965 0 128.8063808930965 427.45093615504447 0 0 0 0 -189.79967867901723 131.21124905681063 0 131.21124905681063 591.0509821070882 0 0 0 0 -182.47575148298347 56.594042355543934 0 56.594042355543934 384.77081071201246 0 0 0 0 -33.380699912511773 188.54791082314841 0 188.54791082314841 56.877513944171369 0 0 0 0 -121.64446419318847 33.23014523605525 0 33.23014523605525 332.3984464454843 0 0 0 0 15.183164829737507 300.87439295252261 0 300.87439295252261 450.68080216765884 0 0 0 0 -17.324964705781895 152.7586321794588 0 152.7586321794588 40.708406437683152 0 0 0 0 -81.807047426962527 227.41727333418385 0 227.41727333418385 -245.67268994613551 0 0 0 0 14.486415930691692 27.766357182565116 0 27.766357182565116 -1.1220306178021247 0 0 0 0 15.840238794335164 11.078567577991635 0 11.078567577991635 -105.27582810359308 0 0 0 0 -10.145790262700757 125.2301251887111 0 125.2301251887111 -328.63353110193566 0 0 0 0 -288.61069346208387 182.66340932142339 0 182.66340932142339 -0.65856899903883459 0 0 0 0 4.2951510917323503 0.12657794131422406 0 0.12657794131422406 -5.8895552745373152 0 0 0 0 -29.15877776670095 81.505037518232712 0 81.505037518232712 -137.4197703214013 0 0 0 0 -88.304807286331197 191.70875824683753 0 191.70875824683753 24.730377295869403 0 0 0 0 2.6111033591263322 21.985045556423259 0 21.985045556423259 29.805160149653545 0 0 0 0 -687.69034281645145 549.46425441805332 0 549.46425441805332 -194.93403032542392 0 0 0 0 -24.464325939326955 111.3264219313096 0 111.3264219313096 31.084492646332365 0 0 0 0 -631.41480062332994 520.33963910635794 0 520.33963910635794 -360.90250726305021 0 0 0 0 4.7957675030920655 61.510492264060304 0 61.510492264060304 -275.24118360133434 0 0 0 0 0.8137538315530719 6.0601181457992652 0 6.0601181457992652 5.8641379932989892 0 0 0 0 -598.52995356803876 408.68928406473424 0 408.68928406473424 -155.43472856572407 0 0 0 0 -503.42118247796316 249.97135439672275 0 249.97135439672275 211.70825046123355 0 0 0 0 -476.35146749064734 391.62125851654855 0 391.62125851654855 -205.13844916352537 0 0 0 0 -417.05051826771887 255.09769980574492 0 255.09769980574492 -141.57547107699793 0 0 0 0 -613.88574007585703 369.55590731081611 0 369.55590731081611 -33.242317776777782 0 0 0 0 -110.94415838391114 501.63970372062067 0 501.63970372062067 -216.92811805589008 0 0 0 0 -654.36751923175325 424.48689668091538 0 424.48689668091538 71.208666064063436 0 0 0 0 -644.49689796350867 839.12400944404362 0 839.12400944404362 -585.705643957961 0 0 0 0 1.1178966811141891 16.32743508928742 0 16.32743508928742 26.205474554116222 0 0 0 0 -116.77548735485379 -13.410671634069331 0 -13.410671634069331 398.08648921540589 0 0 0 0 -110.81212440128729 1.7449286790360929 0 1.7449286790360929 384.33217013360263 0 0 0 0 6.135657434046152 -361.57237655611243 0 -361.57237655611243 1006.8152698146587 0 0 0 0 -87.310359079077898 391.05538419373624 0 391.05538419373624 629.90505421237322 0 0 0 0 -120.51676595380954 82.744363095818926 0 82.744363095818926 22.982806691290754 0 0 0 0 16.301137662812835 187.32006943300075 0 187.32006943300075 -147.59899335942464 0 0 0 0 -227.38305875064543 198.00009071802924 0 198.00009071802924 420.27367612023954 0 0 0 0 -180.72038846455689 21.523294082042412 0 21.523294082042412 473.33127956424141 0 0 0 0 -213.17683791147283 103.7304201689949 0 103.7304201689949 343.04228857706767 0 0 0 0 -146.44410679955035 66.619241179199889 0 66.619241179199889 291.64592563362385 0 0 0 0 -361.07526691372186 -165.18938791911933 0 -165.18938791911933 235.70841756474692 0 0 0 0 -135.96676116964954 51.044262006907957 0 51.044262006907957 168.04153746484735 0 0 0 0 -140.8996893906442 191.57123582690838 0 191.57123582690838 123.57344054550049 0 0 0 0 -112.82994456326244 78.116708692245936 0 78.116708692245936 17.315332776424725 0 0 0 0 238.42383975648409 505.20268337280868 0 505.20268337280868 -378.58754562446302 0 0 0 0 -263.02274160064553 -32.516294431683491 0 -32.516294431683491 1032.3986637671915 0 0 0 0 -197.96919958475337 -274.55413644257351 0 -274.55413644257351 181.18329131657083 0 0 0 0 397.43611097938265 -1.7618915196508169 0 -1.7618915196508169 1533.4790145201041 0 0 0 0 90.174199371120267 676.31415544495849 0 676.31415544495849 1085.5430429695989 0 0 0 0 -141.47531050468388 114.04580969868402 0 114.04580969868402 1054.4912564519509 0 0 0 0 -364.17755726440373 595.41525976926641 0 595.41525976926641 2977.2280566219706 0 0 0 0 -672.77260340276553 -113.24996724843368 0 -113.24996724843368 3745.050905643031 0 0 0 0 -647.42458318701392 -1026.9571659731882 0 -1026.9571659731882 595.49610817451867 0 0 0 0 7.9901748179077003 -9.0858218841641758 0 -9.0858218841641758 18.609604389432093 0 0 0 0 2471.946416613624 3300.0260873458465 0 3300.0260873458465 3787.292719995341 0 0 0 0 1786.7220671709438 1722.8063362985995 0 1722.8063362985995 1658.9571801266866 0 0 0 0 -449.22203199224168 217.13946043878968 0 217.13946043878968 53.154020614061665 0 0 0 0 -18.326431471334104 -13.888903900211176 0 -13.888903900211176 73.51847480414699 0 0 0 0 -259.96886224557545 474.28649251574342 0 474.28649251574342 389.53139889208251 0 0 0 0 72.936925935049658 412.08352180284419 0 412.08352180284419 -2662.4218033170719 0 0 0 0 33.023040115023406 67.469382646831605 0 67.469382646831605 7.0611335602300045 0 0 0 0 702.5708290314833 526.2156007119047 0 526.2156007119047 722.94270547587075 0 0 0 0 -30.982541119112284 448.20106138216215 0 448.20106138216215 -1853.3111354887988 0 0 0 0 42.116940556320799 75.909527892085691 0 75.909527892085691 7.0747057244719471 0 0 0 0 38.161877875758364 501.00930494578461 0 501.00930494578461 -1815.5274213561788 0 0 0 0 676.24873677767027 -968.75499635929009 0 -968.75499635929009 3171.5564412791282 0 0 0 0 1043.7640935248346 89.176442184892949 0 89.176442184892949 952.05232937984692 0 0 0 0 64.477997931448044 443.93230254561058 0 443.93230254561058 3141.6282498740584 0 0 0 0 300.66332114222314 1676.3452005383788 0 1676.3452005383788 5290.0631965064676 0 0 0 0 120.2153874467549 1388.6047890326172 0 1388.6047890326172 3565.7231475883164 0 0 0 0 220.14632144586358 264.62118843314238 0 264.62118843314238 3017.835777517239 0 0 0 0 -275.0582520175376 786.24707631721685 0 786.24707631721685 2711.7371488679637 0 0 0 0 -373.79901129408245 534.04545699259324 0 534.04545699259324 4850.718402108876 0 0 0 0 14.69624106142183 47.855588083533974 0 47.855588083533974 5.965158515200919 0 0 0 0 -17.443258929943113 626.84346004436884 0 626.84346004436884 -3642.3677115720493 0 0 0 0 32.742724106141395 698.66778570210954 0 698.66778570210954 -2224.2209103779896 0 0 0 0 -116.40837065154483 463.88601372767516 0 463.88601372767516 -2409.4703487204097 0 0 0 0 -179.35382984956277 544.84821606373589 0 544.84821606373589 -2285.1471777458501 0 0 0 0 -215.79603413968289 906.87446962968534 0 906.87446962968534 -1966.9035772902062 0 0 0 0 -48.921408237656578 547.0561449520319 0 547.0561449520319 -1453.9147090080369 0 0 0 0 37.627031132513366 825.91783626859979 0 825.91783626859979 -1791.3383369925577 0 0 0 0 29.27992422637908 597.0311936955768 0 597.0311936955768 -2109.0880289633496 0 0 0 0 -101.36350201394089 710.82422088363819 0 710.82422088363819 -1910.7202689802725 0 0 0 0 -113.95289417482854 683.17756340705091 0 683.17756340705091 -1525.8361092779232 0 0 0 0 147.72008961316897 733.73543362790952 0 733.73543362790952 -1787.728190561942 0 0 0 0 22.379186263885344 815.08121467238129 0 815.08121467238129 -1823.3561676860845 0 0 0 0 -1127.2095187627128 1716.5981294769017 0 1716.5981294769017 -2189.4213817912387 0 0 0 0 -33.871703688124398 1002.4194856902468 0 1002.4194856902468 -1900.4503555517003 0 0 0 0 -7.0885923824134807 663.00652251791325 0 663.00652251791325 -1331.7944969745877 0 0 0 0 381.78626584159792 671.07660113355814 0 671.07660113355814 -1362.8655024075488 0 0 0 0 3.0605438399490197 1.1433647011582053 0 1.1433647011582053 -2.8375471057972277 0 0 0 0 1281.4395891493768 -384.05116561592149 0 -384.05116561592149 -290.666651664651 0 0 0 0 195.95532018972153 248.0967885866703 0 248.0967885866703 -194.5606512337763 0 0 0 0 314.99245987638642 211.13311139066991 0 211.13311139066991 -212.93689690809697 0 0 0 0 250.475554364044 344.04020056967602 0 344.04020056967602 -287.24818778055487 0 0 0 0 -78.934143745835172 488.00109914743371 0 488.00109914743371 -278.87997631705002 0 0 0 0 71.137865913271526 336.98574594555612 0 336.98574594555612 -268.4584782149177 0 0 0 0 60.574842746049399 340.69144142916775 0 340.69144142916775 -192.123484699041 0 0 0 0 184.45893233835523 266.05998189971433 0 266.05998189971433 -217.52162781442166 0 0 0 0 -82.048338285247155 484.60216500721435 0 484.60216500721435 -262.18573834472772 0 0 0 0 -46.431722916509898 612.94894340881729 0 612.94894340881729 -486.59879106374865 0 0 0 0 -171.42889310169267 431.49880215123267 0 431.49880215123267 -297.05086644768016 0 0 0 0 -155.21259151269442 322.59310157207165 0 322.59310157207165 -129.59341946084169 0 0 0 0 -102.12025362457643 490.01715837091615 0 490.01715837091615 -260.02322973265836 0 0 0 0 -99.673445072367031 516.31941101695702 0 516.31941101695702 -641.21811827174679 0 0 0 0 6.2620151930314023 377.36633936653016 0 377.36633936653016 -584.72685416450258 0 0 0 0 -80.709395590871281 713.35912933241343 0 713.35912933241343 -1352.0362537486035 0 0 0 0 -326.15993522464851 514.31423269282823 0 514.31423269282823 -640.24735670459631 0 0 0 0 -117.63190050992853 470.41072244303359 0 470.41072244303359 -1212.630946267529 0 0 0 0 -295.58744394682799 575.9005703337225 0 575.9005703337225 -552.59822968162189 0 0 0 0 27.233724858873757 613.88153476105072 0 613.88153476105072 -1195.3524993953033 0 0 0 0 -153.67434956905709 284.89965959472829 0 284.89965959472829 -758.28572755385539 0 0 0 0 43.950613364955643 551.27281070972094 0 551.27281070972094 -475.32074689741421 0 0 0 0 -114.9663730942375 237.40348274159624 0 237.40348274159624 -168.57804320933064 0 0 0 0 15.500446513564384 384.52415853923594 0 384.52415853923594 -552.88654953840592 0 0 0 0 -214.27761972316148 519.17801056032113 0 519.17801056032113 -215.47410450798634 0 0 0 0 207.90337517856096 -927.13741987618414 0 -927.13741987618414 600.92989867875804 0 0 0 0 110.5799637106409 155.36350558107483 0 155.36350558107483 156.86264218205017 0 0 0 0 151.40638874495562 450.33375012297074 0 450.33375012297074 -244.38045216495084 0 0 0 0 106.08969035978367 148.65049686706777 0 148.65049686706777 144.70142389886593 0 0 0 0 669.24824168696068 -351.24867233641635 0 -351.24867233641635 61.716343824082287 0 0 0 0 -239.87190727339475 96.615320189364866 0 96.615320189364866 -217.7588406131581 0 0 0 0 -2240.7437814920559 745.85447061432205 0 745.85447061432205 -408.7210873016611 0 0 0 0 -333.14313115837285 224.28778140853319 0 224.28778140853319 1192.2947280935696 0 0 0 0 -15.081154049999896 487.60924035362041 0 487.60924035362041 115.45956330520858 0 0 0 0 -199.40088785476109 452.29727002987056 0 452.29727002987056 644.39729017261561 0 0 0 0 -101.5689928214415 -9.0546455928051728 0 -9.0546455928051728 420.60187367685648 0 0 0 0 -557.27052012671629 556.87047565798457 0 556.87047565798457 557.36472866041731 0 0 0 0 -131.65699965055683 -375.65398294284023 0 -375.65398294284023 1290.5159666047084 0 0 0 0 326.02983620590385 206.44463921376155 0 206.44463921376155 600.58801213459083 0 0 0 0 128.03288171444058 177.61450510322118 0 177.61450510322118 144.5994008935952 0 0 0 0 44.712667997817334 458.6727355158564 0 458.6727355158564 443.88390755990986 0 0 0 0 236.36509794414451 412.03540743632038 0 412.03540743632038 -1788.5822829965909 0 0 0 0 4.3105816560003518 28.358439474068092 0 28.358439474068092 46.652189302810775 0 0 0 0 14.995731692630216 524.03783110462246 0 524.03783110462246 -1569.5255162585236 0 0 0 0 7.7941368794708978 381.34495770526701 0 381.34495770526701 -1532.2892443306337 0 0 0 0 1.5350983124974391 587.87562208182021 0 587.87562208182021 -1168.1667034449638 0 0 0 0 92.111590045358753 721.71438740855956 0 721.71438740855956 -1234.9770551035763 0 0 0 0 358.96194919360278 659.73273285586038 0 659.73273285586038 -1423.4872151134477 0 0 0 0 604.6576281486341 887.50451911205892 0 887.50451911205892 -1240.6943778170389 0 0 0 0 39.959741530110477 995.08503463711713 0 995.08503463711713 -592.4141597886337 0 0 0 0 348.27713211798255 620.82487119924917 0 620.82487119924917 -1241.79268803593 0 0 0 0 1469.3955329283199 870.9967230254988 0 870.9967230254988 -1195.0649011220958 0 0 0 0 436.91135290017701 426.50931414627121 0 426.50931414627121 -383.90415330833639 0 0 0 0 216.7834181379003 877.65410639229231 0 877.65410639229231 -1305.6287830327492 0 0 0 0 460.69303907731955 575.32697010917036 0 575.32697010917036 -1394.5296131849173 0 0 0 0 211.60355484941101 392.00363955209832 0 392.00363955209832 -1490.8404565220117 0 0 0 0 86.440462159007438 158.75823688608943 0 158.75823688608943 -1596.6849612364313 0 0 0 0 -155.9820901619787 403.905723747921 0 403.905723747921 -1792.1015921135695 0 0 0 0 -266.43141682523128 482.88287787939771 0 482.88287787939771 -1244.106130302127 0 0 0 0 -541.96523141490616 764.89280985434743 0 764.89280985434743 -1277.2717904098081 0 0 0 0 -476.61343886391114 943.77968743671954 0 943.77968743671954 -2502.5801473003121 0 0 0 0 -755.73771220736671 1115.5507247379428 0 1115.5507247379428 -1956.2334125832276 0 0 0 0 -165.92904096188431 334.67045736648288 0 334.67045736648288 -2073.1271234233573 0 0 0 0 -330.55804004165111 2868.8188222899626 0 2868.8188222899626 -2217.1549268206554 0 0 0 0 3.4853906034933573 17.388520256541341 0 17.388520256541341 2.0796820328918244 0 0 0 0 518.00416265967942 1812.9777252499189 0 1812.9777252499189 -6105.2738278496981 0 0 0 0 -497.48991034331993 351.22987082557665 0 351.22987082557665 -3342.8637683017441 0 0 0 0 519.68076306082367 1053.6035467761249 0 1053.6035467761249 2993.5535750652343 0 0 0 0 405.18030739609094 -174.67451997768512 0 -174.67451997768512 2283.2387609843572 0 0 0 0 -486.71388257599756 1624.5223797936997 0 1624.5223797936997 6595.1055049587594 0 0 0 0 253.24217908516584 1172.8212024520035 0 1172.8212024520035 419.05842224644948 0 0 0 0 -71.583703636788414 1212.2944654997773 0 1212.2944654997773 934.97599583968986 0 0 0 0 -55.978048433593358 609.75899439152272 0 609.75899439152272 78.210370466083987 0 0 0 0 -209.44670374775887 178.30203550051374 0 178.30203550051374 -60.235171175536379 0 0 0 0 -94.526690295321288 81.686672801040572 0 81.686672801040572 9.2173224660352844 0 0 0 0 267.03172298500431 1702.6963181096689 0 1702.6963181096689 518.77807361673331 0 0 0 0 -58.739481545552565 35.560759717137643 0 35.560759717137643 28.697868193389127 0 0 0 0 1912.2232790793787 907.62397333994159 0 907.62397333994159 -171.25109431108285 0 0 0 0 478.11052469776769 2089.8794477197662 0 2089.8794477197662 -89.839637095377839 0 0 0 0 -116.93509394855209 2043.4565187904591 0 2043.4565187904591 683.61941895695054 0 0 0 0 -538.33183782780543 752.73832136804413 0 752.73832136804413 -789.90866111181094 0 0 0 0 -440.20493786776206 646.12919252356369 0 646.12919252356369 -813.04599310821322 0 0 0 0 -462.79037257443997 750.02524245320819 0 750.02524245320819 -704.4384513324112 0 0 0 0 -458.33945354269235 592.6895847324995 0 592.6895847324995 -639.71163715074726 0 0 0 0 -6.1608414508398255 45.891438713813208 0 45.891438713813208 28.958714842712453 0 0 0 0 -192.95016795810989 260.50422826974136 0 260.50422826974136 -106.39184698939789 0 0 0 0 15.202538100110303 16.232693603155141 0 16.232693603155141 17.747184688216549 0 0 0 0 -521.16485908471805 676.73986796684767 0 676.73986796684767 -765.2450299411139 0 0 0 0 -511.91310480545508 637.62722704483895 0 637.62722704483895 -754.69723336986499 0 0 0 0 -538.74031713857403 676.93169769080123 0 676.93169769080123 -714.52393451279204 0 0 0 0 -351.8027038553264 681.43661083592451 0 681.43661083592451 -776.63884254399454 0 0 0 0 -585.27172657617484 719.32755460383487 0 719.32755460383487 -781.00501518868259 0 0 0 0 -424.20894424035214 864.27265857635211 0 864.27265857635211 -761.59600557455269 0 0 0 0 -662.39324321405729 549.21989506630052 0 549.21989506630052 -931.34998497390188 0 0 0 0 -535.51981062235427 594.93352124709054 0 594.93352124709054 -934.52818607143126 0 0 0 0 -486.73321967630181 787.31369329598965 0 787.31369329598965 -1290.9335639607161 0 0 0 0 -525.61851086685783 782.25506986012624 0 782.25506986012624 -897.14595203341014 0 0 0 0 -513.53949468732753 776.75985740598117 0 776.75985740598117 -899.50888806942385 0 0 0 0 -33.445016998436927 55.058485140350527 0 55.058485140350527 66.361484457555576 0 0 0 0 -612.08840083816904 671.07168291899143 0 671.07168291899143 -573.88605029620521 0 0 0 0 -551.36506104863656 803.87319790549736 0 803.87319790549736 -881.26463305603829 0 0 0 0 7.9762297482229769 110.83964076548 0 110.83964076548 -7.4778103749704314 0 0 0 0 9.3241675978715648 298.84944018093347 0 298.84944018093347 -956.76203488791361 0 0 0 0 8.8585313291047214 31.698576708579481 0 31.698576708579481 -7.3621243663908444 0 0 0 0 -1071.0495000463852 1097.792087338501 0 1097.792087338501 -850.1566433916887 0 0 0 0 17.061275620428141 60.250299725211192 0 60.250299725211192 -36.160655653548872 0 0 0 0 33.676898597470426 99.362014639358677 0 99.362014639358677 -24.152984373882646 0 0 0 0 -4.1189255829958711 81.471693537539977 0 81.471693537539977 -24.070730719337007 0 0 0 0 -45.20204252723488 272.17284682424361 0 272.17284682424361 -184.38130235705466 0 0 0 0 -31.884746734489454 42.316933032605448 0 42.316933032605448 -6.0015734910120955 0 0 0 0 -0.70726853726591798 131.23950844874798 0 131.23950844874798 -162.18975411579595 0 0 0 0 -567.27889489932568 861.7433074349974 0 861.7433074349974 -972.54681041742151 0 0 0 0 -54.120408005079582 46.043878276657296 0 46.043878276657296 82.71201059663457 0 0 0 0 -455.50480958087428 737.86353684988717 0 737.86353684988717 -865.88437760157103 0 0 0 0 -600.28698401659494 773.84536401294281 0 773.84536401294281 -857.14594807985122 0 0 0 0 -122.58050971256407 82.894488712254145 0 82.894488712254145 24.002829779688682 0 0 0 0 40.196902471085195 1141.7434935819329 0 1141.7434935819329 -613.99554969661585 0 0 0 0 -218.1886933073547 1023.1291535200144 0 1023.1291535200144 -1051.0572965555912 0 0 0 0 -104.11752963637056 93.334535913415493 0 93.334535913415493 29.645932683318051 0 0 0 0 -65.002484566088242 936.21962885195535 0 936.21962885195535 -1015.4358112758782 0 0 0 0 98.890550972195342 709.78579485658702 0 709.78579485658702 -1271.2775963601453 0 0 0 0 -63.537062629839056 224.47101140845189 0 224.47101140845189 147.69731826030329 0 0 0 0 41.368923907321857 137.5343803302909 0 137.5343803302909 29.874672351456553 0 0 0 0 104.213422091496 122.68696531763658 0 122.68696531763658 62.531258963845033 0 0 0 0 126.88078947777188 91.543985969140877 0 91.543985969140877 27.768491806123734 0 0 0 0 -82.147869589505717 177.10565956344362 0 177.10565956344362 354.9819367127493 0 0 0 0 -26.998968158768548 65.767758119872269 0 65.767758119872269 202.73503950866871 0 0 0 0 15.319226221981808 347.0221106168101 0 347.0221106168101 -124.98552396913146 0 0 0 0 34.426606132241432 81.304351108941773 0 81.304351108941773 -14.04445820802357 0 0 0 0 146.43232043090393 359.38990609810025 0 359.38990609810025 298.4499049665792 0 0 0 0 -117.57897515548393 440.90272606800499 0 440.90272606800499 820.99065523242552 0 0 0 0 26.528880335259601 472.72597907569434 0 472.72597907569434 27.546714351494302 0 0 0 0 345.46020658606722 571.74354241212859 0 571.74354241212859 -635.32202112884988 0 0 0 0 -151.8073654435575 656.42389759877551 0 656.42389759877551 203.01686151343893 0 0 0 0 444.61990999538102 259.38856737022434 0 259.38856737022434 -536.89458965987433 0 0 0 0 481.57570697357005 489.39769567206531 0 489.39769567206531 -1236.5740447287099 0 0 0 0 -959.07184081865125 1237.0073303607987 0 1237.0073303607987 -437.01144590278273 0 0 0 0 -1051.9496489750891 974.67942378620137 0 974.67942378620137 -1055.9438913259 0 0 0 0 -1.3679738570722435 -12.071215276807635 0 -12.071215276807635 -9.5972358518016563 0 0 0 0 861.90452358206676 563.7801785774609 0 563.7801785774609 -1446.7558102614494 0 0 0 0 1459.6168212189223 -63.163909730406886 0 -63.163909730406886 -790.64880714734318 0 0 0 0 425.44223841013445 307.59872539923799 0 307.59872539923799 132.52366216386145 0 0 0 0 444.74547263883869 441.18588052250925 0 441.18588052250925 12.460393992998434 0 0 0 0 -139.82066166566801 46.790769278672087 0 46.790769278672087 -152.09632780999527 0 0 0 0 -105.08614222778124 291.55145697532134 0 291.55145697532134 -35.821607761448831 0 0 0 0 -107.16881009269855 149.8748703228157 0 149.8748703228157 -15.33764549621992 0 0 0 0 -23.746071081448918 96.06990729914898 0 96.06990729914898 -35.180087726241844 0 0 0 0 -248.67229558441613 234.94428121040619 0 234.94428121040619 43.474685662476986 0 0 0 0 3.1634855838339391 24.058086121035046 0 24.058086121035046 -32.959869712823576 0 0 0 0 495.07672167225246 45.653756190807144 0 45.653756190807144 -180.59743537136819 0 0 0 0 59.677963713848612 165.42412820935684 0 165.42412820935684 18.576716893715844 0 0 0 0 73.348515847697854 178.52749043598305 0 178.52749043598305 354.73555301336455 0 0 0 0 155.66100796539104 377.94070526495943 0 377.94070526495943 156.92026905447347 0 0 0 0 45.890992585659205 115.5727434850598 0 115.5727434850598 -33.688079092266811 0 0 0 0 4.6818220758641473 14.904753211602781 0 14.904753211602781 42.025618893898013 0 0 0 0 71.798649899181328 110.63753008564163 0 110.63753008564163 36.508117320307065 0 0 0 0 27.511493370984681 239.15740647990606 0 239.15740647990606 223.37983755899768 0 0 0 0 87.930622372921789 50.970175906797522 0 50.970175906797522 183.39226781147227 0 0 0 0 53.194486977234192 82.761981721498159 0 82.761981721498159 130.83634234894998 0 0 0 0 -47.025126238748271 116.80707324441391 0 116.80707324441391 -51.625211537553696 0 0 0 0 -8.2697599891980644 100.39918777378625 0 100.39918777378625 -102.29664320540905 0 0 0 0 5.5214157352282314 77.913717700357211 0 77.913717700357211 -0.0030570086315151457 0 0 0 0 -8.1878764748689719 107.78100017360703 0 107.78100017360703 -52.642101054792874 0 0 0 0 -29.565176279749721 102.02843480712181 0 102.02843480712181 -54.189493528479943 0 0 0 0 -8.2718596009362955 95.741880164001486 0 95.741880164001486 -54.251090075165848 0 0 0 0 -238.15200160469976 150.09438375261379 0 150.09438375261379 14.389275767491199 0 0 0 0 0.52845428735403743 1.4161470815491555 0 1.4161470815491555 1.7776345676434175 0 0 0 0 -31.435688595687679 95.554525659623323 0 95.554525659623323 -65.896193410444539 0 0 0 0 -6.4264715149057565 3.4408509466794612 0 3.4408509466794612 -23.079911023243675 0 0 0 0 312.58149803092238 145.0355440418025 0 145.0355440418025 -137.44821025137207 0 0 0 0 2.3755721370896481 23.644405581823634 0 23.644405581823634 -7.2757671893418205 0 0 0 0 -52.304005800484447 116.01444858063769 0 116.01444858063769 -49.124129162635654 0 0 0 0 -1.0056497900807244 71.680865191603885 0 71.680865191603885 -44.957464105063337 0 0 0 0 83.046466866100673 90.127068127170787 0 90.127068127170787 -157.47183042685356 0 0 0 0 -42.218174305438879 102.14963840690325 0 102.14963840690325 -30.971645365963923 0 0 0 0 100.00707174732815 208.71318282161155 0 208.71318282161155 -73.613763990957523 0 0 0 0 423.50060982457944 181.76015780676971 0 181.76015780676971 -186.65365591243608 0 0 0 0 1.4165644252965137 -12.930451941119884 0 -12.930451941119884 -102.29050078891987 0 0 0 0 -473.97537815977557 509.49511533754412 0 509.49511533754412 -551.02011474785104 0 0 0 0 -334.58474710363225 357.79405514912105 0 357.79405514912105 -848.47502561105648 0 0 0 0 -1546.7297072434158 663.12932963494677 0 663.12932963494677 -165.62095229755505 0 0 0 0 -646.77809704145329 1443.7266743939417 0 1443.7266743939417 -1866.5248060023441 0 0 0 0 556.24168754811399 -775.70478763653227 0 -775.70478763653227 -1178.2643296458773 0 0 0 0 -3.8189871693095654 -8.4634119571738324 0 -8.4634119571738324 -34.10497086133978 0 0 0 0 -2328.0594795949728 2005.3953058223524 0 2005.3953058223524 -1590.1017379851546 0 0 0 0 -66.137390264419082 250.38494436372093 0 250.38494436372093 221.50120990740834 0 0 0 0 -148.806511429284 1138.6358577177161 0 1138.6358577177161 -1613.9300620768518 0 0 0 0 -325.60920310174697 1393.1300347393226 0 1393.1300347393226 -1404.6672656418232 0 0 0 0 -551.32256413676077 1187.7823529709312 0 1187.7823529709312 -1450.94416347273 0 0 0 0 23.616312835685676 567.70188239739946 0 567.70188239739946 -1153.4723330111556 0 0 0 0 -93.488472072509467 986.66313614841783 0 986.66313614841783 -2587.0272247656685 0 0 0 0 -329.91746074645198 1161.3936720901984 0 1161.3936720901984 -1616.6175119024647 0 0 0 0 -0.30906823830446228 807.1221850322072 0 807.1221850322072 -1663.0400297034939 0 0 0 0 -329.99594824794622 1049.6879393670606 0 1049.6879393670606 -555.25624948488257 0 0 0 0 -389.07650048774667 481.6047776415362 0 481.6047776415362 -216.89387289059232 0 0 0 0 298.7719991961203 317.64686450588488 0 317.64686450588488 -301.22992556972895 0 0 0 0 -213.84942274015339 554.76636196633262 0 554.76636196633262 924.57728860042698 0 0 0 0 308.41194278819603 243.14796196609677 0 243.14796196609677 36.157807010131364 0 0 0 0 -4.5092018985670848 -0.66526560982157434 0 -0.66526560982157434 -0.2043297929333292 0 0 0 0 805.58551569178235 -105.31601128051989 0 -105.31601128051989 -71.699150772034045 0 0 0 0 585.66702870602603 249.43356399093318 0 249.43356399093318 -255.66462627176952 0 0 0 0 232.25737793062581 126.20325328876788 0 126.20325328876788 -59.984254738636082 0 0 0 0 -0.69791836495278403 170.86998540698914 0 170.86998540698914 -806.63931366798352 0 0 0 0 -200.93835452437634 -190.04618484518141 0 -190.04618484518141 -164.15977656948962 0 0 0 0 -2.7827881096199576 4.7326526214393425 0 4.7326526214393425 -2.7045343454243493 0 0 0 0 233.56027067961259 208.53026720488378 0 208.53026720488378 -784.06218406380503 0 0 0 0 -70.306609937324538 171.73460509041979 0 171.73460509041979 9.8175823874480557 0 0 0 0 289.70026396814501 57.786631146678701 0 57.786631146678701 40.126918651614687 0 0 0 0 -2.6219153229075687 6.5295228768246147 0 6.5295228768246147 -14.275177161353895 0 0 0 0 484.2970435712341 407.18922705045406 0 407.18922705045406 246.49195733034867 0 0 0 0 237.41313570260536 436.69131134905911 0 436.69131134905911 440.06576267826313 0 0 0 0 0.58920952696644235 257.08731163771881 0 257.08731163771881 380.84446224797284 0 0 0 0 9.7116405893029878 -69.403927577393915 0 -69.403927577393915 -16.021597141691018 0 0 0 0 115.53068709073705 33.694141454430792 0 33.694141454430792 -52.022882495773956 0 0 0 0 162.40312635083683 -90.39724454978932 0 -90.39724454978932 93.494594179501291 0 0 0 0 151.92050736612873 -44.09876743555651 0 -44.09876743555651 -96.2997751570947 0 0 0 0 67.574988178210333 112.83561352942343 0 112.83561352942343 19.253797505487455 0 0 0 0 73.683906933118124 82.165661116174306 0 82.165661116174306 160.58374189838651 0 0 0 0 165.70257872808725 231.19650799366354 0 231.19650799366354 -16.917400115533383 0 0 0 0 335.97195708459185 39.242913441466953 0 39.242913441466953 -73.534950849832967 0 0 0 0 -2.5803323654690757 223.61966788159043 0 223.61966788159043 33.25859595950169 0 0 0 0 -17.134474873702857 110.37904777567383 0 110.37904777567383 -13.577490373660112 0 0 0 0 -40.65880618745723 95.137413360927894 0 95.137413360927894 -0.29298348852898926 0 0 0 0 -9.9862836897664238 133.71434280884569 0 133.71434280884569 22.643526338622905 0 0 0 0 -12.571158404374728 103.44798174667812 0 103.44798174667812 -8.7301982683347887 0 0 0 0 7.6326429966138676 118.25793787097064 0 118.25793787097064 -10.302014668905031 0 0 0 0 51.974873993361598 60.342909491318927 0 60.342909491318927 33.822936534965066 0 0 0 0 11.309812246356159 125.178161301621 0 125.178161301621 -13.446873076441989 0 0 0 0 61.705087247100892 129.22482406985364 0 129.22482406985364 -8.0930341067578411 0 0 0 0 88.321900486058439 76.860855232127506 0 76.860855232127506 -63.902122952931677 0 0 0 0 86.406859146693023 72.495601318347326 0 72.495601318347326 -73.551386226288741 0 0 0 0 36.287442398997939 39.627429569808314 0 39.627429569808314 33.164806250491949 0 0 0 0 60.30967088486068 84.478001954164938 0 84.478001954164938 -65.851340873825393 0 0 0 0 -334.93091271511094 949.25536777042544 0 949.25536777042544 -649.55418590898626 0 0 0 0 -336.5430150735483 845.10861590450804 0 845.10861590450804 -766.1001661976552 0 0 0 0 -412.77661772470492 467.29355257774205 0 467.29355257774205 -172.35373046640598 0 0 0 0 3616.7047877120785 1420.5948457320628 0 1420.5948457320628 549.11704247910529 0 0 0 0 1201.2640929665649 635.93431628796679 0 635.93431628796679 1389.2754347444279 0 0 0 0 -1.0451547420550469 2.1130087498952861 0 2.1130087498952861 1.0364769089691208 0 0 0 0 1141.0715819595789 1471.1311242802039 0 1471.1311242802039 1883.3560345596925 0 0 0 0 4333.8926311543328 1340.3137766883156 0 1340.3137766883156 -843.5174708821869 0 0 0 0 1104.9531378072425 897.92858353145857 0 897.92858353145857 980.44346220805892 0 0 0 0 580.41952066484373 1399.5108484800148 0 1399.5108484800148 1147.510169913272 0 0 0 0 771.97406163980486 929.26205977768404 0 929.26205977768404 1092.1611315958726 0 0 0 0 1418.9255210394258 1259.3438422348299 0 1259.3438422348299 788.53328701175633 0 0 0 0 1.4112697139644297 1030.5462856762169 0 1030.5462856762169 1278.0615964336321 0 0 0 0 872.54099190776469 723.00115888156142 0 723.00115888156142 456.74609412503196 0 0 0 0 1403.1809456322517 1045.877080532613 0 1045.877080532613 705.11991802306147 0 0 0 0 38.720318837731611 54.570372664027673 0 54.570372664027673 -57.253936325425457 0 0 0 0 4.2216777954508871 14.232800911565789 0 14.232800911565789 -24.326427960882938 0 0 0 0 -69.430408866872313 64.797787596831768 0 64.797787596831768 705.3633303485185 0 0 0 0 -58.843617615202675 -58.168106021661515 0 -58.168106021661515 504.20079811914184 0 0 0 0 8.3490442972627079 6.1541735793493331 0 6.1541735793493331 11.471028903015721 0 0 0 0 -798.7629970011767 487.56340264333994 0 487.56340264333994 -261.04714933241246 0 0 0 0 -0.88177141402877623 -2.7715361554759426 0 -2.7715361554759426 6.0081233680610522 0 0 0 0 -1.5684054482844658 384.19925496682845 0 384.19925496682845 -557.93166648878832 0 0 0 0 -288.58911355235614 551.63927914138912 0 551.63927914138912 -625.73773633191013 0 0 0 0 -339.14901930399355 715.52673426667025 0 715.52673426667025 -783.61213263879472 0 0 0 0 2.9698940646776464 570.88391460988714 0 570.88391460988714 -164.21126280429598 0 0 0 0 -504.57641358408728 583.50634104030178 0 583.50634104030178 685.05066307631932 0 0 0 0 -557.02597842876276 223.20618486572675 0 223.20618486572675 80.633616987342975 0 0 0 0 -114.62492977862712 498.00048685690854 0 498.00048685690854 -833.16094520774459 0 0 0 0 -79.506522007461172 331.32112047424744 0 331.32112047424744 -652.59916670616803 0 0 0 0 -465.2167091917654 569.36114751025161 0 569.36114751025161 -817.49779267812289 0 0 0 0 -495.74868309355224 697.83645053964756 0 697.83645053964756 -5.2045209079078631 0 0 0 0 11.426547922659665 -15.899924537701736 0 -15.899924537701736 41.75589202288046 0 0 0 0 -4.3045079729477038 11.546320523507632 0 11.546320523507632 28.088932192131495 0 0 0 0 11.354101462609833 14.448093909137242 0 14.448093909137242 49.044427815337258 0 0 0 0 0.47468229774676729 2.717253010643617 0 2.717253010643617 36.456995112705044 0 0 0 0 547.37812908738852 -273.77989761988283 0 -273.77989761988283 211.9498673453927 0 0 0 0 850.33735536361928 -115.28893105958559 0 -115.28893105958559 -291.45323605334852 0 0 0 0 206.77083568283706 -340.44657794546947 0 -340.44657794546947 263.09092017755029 0 0 0 0 -244.10997116743238 -15.269426830491284 0 -15.269426830491284 102.57212860002619 0 0 0 0 -4.0015362208205829 1.7790713210785611 0 1.7790713210785611 -2.8005550040346634 0 0 0 0 -68.275538177607814 -43.531710214901977 0 -43.531710214901977 -15.48586079863162 0 0 0 0 0.78848398229922623 19.62140561221841 0 19.62140561221841 47.620805213960466 0 0 0 0 -13.089955976625447 -1.1949973997629115 0 -1.1949973997629115 13.427891075649278 0 0 0 0 -159.83615651825676 -134.52888336110482 0 -134.52888336110482 151.81539278842683 0 0 0 0 8.7442100039976367 -5.4036433411461786 0 -5.4036433411461786 4.5453939297842698 0 0 0 0 188.15470396075398 74.087987801962299 0 74.087987801962299 15.059617968229986 0 0 0 0 106.449328519142 -128.73445371843991 0 -128.73445371843991 10.086662030531443 0 0 0 0 24.673753648716229 187.52666020079141 0 187.52666020079141 420.06867652783694 0 0 0 0 47.474772366607795 300.04587736341637 0 300.04587736341637 349.80822078385972 0 0 0 0 453.76389146276051 846.73635788490355 0 846.73635788490355 1021.8487852003163 0 0 0 0 -289.27115078197312 740.8040692390714 0 740.8040692390714 1813.9488178431784 0 0 0 0 -249.81055984128034 641.32069012823194 0 641.32069012823194 1148.6679850640867 0 0 0 0 3.7370889904051978 6.5480009113514654 0 6.5480009113514654 16.80465935923533 0 0 0 0 378.40177629445679 -691.54660623395466 0 -691.54660623395466 1255.1730122034205 0 0 0 0 1104.2257104120799 896.35212452989072 0 896.35212452989072 585.52533148392831 0 0 0 0 60.469378978566965 -221.39434421965416 0 -221.39434421965416 551.26103895960114 0 0 0 0 444.90301827393318 106.43888946862063 0 106.43888946862063 -92.904332396166865 0 0 0 0 217.61626909274491 -9.5958556548866909 0 -9.5958556548866909 571.03193424941855 0 0 0 0 -197.40679814785835 696.91448224199121 0 696.91448224199121 2208.9967000761171 0 0 0 0 348.03505188296549 -628.72789013862348 0 -628.72789013862348 1651.9956812216842 0 0 0 0 -622.62979131402972 162.12518400886893 0 162.12518400886893 1752.7239115321572 0 0 0 0 -589.3294052221172 417.97367540896084 0 417.97367540896084 2627.4442941698853 0 0 0 0 261.94228674197802 1430.5307375273187 0 1430.5307375273187 2281.9057278074179 0 0 0 0 -487.8664271091402 390.71205689824274 0 390.71205689824274 1371.7484369463855 0 0 0 0 -425.43639089107455 471.10370601038812 0 471.10370601038812 819.33181012464047 0 0 0 0 -324.45846304920269 575.33263842292217 0 575.33263842292217 1431.0154358722502 0 0 0 0 -456.1988070641637 286.14596516588972 0 286.14596516588972 2057.2333108045132 0 0 0 0 -473.48893665571813 409.37341951321287 0 409.37341951321287 1306.7098609915774 0 0 0 0 -29.930942096085346 442.32569647747277 0 442.32569647747277 1192.2768185074237 0 0 0 0 4.6919684029590485 2.4994243345022085 0 2.4994243345022085 2.6773125174440651 0 0 0 0 -164.19817586930003 -177.4638116740025 0 -177.4638116740025 995.82205297084874 0 0 0 0 -13.430575484671863 -738.34054562318124 0 -738.34054562318124 2924.3164225471555 0 0 0 0 -376.24352476684726 541.45323792646377 0 541.45323792646377 2428.9827399296228 0 0 0 0 0.96771323963050571 714.11026589410005 0 714.11026589410005 1426.9542220003495 0 0 0 0 -117.35590101523849 173.08174087879161 0 173.08174087879161 567.9865458188433 0 0 0 0 -0.39689931969041936 642.2758395050223 0 642.2758395050223 184.86180672626142 0 0 0 0 -260.83122035517772 925.06590190080351 0 925.06590190080351 -905.32657585864945 0 0 0 0 -92.811567243057652 134.07286875998034 0 134.07286875998034 -608.90000560086628 0 0 0 0 -0.21617591934045777 586.75473981912728 0 586.75473981912728 -941.78941865426896 0 0 0 0 -350.03439416600304 893.73995761895094 0 893.73995761895094 -594.1398216617381 0 0 0 0 6.5959727712727272 2.1720501421173424 0 2.1720501421173424 -4.2721818072116662 0 0 0 0 -328.53239725771709 765.78192637153916 0 765.78192637153916 -1524.7944974875863 0 0 0 0 -0.76914717763429508 1246.0110806593366 0 1246.0110806593366 -1572.0048980420615 0 0 0 0 -913.25795833437587 1125.3854214569437 0 1125.3854214569437 -3850.2097836033499 0 0 0 0 -1001.019392703136 749.2348190703342 0 749.2348190703342 -1540.1415503454646 0 0 0 0 -515.85611529053858 1076.2763031805016 0 1076.2763031805016 -1413.6800160158382 0 0 0 0 -2609.3346076009911 492.3089371967726 0 492.3089371967726 -880.67802175879478 0 0 0 0 -91.704686790006235 1325.4628754410223 0 1325.4628754410223 -798.40689790608531 0 0 0 0 1.0690988880232908 3083.9242471818397 0 3083.9242471818397 -1491.6852788375109 0 0 0 0 -918.9097509199637 925.55260190437912 0 925.55260190437912 -694.67367558366823 0 0 0 0 -842.35671979981998 307.74214674329778 0 307.74214674329778 -818.78296532123932 0 0 0 0 10.956916917217313 7.2574397775511699 0 7.2574397775511699 0.60313158728519056 0 0 0 0 50.787271725421306 -344.68803421306438 0 -344.68803421306438 -106.81451952714997 0 0 0 0 -331.8400328613352 -409.08675955358558 0 -409.08675955358558 1156.6338187653309 0 0 0 0 366.03371340836748 1785.8838893862003 0 1785.8838893862003 782.08715283402125 0 0 0 0 221.39452652825275 870.51010927792959 0 870.51010927792959 -871.0188338527696 0 0 0 0 5.6674548592728797 5.3387938170341869 0 5.3387938170341869 1.7697218946755129 0 0 0 0 460.37121770455269 1470.6534487655445 0 1470.6534487655445 -754.13647202353604 0 0 0 0 -468.46384019566176 1879.4249314357476 0 1879.4249314357476 -304.98755271057598 0 0 0 0 -1730.9946319586888 1285.935970328519 0 1285.935970328519 -227.26694328424492 0 0 0 0 -382.96732190775219 1203.015013468812 0 1203.015013468812 -241.00887073167723 0 0 0 0 -299.66559913859237 428.51189945908845 0 428.51189945908845 -544.74460944098246 0 0 0 0 24.208490712928892 34.690260395206778 0 34.690260395206778 46.51918142372304 0 0 0 0 -351.41998857607541 1143.6850662325087 0 1143.6850662325087 -829.07731120787503 0 0 0 0 2709.2168511919444 440.63955692241143 0 440.63955692241143 -1342.9483179700983 0 0 0 0 -44.616505914527806 859.60051789293766 0 859.60051789293766 -620.25479528858705 0 0 0 0 -663.36087926808989 1056.3192069237384 0 1056.3192069237384 -1045.0808991575905 0 0 0 0 7.4774672583145048 11.877559709539611 0 11.877559709539611 15.818324111752872 0 0 0 0 -162.1701274747611 399.88080685400928 0 399.88080685400928 -558.59462531706959 0 0 0 0 -662.51652878869209 797.0063766849853 0 797.0063766849853 -868.59245426481357 0 0 0 0 122.158311481282 689.90867604573214 0 689.90867604573214 -1424.4927435760328 0 0 0 0 -357.38424641327583 618.96993585988093 0 618.96993585988093 -951.4779506481209 0 0 0 0 1994.9659337544581 712.47222183673875 0 712.47222183673875 -2174.3565472383343 0 0 0 0 1331.8952516821737 -1106.594258764886 0 -1106.594258764886 -2764.473575748314 0 0 0 0 -330.98809273691768 890.43408687431065 0 890.43408687431065 -1168.0149084608274 0 0 0 0 472.08554556712625 459.62390433226028 0 459.62390433226028 -1329.8472145402775 0 0 0 0 381.52035460373736 7.1012160073150881 0 7.1012160073150881 -1513.3790106514934 0 0 0 0 496.52165692082781 242.68253316308619 0 242.68253316308619 -1067.3165092041163 0 0 0 0 -139.60895015698043 445.19258807389269 0 445.19258807389269 -853.93908500719408 0 0 0 0 204.91258410229057 -137.87731200657799 0 -137.87731200657799 -843.44792746668099 0 0 0 0 222.76875044355438 1.9464928549678007 0 1.9464928549678007 -158.13142828304262 0 0 0 0 245.52776900825847 97.955451736965188 0 97.955451736965188 -188.0649278133933 0 0 0 0 17.967892307846341 281.64798668813455 0 281.64798668813455 -222.81612683358981 0 0 0 0 -8.3386975301473285 186.11538349284092 0 186.11538349284092 -545.22883340624685 0 0 0 0 -280.34957264128025 332.98745093660546 0 332.98745093660546 -169.26252574312639 0 0 0 0 -77.05310640661628 296.31237665876688 0 296.31237665876688 -163.46704642060286 0 0 0 0 37.156697088180863 65.826435544509678 0 65.826435544509678 66.817372971914153 0 0 0 0 -1053.7576335306003 -73.269748496157263 0 -73.269748496157263 83.847057186445454 0 0 0 0 -27.574765859797481 214.80452488948868 0 214.80452488948868 -147.30956662556855 0 0 0 0 57.235461014555767 285.92315567176411 0 285.92315567176411 -163.70400850626174 0 0 0 0 74.876715922073345 221.17149784564026 0 221.17149784564026 -179.70662247811561 0 0 0 0 9.501622619562113 57.257005260311416 0 57.257005260311416 -99.329118221998215 0 0 0 0 -27.161534746061079 59.912117292609764 0 59.912117292609764 8.493960848019924 0 0 0 0 27.732392904159497 118.1462152670756 0 118.1462152670756 -322.31158632959705 0 0 0 0 14.036714293120895 52.181125296565369 0 52.181125296565369 -108.92204183530703 0 0 0 0 32.103427480592018 28.246724209474735 0 28.246724209474735 0.10949823886275567 0 0 0 0 6.3450018917937996 32.776218650091323 0 32.776218650091323 -88.721012990048621 0 0 0 0 7.5229809385496651 73.61799153076069 0 73.61799153076069 23.241073656489988 0 0 0 0 -0.33359361267446275 9.380757251716517 0 9.380757251716517 19.932635520267759 0 0 0 0 -49.500091235153377 157.90395675046602 0 157.90395675046602 124.15706411421706 0 0 0 0 -568.30619074462447 481.44620026575285 0 481.44620026575285 3.2922729538171325 0 0 0 0 -744.37634899019031 341.50326055817277 0 341.50326055817277 6.6759756807276744 0 0 0 0 -53.99857149834861 290.57622613961939 0 290.57622613961939 327.39738905042759 0 0 0 0 -1487.8495319938811 626.20297919468067 0 626.20297919468067 441.3186754561757 0 0 0 0 -18.385274978290568 17.120394966863302 0 17.120394966863302 15.250963936551514 0 0 0 0 -1248.6944519475364 1532.2475785392926 0 1532.2475785392926 -1271.3456434989785 0 0 0 0 -879.21591430592525 974.48522167902047 0 974.48522167902047 -554.2848649811931 0 0 0 0 -1987.2432924541354 1260.4119349945649 0 1260.4119349945649 -187.14444280337193 0 0 0 0 -1747.8362363427877 379.54319746303372 0 379.54319746303372 532.50283437957114 0 0 0 0 -613.52793832539464 137.36501979375316 0 137.36501979375316 -24.468194775251504 0 0 0 0 -39.773505680073868 828.9013316657547 0 828.9013316657547 708.81279693478427 0 0 0 0 -117.71470164030325 -249.61900416106801 0 -249.61900416106801 797.69244043431172 0 0 0 0 -526.46155058476143 52.767025097418809 0 52.767025097418809 606.18260456537246 0 0 0 0 84.029881561873481 -194.17343435509974 0 -194.17343435509974 213.36552146187023 0 0 0 0 -1027.6572574930615 586.8201890804703 0 586.8201890804703 315.29430677739583 0 0 0 0 -518.56732785058193 60.178805786447811 0 60.178805786447811 263.4215923728043 0 0 0 0 -1152.6073748430936 311.67086202035352 0 311.67086202035352 380.52419093697972 0 0 0 0 -635.19359967072523 856.40695731244341 0 856.40695731244341 -508.36826166835817 0 0 0 0 -117.18592642946169 32.238842660175578 0 32.238842660175578 42.609038156926545 0 0 0 0 -19.916170040889483 7.2316100516003274 0 7.2316100516003274 8.1395234219218988 0 0 0 0 -329.10916846645705 -124.50596101664632 0 -124.50596101664632 335.14829473636928 0 0 0 0 65.204833303461783 -34.07913309167634 0 -34.07913309167634 243.08893913742941 0 0 0 0 -10.709730797614156 34.0465061682184 0 34.0465061682184 77.157459571103772 0 0 0 0 -45.905018949590158 31.689227767299599 0 31.689227767299599 24.751026725414022 0 0 0 0 -0.41204424857124877 8.3945410133641758 0 8.3945410133641758 13.093917336575004 0 0 0 0 1.2595838227665297 15.268375004074869 0 15.268375004074869 34.219765959042462 0 0 0 0 266.87326346059854 176.40680787677411 0 176.40680787677411 125.49973155652503 0 0 0 0 7.6427311235456727 26.519630323862657 0 26.519630323862657 -167.44856520337635 0 0 0 0 0.23668761678709416 0.79024685791318916 0 0.79024685791318916 54.61535841281875 0 0 0 0 197.22151993802981 386.44838408886062 0 386.44838408886062 -443.84699577161518 0 0 0 0 -1015.5801865296526 -306.01907085138009 0 -306.01907085138009 775.01386830418051 0 0 0 0 -2266.9080300771166 782.89347813402492 0 782.89347813402492 -42.156112215438043 0 0 0 0 -10.022163399125247 8.1091568913251137 0 8.1091568913251137 -6.88527039689194 0 0 0 0 -2358.1415193468565 -66.714129986368789 0 -66.714129986368789 367.54228787752072 0 0 0 0 -336.06968836343731 -99.014004808333993 0 -99.014004808333993 -353.61159629626491 0 0 0 0 -1613.2208144875913 828.60999814822571 0 828.60999814822571 245.65332046832918 0 0 0 0 -1812.8043401882169 -98.050104263806134 0 -98.050104263806134 98.850273809744976 0 0 0 0 -9.0142798715214667 3.5384679237256904 0 3.5384679237256904 -0.26659720568901601 0 0 0 0 68.255331824402674 159.60940111405762 0 159.60940111405762 47.56260541897791 0 0 0 0 24.039138609260476 18.183857182813966 0 18.183857182813966 -27.077348462639208 0 0 0 0 407.72995681136672 526.39263596721867 0 526.39263596721867 453.52987782983109 0 0 0 0 492.66591166934086 492.44046745854757 0 492.44046745854757 436.11356367435656 0 0 0 0 29.891013710570519 30.811100054541299 0 30.811100054541299 10.449509097283027 0 0 0 0 -164.27598857083649 303.80682166953193 0 303.80682166953193 93.023271926431335 0 0 0 0 -100.07309993938543 -109.341553185659 0 -109.341553185659 -285.95180863293353 0 0 0 0 -234.23512886703611 -190.42209889271362 0 -190.42209889271362 -235.94084084006317 0 0 0 0 105.37442240795644 126.48159338900223 0 126.48159338900223 -97.996210018667625 0 0 0 0 49.856361590063898 352.09375009731957 0 352.09375009731957 669.70895030561951 0 0 0 0 26.784904990781797 282.23574358674523 0 282.23574358674523 197.13723502918947 0 0 0 0 3.1743448724938617 5.4303119728273543 0 5.4303119728273543 -8.4976588120129861 0 0 0 0 -19.392536946219366 27.761250180758509 0 27.761250180758509 -11.779622925061147 0 0 0 0 136.17961284556077 296.05749452061718 0 296.05749452061718 194.87419412074087 0 0 0 0 513.57376888947329 308.7786360780301 0 308.7786360780301 142.3776816088066 0 0 0 0 459.03216165001504 405.64717805302644 0 405.64717805302644 104.52565652753401 0 0 0 0 428.81148981454317 323.95164809984271 0 323.95164809984271 250.18604226622847 0 0 0 0 497.60676139462157 389.42696578399409 0 389.42696578399409 -43.139236190530937 0 0 0 0 456.37735064225126 241.18070666580752 0 241.18070666580752 303.97643509491172 0 0 0 0 485.82762997395912 553.67760451832419 0 553.67760451832419 -84.489566874195589 0 0 0 0 467.13607498083729 448.91775054796017 0 448.91775054796017 265.69383379140709 0 0 0 0 472.69883695238968 476.98708543876273 0 476.98708543876273 -425.26952145812538 0 0 0 0 18.838560202129884 783.51558887591818 0 783.51558887591818 325.002125228144 0 0 0 0 418.19313588869045 449.17654574593143 0 449.17654574593143 444.21178545711155 0 0 0 0 436.44373269984499 493.65654578925751 0 493.65654578925751 247.17773867555479 0 0 0 0 311.58580860810616 622.15498692267647 0 622.15498692267647 764.36076318618507 0 0 0 0 95.303078815311892 46.459907736512832 0 46.459907736512832 -44.731386768238735 0 0 0 0 -31.39765851123957 87.643345152508118 0 87.643345152508118 31.758777203882346 0 0 0 0 14.76700766032269 16.039359217806322 0 16.039359217806322 -25.624763594788973 0 0 0 0 66.054510348767508 65.068245976264734 0 65.068245976264734 -29.931840469696908 0 0 0 0 50.706993845058605 47.513317826465936 0 47.513317826465936 -37.501828028101954 0 0 0 0 17.456223814078839 66.987408294764464 0 66.987408294764464 -48.733273219113471 0 0 0 0 -329.538838749344 249.68352356768446 0 249.68352356768446 -40.645998552226047 0 0 0 0 -134.13604164170829 -139.67689186227653 0 -139.67689186227653 7.6999094158236403 0 0 0 0 317.0720123052306 102.68980212267888 0 102.68980212267888 -262.41021967965207 0 0 0 0 111.85156693175668 78.777914082806092 0 78.777914082806092 -107.35655145133205 0 0 0 0 2.2227119772641117 5.134712810327855 0 5.134712810327855 2.9382430747533235 0 0 0 0 -26.005345289420802 58.209272321008029 0 58.209272321008029 36.080315690762291 0 0 0 0 30.101739464959167 2.6891383607672594 0 2.6891383607672594 0.4384465820850334 0 0 0 0 -0.1324212389299646 31.222402269588201 0 31.222402269588201 -37.261771751014749 0 0 0 0 46.477749138095533 -1.4848702330491506 0 -1.4848702330491506 -83.289513129235274 0 0 0 0 -9.5145216163436999 -36.209198264041333 0 -36.209198264041333 -142.73977490889229 0 0 0 0 10.366336476281958 5.8177578759208259 0 5.8177578759208259 -7.5416436205776165 0 0 0 0 2.5090358719462529 111.06086752701958 0 111.06086752701958 -412.10496845146645 0 0 0 0 35.67264267011268 10.117627555965157 0 10.117627555965157 -9.7047289901335159 0 0 0 0 31.412138773535844 -11.48841525343596 0 -11.48841525343596 -65.098865814157762 0 0 0 0 64.85157232239726 22.685502629494295 0 22.685502629494295 -38.40239073173143 0 0 0 0 45.099436347081792 47.193494264342007 0 47.193494264342007 50.470399984845471 0 0 0 0 51.722176052979194 0.76448152281227522 0 0.76448152281227522 -64.467699128663298 0 0 0 0 71.528318508295342 -2.0805759697977919 0 -2.0805759697977919 -80.785583933997259 0 0 0 0 38.524175955011742 -18.819995207195461 0 -18.819995207195461 -79.668326329017873 0 0 0 0 93.072353581839707 49.420433907056577 0 49.420433907056577 -88.877987000116264 0 0 0 0 64.255762688946561 2.546538788912585 0 2.546538788912585 -22.052580497227609 0 0 0 0 7.7194925620653478 2.4096133887017572 0 2.4096133887017572 -2.013695052053265 0 0 0 0 -4.8519537699612556 -33.210903176837746 0 -33.210903176837746 -88.330584151593939 0 0 0 0 63.958825720008463 6.3115399600646924 0 6.3115399600646924 -152.66062269153917 0 0 0 0 25.015478822475416 0.1405678035771416 0 0.1405678035771416 -73.016970881726593 0 0 0 0 9.8601285998593085 -5.988154301110626 0 -5.988154301110626 -64.878987614414655 0 0 0 0 -174.58489347457362 74.985602327949891 0 74.985602327949891 71.382768467243295 0 0 0 0 25.690581892264959 63.967698736659599 0 63.967698736659599 -12.00303399411383 0 0 0 0 273.98125254646584 253.60319578432245 0 253.60319578432245 -259.26647692926053 0 0 0 0 13.352174078859562 21.893449232223986 0 21.893449232223986 -97.123018687917465 0 0 0 0 57.956224141089479 81.833147547054978 0 81.833147547054978 -402.10501292259869 0 0 0 0 -33.309050978452433 71.213942311620485 0 71.213942311620485 -340.13359328625666 0 0 0 0 -80.820102609155583 103.69784838988562 0 103.69784838988562 -352.03310502691602 0 0 0 0 -361.61867961091048 480.26630753101927 0 480.26630753101927 -497.59674574820383 0 0 0 0 -0.99679587389093172 4.1136040315985838 0 4.1136040315985838 -68.122414848581684 0 0 0 0 671.77463569203974 222.29353810637258 0 222.29353810637258 -455.6334519187003 0 0 0 0 -351.61409112412366 1210.8427974485421 0 1210.8427974485421 -1294.629217833135 0 0 0 0 -782.81257305364124 542.07080989460519 0 542.07080989460519 -203.47749325835321 0 0 0 0 -110.27250024625391 109.07467400397945 0 109.07467400397945 -580.30122250790009 0 0 0 0 -130.35691893692183 615.84237129149199 0 615.84237129149199 -3421.4609148512245 0 0 0 0 -0.78399719830311909 -0.42681440469357312 0 -0.42681440469357312 -25.668429735751971 0 0 0 0 488.53472620605316 -774.88919441136386 0 -774.88919441136386 -2046.6597674118166 0 0 0 0 -2588.3479387401021 1522.3959728159934 0 1522.3959728159934 -698.94544418253645 0 0 0 0 98.063535240187775 1312.3528162337752 0 1312.3528162337752 -2995.604713925859 0 0 0 0 156.73268248121894 434.97840601456483 0 434.97840601456483 -241.92382384500343 0 0 0 0 328.63984855620947 587.32765093826674 0 587.32765093826674 -1598.9762336177155 0 0 0 0 437.29734826213462 240.98930739108255 0 240.98930739108255 -977.06637563421828 0 0 0 0 -78.211488105953322 794.83949199867493 0 794.83949199867493 -903.9588311999978 0 0 0 0 298.2238934153429 692.46415806905316 0 692.46415806905316 -1083.4488587773158 0 0 0 0 132.81795027107 851.52252528979443 0 851.52252528979443 -1149.0971576016291 0 0 0 0 31.327144835600848 628.51515017192105 0 628.51515017192105 -1096.1959057986533 0 0 0 0 180.51614497722767 639.2527748456705 0 639.2527748456705 -1219.7051752808438 0 0 0 0 29.5598528226692 623.61157907770757 0 623.61157907770757 -755.53687586512751 0 0 0 0 -119.77805279894255 404.09321096288772 0 404.09321096288772 -892.56314181997732 0 0 0 0 49.659535073689767 249.79812905131985 0 249.79812905131985 -752.11553672465243 0 0 0 0 60.129650707751352 246.81427215834765 0 246.81427215834765 -1402.2860072714393 0 0 0 0 72.025440762197832 -194.59612486544211 0 -194.59612486544211 -2421.306771671163 0 0 0 0 131.83530241053086 118.38200628059712 0 118.38200628059712 -1242.0419885118245 0 0 0 0 -167.92554039752577 671.14711483621795 0 671.14711483621795 -1778.6152916028113 0 0 0 0 -274.79474167115586 -65.698470030078624 0 -65.698470030078624 -1681.0262931225152 0 0 0 0 83.844248697481817 368.18691755671171 0 368.18691755671171 -1483.073313175184 0 0 0 0 216.25504007899144 779.02849591057748 0 779.02849591057748 -1219.9734632003201 0 0 0 0 84.177178149337124 570.13079389088671 0 570.13079389088671 -606.77597836785571 0 0 0 0 -69.328997027449077 510.61479954721472 0 510.61479954721472 -646.46978481858969 0 0 0 0 117.92242209818505 629.74846074029847 0 629.74846074029847 -583.36549196442502 0 0 0 0 107.92883185165837 146.342278380056 0 146.342278380056 143.38099795901303 0 0 0 0 158.79861717835229 62.846704504055197 0 62.846704504055197 221.98379097695579 0 0 0 0 385.32270093911939 408.01314453513442 0 408.01314453513442 -677.07905415772984 0 0 0 0 22.487690404654131 488.1413929144619 0 488.1413929144619 -376.76267737336457 0 0 0 0 -6.51665084054018 83.205298895026772 0 83.205298895026772 -28.739049189415653 0 0 0 0 -9.7436498727365688 380.91327458020169 0 380.91327458020169 -178.10403038523509 0 0 0 0 109.85448998253483 154.14860088250958 0 154.14860088250958 130.63386171371423 0 0 0 0 -4.6337716548841854 -101.97738484446768 0 -101.97738484446768 175.34715674743347 0 0 0 0 -403.52362506241479 767.60989726922344 0 767.60989726922344 -151.69970898479733 0 0 0 0 193.10179658661582 44.68415223739612 0 44.68415223739612 -1971.0425234180657 0 0 0 0 28.536262655619936 42.733515563179225 0 42.733515563179225 23.35329945830749 0 0 0 0 900.25308640187723 873.14987912116339 0 873.14987912116339 -2376.4290662142084 0 0 0 0 538.40999262813421 1056.419336211944 0 1056.419336211944 -1952.6943927191678 0 0 0 0 143.16529593497398 809.02116123725864 0 809.02116123725864 -2028.6816823112895 0 0 0 0 17.010598364635371 -118.38472086162074 0 -118.38472086162074 -2048.1036051887531 0 0 0 0 862.34106258008978 1606.037603259465 0 1606.037603259465 -395.70101613340375 0 0 0 0 -585.98817965053604 1036.7473345687122 0 1036.7473345687122 -1643.4681908745406 0 0 0 0 367.51585682031873 242.78100902584265 0 242.78100902584265 -2017.4559579997949 0 0 0 0 652.06833067248226 337.44331264345601 0 337.44331264345601 -1253.3004884320544 0 0 0 0 1284.0155484884599 1229.1085297367554 0 1229.1085297367554 -2018.4124585427853 0 0 0 0 595.34823330403015 457.45329980590395 0 457.45329980590395 26.406399963932927 0 0 0 0 491.55858634960532 636.94529907606375 0 636.94529907606375 597.75900325068505 0 0 0 0 290.53782588666945 331.72139215193602 0 331.72139215193602 120.18834226831132 0 0 0 0 521.02525870681711 389.34876633951353 0 389.34876633951353 102.94492984704266 0 0 0 0 414.84074286969962 1183.8167249998596 0 1183.8167249998596 1199.9552491851209 0 0 0 0 426.33847756711475 368.83288374220865 0 368.83288374220865 297.54054177399667 0 0 0 0 -329.51336403909954 705.71454978911788 0 705.71454978911788 -1307.6516905785538 0 0 0 0 -79.667725347157102 816.29377344878594 0 816.29377344878594 2149.9956075316641 0 0 0 0 13.779387527032327 8.1406061927478248 0 8.1406061927478248 -4.5275160171387023 0 0 0 0 3.7831265923647948 7.051663294460667 0 7.051663294460667 -4.8521945003274567 0 0 0 0 22.964705234638302 2.3416680107357735 0 2.3416680107357735 -6.0487314983913922 0 0 0 0 13.107780404158575 19.199184572381199 0 19.199184572381199 -22.067996237342058 0 0 0 0 309.80682369563146 -204.94491628173273 0 -204.94491628173273 41.238963176132529 0 0 0 0 553.69526512408629 668.94896709964814 0 668.94896709964814 799.3616638458916 0 0 0 0 288.74844342975121 681.68575950235027 0 681.68575950235027 836.02351137017831 0 0 0 0 163.29474715224933 399.52388518298903 0 399.52388518298903 1393.4891554668866 0 0 0 0 602.05551289187861 754.49621916020988 0 754.49621916020988 292.3493949406984 0 0 0 0 -1121.6486611294094 777.23006829824953 0 777.23006829824953 295.98898398516985 0 0 0 0 -1.309076912906022 -0.8114817745539824 0 -0.8114817745539824 0.91544432209622073 0 0 0 0 1579.7773285220828 -17.334031597099965 0 -17.334031597099965 130.07097598115797 0 0 0 0 231.89657956987503 -279.44419535569978 0 -279.44419535569978 -87.12584593979409 0 0 0 0 543.10653035060386 20.842629259263049 0 20.842629259263049 159.17226863804353 0 0 0 0 10.440435672452281 2.9598054687956505 0 2.9598054687956505 -6.3214377126161594 0 0 0 0 837.90695525072078 -197.25464788530553 0 -197.25464788530553 -428.56253963094787 0 0 0 0 -837.13325468536641 443.56807204576762 0 443.56807204576762 -135.94072905062058 0 0 0 0 -146.05839768997976 559.38273540243972 0 559.38273540243972 -349.66659523143244 0 0 0 0 66.321220816185814 300.96021125870902 0 300.96021125870902 -199.16956798847241 0 0 0 0 267.84516113031714 225.78289816698089 0 225.78289816698089 -265.91017429475323 0 0 0 0 65.993485787315876 261.18582527627223 0 261.18582527627223 -355.74899870033551 0 0 0 0 74.645432988065295 274.01110866120143 0 274.01110866120143 -157.26912480681494 0 0 0 0 78.702358729606203 135.33731694987182 0 135.33731694987182 -49.731238616033806 0 0 0 0 191.1531574716937 309.95957518315117 0 309.95957518315117 -408.37725619242701 0 0 0 0 128.16587778326357 29.033253597546718 0 29.033253597546718 -58.923769280605484 0 0 0 0 24.236494328439065 56.561387586891399 0 56.561387586891399 43.446948314318291 0 0 0 0 35.121548816980635 69.629695357750762 0 69.629695357750762 -22.112715429312551 0 0 0 0 4.1977298014045914 11.985604033429695 0 11.985604033429695 12.690758574753346 0 0 0 0 247.26147572941773 301.41539603548517 0 301.41539603548517 343.53171429211943 0 0 0 0 62.473022845340893 110.02580414372642 0 110.02580414372642 18.996523279740359 0 0 0 0 39.615510969270133 138.29399355629221 0 138.29399355629221 43.285209642910601 0 0 0 0 9.1189989575914012 11.78531861258756 0 11.78531861258756 -7.0472728921584462 0 0 0 0 24.472715644551499 178.11446504926062 0 178.11446504926062 -718.32900211289234 0 0 0 0 -46.072523116621596 173.22680910706549 0 173.22680910706549 -278.62296204573067 0 0 0 0 -125.87128166695766 368.14297381876895 0 368.14297381876895 -80.465355432505021 0 0 0 0 246.18847752694273 436.351113949102 0 436.351113949102 -290.13170747281765 0 0 0 0 35.725719976893743 541.39870891068131 0 541.39870891068131 -188.82162383756076 0 0 0 0 45.951762738259276 206.06692812541951 0 206.06692812541951 -110.01974030269776 0 0 0 0 -48.613429227407323 384.41068548833209 0 384.41068548833209 -18.51840873749461 0 0 0 0 -46.366278757646796 394.01544983265831 0 394.01544983265831 -98.35171225052909 0 0 0 0 35.237694185285363 240.17906495308489 0 240.17906495308489 -218.34237335782382 0 0 0 0 13.880729197444623 13.787165826365197 0 13.787165826365197 -55.168812651730377 0 0 0 0 473.0159162148484 298.27791833566516 0 298.27791833566516 148.09277862512681 0 0 0 0 445.42088399972999 516.68458603609906 0 516.68458603609906 -658.68865325651132 0 0 0 0 -24.956363333505578 240.39968538934045 0 240.39968538934045 279.82629274152714 0 0 0 0 -109.60798043821706 196.80198360161558 0 196.80198360161558 261.17954239994287 0 0 0 0 55.017152717049612 110.22653330040976 0 110.22653330040976 1.0260849550832063 0 0 0 0 -166.4690596557266 60.228515959179731 0 60.228515959179731 337.85791996420721 0 0 0 0 65.579852958879201 63.8129533789579 0 63.8129533789579 -13.962633114772871 0 0 0 0 191.57679351934348 309.056143437625 0 309.056143437625 207.66852108229068 0 0 0 0 5.8848106636455952 57.58083877536157 0 57.58083877536157 -68.188745918531069 0 0 0 0 54.45625047787189 61.99327340044902 0 61.99327340044902 -76.068701333275811 0 0 0 0 109.63051115449343 157.47510996774054 0 157.47510996774054 -8.5599270337370399 0 0 0 0 71.92055075254757 43.42020030049116 0 43.42020030049116 281.30011488645732 0 0 0 0 215.79798497364391 389.94947048841186 0 389.94947048841186 -228.98360919480638 0 0 0 0 4.4902711797381585 10.020635278315638 0 10.020635278315638 15.148089866449089 0 0 0 0 147.78955818212125 132.26687054439799 0 132.26687054439799 -196.8965563937254 0 0 0 0 78.893956830201205 86.579794280969509 0 86.579794280969509 -227.17418961176099 0 0 0 0 337.23194332575076 354.94556557321516 0 354.94556557321516 -608.17499356880307 0 0 0 0 51.399046160106082 -36.846065166459084 0 -36.846065166459084 -550.29486803972975 0 0 0 0 200.4253548073757 137.29232648909351 0 137.29232648909351 -350.38902176836655 0 0 0 0 -228.92381826172641 181.57216539019714 0 181.57216539019714 -335.33973363339646 0 0 0 0 135.58866358996602 283.92778996499601 0 283.92778996499601 -376.70961990876049 0 0 0 0 136.77163582193316 317.73446286371427 0 317.73446286371427 -368.36358852986251 0 0 0 0 70.620486158441054 259.47854176628425 0 259.47854176628425 -297.24475218319094 0 0 0 0 249.34896690168534 205.11165830771461 0 205.11165830771461 -305.84075577809745 0 0 0 0 124.07524938340066 293.01696716832066 0 293.01696716832066 -370.39567553954566 0 0 0 0 17.566131672436825 84.482705823449834 0 84.482705823449834 -51.99048440109825 0 0 0 0 98.704185570270056 262.59692934336999 0 262.59692934336999 208.38044267172154 0 0 0 0 5.5873245396260813 10.843962052982647 0 10.843962052982647 4.8501736792017489 0 0 0 0 98.818965860642493 155.5024031394023 0 155.5024031394023 -284.71185358135517 0 0 0 0 229.70249370517558 214.69303246465779 0 214.69303246465779 -245.65040871260499 0 0 0 0 93.45995197922457 95.762357247182081 0 95.762357247182081 -22.079215920792194 0 0 0 0 82.099115487188101 147.30329521280328 0 147.30329521280328 680.96061132698378 0 0 0 0 61.727751683618408 123.97431376741588 0 123.97431376741588 14.957873460354676 0 0 0 0 12.090173465260591 14.456910642836561 0 14.456910642836561 -11.698438432762774 0 0 0 0 27.492798487312825 121.0562702346709 0 121.0562702346709 52.059387722134034 0 0 0 0 -434.66935964033473 197.22875359888167 0 197.22875359888167 90.198530178480723 0 0 0 0 -138.59624081126094 284.46153955246291 0 284.46153955246291 114.96907081408153 0 0 0 0 16.672017471654215 58.212057434532113 0 58.212057434532113 83.043667349993186 0 0 0 0 28.911097230137329 69.015061156881984 0 69.015061156881984 -38.765176836000258 0 0 0 0 142.61423635936808 105.84788178643612 0 105.84788178643612 -26.005530387119506 0 0 0 0 189.77848358990741 120.12685541449446 0 120.12685541449446 -252.35111963898271 0 0 0 0 -39.392967567997403 222.16507476021454 0 222.16507476021454 -276.17200706531912 0 0 0 0 145.25791553384624 148.66690061207464 0 148.66690061207464 -248.73274979505095 0 0 0 0 -450.19450353059801 720.19150006024893 0 720.19150006024893 -338.19130769206703 0 0 0 0 89.875857993960381 322.37491623051073 0 322.37491623051073 -355.14357605769851 0 0 0 0 280.67779155052267 322.97673188821659 0 322.97673188821659 -373.01407916108786 0 0 0 0 480.95428733679 135.17850535881121 0 135.17850535881121 -250.29436918279362 0 0 0 0 352.15951518612565 336.9897939500554 0 336.9897939500554 96.254915882992009 0 0 0 0 38.519490357670293 441.07346266755303 0 441.07346266755303 441.34013375326049 0 0 0 0 -19.718423851903935 221.55328344052714 0 221.55328344052714 -356.06140748634903 0 0 0 0 409.87953330627352 1103.8850783946027 0 1103.8850783946027 996.78111524806172 0 0 0 0 813.13627811684273 1164.8416786437756 0 1164.8416786437756 681.32244822642883 0 0 0 0 1544.0851059167762 1248.7812577581262 0 1248.7812577581262 369.56315172419545 0 0 0 0 694.99895209019451 470.72319115552898 0 470.72319115552898 -84.531234398245033 0 0 0 0 627.21234238512261 1598.6605837505945 0 1598.6605837505945 1608.717902459608 0 0 0 0 1619.6538077883306 2063.4652716250812 0 2063.4652716250812 1432.8389338269517 0 0 0 0 -9.8403200061875395 174.81794007018016 0 174.81794007018016 -181.20640867483689 0 0 0 0 3.56793188067968 187.5890928679828 0 187.5890928679828 -179.40990553512893 0 0 0 0 -25.965834820352029 216.53246260326478 0 216.53246260326478 -201.25242540966383 0 0 0 0 923.11378091467486 217.82489730169209 0 217.82489730169209 -546.38034097221862 0 0 0 0 259.69744933678885 -179.20534494057119 0 -179.20534494057119 -760.21473852938834 0 0 0 0 112.18313766199572 283.38543436944292 0 283.38543436944292 2.4964219341354692 0 0 0 0 102.16756088841794 231.26817795983698 0 231.26817795983698 -218.21485009770731 0 0 0 0 -37.057637564750621 268.19008040386325 0 268.19008040386325 -181.22218245778004 0 0 0 0 134.16920141661103 113.08754305877028 0 113.08754305877028 -210.7177986496672 0 0 0 0 143.56934640154941 103.16322903625064 0 103.16322903625064 -359.79886320946025 0 0 0 0 225.36340449092677 9.3627565959479853 0 9.3627565959479853 -95.165586981869069 0 0 0 0 458.87886465567863 113.26089019328242 0 113.26089019328242 -221.48013189666244 0 0 0 0 203.14632575237192 55.381568852514761 0 55.381568852514761 -205.08646456549684 0 0 0 0 306.70382667806462 38.733222417803958 0 38.733222417803958 -319.09538114952431 0 0 0 0 23.921299242181703 97.012858238614513 0 97.012858238614513 -326.86200325996231 0 0 0 0 168.04820601717802 10.281130590350926 0 10.281130590350926 -348.34597895350464 0 0 0 0 182.90506768028717 151.35968929065211 0 151.35968929065211 -339.43246893799562 0 0 0 0 83.731979929492809 -69.846747606445888 0 -69.846747606445888 -259.58093418270528 0 0 0 0 188.67783787756343 -46.254242873354315 0 -46.254242873354315 -355.11265073155403 0 0 0 0 160.59071100552683 38.156288930916048 0 38.156288930916048 -199.13744953158812 0 0 0 0 52.472817180881975 -193.34840469508822 0 -193.34840469508822 -394.4647476388227 0 0 0 0 56.961069949087687 -126.07149318190181 0 -126.07149318190181 -889.87468280986104 0 0 0 0 76.281786178389666 -36.538365643406763 0 -36.538365643406763 -88.203297031608599 0 0 0 0 -735.16463980847038 -1.9883686201505952 0 -1.9883686201505952 145.67401954020875 0 0 0 0 532.25710945753963 967.83728591013823 0 967.83728591013823 -90.098396701745514 0 0 0 0 -2.1181387600175299 59.311707057367698 0 59.311707057367698 -68.820198208253856 0 0 0 0 -4.1344474494568999 5.4185677224001836 0 5.4185677224001836 -17.145437665983639 0 0 0 0 259.61877173249377 156.83028399552313 0 156.83028399552313 -22.706928906623034 0 0 0 0 -891.66859560391094 1320.5871027703838 0 1320.5871027703838 442.07564344931234 0 0 0 0 909.48519658562145 -860.19106625610857 0 -860.19106625610857 -1188.228180030238 0 0 0 0 -1309.1020893586101 -116.10306842445334 0 -116.10306842445334 -194.96594629943047 0 0 0 0 -260.70353271756903 568.84417546336772 0 568.84417546336772 -904.97691350716184 0 0 0 0 71.646159483963856 234.65842783352582 0 234.65842783352582 -599.75711851642109 0 0 0 0 -79.176134111112333 239.21714040924917 0 239.21714040924917 -311.95042824742359 0 0 0 0 -227.89059269425343 299.64539540126862 0 299.64539540126862 -153.46055051097119 0 0 0 0 -38.65324825438438 252.01503378080702 0 252.01503378080702 -321.77297326239932 0 0 0 0 14.444443456886802 33.24668274502892 0 33.24668274502892 -77.655940909449782 0 0 0 0 -279.12509086256614 -41.37636487817872 0 -41.37636487817872 35.146513366181352 0 0 0 0 314.34722017482272 248.29240698285957 0 248.29240698285957 -30.558446534550967 0 0 0 0 160.22561317088548 35.93474418652022 0 35.93474418652022 -200.27476693496328 0 0 0 0 87.143833277514204 -81.96695125149563 0 -81.96695125149563 100.91946793170064 0 0 0 0 97.410049812751822 -30.072742720729821 0 -30.072742720729821 -81.025041447274816 0 0 0 0 244.32332615283667 -38.987595391095965 0 -38.987595391095965 -263.45389061264439 0 0 0 0 -39.75290177075658 199.23121580750399 0 199.23121580750399 -100.19520113168255 0 0 0 0 -37.91386433201842 118.3592853902901 0 118.3592853902901 -129.60599457543185 0 0 0 0 -4.8334773944225162 149.76568805908937 0 149.76568805908937 -151.56844603784793 0 0 0 0 -1292.6350646161591 1137.6731542666894 0 1137.6731542666894 2134.9128974320556 0 0 0 0 -5.7784548656616721 11.449241053155504 0 11.449241053155504 -21.909058438844234 0 0 0 0 86.46409516642143 32.277422609824157 0 32.277422609824157 10.780249539311626 0 0 0 0 72.32975833475939 334.56475238940584 0 334.56475238940584 138.04963331339241 0 0 0 0 -1385.2492429283739 -135.72041142702983 0 -135.72041142702983 797.51450004023536 0 0 0 0 205.07353078849701 -270.84445788685275 0 -270.84445788685275 -484.87480425158537 0 0 0 0 394.74016121635213 16.649551376032832 0 16.649551376032832 -284.51081900908503 0 0 0 0 247.96345796331298 -84.183121534226302 0 -84.183121534226302 -347.70215007554725 0 0 0 0 191.65999370417558 -259.9644796123448 0 -259.9644796123448 41.14249004645535 0 0 0 0 182.63082310103346 295.86228914795356 0 295.86228914795356 -348.09167945080844 0 0 0 0 109.27720371948089 36.078646161643519 0 36.078646161643519 405.92314937472383 0 0 0 0 263.72134459170047 316.26796847879996 0 316.26796847879996 249.72344325824452 0 0 0 0 -96.359509421105031 3.1041590567801904 0 3.1041590567801904 -126.20300305116143 0 0 0 0 -468.73157045618791 261.77370190304919 0 261.77370190304919 -52.589959558026749 0 0 0 0 -401.4713927556586 -44.662548321701252 0 -44.662548321701252 -123.85367396301808 0 0 0 0 -78.792754077090649 62.672239622748748 0 62.672239622748748 11.7771371830313 0 0 0 0 -396.66139924042727 73.862131405707828 0 73.862131405707828 106.4317472083203 0 0 0 0 -126.86929368851997 -66.771918191700024 0 -66.771918191700024 -18.699853895690467 0 0 0 0 -5.2526699029217525 7.1937156944999288 0 7.1937156944999288 -9.7893842478662378 0 0 0 0 -452.62539009854663 114.84326929930103 0 114.84326929930103 -256.34413993040653 0 0 0 0 -2.8681101952521146 14.426912074427463 0 14.426912074427463 -25.415281280761761 0 0 0 0 -624.16140639223158 -73.731470493021334 0 -73.731470493021334 -230.95828216440259 0 0 0 0 -1615.0767563988338 172.90370086515759 0 172.90370086515759 220.55761894606985 0 0 0 0 -282.36694953302504 21.447413108009641 0 21.447413108009641 -87.180270677927183 0 0 0 0 -577.86924787054886 629.66672167227989 0 629.66672167227989 144.76905086589977 0 0 0 0 -732.30327954501263 35.180431812510506 0 35.180431812510506 -80.24298907547518 0 0 0 0 -1371.8108047482674 31.969857464486267 0 31.969857464486267 116.41249564371537 0 0 0 0 1457.5623041246436 221.61000337785276 0 221.61000337785276 -811.27162417921409 0 0 0 0 210.63390699320553 769.33249397946042 0 769.33249397946042 -206.091410448018 0 0 0 0 -13.279970492026791 27.325480764790683 0 27.325480764790683 -65.985041030122773 0 0 0 0 -408.91161268285941 594.43356602740459 0 594.43356602740459 336.44252206295641 0 0 0 0 -419.29802138335072 467.50865623015852 0 467.50865623015852 -158.65611827905741 0 0 0 0 733.83441835291887 -3.8403911194136526 0 -3.8403911194136526 -274.17770014388225 0 0 0 0 741.82270373983192 -86.715796590506216 0 -86.715796590506216 -725.84521394922194 0 0 0 0 449.21662491222378 949.6297601310871 0 949.6297601310871 -1721.3868113674434 0 0 0 0 -190.84602012888354 -425.32027255562843 0 -425.32027255562843 -393.37480880318617 0 0 0 0 715.35699148701315 245.65667466219656 0 245.65667466219656 -594.15249846834922 0 0 0 0 -1546.6601078657259 902.73075822012106 0 902.73075822012106 -68.67148007956348 0 0 0 0 -577.79098952445202 572.19130658764334 0 572.19130658764334 -51.261784882692154 0 0 0 0 647.84896480321186 -818.27236808436282 0 -818.27236808436282 -977.16678351415612 0 0 0 0 1769.8832138831494 -618.69659455049259 0 -618.69659455049259 -1417.5979207265555 0 0 0 0 4.1330219876369938 6.333074649912362 0 6.333074649912362 -13.822252503233997 0 0 0 0 -207.87046522134915 630.27736202231608 0 630.27736202231608 2046.0397940425028 0 0 0 0 13.064289281313449 740.78742036076051 0 740.78742036076051 551.31112851918442 0 0 0 0 74.302923358183193 60.266046423062093 0 60.266046423062093 -61.651990424994203 0 0 0 0 -30.781793902104255 -21.228770623492892 0 -21.228770623492892 933.71202500618529 0 0 0 0 415.66822790929655 751.21553254633091 0 751.21553254633091 418.47921869519632 0 0 0 0 -24.010415423755319 33.662708668643347 0 33.662708668643347 -13.511638009278556 0 0 0 0 -3344.7374234614254 739.1428212814717 0 739.1428212814717 317.46129159960401 0 0 0 0 384.34143638261594 295.74602668487933 0 295.74602668487933 353.18826738588541 0 0 0 0 -103.82788958017773 493.43073866582563 0 493.43073866582563 627.37497854854882 0 0 0 0 652.41335732946754 514.54722328609932 0 514.54722328609932 100.93745171153569 0 0 0 0 92.462482148337983 58.904398264457427 0 58.904398264457427 -52.359591480693638 0 0 0 0 200.3991412213436 27.030740224852707 0 27.030740224852707 -2.0139811107655987 0 0 0 0 153.03767654838157 94.358113706926815 0 94.358113706926815 -88.024988846620545 0 0 0 0 123.5731639227015 185.73712679032906 0 185.73712679032906 77.307247212243965 0 0 0 0 292.6375737368071 122.68868858677797 0 122.68868858677797 2.3330268188456103 0 0 0 0 8.046430413694452 49.498397687427428 0 49.498397687427428 36.46613760376917 0 0 0 0 21.992126785422442 66.695502972601389 0 66.695502972601389 80.125257885607425 0 0 0 0 111.86615681724106 278.58881709360202 0 278.58881709360202 -369.90352389781538 0 0 0 0 74.086037078637901 102.30513278272382 0 102.30513278272382 -70.264993739627812 0 0 0 0 60.268484479165636 202.22881098989455 0 202.22881098989455 33.275203934485035 0 0 0 0 -2.4616093574820752 50.58434281536293 0 50.58434281536293 -6.1834745182312929 0 0 0 0 138.06959909031866 123.06259532580134 0 123.06259532580134 130.55216283181289 0 0 0 0 69.537285825965228 165.91037238330046 0 165.91037238330046 103.9679576572089 0 0 0 0 79.282143279240699 100.78766950306235 0 100.78766950306235 -70.107851230919096 0 0 0 0 130.80629882260109 132.0307379710066 0 132.0307379710066 137.82576440582488 0 0 0 0 129.17022575750161 201.22877474811685 0 201.22877474811685 32.342284615697281 0 0 0 0 -15.708197875909093 18.478913100233996 0 18.478913100233996 -21.920493616783517 0 0 0 0 45.414670384678175 262.45625668696448 0 262.45625668696448 213.73337461609481 0 0 0 0 86.138672468718141 269.63203680865627 0 269.63203680865627 49.953493757553133 0 0 0 0 595.79672194589511 612.32680780324154 0 612.32680780324154 233.96115608635591 0 0 0 0 491.65132334694499 493.65395062902098 0 493.65395062902098 275.18992943394551 0 0 0 0 85.240132363847806 135.32691606182198 0 135.32691606182198 184.15209774603136 0 0 0 0 -56.237663990785222 98.531965309961379 0 98.531965309961379 191.73800319280417 0 0 0 0 413.1981949955516 147.16662338334572 0 147.16662338334572 -380.21054878784344 0 0 0 0 -2.5532041539666466 7.147454997937615 0 7.147454997937615 -9.7359556351247534 0 0 0 0 471.24331994834938 296.20524174435559 0 296.20524174435559 84.255815014679683 0 0 0 0 395.30223174037383 178.18196916898887 0 178.18196916898887 -94.487663485415396 0 0 0 0 536.07911004422931 351.97421442310588 0 351.97421442310588 -46.748374968476128 0 0 0 0 462.51670890643436 306.54246556193175 0 306.54246556193175 -6.2169532691477798 0 0 0 0 257.97062386706239 268.038430787783 0 268.038430787783 12.594881428594817 0 0 0 0 255.21898717160366 237.71902381494328 0 237.71902381494328 -223.7965500120772 0 0 0 0 358.47965302783996 408.95261153435422 0 408.95261153435422 -359.30703121349507 0 0 0 0 362.46636774289072 454.14591003641544 0 454.14591003641544 -145.75504995619121 0 0 0 0 322.68983157697949 357.71808428639633 0 357.71808428639633 90.347186950428295 0 0 0 0 -13.194023066811496 631.29451691935174 0 631.29451691935174 -120.94333266429749 0 0 0 0 -34.881608303796156 533.22189514491663 0 533.22189514491663 87.252435670641717 0 0 0 0 -34.86149193742267 529.49608823146195 0 529.49608823146195 224.41473427313031 0 0 0 0 434.56991831606138 371.67356182040385 0 371.67356182040385 152.13736274828261 0 0 0 0 407.60463458232698 466.46367627628933 0 466.46367627628933 -109.9453681578816 0 0 0 0 -841.93448994315986 29.207772176843719 0 29.207772176843719 394.18367959377065 0 0 0 0 -833.90306129542296 -6.4520179085557174 0 -6.4520179085557174 223.25471457222011 0 0 0 0 -327.0803960149351 715.65796557724025 0 715.65796557724025 -68.387719942984404 0 0 0 0 -1243.9441668962099 486.65410873231667 0 486.65410873231667 371.94003841733502 0 0 0 0 -205.57039243148756 488.1197989245702 0 488.1197989245702 113.75449680030215 0 0 0 0 -1556.8341019609943 1136.3979045362721 0 1136.3979045362721 -201.69123138146097 0 0 0 0 121.35237325893104 550.30350636991625 0 550.30350636991625 -991.37142581642547 0 0 0 0 -504.82779161812505 -279.03535678957996 0 -279.03535678957996 -1177.6356054094067 0 0 0 0 -2214.8184630526812 -223.85524398042253 0 -223.85524398042253 198.18760485886014 0 0 0 0 317.95513996708905 -402.61371637295088 0 -402.61371637295088 -277.79580015212923 0 0 0 0 8.2274380480398861 19.532211516079485 0 19.532211516079485 50.074211081068796 0 0 0 0 -486.04673169847592 -125.13522068385009 0 -125.13522068385009 75.952330447238637 0 0 0 0 -104.05516252244706 64.838014528153508 0 64.838014528153508 317.53659897347825 0 0 0 0 -23.630355289016734 -13.724665251240367 0 -13.724665251240367 45.79122803082646 0 0 0 0 0.51452489495693499 0.67460384982121013 0 0.67460384982121013 5.2832365121704186 0 0 0 0 60.674396284317481 -74.581232834714683 0 -74.581232834714683 7.3431331268584472 0 0 0 0 30.787289249245077 -88.730237020936329 0 -88.730237020936329 -455.92156930538476 0 0 0 0 7.2730142818405454 24.460420758456934 0 24.460420758456934 71.340874821203244 0 0 0 0 -567.14529873550055 -46.635907530013355 0 -46.635907530013355 345.21023764010897 0 0 0 0 -110.01170975233254 290.75825344806344 0 290.75825344806344 853.47298319471884 0 0 0 0 -0.79878972726874053 -43.479899520149047 0 -43.479899520149047 -107.14170277885569 0 0 0 0 12.987710662834161 33.244751433820369 0 33.244751433820369 52.16158616507019 0 0 0 0 4.8149930127669904 273.02348357826963 0 273.02348357826963 288.61896699199133 0 0 0 0 -234.8979666295636 240.69541869755813 0 240.69541869755813 39.91692326380371 0 0 0 0 -106.26453569778823 -13.876419520442141 0 -13.876419520442141 197.88315753056668 0 0 0 0 -25.370302426148555 41.556612136717376 0 41.556612136717376 20.922331032743386 0 0 0 0 11.195548954157687 35.497433422877577 0 35.497433422877577 74.033917328936298 0 0 0 0 -45.109640625742031 31.954209077557607 0 31.954209077557607 -108.87538415563108 0 0 0 0 20.813753104665068 44.245014561297921 0 44.245014561297921 72.885684273455382 0 0 0 0 14.548590548452921 709.41626570718654 0 709.41626570718654 153.80271454766125 0 0 0 0 -647.73029696221056 58.85521938947204 0 58.85521938947204 218.08468991827976 0 0 0 0 -441.71253015579714 405.66709077946143 0 405.66709077946143 374.70106774214946 0 0 0 0 -399.16681828879518 418.97077822538267 0 418.97077822538267 301.23577248261881 0 0 0 0 -511.94866624166025 571.24376896766626 0 571.24376896766626 370.90987351270451 0 0 0 0 -459.33020799033693 389.24017307692702 0 389.24017307692702 362.22016231971065 0 0 0 0 -121.82604166920646 578.77977801896122 0 578.77977801896122 334.2612573880906 0 0 0 0 -842.71905219438486 709.37667064640846 0 709.37667064640846 535.29591588156472 0 0 0 0 6.7452995991349454 17.632946587195903 0 17.632946587195903 -0.54297457704171848 0 0 0 0 -18.455300070318117 291.55283850177466 0 291.55283850177466 448.84665959776612 0 0 0 0 -892.95547839139181 536.98418498010506 0 536.98418498010506 44.530104584729997 0 0 0 0 -505.84087156748865 688.48618651073775 0 688.48618651073775 278.09675357023934 0 0 0 0 -759.41256452782545 563.82159216375294 0 563.82159216375294 418.37350205826806 0 0 0 0 -813.15480023808777 504.45457400049781 0 504.45457400049781 494.41448726141607 0 0 0 0 -30.558231449802406 6.258364917273866 0 6.258364917273866 565.88252602994908 0 0 0 0 -172.00711237965152 516.16154468961759 0 516.16154468961759 459.72820902930107 0 0 0 0 -1693.9122800279292 501.81015939736972 0 501.81015939736972 810.86862093323725 0 0 0 0 -63.668399575166404 920.74093690354493 0 920.74093690354493 -1651.2179415680002 0 0 0 0 -3.8785739145241678 415.85415013792226 0 415.85415013792226 -141.04544615870691 0 0 0 0 38.534544418431096 70.447575006512011 0 70.447575006512011 -110.32110287896555 0 0 0 0 -1124.2676177173853 1531.2049944877508 0 1531.2049944877508 -1079.3002497951966 0 0 0 0 1726.6348153626359 863.73939105692432 0 863.73939105692432 -722.55750299544889 0 0 0 0 -10.39569402997347 24.418156313064287 0 24.418156313064287 32.993377767712559 0 0 0 0 -1434.1894430944812 1487.3470680148057 0 1487.3470680148057 -246.88300955417799 0 0 0 0 -493.43524467025418 26.637278417976631 0 26.637278417976631 -158.53953636647202 0 0 0 0 24.199767606739556 31.198666609782549 0 31.198666609782549 -56.736130951086324 0 0 0 0 65.645654861698858 66.559244901669445 0 66.559244901669445 16.71168501325883 0 0 0 0 -366.04834183398998 158.01511552813236 0 158.01511552813236 -142.26954770038719 0 0 0 0 25.053012398539011 55.765086406258774 0 55.765086406258774 -37.06814167877647 0 0 0 0 40.604287168571318 104.21430761638817 0 104.21430761638817 -112.81564831215611 0 0 0 0 211.00525822857162 536.80189793326281 0 536.80189793326281 -528.48224016555469 0 0 0 0 -82.137793660454918 59.120159352001792 0 59.120159352001792 -624.66140381809964 0 0 0 0 -45.191930851549841 235.17548763909872 0 235.17548763909872 -229.02774678207061 0 0 0 0 -336.33436990645714 432.59033886845282 0 432.59033886845282 -362.88586057417706 0 0 0 0 356.74110814663072 64.100839459095369 0 64.100839459095369 -180.48034710096545 0 0 0 0 -41.605903298943304 63.026194340913207 0 63.026194340913207 30.902599735825788 0 0 0 0 -114.14376359982998 74.170177453253928 0 74.170177453253928 131.05589276230603 0 0 0 0 7.3128544315813429 50.390716498905562 0 50.390716498905562 89.375187765618051 0 0 0 0 12.783448519364356 56.94626404586549 0 56.94626404586549 57.143439237256999 0 0 0 0 -96.673478997225175 42.647102403681856 0 42.647102403681856 187.90335140396928 0 0 0 0 29.948345562908798 60.742631128157882 0 60.742631128157882 55.629954622250807 0 0 0 0 -33.117458579043159 14.23940561433119 0 14.23940561433119 87.469453002278897 0 0 0 0 -8.0733590410951592 20.821223975949209 0 20.821223975949209 7.7327253965035894 0 0 0 0 63.485857669322286 74.785223209989908 0 74.785223209989908 11.125815128178147 0 0 0 0 77.529100021885824 90.902899066343707 0 90.902899066343707 72.881346022832076 0 0 0 0 -2.7124731783143261 14.100578217764109 0 14.100578217764109 12.04340494376023 0 0 0 0 0.047431593483338474 18.238071574500601 0 18.238071574500601 8.7878648038830356 0 0 0 0 74.064256887388183 93.428063255289999 0 93.428063255289999 78.468012634089973 0 0 0 0 -8.9242147359764203 13.582420738734072 0 13.582420738734072 76.390930765512167 0 0 0 0 20.007171736564487 41.890353193157353 0 41.890353193157353 3.2350331656925846 0 0 0 0 37.836792499886656 43.21730584293384 0 43.21730584293384 11.296745701619976 0 0 0 0 21.642817669949977 55.859052930676057 0 55.859052930676057 -11.991120459524552 0 0 0 0 18.555016937316395 58.440735575582949 0 58.440735575582949 32.262427381414454 0 0 0 0 25.208876657017697 71.608364399840639 0 71.608364399840639 75.236767589158177 0 0 0 0 67.118907336145639 59.95791855227435 0 59.95791855227435 43.749347294537984 0 0 0 0 -202.17705351248151 187.4261961706361 0 187.4261961706361 -206.08820667496184 0 0 0 0 0.46969030376999399 7.5772389073712532 0 7.5772389073712532 0.41056682084340812 0 0 0 0 -265.45847120790859 75.969945444907353 0 75.969945444907353 13.174604099971475 0 0 0 0 68.33831973397173 -46.416284492828709 0 -46.416284492828709 -62.53651150513906 0 0 0 0 -13.541470451513305 29.039105812269554 0 29.039105812269554 3.0692020303322352 0 0 0 0 -40.562369773106184 52.738538760364463 0 52.738538760364463 -5.6199626512786836 0 0 0 0 4.6671648702873085 38.192739914000015 0 38.192739914000015 -54.53133649552602 0 0 0 0 -3.4800748496782035 50.290467431506841 0 50.290467431506841 -5.5475090513646137 0 0 0 0 -24.627210076984056 26.291155428028546 0 26.291155428028546 40.91516565838235 0 0 0 0 38.013511626548393 117.65911680350399 0 117.65911680350399 107.8021953887322 0 0 0 0 25.109521630220115 75.647088044235716 0 75.647088044235716 30.809771535045002 0 0 0 0 28.798869146732613 75.753284605998488 0 75.753284605998488 9.9047041407320648 0 0 0 0 30.034628408960998 64.978474697651109 0 64.978474697651109 18.279397451042314 0 0 0 0 25.475329923238803 65.467013998968724 0 65.467013998968724 22.96761112326007 0 0 0 0 26.723348899628036 59.398970796653884 0 59.398970796653884 11.40435507564689 0 0 0 0 17.450741643862443 39.867047866606498 0 39.867047866606498 10.756469752314235 0 0 0 0 16.11133852000097 47.097515485280439 0 47.097515485280439 43.240980801942897 0 0 0 0 9.6422683836426586 30.427354428218678 0 30.427354428218678 8.0104499261842648 0 0 0 0 12.620066237395065 62.962477036645026 0 62.962477036645026 7.2506798676449193 0 0 0 0 4.060174013253949 35.41649504930939 0 35.41649504930939 -1.2435228175987021 0 0 0 0 -0.4993401745510937 33.796047683369977 0 33.796047683369977 16.039875129005225 0 0 0 0 -7.793791563255013 30.307800969844294 0 30.307800969844294 14.910675942206666 0 0 0 0 -36.745931371027837 43.741751822541119 0 43.741751822541119 7.6178814839586266 0 0 0 0 -8.6124630191658582 19.104562950646056 0 19.104562950646056 10.857907490249502 0 0 0 0 -50.951215943059651 34.795910453991382 0 34.795910453991382 7.0821552622874151 0 0 0 0 -12.077560054651912 35.563094143029417 0 35.563094143029417 7.0219665285946036 0 0 0 0 -38.202669228136074 46.352910424373476 0 46.352910424373476 8.333959881753799 0 0 0 0 9.7380964290847345 30.173380378069794 0 30.173380378069794 8.5593715684594542 0 0 0 0 41.708455712505383 23.804826392623909 0 23.804826392623909 15.761390681978583 0 0 0 0 3.0882285308271094 80.597796440187039 0 80.597796440187039 36.497084754248135 0 0 0 0 28.353749348403653 25.184262965073231 0 25.184262965073231 11.754215101685986 0 0 0 0 -1.9398048779398209 18.691270419755284 0 18.691270419755284 22.359501001840933 0 0 0 0 -48.539826234293287 116.67812282100203 0 116.67812282100203 -14.784154746033892 0 0 0 0 -33.462213331338717 54.182281098436761 0 54.182281098436761 20.940899255037948 0 0 0 0 1.382709057909608 24.930617506105392 0 24.930617506105392 -11.54937862077125 0 0 0 0 -30.946632784500252 21.742868242987242 0 21.742868242987242 -1.0590866943375659 0 0 0 0 -10.144669202289101 24.18878444349366 0 24.18878444349366 7.5870578727444666 0 0 0 0 5.9958850660332246 14.561643183642758 0 14.561643183642758 -7.549776848406907 0 0 0 0 21.194371054501971 34.223601728657854 0 34.223601728657854 21.877227725491707 0 0 0 0 38.561651437357796 73.905896625889568 0 73.905896625889568 0.65422366335496918 0 0 0 0 49.234536784824741 40.535103606190319 0 40.535103606190319 41.11342051282827 0 0 0 0 60.33514097852094 73.698882399072886 0 73.698882399072886 25.15130298890108 0 0 0 0 -7.0335700757480026 18.183060425320974 0 18.183060425320974 7.2592863563530372 0 0 0 0 45.644983785226941 61.521845821397619 0 61.521845821397619 40.361641614832934 0 0 0 0 25.403692995024471 39.191435086859855 0 39.191435086859855 30.815268691381359 0 0 0 0 -8.1044432054566187 16.430994249546131 0 16.430994249546131 2.5456417088266079 0 0 0 0 52.92877525521908 62.969608636409248 0 62.969608636409248 38.290300482292878 0 0 0 0 28.381749151798431 57.353112430644615 0 57.353112430644615 36.956750194392953 0 0 0 0 16.406287201098166 35.97341529981486 0 35.97341529981486 21.319539790159979 0 0 0 0 14.551170999775707 29.1894110379653 0 29.1894110379653 15.057152329920186 0 0 0 0 -5.4824404214076026 13.420216071462164 0 13.420216071462164 3.8978555127810637 0 0 0 0 3.8416863034181006 19.8389490791848 0 19.8389490791848 -1.1643039706541458 0 0 0 0 3.8470969342602075 20.160326428286368 0 20.160326428286368 14.274941605486674 0 0 0 0 6.4270127878297671 11.833190883497792 0 11.833190883497792 -1.3508008247609093 0 0 0 0 -9.264729471703788 12.730208643850062 0 12.730208643850062 8.6493733898475327 0 0 0 0 8.9116076006612275 37.100490308332155 0 37.100490308332155 49.888114579814101 0 0 0 0 -141.17412308542407 50.911580307793884 0 50.911580307793884 208.69693387004372 0 0 0 0 -52.413214085245272 184.09964903499167 0 184.09964903499167 68.451830582391267 0 0 0 0 13.538285093032755 -40.839228600991191 0 -40.839228600991191 121.01919654299127 0 0 0 0 -1.9960239070782677 4.8625647448871518 0 4.8625647448871518 9.6514844737538397 0 0 0 0 17.427387708885362 85.577592209539944 0 85.577592209539944 215.41678771183797 0 0 0 0 1.4362160507807857 -20.858542218129514 0 -20.858542218129514 183.81641131109791 0 0 0 0 -37.266264861711534 18.999611001407175 0 18.999611001407175 147.26780600146583 0 0 0 0 11.615432062564651 -12.440669378077473 0 -12.440669378077473 102.28613800102903 0 0 0 0 0.21979854659514331 -0.85153417854954228 0 -0.85153417854954228 4.1266230936234223 0 0 0 0 20.020029968465678 29.967157112761925 0 29.967157112761925 60.053359184306828 0 0 0 0 23.964712638757192 -76.63926049922884 0 -76.63926049922884 196.88250095654803 0 0 0 0 24.712264185276581 -6.2663617318175966 0 -6.2663617318175966 54.914897293860122 0 0 0 0 63.161667491745902 76.031609390913218 0 76.031609390913218 103.4830612125952 0 0 0 0 0.84117824160727395 2.8934028670936982 0 2.8934028670936982 3.2292517649111119 0 0 0 0 6.8617183292808477 21.483850329704183 0 21.483850329704183 1.6900319734205027 0 0 0 0 -1.2280097348685786 17.372231843062224 0 17.372231843062224 5.6493702928366041 0 0 0 0 9.5331572953145951 41.697131177177653 0 41.697131177177653 51.882988136916538 0 0 0 0 -5.6628155420918205 12.805774140895323 0 12.805774140895323 32.134117265909964 0 0 0 0 -16.939036763007607 21.627619724216629 0 21.627619724216629 59.772347648875439 0 0 0 0 10.35009786035107 16.181500118440738 0 16.181500118440738 8.0832866894184434 0 0 0 0 5.2140939288074151 1.0419811217398092 0 1.0419811217398092 120.6656038047804 0 0 0 0 1.0246163725234965 12.697431680433851 0 12.697431680433851 5.0133676852926019 0 0 0 0 14.363069666665979 3.724778254472767 0 3.724778254472767 96.979622065380681 0 0 0 0 7.4366585074515115 3.3462934941812819 0 3.3462934941812819 -10.610510575105053 0 0 0 0 5.6476924861781299 27.743628025586077 0 27.743628025586077 14.305346893106616 0 0 0 0 4.1333185275143478 22.906993500044337 0 22.906993500044337 12.157995577355905 0 0 0 0 13.084018151566852 30.623755322878424 0 30.623755322878424 14.257732331980051 0 0 0 0 6.9072901853651274 27.083453686675057 0 27.083453686675057 14.687672622037098 0 0 0 0 6.5398110128880944 24.189686416651512 0 24.189686416651512 11.04600777167434 0 0 0 0 0.9386033594518679 14.868694176880126 0 14.868694176880126 5.9301453994747746 0 0 0 0 6.3120045283012587 22.947933803136834 0 22.947933803136834 13.615558667932419 0 0 0 0 14.589608365989989 4.8079423941949244 0 4.8079423941949244 -6.25786733826817 0 0 0 0 13.955123236549468 18.61488934792348 0 18.61488934792348 13.858143002670191 0 0 0 0 1.6198711072399021 5.9205347846306609 0 5.9205347846306609 -0.82482600707060205 0 0 0 0 5.5581399336776087 5.0829878104119643 0 5.0829878104119643 -18.020032181088016 0 0 0 0 9.0668203323148191 27.330824788070004 0 27.330824788070004 12.37442729283589 0 0 0 0 14.994353851885535 24.252081998216454 0 24.252081998216454 13.674076068369686 0 0 0 0 8.3048371649418513 18.124242963391282 0 18.124242963391282 -0.32305222534959022 0 0 0 0 8.4618650897019734 19.957015072192632 0 19.957015072192632 7.8868656584702528 0 0 0 0 -2.6696062887785956 14.727039733224046 0 14.727039733224046 -4.2520079089881619 0 0 0 0 3.4297875553961603 8.4736867929846085 0 8.4736867929846085 -6.156961671321266 0 0 0 0 9.8803331468079705 29.689000517204022 0 29.689000517204022 17.363891177169648 0 0 0 0 21.288855180027895 33.257990021766204 0 33.257990021766204 27.282617138393107 0 0 0 0 -7.187146315464588 12.442387493407495 0 12.442387493407495 5.8366499002144323 0 0 0 0 9.5170179416309111 25.309983683781866 0 25.309983683781866 15.544421035026971 0 0 0 0 -122.362201666896 253.13296294201291 0 253.13296294201291 -301.88253089594468 0 0 0 0 -4.4300710478200926 2.4054449964916671 0 2.4054449964916671 -4.2945111128819917 0 0 0 0 -128.88102164209704 150.73277043798453 0 150.73277043798453 -138.72933809458209 0 0 0 0 -427.52377547867945 351.93084030852697 0 351.93084030852697 -229.9570495666153 0 0 0 0 -352.09468267438933 297.73311388272754 0 297.73311388272754 -223.24814789893358 0 0 0 0 4.2041357843842206 1.4773041170754482 0 1.4773041170754482 -3.4968695817799551 0 0 0 0 7.1365072822663933 22.188799112107517 0 22.188799112107517 12.374518941350289 0 0 0 0 -17.233238193643047 17.27833963201283 0 17.27833963201283 34.934847781327335 0 0 0 0 5.0047106159319412 12.487968847903517 0 12.487968847903517 7.7381198436544878 0 0 0 0 -62.969469656934962 -31.609722167964719 0 -31.609722167964719 203.58372844997211 0 0 0 0 5.0851557994395762 -1.1496972210907757 0 -1.1496972210907757 -4.1915101550847531 0 0 0 0 9.1960060828423593 -28.26081871534825 0 -28.26081871534825 51.335213877136994 0 0 0 0 -0.27741906054143328 173.18940507458592 0 173.18940507458592 -258.29126685434039 0 0 0 0 -7.7836123697925359 8.6246811653363693 0 8.6246811653363693 -242.08478134152756 0 0 0 0 -0.11130488873459399 240.77053097849239 0 240.77053097849239 128.57089686095742 0 0 0 0 3.3348075790714802 3.4486855841404243 0 3.4486855841404243 4.9522945264900731 0 0 0 0 2.6870779548480641 83.533859228645042 0 83.533859228645042 81.294831194285507 0 0 0 0 -5.3604064430744529 -4.4776901343678048 0 -4.4776901343678048 16.054802345870485 0 0 0 0 -1.7594716389430687 10.361157854595149 0 10.361157854595149 73.464087048792862 0 0 0 0 -3.4973504934583843 -3.7534004716135598 0 -3.7534004716135598 8.6288419518046808 0 0 0 0 1.361988166696392 5.0086411735537695 0 5.0086411735537695 22.092226448587098 0 0 0 0 2.1191145736520411 14.955852000037794 0 14.955852000037794 9.5410100377775962 0 0 0 0 23.439063779253047 30.046865787880051 0 30.046865787880051 -57.401538236985289 0 0 0 0 5.0168979211246949 13.855619669567886 0 13.855619669567886 9.6899389018041973 0 0 0 0 2.7480123564600945 11.034033282150631 0 11.034033282150631 23.504252771053871 0 0 0 0 -3.9994536515478103 16.27903279498446 0 16.27903279498446 28.46717657953559 0 0 0 0 -0.3054380899689022 6.2177991861469977 0 6.2177991861469977 13.89890709172963 0 0 0 0 -24.069033859872434 38.139757494465812 0 38.139757494465812 132.60541171568912 0 0 0 0 2.113633226819104 13.452255889853973 0 13.452255889853973 37.133443039142392 0 0 0 0 21.475957014015876 -3.6265322024701163 0 -3.6265322024701163 -33.929808115490232 0 0 0 0 -1.4120752286910374 10.332435426800245 0 10.332435426800245 13.566361767767884 0 0 0 0 -8.2390637287753634 15.57630138539389 0 15.57630138539389 46.925856328680311 0 0 0 0 0.0045203495392343029 16.324117170197496 0 16.324117170197496 48.321062585822801 0 0 0 0 -3.096660843671998 19.921565463919251 0 19.921565463919251 49.914449019009226 0 0 0 0 -0.93870841695752461 9.4652304084656862 0 9.4652304084656862 27.861378576002608 0 0 0 0 -0.0083854613185394555 15.410291077099828 0 15.410291077099828 24.177271773050052 0 0 0 0 3.2002390675407639 7.6887760462672361 0 7.6887760462672361 22.20602998612712 0 0 0 0 -6.2141562391188927 7.6017123641868238 0 7.6017123641868238 14.796988407768367 0 0 0 0 116.94733307078423 -229.57276102900869 0 -229.57276102900869 150.89732325461955 0 0 0 0 -30.085258762526792 -177.85730255944509 0 -177.85730255944509 229.56684358481584 0 0 0 0 -17.045804731053067 79.543673329164449 0 79.543673329164449 194.9000655230011 0 0 0 0 107.37549520964603 -122.7766274616838 0 -122.7766274616838 194.3358810933496 0 0 0 0 -115.17422123195138 -44.836648844440788 0 -44.836648844440788 248.89595368353548 0 0 0 0 -33.884771838405868 -118.79832510815686 0 -118.79832510815686 270.18725922942394 0 0 0 0 -86.549843053449877 -13.533230262924917 0 -13.533230262924917 34.415531225575251 0 0 0 0 60.866104407032253 107.42316152185958 0 107.42316152185958 131.66634895602328 0 0 0 0 -321.87231351570517 278.68942732257892 0 278.68942732257892 -50.361889494470233 0 0 0 0 2.8199651448510963 23.527267386806386 0 23.527267386806386 44.747399709114958 0 0 0 0 -18.095558896904549 4.4388012376148254 0 4.4388012376148254 58.529667159462406 0 0 0 0 -108.00566121287557 -72.1852221870422 0 -72.1852221870422 -121.07973964240227 0 0 0 0 448.10166294382361 -653.61299216510088 0 -653.61299216510088 668.22605459052204 0 0 0 0 -0.0033664867612049052 9.7317002946970916 0 9.7317002946970916 12.938593556697015 0 0 0 0 2.8970140613259616 4.3792137026664761 0 4.3792137026664761 5.8843522927100338 0 0 0 0 -100.21555906440335 20.829668906118968 0 20.829668906118968 196.05875785673197 0 0 0 0 -530.62733829177159 846.66068665123748 0 846.66068665123748 -617.67178109037559 0 0 0 0 14.62533387050982 9.6383425457536447 0 9.6383425457536447 -23.413587424496122 0 0 0 0 456.76472259464208 494.33006457298325 0 494.33006457298325 -724.55211554959715 0 0 0 0 -1821.2440561134281 1349.1419970020179 0 1349.1419970020179 -975.41606032310665 0 0 0 0 -761.10261987619015 3320.7502957866545 0 3320.7502957866545 -2023.757466203584 0 0 0 0 732.10672827998587 2790.3257774731946 0 2790.3257774731946 -2027.8361137434949 0 0 0 0 1554.1355441781052 -569.27429735326768 0 -569.27429735326768 -45.504182910186501 0 0 0 0 13.785217036522255 1.2950665882448185 0 1.2950665882448185 -9.6454955447571322 0 0 0 0 -262.33287057538837 383.35774550563838 0 383.35774550563838 -2128.4898816098648 0 0 0 0 -816.21973199389322 2125.5696679998291 0 2125.5696679998291 -2836.2412084831831 0 0 0 0 23.197922795574527 -4.6212581425130637 0 -4.6212581425130637 -23.082754419873282 0 0 0 0 -758.59874743383261 726.98277259340102 0 726.98277259340102 -2016.4494822676643 0 0 0 0 -398.05270246353757 1245.1981147361621 0 1245.1981147361621 -1351.386907011718 0 0 0 0 -397.76228992865799 180.75166801788509 0 180.75166801788509 293.71888511428551 0 0 0 0 79.832318305383836 7.7776900951288788 0 7.7776900951288788 -109.54280278820697 0 0 0 0 199.57586327489116 -132.56972485037113 0 -132.56972485037113 77.796806091937469 0 0 0 0 13.354382769419772 -8.3028231608558869 0 -8.3028231608558869 -7.1444067192236389 0 0 0 0 357.55874533188762 455.16499932127772 0 455.16499932127772 -719.45903924139566 0 0 0 0 -490.93276723077724 716.46945617584788 0 716.46945617584788 -369.60352022664301 0 0 0 0 -310.90276347425242 -196.15944697635678 0 -196.15944697635678 -98.721894445099679 0 0 0 0 82.787930071763327 -8.5954210323999973 0 -8.5954210323999973 -114.05870950019391 0 0 0 0 143.71749929946964 -276.51391099756438 0 -276.51391099756438 -78.061633228891878 0 0 0 0 -41.52966038477598 -81.695935515539304 0 -81.695935515539304 -368.79138996975598 0 0 0 0 238.96402757627948 565.82990070950473 0 565.82990070950473 185.17498825386429 0 0 0 0 -1676.4769650313538 550.82877837505657 0 550.82877837505657 -407.56741313103703 0 0 0 0 -15.63964452951609 101.36715430078401 0 101.36715430078401 -79.696000168200996 0 0 0 0 -93.657644756844093 104.02966025425894 0 104.02966025425894 -131.56998168832797 0 0 0 0 -58.20390912462608 394.73516789999849 0 394.73516789999849 -124.73149521676532 0 0 0 0 -116.5183904714504 368.07019646314438 0 368.07019646314438 3.8126859777439677 0 0 0 0 1153.1664261036203 -303.74155487801181 0 -303.74155487801181 -548.34118589250284 0 0 0 0 3.5943610004753737 92.492527462055691 0 92.492527462055691 -45.117135712104321 0 0 0 0 -3.1565570165471968 15.21713035541319 0 15.21713035541319 -11.956215322021098 0 0 0 0 -66.35679039885872 1.4192805797601977 0 1.4192805797601977 1011.125011050377 0 0 0 0 -205.51037725735659 864.45880320871947 0 864.45880320871947 1922.7640218439046 0 0 0 0 38.806908520316938 1068.7981032445132 0 1068.7981032445132 1660.0962642592767 0 0 0 0 905.61660778710211 2428.3798021322764 0 2428.3798021322764 3099.8753941965597 0 0 0 0 -543.90519162665441 419.37488983718777 0 419.37488983718777 3228.843385852957 0 0 0 0 9.6981244699272793 -52.485021080678052 0 -52.485021080678052 114.0528557830512 0 0 0 0 10.091187059835363 12.609501663825903 0 12.609501663825903 13.090782302748636 0 0 0 0 -54.442131354639969 725.32103500192284 0 725.32103500192284 -258.01391218121717 0 0 0 0 7.2637081544671673 89.776215303942081 0 89.776215303942081 -60.217764527682448 0 0 0 0 31.717760602379911 47.448729414748001 0 47.448729414748001 -3.327660718815423 0 0 0 0 -97.458285575127775 706.49678531465349 0 706.49678531465349 -265.75728358041306 0 0 0 0 2606.0741542493051 295.94083078621043 0 295.94083078621043 -456.2104573394372 0 0 0 0 1492.0835694113775 2946.6622799395814 0 2946.6622799395814 1357.9504475236026 0 0 0 0 801.05416318667994 1146.9530813432084 0 1146.9530813432084 3025.2344472757395 0 0 0 0 3053.35601680322 1692.4615979401542 0 1692.4615979401542 1429.7480906135279 0 0 0 0 2065.676216820968 264.84056471763688 0 264.84056471763688 1937.0654696243546 0 0 0 0 822.26456211983168 436.83916950411003 0 436.83916950411003 1284.2677293266222 0 0 0 0 693.73823724163231 1566.8169874030282 0 1566.8169874030282 1388.9629237032909 0 0 0 0 564.82309215707937 1166.6842148193336 0 1166.6842148193336 707.2014800867737 0 0 0 0 160.50069931642793 734.41959608938851 0 734.41959608938851 960.11143475219797 0 0 0 0 662.95130983796844 1363.2673259886578 0 1363.2673259886578 414.11154513917154 0 0 0 0 327.6458372931811 851.16979697383431 0 851.16979697383431 288.73329119642221 0 0 0 0 564.61981570690295 1170.186849343032 0 1170.186849343032 677.01982484017935 0 0 0 0 1525.261451394741 1628.6340161085536 0 1628.6340161085536 -773.86492139617258 0 0 0 0 1475.3556766528782 1759.6242351735109 0 1759.6242351735109 433.21913163261615 0 0 0 0 -195.73067090142285 801.75761728724501 0 801.75761728724501 269.18366726301838 0 0 0 0 -311.32252318017709 610.98615400240487 0 610.98615400240487 62.283369778146152 0 0 0 0 111.07354525270057 908.22450513690819 0 908.22450513690819 670.83339965789128 0 0 0 0 -25.135146954467928 638.67488527339356 0 638.67488527339356 182.25104265080881 0 0 0 0 157.0173081272078 687.88045014125964 0 687.88045014125964 402.46487287396303 0 0 0 0 47.32719779350009 1093.487602987585 0 1093.487602987585 265.53932962465706 0 0 0 0 -73.139453929405136 805.93480819541674 0 805.93480819541674 -270.67210834169964 0 0 0 0 -366.06632821098901 930.69033143927936 0 930.69033143927936 98.4118281015908 0 0 0 0 -351.40329488746465 980.55624546379931 0 980.55624546379931 -108.6347460371253 0 0 0 0 516.61551320405124 1341.7192842228469 0 1341.7192842228469 -122.11569241097459 0 0 0 0 368.71337715696427 935.25708115483121 0 935.25708115483121 -128.65038618193284 0 0 0 0 210.79117240967025 950.03155247930772 0 950.03155247930772 -571.93863188955584 0 0 0 0 251.17386335002084 1431.3407651795351 0 1431.3407651795351 -538.4614496584154 0 0 0 0 1143.1669886954624 1468.0355813140977 0 1468.0355813140977 -79.165157643734346 0 0 0 0 940.34285896398796 1180.9409109350145 0 1180.9409109350145 -143.15847218073395 0 0 0 0 900.3257157044136 1068.7764897065108 0 1068.7764897065108 -398.00891040420902 0 0 0 0 2166.5092503435917 863.3063051840827 0 863.3063051840827 -620.63013935377967 0 0 0 0 729.95391981330613 689.42966786469333 0 689.42966786469333 -506.07348116046705 0 0 0 0 555.69837654331786 1304.0851023246905 0 1304.0851023246905 -244.54830345589835 0 0 0 0 965.60273090892224 1151.5863677539064 0 1151.5863677539064 -460.91565432591597 0 0 0 0 348.11144447678817 1084.7985240729577 0 1084.7985240729577 -436.97337412449633 0 0 0 0 373.10906417921615 1002.3393343672233 0 1002.3393343672233 -304.12396201458614 0 0 0 0 232.18224924033166 614.83199363049198 0 614.83199363049198 -389.6902483933809 0 0 0 0 657.57120640885114 673.34331426875724 0 673.34331426875724 -400.56869469300727 0 0 0 0 -96.547877218769372 1332.4271029214312 0 1332.4271029214312 -364.28852009227558 0 0 0 0 534.92482791141811 1231.0997862457061 0 1231.0997862457061 -490.43945280204571 0 0 0 0 451.17725908751891 1308.671476572541 0 1308.671476572541 -258.12383440548729 0 0 0 0 312.51792481003213 1432.6864437252443 0 1432.6864437252443 -366.35637261898955 0 0 0 0 283.79577289520239 1308.4026787888415 0 1308.4026787888415 -541.51574193493798 0 0 0 0 213.24703766062157 1600.9420888987843 0 1600.9420888987843 -240.85512083304639 0 0 0 0 135.53943619405618 1352.6291952498759 0 1352.6291952498759 295.12723389492021 0 0 0 0 137.6217834148847 1183.2065179354686 0 1183.2065179354686 -60.870569916340173 0 0 0 0 130.82655684999554 1280.8177831736957 0 1280.8177831736957 -256.14457518169365 0 0 0 0 2.7458201269400888 1021.0645259552512 0 1021.0645259552512 302.76525783605575 0 0 0 0 -65.056368436587945 858.76876959153014 0 858.76876959153014 -74.089460371091263 0 0 0 0 150.04486860280576 1040.1177615095837 0 1040.1177615095837 103.06233161701675 0 0 0 0 55.624838585536054 638.5715024696874 0 638.5715024696874 -290.25863244677748 0 0 0 0 73.403373671942973 936.13731011806522 0 936.13731011806522 -313.49629936255951 0 0 0 0 0.89219506395238568 837.06170044997816 0 837.06170044997816 -362.50545651040738 0 0 0 0 -165.89653076163086 897.81144796168519 0 897.81144796168519 -156.75939611812282 0 0 0 0 -544.95612157151481 687.49301129729065 0 687.49301129729065 -396.84923965169583 0 0 0 0 -125.35855023842305 525.38524884062758 0 525.38524884062758 -360.32378098935442 0 0 0 0 -675.12252864192124 97.984456095777205 0 97.984456095777205 -333.2057637925318 0 0 0 0 19.075280963623186 36.023088824683043 0 36.023088824683043 -118.41541472572817 0 0 0 0 -198.52317356060303 65.965110855956027 0 65.965110855956027 -377.43160339448514 0 0 0 0 -169.85679850631277 211.55970407994027 0 211.55970407994027 -303.89497892972577 0 0 0 0 -148.30370524643695 261.52064497990386 0 261.52064497990386 -313.31495350488694 0 0 0 0 -46.305308938528469 225.70092611274595 0 225.70092611274595 -330.40057523757423 0 0 0 0 87.513008746718697 322.22734627214959 0 322.22734627214959 -266.92353235798691 0 0 0 0 0.718546689267896 87.838618570696326 0 87.838618570696326 -214.19025512757071 0 0 0 0 198.01252907660819 86.74017429947753 0 86.74017429947753 -161.53075295912276 0 0 0 0 -64.903733706451021 116.31856504336974 0 116.31856504336974 -159.10770756079728 0 0 0 0 414.21333857969694 135.96336227551365 0 135.96336227551365 -256.92806341105461 0 0 0 0 228.2408674987164 166.64361532738803 0 166.64361532738803 -227.03405034358366 0 0 0 0 -267.95179549130262 1098.9426898296006 0 1098.9426898296006 -4098.7361880806566 0 0 0 0 -1008.4504069422619 1835.7135463063869 0 1835.7135463063869 -1767.5136834256846 0 0 0 0 17.588865240931938 -19.4580665275097 0 -19.4580665275097 -55.733305669625139 0 0 0 0 -159.6334662053996 1512.6685837733858 0 1512.6685837733858 -2520.4852105369628 0 0 0 0 -112.56670947940984 11.167027954244986 0 11.167027954244986 -140.38051019699924 0 0 0 0 20.521908401074313 37.015952501708369 0 37.015952501708369 -112.83391636686821 0 0 0 0 -207.82385998695827 36.223048757536162 0 36.223048757536162 -145.03426606098401 0 0 0 0 -76.156311806274971 61.847313891079466 0 61.847313891079466 1702.4135576723202 0 0 0 0 -2558.9186358459192 2118.830189160697 0 2118.830189160697 -1643.7872491899907 0 0 0 0 -0.58958588265286949 4.6556594444577399 0 4.6556594444577399 -5.8451117679227025 0 0 0 0 154.3476392177472 282.12428399219789 0 282.12428399219789 440.26442400364613 0 0 0 0 183.533213518374 826.32386146028318 0 826.32386146028318 -6.9322289547417313 0 0 0 0 245.96091013550176 807.10488166691357 0 807.10488166691357 396.92447792909388 0 0 0 0 448.27675121646462 981.20223840965627 0 981.20223840965627 11.308729689335451 0 0 0 0 280.05009395576781 883.24320203890966 0 883.24320203890966 70.571084871138737 0 0 0 0 301.34245620501315 863.03870700231346 0 863.03870700231346 -762.86926499834954 0 0 0 0 183.16728602255171 1056.2083748998193 0 1056.2083748998193 -34.564819252627785 0 0 0 0 205.69522344467441 630.2763779849538 0 630.2763779849538 -86.853628661905532 0 0 0 0 21.266223738566623 1027.9913479250899 0 1027.9913479250899 -145.32890625906293 0 0 0 0 -24.333673756373173 260.07617051829584 0 260.07617051829584 -1050.9919883258844 0 0 0 0 409.04688697185338 1494.2688276034387 0 1494.2688276034387 -300.21817521521007 0 0 0 0 -184.95336066424352 1348.4554241189617 0 1348.4554241189617 1532.4849894447834 0 0 0 0 -866.0617796508086 -1087.565310983151 0 -1087.565310983151 -1053.3395162234228 0 0 0 0 398.62125722169003 -98.922660202981206 0 -98.922660202981206 138.36757844893145 0 0 0 0 -3547.0807788902675 1542.5984690597033 0 1542.5984690597033 -331.79190857350477 0 0 0 0 69.808427253198843 43.251110511092364 0 43.251110511092364 -55.042810815111466 0 0 0 0 -1141.6842521323565 746.82331801559906 0 746.82331801559906 -1023.2467050252744 0 0 0 0 400.50857084532618 261.98852269084455 0 261.98852269084455 -183.74480069005222 0 0 0 0 226.30103483732 74.183655582614847 0 74.183655582614847 -355.43869690268184 0 0 0 0 145.11505689467231 543.45845339049265 0 543.45845339049265 -498.69911651720759 0 0 0 0 -103.37134971567139 531.72891465292923 0 531.72891465292923 -424.78620020396556 0 0 0 0 784.63029262635428 -132.05566128003829 0 -132.05566128003829 -244.69017909493414 0 0 0 0 742.61396805063123 -363.71962555586651 0 -363.71962555586651 -70.241407779336441 0 0 0 0 476.63948930057813 207.20432740250544 0 207.20432740250544 -408.31345409545611 0 0 0 0 392.38911205320619 282.45573919429444 0 282.45573919429444 -408.74741668892966 0 0 0 0 183.12985243769072 225.18150786546175 0 225.18150786546175 -278.11844784530695 0 0 0 0 219.15868889294507 389.00833684347162 0 389.00833684347162 -519.25595501926728 0 0 0 0 151.97876979399007 296.55446220056911 0 296.55446220056911 -357.19017008159426 0 0 0 0 276.86067128597642 286.46037905682169 0 286.46037905682169 -416.32710169206257 0 0 0 0 189.89302030892213 210.12089137867952 0 210.12089137867952 -446.52589412403177 0 0 0 0 -126.34077155299747 384.94817829057138 0 384.94817829057138 -285.46869120809424 0 0 0 0 -140.71207496043644 447.30437997695117 0 447.30437997695117 -373.11605628255347 0 0 0 0 49.899865966754049 25.971372825826187 0 25.971372825826187 -27.579328427310998 0 0 0 0 -98.666729958660653 338.22318677455769 0 338.22318677455769 -401.64782648242544 0 0 0 0 -70.87709798416472 409.48269939203965 0 409.48269939203965 -393.10431319492636 0 0 0 0 158.82511301817431 332.18728233883303 0 332.18728233883303 -398.3852420898329 0 0 0 0 109.37419271437102 379.22495702313608 0 379.22495702313608 -410.44064475558116 0 0 0 0 137.09562554099102 318.58239048162795 0 318.58239048162795 -387.82921162230195 0 0 0 0 118.75896637348342 342.48368162596307 0 342.48368162596307 -399.85230543759826 0 0 0 0 136.14750456868205 285.03255887578416 0 285.03255887578416 -395.00653382263408 0 0 0 0 151.95400397310732 270.00173068091681 0 270.00173068091681 -388.60217375145294 0 0 0 0 208.44168278746656 268.57136996329064 0 268.57136996329064 -382.18488381290808 0 0 0 0 217.97323555673938 266.77747454795463 0 266.77747454795463 -390.93819148714101 0 0 0 0 164.91939321739483 215.19096486501803 0 215.19096486501803 -379.96518623793963 0 0 0 0 169.77930796283181 179.81479322040104 0 179.81479322040104 -278.32591236123699 0 0 0 0 60.913386220141547 180.79061315480794 0 180.79061315480794 -376.03228668975316 0 0 0 0 90.640898101985002 19.578327964338953 0 19.578327964338953 -107.70336949624203 0 0 0 0 -591.31768459926752 -426.7496460336788 0 -426.7496460336788 -2253.1290263671399 0 0 0 0 -41.213887922873255 180.55661877251987 0 180.55661877251987 -199.47628210013499 0 0 0 0 -2.8118092500593548 10.342099507712092 0 10.342099507712092 -21.814757023888916 0 0 0 0 -89.360784862743458 200.62780901210499 0 200.62780901210499 -106.41649613683694 0 0 0 0 -1557.7716901622189 1819.84234627552 0 1819.84234627552 -1556.1308742517213 0 0 0 0 28.030476105399217 21.934643632469395 0 21.934643632469395 -12.050189289704804 0 0 0 0 -1136.9873345337728 4226.4402616326261 0 4226.4402616326261 -863.52236645475853 0 0 0 0 79.485278686556853 45.753351599823716 0 45.753351599823716 -84.544037252178498 0 0 0 0 367.68479087438027 1.5274043854951742 0 1.5274043854951742 -219.4268371326325 0 0 0 0 351.80472129498958 170.85510089591844 0 170.85510089591844 -202.70972646337759 0 0 0 0 326.1476056891297 110.73797940185614 0 110.73797940185614 -277.96545366130886 0 0 0 0 267.68484607990831 209.87555017066188 0 209.87555017066188 -320.87842075493245 0 0 0 0 237.36226441192412 210.35752314129786 0 210.35752314129786 -310.5206983073731 0 0 0 0 125.79032267592265 41.232414497397258 0 41.232414497397258 -111.91808605544293 0 0 0 0 315.76042619574582 130.82132903572347 0 130.82132903572347 -313.05201515363296 0 0 0 0 148.48123794170678 139.15433063996485 0 139.15433063996485 89.885821241181816 0 0 0 0 -182.81898788973922 361.46754325101938 0 361.46754325101938 -240.42882039656706 0 0 0 0 -285.99524423787807 682.44805185279984 0 682.44805185279984 -267.84998909248588 0 0 0 0 -457.37667026650161 429.17701233710977 0 429.17701233710977 -20.579295770374301 0 0 0 0 -221.52090253959068 217.42248003488749 0 217.42248003488749 128.83302954837563 0 0 0 0 -9.5953449246881064 -44.18566233945603 0 -44.18566233945603 -63.768616222740093 0 0 0 0 -96.091096463031135 255.22426588332746 0 255.22426588332746 67.209105226269457 0 0 0 0 78.33570609583694 -3.3423531878797803 0 -3.3423531878797803 -173.34489193009176 0 0 0 0 43.635573664432741 86.035554981604946 0 86.035554981604946 268.43361471776734 0 0 0 0 -48.85903525420872 500.94676468915713 0 500.94676468915713 316.81071367918412 0 0 0 0 -51.19608919545135 437.82284965043073 0 437.82284965043073 -86.428456683788681 0 0 0 0 580.99035822313454 91.726243499579141 0 91.726243499579141 -51.807972501206677 0 0 0 0 1930.6960239046275 -520.39905122483833 0 -520.39905122483833 -129.0492684685014 0 0 0 0 10.256468692464082 7.3136562454930214 0 7.3136562454930214 -7.7716806656740118 0 0 0 0 1307.1481010596981 764.0940832342676 0 764.0940832342676 58.535032475367188 0 0 0 0 -712.94629702344537 2079.1186889120145 0 2079.1186889120145 -546.3276403740274 0 0 0 0 240.1946490114351 610.58949898022183 0 610.58949898022183 743.92176809348166 0 0 0 0 3.2739113334539098 3.2089467811946406 0 3.2089467811946406 0.17537474240356232 0 0 0 0 142.32436865323689 443.81978764720407 0 443.81978764720407 380.47834147833055 0 0 0 0 -153.14960318269732 73.486733164805628 0 73.486733164805628 406.767598689039 0 0 0 0 -147.49012155861419 1393.4156153343356 0 1393.4156153343356 -952.46090237033604 0 0 0 0 602.44161831182282 386.18667164265935 0 386.18667164265935 -219.9593144589744 0 0 0 0 -180.65827665013785 1143.8847190934539 0 1143.8847190934539 -154.22620470791298 0 0 0 0 -134.30450339227764 1182.8190357563931 0 1182.8190357563931 -206.43101517666946 0 0 0 0 -398.55355707556009 631.77947456319816 0 631.77947456319816 -88.160716206191864 0 0 0 0 -1367.292114009826 793.18663072109484 0 793.18663072109484 -31.917822148141568 0 0 0 0 -640.88638233836537 182.81455967578222 0 182.81455967578222 -502.53299820914981 0 0 0 0 14.555958376778662 11.895021507038429 0 11.895021507038429 -8.8354386965987146 0 0 0 0 -103.87629366111651 448.89395874668116 0 448.89395874668116 -748.23508045362541 0 0 0 0 -770.22991763958998 721.10510612560029 0 721.10510612560029 -450.15556183335138 0 0 0 0 862.41388457482208 -478.97682675787564 0 -478.97682675787564 -278.71395124532864 0 0 0 0 470.98743835662754 126.46542999894518 0 126.46542999894518 -450.51242035971518 0 0 0 0 -319.7910448549228 27.953331230179174 0 27.953331230179174 405.97528060185141 0 0 0 0 -163.74461856024573 341.76949928821341 0 341.76949928821341 -715.91819075253625 0 0 0 0 127.54096800110682 103.88987266733666 0 103.88987266733666 77.543907079664706 0 0 0 0 269.31119504018352 660.2226826845399 0 660.2226826845399 -745.29849475671654 0 0 0 0 168.21750261717534 -146.26543432235485 0 -146.26543432235485 265.60189564559187 0 0 0 0 719.03858841491456 100.2622619188005 0 100.2622619188005 -659.61187265739136 0 0 0 0 -989.37500071631803 109.73780903648003 0 109.73780903648003 -431.98467345229074 0 0 0 0 5.6832847979239887 817.61665626942704 0 817.61665626942704 -111.37579564263478 0 0 0 0 189.82709937460822 810.96824782602926 0 810.96824782602926 -898.02964992822672 0 0 0 0 138.6334592281645 114.46019506695916 0 114.46019506695916 88.842573082066664 0 0 0 0 212.03361332427812 1278.3664658919797 0 1278.3664658919797 -1342.8704335728398 0 0 0 0 -1830.5488345089834 848.83034448538092 0 848.83034448538092 -947.14122324237906 0 0 0 0 2430.785697051324 -80.196162170013849 0 -80.196162170013849 -596.18459603592783 0 0 0 0 2.6185800845446749 1.9128961560354298 0 1.9128961560354298 -18.894352063818189 0 0 0 0 -3152.5415835248859 2893.8175191774026 0 2893.8175191774026 -1218.1626847804291 0 0 0 0 -620.52684640251391 1320.5800669684213 0 1320.5800669684213 -703.36201741264813 0 0 0 0 646.52693447966885 1398.1605569527237 0 1398.1605569527237 -3100.8624156699007 0 0 0 0 82.373639168446971 -114.08716797571924 0 -114.08716797571924 -267.53700189672236 0 0 0 0 509.44731493406289 249.71903071915222 0 249.71903071915222 62.339427977873129 0 0 0 0 402.95578917618695 265.13761509828419 0 265.13761509828419 153.23906618409819 0 0 0 0 -584.53427544214355 1037.0506784068311 0 1037.0506784068311 -1143.3274148878772 0 0 0 0 6.1083394851963249 -1.9658770252429889 0 -1.9658770252429889 -55.048132626504639 0 0 0 0 611.45968034621183 -16.428163971801041 0 -16.428163971801041 -122.90680487336795 0 0 0 0 -1564.6717847695327 1200.3949804237036 0 1200.3949804237036 -739.33441416110873 0 0 0 0 -613.17114741209662 632.23106192640262 0 632.23106192640262 -618.50341944279376 0 0 0 0 -228.54682323537418 868.22644719531309 0 868.22644719531309 -730.16688039815199 0 0 0 0 -278.23443297413178 844.03933597608921 0 844.03933597608921 -980.19981817356529 0 0 0 0 -394.77314846812806 985.186550016826 0 985.186550016826 -812.41873752134416 0 0 0 0 -594.92944678707181 783.69169099892383 0 783.69169099892383 -811.80793753554462 0 0 0 0 -283.59754480872652 905.67705028067576 0 905.67705028067576 -872.24344996802938 0 0 0 0 -233.37353815721144 583.91273561649814 0 583.91273561649814 -507.30877729730855 0 0 0 0 -98.711585593162454 729.86088630783888 0 729.86088630783888 -902.9747997227314 0 0 0 0 106.48329147749894 95.865142634894028 0 95.865142634894028 76.02954335395485 0 0 0 0 -308.29214446569677 940.01792672434749 0 940.01792672434749 -781.32139541225479 0 0 0 0 -271.33221493294695 885.80231936147902 0 885.80231936147902 -728.35002392837123 0 0 0 0 -217.19221168200602 1025.7486070288724 0 1025.7486070288724 -702.0031061939153 0 0 0 0 -307.52285503436542 926.77206705092067 0 926.77206705092067 -577.75554229563568 0 0 0 0 -230.69030956752249 1021.2638557008358 0 1021.2638557008358 -694.20680959158199 0 0 0 0 -200.10020807202091 1127.9764485050446 0 1127.9764485050446 -663.66293877142016 0 0 0 0 -35.567555702808022 1070.8810662748419 0 1070.8810662748419 -704.40379459741234 0 0 0 0 -36.658429559311799 1271.1799681327429 0 1271.1799681327429 -684.54157940240839 0 0 0 0 -43.577204364424688 995.31209843093166 0 995.31209843093166 -652.2064706042438 0 0 0 0 828.27367832904565 287.82983498616159 0 287.82983498616159 -679.07296261153715 0 0 0 0 500.62799466750585 737.55722162314851 0 737.55722162314851 -898.77886120993026 0 0 0 0 74.629852794751059 1031.2859139180509 0 1031.2859139180509 -708.92050389428914 0 0 0 0 60.461356330255512 499.283006384896 0 499.283006384896 -297.90790305357405 0 0 0 0 -19.491105884015269 153.24530173670701 0 153.24530173670701 -192.77498527814168 0 0 0 0 1333.8846274692914 -250.45563277971814 0 -250.45563277971814 -519.65528264651948 0 0 0 0 975.59257614196395 23.490090046634577 0 23.490090046634577 -394.66093839509995 0 0 0 0 11.529953684956325 27.137309383175989 0 27.137309383175989 -0.58802725514868825 0 0 0 0 616.51042168622371 53.132389929458441 0 53.132389929458441 457.91497856522619 0 0 0 0 14.958990602027342 -1.0794471489745661 0 -1.0794471489745661 -19.619495309922314 0 0 0 0 -567.35459075827384 347.32472641245113 0 347.32472641245113 -295.11347602124442 0 0 0 0 -127.16530688219063 638.51557628178853 0 638.51557628178853 -591.98648255919397 0 0 0 0 -144.58298866517725 635.51353751807619 0 635.51353751807619 -388.01605344487325 0 0 0 0 99.211920999689028 847.6066098083611 0 847.6066098083611 -677.15714792098879 0 0 0 0 411.98912246833788 698.59996772399245 0 698.59996772399245 -617.36698322008306 0 0 0 0 -203.58760450725094 906.91570672599119 0 906.91570672599119 -693.44337552089564 0 0 0 0 -72.204629355937868 829.5738472854764 0 829.5738472854764 -649.20976402270753 0 0 0 0 -231.73779638460837 583.03642876147569 0 583.03642876147569 -620.01270399011048 0 0 0 0 165.32099677018414 20.337858710239743 0 20.337858710239743 -110.81277829433384 0 0 0 0 143.56775218325492 74.045657803271752 0 74.045657803271752 -133.00820808189746 0 0 0 0 11.232036420072276 -8.8490054375221092 0 -8.8490054375221092 -96.592700024365996 0 0 0 0 231.51597880650661 40.361899075029214 0 40.361899075029214 -132.38963848661285 0 0 0 0 12.147535966597047 45.340984364001969 0 45.340984364001969 -105.01488172675366 0 0 0 0 255.22083322162507 7.9179398472697358 0 7.9179398472697358 -139.92160472116666 0 0 0 0 236.49170622462407 18.512295988090045 0 18.512295988090045 -145.46305399385164 0 0 0 0 -34.088867032405687 102.28491733461124 0 102.28491733461124 -89.144253541322541 0 0 0 0 229.23243117242237 72.455871888734691 0 72.455871888734691 -151.86068414312103 0 0 0 0 200.74438339958942 83.027034454193199 0 83.027034454193199 -151.23166419962945 0 0 0 0 257.20194823492784 -51.679063578128989 0 -51.679063578128989 -77.397180465210113 0 0 0 0 288.82198520703241 109.69318150225445 0 109.69318150225445 -143.73908079615649 0 0 0 0 266.8434779216368 57.568497002078175 0 57.568497002078175 -72.185555179763469 0 0 0 0 23.952330813670414 213.5637145099754 0 213.5637145099754 -158.21282019770297 0 0 0 0 147.63240068747837 76.813318590800918 0 76.813318590800918 -153.68467183331904 0 0 0 0 296.59873865036207 665.57147476898172 0 665.57147476898172 -395.67549408516061 0 0 0 0 119.56312703894997 81.613113575450953 0 81.613113575450953 57.008200051980978 0 0 0 0 -41.131240715854801 289.2067929503537 0 289.2067929503537 -227.27227505929113 0 0 0 0 70.131262662413064 281.87042317476153 0 281.87042317476153 -238.4834133125114 0 0 0 0 -235.3615278707075 105.99043182189234 0 105.99043182189234 -389.76483695744537 0 0 0 0 -46.362550534349225 234.1395508369277 0 234.1395508369277 -333.91810654010624 0 0 0 0 -45.253816390191787 353.18873715586233 0 353.18873715586233 -456.02058857372322 0 0 0 0 48.137335745122982 279.08588043510099 0 279.08588043510099 -379.41732666103053 0 0 0 0 48.463719604835205 126.04448974335355 0 126.04448974335355 -298.36146797421679 0 0 0 0 80.822085732186679 252.46587071428075 0 252.46587071428075 -397.83262468773319 0 0 0 0 95.29542177663825 212.35508324072362 0 212.35508324072362 -292.35444385971641 0 0 0 0 116.07187347869331 279.4783366108968 0 279.4783366108968 -346.69008228268649 0 0 0 0 84.968945978791453 245.10961736246827 0 245.10961736246827 -377.3325095414184 0 0 0 0 107.66515691886133 81.106185899866006 0 81.106185899866006 54.656116008338302 0 0 0 0 146.46787025927915 303.47044053161517 0 303.47044053161517 -362.08683778168052 0 0 0 0 98.989312103120028 190.72311523648386 0 190.72311523648386 -210.87656839207011 0 0 0 0 104.36383578088135 292.71508048895339 0 292.71508048895339 -358.22967238099955 0 0 0 0 42.318276984446129 241.93780313492607 0 241.93780313492607 -205.83532448961341 0 0 0 0 -17.713503161619883 302.91640117292991 0 302.91640117292991 -247.97642842044297 0 0 0 0 89.726355896171299 264.47701931358461 0 264.47701931358461 -259.38548428927606 0 0 0 0 -532.6518365231168 788.05562004103194 0 788.05562004103194 -625.44844070486943 0 0 0 0 47.782672112055707 30.400807135008165 0 30.400807135008165 -7.7403041958354208 0 0 0 0 -514.03657429451778 726.01464937328728 0 726.01464937328728 -431.4860056354446 0 0 0 0 -881.0478718316881 770.76890885990724 0 770.76890885990724 -421.03516198394846 0 0 0 0 -572.42259577297955 980.08581443784351 0 980.08581443784351 -395.90332845062949 0 0 0 0 -585.40119527373463 1052.2825744119618 0 1052.2825744119618 -628.38446709778873 0 0 0 0 397.5967982984439 79.664594271151145 0 79.664594271151145 -406.86996334992 0 0 0 0 -239.1499878558825 -86.806223543913802 0 -86.806223543913802 363.86107526879641 0 0 0 0 980.2643224883941 -301.18362280188376 0 -301.18362280188376 -105.1738412664381 0 0 0 0 4.1434042675142564 5.9004557312590862 0 5.9004557312590862 5.0360330484390943 0 0 0 0 -1074.1061648449795 448.41587649835765 0 448.41587649835765 159.50634971063118 0 0 0 0 -1196.5137273025393 749.27927403440117 0 749.27927403440117 -231.97209631405713 0 0 0 0 -1555.2996065542975 740.84454028775144 0 740.84454028775144 505.15268921909592 0 0 0 0 -580.43248956490424 1329.486755360067 0 1329.486755360067 -664.88816455919005 0 0 0 0 -1001.9070947928994 1108.6380622949582 0 1108.6380622949582 -409.74896321480537 0 0 0 0 -1007.8296075723483 989.03261282236417 0 989.03261282236417 68.748039669204445 0 0 0 0 -1843.1994750780868 1364.2453575110922 0 1364.2453575110922 -50.527238895630944 0 0 0 0 -1578.8041598811105 2290.0803251368579 0 2290.0803251368579 -995.57994085542123 0 0 0 0 467.81327321378922 802.70345422661194 0 802.70345422661194 -2365.9923504362487 0 0 0 0 -711.7038796285924 1678.6198339605435 0 1678.6198339605435 -744.52247597923269 0 0 0 0 -226.88574852298188 -192.92195432769586 0 -192.92195432769586 33.250408158073697 0 0 0 0 -28.753560800109994 10.340556774389924 0 10.340556774389924 -7.2095132455321966 0 0 0 0 -2332.2126653488376 1311.4126934082342 0 1311.4126934082342 246.3476520851209 0 0 0 0 -28.944594228451024 215.92356245990959 0 215.92356245990959 34.826065028501944 0 0 0 0 -143.92512108702795 766.87188542564581 0 766.87188542564581 -2567.260166876782 0 0 0 0 789.93186855309614 560.76389708185388 0 560.76389708185388 95.518408356707369 0 0 0 0 -101.30931848994805 162.83350076284114 0 162.83350076284114 466.56911209871032 0 0 0 0 138.95334095740691 39.512244288791408 0 39.512244288791408 -318.35233105099178 0 0 0 0 -17.306165650676121 34.004459169365873 0 34.004459169365873 -34.305780869373848 0 0 0 0 -101.91290807835776 178.21284761509969 0 178.21284761509969 79.532779582103103 0 0 0 0 111.42449235174303 100.66905625070135 0 100.66905625070135 31.706678343927848 0 0 0 0 -234.16222818035749 385.00984882368812 0 385.00984882368812 111.02724210387896 0 0 0 0 -70.488939232927805 48.474241259297145 0 48.474241259297145 -5.3719532953782405 0 0 0 0 -1.2291543730534613 147.06846517886333 0 147.06846517886333 -15.371511311510403 0 0 0 0 75.295433911878717 680.64599704347552 0 680.64599704347552 -558.44630728147968 0 0 0 0 112.30236865550978 1226.0066339233708 0 1226.0066339233708 -75.337081596240751 0 0 0 0 -892.4498151311127 1429.6304231861304 0 1429.6304231861304 -32.663255663448581 0 0 0 0 -845.20409856886545 1323.9870404806366 0 1323.9870404806366 -53.971067565300473 0 0 0 0 -1866.9331473352795 2526.1900427191886 0 2526.1900427191886 -1055.1207906350328 0 0 0 0 -1743.4469757033512 94.188930559414075 0 94.188930559414075 -374.97643820011217 0 0 0 0 458.2426525978421 800.8936045239675 0 800.8936045239675 -163.40970714696596 0 0 0 0 566.0068824205664 252.83324015801554 0 252.83324015801554 533.70004495187095 0 0 0 0 -93.402097983736894 2185.614211729925 0 2185.614211729925 661.61990795071779 0 0 0 0 -4.8489336809906263 5.2649362850792727 0 5.2649362850792727 -0.75473824983676252 0 0 0 0 538.86523387736088 1186.7225770493833 0 1186.7225770493833 1319.2419346749648 0 0 0 0 -1379.9562030924717 649.7856254451026 0 649.7856254451026 1173.1509978099712 0 0 0 0 502.06310468845913 373.95237428597102 0 373.95237428597102 1028.1041792636934 0 0 0 0 -13.59171014206737 11.051832073314245 0 11.051832073314245 -0.82626676320959547 0 0 0 0 77.793037707240728 957.73918782636429 0 957.73918782636429 1708.6999750228333 0 0 0 0 86.181167354414356 1130.1898901163568 0 1130.1898901163568 1858.1073934477463 0 0 0 0 205.50117044262151 1410.7421572183375 0 1410.7421572183375 1196.5350280599687 0 0 0 0 -26.373885399698338 1684.3820214468569 0 1684.3820214468569 1201.4476755743162 0 0 0 0 73.99282556577964 1886.2222423306966 0 1886.2222423306966 349.53061509766849 0 0 0 0 -138.98531699554587 -4.9547737675175085 0 -4.9547737675175085 -47.864113526040455 0 0 0 0 -83.22738345421385 69.944628854364055 0 69.944628854364055 -187.0638267825334 0 0 0 0 -78.431047838399536 -91.740909698115502 0 -91.740909698115502 -116.54897086189703 0 0 0 0 -5.8745339021552354 726.32705226092367 0 726.32705226092367 -270.6562950705993 0 0 0 0 11.546238802035759 68.20330824581265 0 68.20330824581265 -83.784277389995239 0 0 0 0 -60.291120078152744 -16.808531425587717 0 -16.808531425587717 131.29359727957853 0 0 0 0 119.81763863700326 -39.678462783414943 0 -39.678462783414943 -74.427198724490154 0 0 0 0 -292.0207333448634 659.05064644364757 0 659.05064644364757 -406.22546094181598 0 0 0 0 -505.38311740173958 219.01356266885159 0 219.01356266885159 595.11432544168201 0 0 0 0 201.57579019882542 -112.13694946517353 0 -112.13694946517353 74.898220765564474 0 0 0 0 4.4535665806906763 132.6867663592202 0 132.6867663592202 -198.09781033665058 0 0 0 0 40.313233367836801 87.31727119005518 0 87.31727119005518 -246.16285863160738 0 0 0 0 134.20491867992678 92.395788905880181 0 92.395788905880181 -255.96532601287618 0 0 0 0 57.440094153571408 172.23682805998578 0 172.23682805998578 -252.89566177873348 0 0 0 0 319.52921244419122 133.14609854730406 0 133.14609854730406 -248.76577695823653 0 0 0 0 215.71676185265824 4.9409910228459921 0 4.9409910228459921 73.125141328553582 0 0 0 0 146.91754800071067 1.2589291812219017 0 1.2589291812219017 -79.14193977056857 0 0 0 0 102.01548701903084 110.56426253497011 0 110.56426253497011 -24.984837418476673 0 0 0 0 757.20418671595689 626.4591620829051 0 626.4591620829051 7.7760004344406752 0 0 0 0 -61.486343990443856 450.77829684237167 0 450.77829684237167 -11.455829390237341 0 0 0 0 -472.29251668594952 307.88795648023006 0 307.88795648023006 -8.5279978305443365 0 0 0 0 3.1657551685469798 2.5948068927249608 0 2.5948068927249608 4.5096294490017215 0 0 0 0 77.516429921990493 211.96626027734601 0 211.96626027734601 -177.57217192805547 0 0 0 0 1239.6515941435791 417.0032720294214 0 417.0032720294214 -669.27414744724956 0 0 0 0 2165.579849732414 -738.51876262165206 0 -738.51876262165206 122.55289463307599 0 0 0 0 169.93449136276467 691.2980408709991 0 691.2980408709991 -19.654427635810862 0 0 0 0 1764.4076287937933 569.92146305130518 0 569.92146305130518 -979.09118176442098 0 0 0 0 458.5267412488152 270.70314089801394 0 270.70314089801394 604.06180697365926 0 0 0 0 1096.9292995963042 176.76079663882228 0 176.76079663882228 543.72468632640266 0 0 0 0 1025.9136938041229 694.05082270406115 0 694.05082270406115 540.35179115122082 0 0 0 0 1096.2020684546296 1023.751982655247 0 1023.751982655247 1134.5381085687836 0 0 0 0 680.26263461661802 340.5414549436955 0 340.5414549436955 503.16412693195161 0 0 0 0 972.95892910810653 767.82075684727897 0 767.82075684727897 451.77831643558602 0 0 0 0 1178.7575624906276 299.2215221530314 0 299.2215221530314 253.59691967949038 0 0 0 0 381.32419190998189 -49.990293734465013 0 -49.990293734465013 -50.395895754991216 0 0 0 0 606.56805911715492 475.2975899484054 0 475.2975899484054 262.01712848819398 0 0 0 0 82.752718201372772 -125.04216599044594 0 -125.04216599044594 99.416509559774568 0 0 0 0 -49.309872530720895 458.08531800402943 0 458.08531800402943 368.42788210935987 0 0 0 0 -244.43524525128305 -68.494839981538462 0 -68.494839981538462 160.63377345702247 0 0 0 0 108.16694756588549 169.10947591544573 0 169.10947591544573 14.70075667668425 0 0 0 0 6.6889994434032189 14.117364664835179 0 14.117364664835179 26.344302175146701 0 0 0 0 -1412.4892059421327 962.10964225425732 0 962.10964225425732 1538.9239256159481 0 0 0 0 3463.7490898089163 1551.3995204472958 0 1551.3995204472958 766.66158586950496 0 0 0 0 12.773622905057692 30.169543366812036 0 30.169543366812036 70.172604461385703 0 0 0 0 1437.7407473862258 -115.31768008830659 0 -115.31768008830659 -492.07994002986925 0 0 0 0 1324.7233707591731 1225.3363881798673 0 1225.3363881798673 1513.1022442472677 0 0 0 0 -2.5108678327225675 6.5533659888092473 0 6.5533659888092473 4.9529359750633546 0 0 0 0 1561.1464590633404 2178.3473639869344 0 2178.3473639869344 2385.5087461542644 0 0 0 0 2311.7962396598159 2135.0504887280231 0 2135.0504887280231 1102.311230054454 0 0 0 0 583.79510396253318 5323.1060580351514 0 5323.1060580351514 1952.7197642051906 0 0 0 0 1705.2655800823413 2125.0654613656043 0 2125.0654613656043 1975.077256363471 0 0 0 0 1611.399497474471 1587.213525562107 0 1587.213525562107 1555.9156580549134 0 0 0 0 -12.386654587707483 12.033718960771438 0 12.033718960771438 -0.48089127778455065 0 0 0 0 1260.919162887054 1377.6100695090654 0 1377.6100695090654 1185.8416066801701 0 0 0 0 1400.1882076004113 888.60793469658256 0 888.60793469658256 242.76733452822373 0 0 0 0 974.54256272794737 1825.0527163747074 0 1825.0527163747074 1958.9797273778604 0 0 0 0 611.66323563651531 1674.7001787381778 0 1674.7001787381778 1423.7902823299046 0 0 0 0 891.11324628723378 1343.9585554020159 0 1343.9585554020159 1815.2361364599019 0 0 0 0 663.49203336412029 1075.0736033412995 0 1075.0736033412995 1064.2584782105769 0 0 0 0 892.28215103328694 1341.9348747898266 0 1341.9348747898266 1281.1401507513328 0 0 0 0 579.09610131449881 1006.5665453607362 0 1006.5665453607362 1288.5795131772898 0 0 0 0 619.83801845568814 1052.5513654248816 0 1052.5513654248816 940.00774772157092 0 0 0 0 472.55383183904632 724.8929205200202 0 724.8929205200202 831.24932634220022 0 0 0 0 346.69318243008456 761.07642851249329 0 761.07642851249329 838.41193700066106 0 0 0 0 455.73274965985911 732.46926026472283 0 732.46926026472283 783.71818438265836 0 0 0 0 373.87112414510921 576.88627188864848 0 576.88627188864848 723.55801836647333 0 0 0 0 561.31537067543832 891.90238414506257 0 891.90238414506257 1093.3937221851374 0 0 0 0 500.6666714749008 676.38262532406588 0 676.38262532406588 847.0971330401735 0 0 0 0 626.51879696018295 943.86523943716747 0 943.86523943716747 975.72565948328338 0 0 0 0 851.49906080705114 1115.1487657287526 0 1115.1487657287526 1154.438388110957 0 0 0 0 577.0552320186107 911.8442030734459 0 911.8442030734459 1181.5242333009228 0 0 0 0 788.79843633835844 1208.0012444803656 0 1208.0012444803656 1497.2506996657503 0 0 0 0 977.55936846195254 1108.6615381123447 0 1108.6615381123447 1264.2450340175037 0 0 0 0 714.75516594928922 1027.0387538904361 0 1027.0387538904361 1326.3910380698617 0 0 0 0 677.94633299615816 996.83498637703087 0 996.83498637703087 1105.5516411363424 0 0 0 0 778.22149479822838 947.15381909694588 0 947.15381909694588 1030.5745837764771 0 0 0 0 902.61798860350973 1150.0318054882082 0 1150.0318054882082 1240.0372405829912 0 0 0 0 600.35560218291357 719.16716896520302 0 719.16716896520302 887.17510583467083 0 0 0 0 1043.9330066626135 1233.3283534057864 0 1233.3283534057864 1256.4683013949398 0 0 0 0 790.69290980650112 1126.8838924845513 0 1126.8838924845513 1365.8640327895369 0 0 0 0 827.5331276722718 928.71923284983131 0 928.71923284983131 1129.8795179802855 0 0 0 0 1101.2871512895799 1258.2617479683777 0 1258.2617479683777 1343.4008595729829 0 0 0 0 1086.302773033065 1241.5974898279746 0 1241.5974898279746 1635.1718258337241 0 0 0 0 882.72712202792172 1095.7504231877938 0 1095.7504231877938 1385.4383786905746 0 0 0 0 1065.6883064770955 1340.6010375276855 0 1340.6010375276855 1461.9088184182201 0 0 0 0 1224.8373552343201 1602.9074701290824 0 1602.9074701290824 1739.7731736573878 0 0 0 0 1186.8679791788454 1237.2544695459437 0 1237.2544695459437 1411.4205530053932 0 0 0 0 811.36780432914384 1319.5151375477453 0 1319.5151375477453 1726.834123653287 0 0 0 0 1446.7066844224755 1496.2445309510131 0 1496.2445309510131 1766.1636646396014 0 0 0 0 1573.8533612941392 1554.682541488939 0 1554.682541488939 2493.3847211759298 0 0 0 0 2345.1976602379873 1904.4494319969658 0 1904.4494319969658 1693.7393457023245 0 0 0 0 1964.858031478012 1434.7275925088834 0 1434.7275925088834 2141.1294227549515 0 0 0 0 1521.1335111227236 1507.5499590843028 0 1507.5499590843028 1760.6893787879969 0 0 0 0 1804.9068305674009 1685.2237618632098 0 1685.2237618632098 1749.1983782639581 0 0 0 0 1437.6027419294405 1740.4181234619773 0 1740.4181234619773 2248.79519683525 0 0 0 0 1431.9949728132924 1386.153524263209 0 1386.153524263209 1491.7929028332874 0 0 0 0 1366.2701604905888 1595.712332743522 0 1595.712332743522 1728.4564623611441 0 0 0 0 1038.2210540678934 1267.7270944531774 0 1267.7270944531774 1526.6671187490347 0 0 0 0 1386.6701912642457 1419.0996705300768 0 1419.0996705300768 1396.9177151796684 0 0 0 0 902.62834300188115 1319.2035278405929 0 1319.2035278405929 1431.5450831014623 0 0 0 0 1263.0762789165892 1503.4722654640991 0 1503.4722654640991 1395.3354009305549 0 0 0 0 1312.067796823103 1468.8525670372946 0 1468.8525670372946 1417.1636591844835 0 0 0 0 1586.6085886794172 2049.3320830870302 0 2049.3320830870302 1785.5273476281727 0 0 0 0 1195.1856365388667 1509.4357909767295 0 1509.4357909767295 1600.4263102035111 0 0 0 0 1751.1842098772759 1565.0623427776482 0 1565.0623427776482 1577.0803467153273 0 0 0 0 1621.7186383807857 1638.3704646318183 0 1638.3704646318183 1557.1250182846561 0 0 0 0 1178.0724519343057 1924.9128374417596 0 1924.9128374417596 1748.9447067143828 0 0 0 0 1574.7006199287425 1889.3530722938449 0 1889.3530722938449 1627.8771917131307 0 0 0 0 1176.3156766280881 2334.1492338924963 0 2334.1492338924963 2120.5626086293696 0 0 0 0 1885.7016229373112 2511.2412765937152 0 2511.2412765937152 1957.8276404558928 0 0 0 0 539.78538424100225 2243.405702084186 0 2243.405702084186 1907.4241200110882 0 0 0 0 3397.3762302168179 633.09467430260702 0 633.09467430260702 2207.6197099534766 0 0 0 0 7.5339163468099741 1.9149350033099779 0 1.9149350033099779 1.6099776961140648 0 0 0 0 165.24730819297838 2463.6615896381027 0 2463.6615896381027 903.06695909628797 0 0 0 0 -195.32540687128494 1394.0190863029275 0 1394.0190863029275 -381.02693950580579 0 0 0 0 8.7911357688907401 11.174594936807352 0 11.174594936807352 12.483670681848281 0 0 0 0 -152.11393031263651 -260.91811619206737 0 -260.91811619206737 4276.2361799043611 0 0 0 0 -215.19255913806592 184.46132167381938 0 184.46132167381938 1275.1831003177213 0 0 0 0 -101.92508643973997 1736.2307266020107 0 1736.2307266020107 2804.9675136574951 0 0 0 0 632.92018491805356 838.46072132486279 0 838.46072132486279 1627.3658246281802 0 0 0 0 265.8166840330523 722.5495802581745 0 722.5495802581745 2525.2869990564814 0 0 0 0 696.0471522139851 1322.7928635999133 0 1322.7928635999133 1924.2455360208969 0 0 0 0 378.82730324842851 1328.7188337257085 0 1328.7188337257085 1290.2877805958951 0 0 0 0 -15.106220398622099 1772.478310524044 0 1772.478310524044 1649.1219031331138 0 0 0 0 -414.635362336252 1615.7372163561831 0 1615.7372163561831 2946.0808171904796 0 0 0 0 84.742918702620955 1837.2406591536319 0 1837.2406591536319 805.33705846520024 0 0 0 0 85.476663838126115 1898.6096977451871 0 1898.6096977451871 300.56559944771288 0 0 0 0 -750.01832572519925 1008.5418720332855 0 1008.5418720332855 489.27338547083491 0 0 0 0 440.30511420566472 780.41957874722721 0 780.41957874722721 432.15208208913373 0 0 0 0 447.71358919457998 1013.2962299746632 0 1013.2962299746632 1162.7578034984763 0 0 0 0 541.01499523568054 926.27048176175776 0 926.27048176175776 616.72864475470487 0 0 0 0 307.73720809983206 726.43686420124141 0 726.43686420124141 751.64740503285248 0 0 0 0 385.70179906189878 545.77170566314408 0 545.77170566314408 175.81125557619089 0 0 0 0 222.32682010132703 214.52978226960477 0 214.52978226960477 68.277240003198131 0 0 0 0 315.17085785904783 492.87272338477851 0 492.87272338477851 430.13789333739987 0 0 0 0 312.92190498285345 486.63643284037244 0 486.63643284037244 445.01033444590576 0 0 0 0 424.78899705747608 682.27243017822457 0 682.27243017822457 632.9160629676262 0 0 0 0 523.73450537367899 776.38440482130227 0 776.38440482130227 -1001.4540226265508 0 0 0 0 497.82543567895482 735.22867009054153 0 735.22867009054153 454.13668155165578 0 0 0 0 -468.41384474796359 -21.692597319408378 0 -21.692597319408378 33.357290708408982 0 0 0 0 -0.5571500867853274 2.0802089934543346 0 2.0802089934543346 -4.7925466110828125 0 0 0 0 -20.30224502281834 7.520027288119266 0 7.520027288119266 -2.1606827528006551 0 0 0 0 -130.89124964350776 778.42338193069372 0 778.42338193069372 -1953.166499512643 0 0 0 0 -240.85843315437523 1007.909009436622 0 1007.909009436622 -561.7493229826523 0 0 0 0 -1996.0148784907506 1900.2143839389319 0 1900.2143839389319 -888.12836210395653 0 0 0 0 -1337.1185280874488 997.77045077373259 0 997.77045077373259 -94.024559590673562 0 0 0 0 -491.18995674539474 -392.65855181433108 0 -392.65855181433108 -85.798689543400542 0 0 0 0 -680.48457347729709 114.42635236200658 0 114.42635236200658 -88.490769811895007 0 0 0 0 -1917.7816883163141 -513.96714442764733 0 -513.96714442764733 -349.84128227188194 0 0 0 0 -1451.5278244009533 1276.8608379446359 0 1276.8608379446359 -1578.8032963491023 0 0 0 0 -796.97678276410443 10.969196252935035 0 10.969196252935035 135.3679362377934 0 0 0 0 237.25299399603682 -494.73888631599766 0 -494.73888631599766 323.6386982076292 0 0 0 0 439.02326792717213 -263.87696673207029 0 -263.87696673207029 -721.80406347364806 0 0 0 0 588.17807280097622 168.80987436431315 0 168.80987436431315 -680.13616570487534 0 0 0 0 564.23266013743705 128.90991119886894 0 128.90991119886894 -394.53350707128993 0 0 0 0 994.55504117262899 310.18842298907657 0 310.18842298907657 -505.39996599714505 0 0 0 0 -100.0898840969312 63.694999539780838 0 63.694999539780838 207.37175172845491 0 0 0 0 59.320837104438397 144.08599173096627 0 144.08599173096627 91.320403420745151 0 0 0 0 19.56880163543201 10.990037363808739 0 10.990037363808739 1.3398872073342858 0 0 0 0 -26.344890048327954 51.792022882453168 0 51.792022882453168 -36.566060342243887 0 0 0 0 835.28703222889453 471.13904093323072 0 471.13904093323072 -147.56115482302994 0 0 0 0 132.10489035176579 -57.322678621524119 0 -57.322678621524119 -452.45069998886538 0 0 0 0 647.90206194065104 297.55563904411883 0 297.55563904411883 98.345934797969676 0 0 0 0 765.34677311539417 281.98900086163121 0 281.98900086163121 -298.22931414812774 0 0 0 0 499.65809308481403 -44.372811837329209 0 -44.372811837329209 -185.62883330969544 0 0 0 0 376.44450644560857 -23.818516958752298 0 -23.818516958752298 126.94146623061715 0 0 0 0 594.80270368421043 141.38763489928624 0 141.38763489928624 174.48314148961072 0 0 0 0 11.78591884658556 37.32368232230408 0 37.32368232230408 -18.151154959173876 0 0 0 0 22.266407465751399 56.803117161995942 0 56.803117161995942 -10.76909956502368 0 0 0 0 49.622761342763965 33.112452532534817 0 33.112452532534817 -14.543642103025782 0 0 0 0 173.10173336404841 -153.76488833373878 0 -153.76488833373878 288.58837524338742 0 0 0 0 -598.25906131493684 -352.3271124610792 0 -352.3271124610792 366.31904935479179 0 0 0 0 33.088344071102938 33.262567683668756 0 33.262567683668756 19.047818392649376 0 0 0 0 7.4810753458569934 7.9315098565435562 0 7.9315098565435562 -1.5595521300590214 0 0 0 0 -799.55787672461156 -302.94634596617334 0 -302.94634596617334 36.665454197252984 0 0 0 0 149.4197038487473 165.93313447633409 0 165.93313447633409 252.39844350924614 0 0 0 0 553.60408129636198 -45.522871608236528 0 -45.522871608236528 -308.53817223251826 0 0 0 0 55.332745960098691 -693.20698284732498 0 -693.20698284732498 528.84633241848496 0 0 0 0 793.70479773689294 -363.12133917150277 0 -363.12133917150277 -254.13083946078405 0 0 0 0 -336.67487085387256 266.41441089535783 0 266.41441089535783 -199.54214136053372 0 0 0 0 86.638158432375349 349.34943379987862 0 349.34943379987862 202.46200445511568 0 0 0 0 -200.15431802086459 -244.08456952364827 0 -244.08456952364827 -47.105424267239869 0 0 0 0 -227.52049346230342 -128.80436940376967 0 -128.80436940376967 -325.38845881147063 0 0 0 0 253.31448722151981 105.91579747893229 0 105.91579747893229 -317.81257089902476 0 0 0 0 -185.23872425673471 108.22559804272169 0 108.22559804272169 -204.68522541408311 0 0 0 0 17.874016061484596 0.72612856467196707 0 0.72612856467196707 -4.4351034105318021 0 0 0 0 117.58958630432608 138.82525519873525 0 138.82525519873525 -319.99414835616335 0 0 0 0 120.3031711467236 66.899636403438947 0 66.899636403438947 -17.420741467342502 0 0 0 0 104.75933179990898 20.016819988379211 0 20.016819988379211 105.77653952037872 0 0 0 0 82.347666909801774 62.400480300222625 0 62.400480300222625 79.251150718660028 0 0 0 0 64.732289665857024 -65.098827639082572 0 -65.098827639082572 -279.45962373983457 0 0 0 0 35.244267864918072 85.077341657555834 0 85.077341657555834 -10.564218354896219 0 0 0 0 12.158677905947116 139.45700065049709 0 139.45700065049709 76.941192594907079 0 0 0 0 22.654692727257498 127.91922065829976 0 127.91922065829976 36.028404523770405 0 0 0 0 19.192099599487847 57.730433650462146 0 57.730433650462146 13.204312376692542 0 0 0 0 -11.076812944459505 43.000287752170934 0 43.000287752170934 -22.843140847177978 0 0 0 0 591.89671255490975 708.81720312457219 0 708.81720312457219 26.910147151068486 0 0 0 0 -42.101380753724484 64.163699119342226 0 64.163699119342226 -32.952720864486366 0 0 0 0 953.24869431228581 -1151.8473993307084 0 -1151.8473993307084 -1175.2568126287515 0 0 0 0 1224.0751801398583 144.04203844003769 0 144.04203844003769 -623.86329550964365 0 0 0 0 -85.488007680192823 625.59347958893636 0 625.59347958893636 91.31819736608071 0 0 0 0 -363.58132808003575 143.49423082452927 0 143.49423082452927 78.775996026390686 0 0 0 0 -230.34000068531168 447.46646315119233 0 447.46646315119233 103.24169700741186 0 0 0 0 -32.981000193134776 29.198116619287461 0 29.198116619287461 -13.81143660137727 0 0 0 0 -2.5299272366418961 40.691570520072311 0 40.691570520072311 -40.904411747118637 0 0 0 0 16.058218517209752 82.2574875256214 0 82.2574875256214 41.667120363010326 0 0 0 0 41.78511823763256 420.01497798882519 0 420.01497798882519 374.67128431340097 0 0 0 0 -66.255277237971313 528.82391165461922 0 528.82391165461922 432.23942238496784 0 0 0 0 160.57724933247664 1022.3516539113443 0 1022.3516539113443 648.60595718838431 0 0 0 0 14.275071569511056 705.47015107185689 0 705.47015107185689 73.854267787315621 0 0 0 0 -288.53077394099091 314.6903419987575 0 314.6903419987575 227.81372244196245 0 0 0 0 -463.27351209431072 677.57770549338966 0 677.57770549338966 423.03965960980895 0 0 0 0 -541.07649104934535 891.38664077152134 0 891.38664077152134 -107.40519887915252 0 0 0 0 -362.79484350400162 902.94249477476114 0 902.94249477476114 -705.82471249770606 0 0 0 0 -489.46932544466108 441.96295401656243 0 441.96295401656243 117.93936723363367 0 0 0 0 16.363746561641165 125.60513467843884 0 125.60513467843884 1048.7016082011469 0 0 0 0 -5.200195976474788 143.52959362080583 0 143.52959362080583 1277.6902165836473 0 0 0 0 -43.32791715444182 424.34320281219334 0 424.34320281219334 1013.0219758026587 0 0 0 0 24.979129809144069 454.92725864647582 0 454.92725864647582 890.9275109325572 0 0 0 0 81.20104146275844 119.74304340664094 0 119.74304340664094 462.41359214507065 0 0 0 0 -20.883703420506208 1108.3933381747574 0 1108.3933381747574 888.1416242796904 0 0 0 0 -78.869818653751281 452.7037152605335 0 452.7037152605335 1207.7272865236882 0 0 0 0 -111.64548328185629 368.82453889263707 0 368.82453889263707 1576.7363728942073 0 0 0 0 -7.4825606391386827 1256.568866982685 0 1256.568866982685 1890.1695881972746 0 0 0 0 302.12773626414855 1596.6122402031051 0 1596.6122402031051 634.66182225102602 0 0 0 0 318.9795315223455 1504.1037661832906 0 1504.1037661832906 746.53247843819918 0 0 0 0 348.87205359103245 1457.3519762767319 0 1457.3519762767319 804.94150034316044 0 0 0 0 66.37354409389809 1087.5082367903779 0 1087.5082367903779 726.37225125846089 0 0 0 0 -55.725196674320614 1110.0667314581442 0 1110.0667314581442 474.28230797367723 0 0 0 0 -242.96740136940207 497.63885016508993 0 497.63885016508993 579.38920566163142 0 0 0 0 199.37183534880751 587.30905032881492 0 587.30905032881492 526.61732333227337 0 0 0 0 427.07333495903731 624.49179965837357 0 624.49179965837357 459.5418149360703 0 0 0 0 248.34985969850095 950.08498214696874 0 950.08498214696874 586.79409895277422 0 0 0 0 429.08392971544527 1009.9078618753065 0 1009.9078618753065 484.108067134659 0 0 0 0 241.97513476078893 1334.32627206896 0 1334.32627206896 673.11491209599626 0 0 0 0 778.11018585022248 1338.9865363678928 0 1338.9865363678928 630.97837781943872 0 0 0 0 613.75775388618058 1124.9409254657494 0 1124.9409254657494 730.07066291494266 0 0 0 0 951.92245629170793 1298.909214864414 0 1298.909214864414 818.80045073461224 0 0 0 0 529.56644367352419 825.93874556928313 0 825.93874556928313 630.25037695311039 0 0 0 0 836.18504209820821 1041.2174187426681 0 1041.2174187426681 592.67268552459609 0 0 0 0 1164.1767959418758 832.60597125841741 0 832.60597125841741 617.01409265505936 0 0 0 0 802.22834715638601 734.01964255655002 0 734.01964255655002 874.97767083002509 0 0 0 0 1283.1399788370909 1491.0568396312883 0 1491.0568396312883 1434.2204155562831 0 0 0 0 1632.00452944883 591.89885534152609 0 591.89885534152609 894.34821318247486 0 0 0 0 974.84038496337598 1098.7655819393403 0 1098.7655819393403 960.69137557718204 0 0 0 0 667.11990909274755 1515.9532321063325 0 1515.9532321063325 1855.7806853808106 0 0 0 0 530.03058328420593 1132.5425963907237 0 1132.5425963907237 975.55879365756664 0 0 0 0 464.39089548762422 1332.9900483827278 0 1332.9900483827278 390.03122348070247 0 0 0 0 109.6128162034729 914.5236929020266 0 914.5236929020266 1033.1906937815352 0 0 0 0 112.11090044225122 1512.7023760200661 0 1512.7023760200661 738.73149642726639 0 0 0 0 511.3001971155245 1601.2332113148614 0 1601.2332113148614 701.73148262700852 0 0 0 0 -162.38225526484894 275.9732128116957 0 275.9732128116957 467.06808173989702 0 0 0 0 45.911849462390819 341.55825883730677 0 341.55825883730677 366.11051174002932 0 0 0 0 -177.1590958560555 332.24749347551915 0 332.24749347551915 289.35140043746105 0 0 0 0 -263.15195804690302 261.8584472173934 0 261.8584472173934 284.26080501075194 0 0 0 0 -313.72199523836753 552.17896483243658 0 552.17896483243658 199.7981598349761 0 0 0 0 -349.70981723571458 350.17995542769495 0 350.17995542769495 352.14060890502878 0 0 0 0 -222.22735349873255 418.00875569024174 0 418.00875569024174 374.67607814484609 0 0 0 0 -150.4930509446931 542.67835831694538 0 542.67835831694538 493.38612217476475 0 0 0 0 -83.883931297154049 458.0623906386063 0 458.0623906386063 572.14082129517192 0 0 0 0 1.0528756675194018 488.50334756416487 0 488.50334756416487 382.40799765002521 0 0 0 0 83.534769925769069 409.07535922393981 0 409.07535922393981 446.91186604966788 0 0 0 0 373.07111820910359 557.71571533175302 0 557.71571533175302 608.35133962355394 0 0 0 0 113.22030495313993 546.47870176725155 0 546.47870176725155 782.28876456539729 0 0 0 0 418.51041259972953 748.94866462787104 0 748.94866462787104 1072.9052232453214 0 0 0 0 998.76362200044969 894.94532284987145 0 894.94532284987145 1573.0436708805901 0 0 0 0 553.895951729035 315.23388181525661 0 315.23388181525661 806.26513096083181 0 0 0 0 908.48450298728858 622.88490287909735 0 622.88490287909735 616.88358861536108 0 0 0 0 482.6992325179308 450.51618822455021 0 450.51618822455021 461.59480464999069 0 0 0 0 437.09019327168062 464.79668488713651 0 464.79668488713651 603.55231900064405 0 0 0 0 698.37176619420643 645.02458286685032 0 645.02458286685032 502.55202407814795 0 0 0 0 266.58181054444867 336.8989284935451 0 336.8989284935451 541.79644650886257 0 0 0 0 347.49540270789294 518.41329254477205 0 518.41329254477205 624.49105404043803 0 0 0 0 208.52587345415668 343.48111586310915 0 343.48111586310915 608.53899896129678 0 0 0 0 41.229913571729412 349.25235542177688 0 349.25235542177688 574.6728926614378 0 0 0 0 224.8560361944692 308.43527083107983 0 308.43527083107983 413.00593421472513 0 0 0 0 23.544841733790236 307.98133846704877 0 307.98133846704877 437.78092503672451 0 0 0 0 197.0067794666902 388.72480939689831 0 388.72480939689831 357.47069368340453 0 0 0 0 123.63059941787651 208.90687418690959 0 208.90687418690959 285.46972313430888 0 0 0 0 -29.068132482658257 184.94774472989957 0 184.94774472989957 317.83775890783727 0 0 0 0 308.55463643866824 572.85479320910963 0 572.85479320910963 510.47041624181156 0 0 0 0 226.18950889926055 328.28171318456225 0 328.28171318456225 462.80854589392749 0 0 0 0 400.43803260436107 505.45630158071435 0 505.45630158071435 441.20509885717183 0 0 0 0 180.30780112867069 321.00702945736703 0 321.00702945736703 332.30222578195753 0 0 0 0 -65.647057687441702 70.143980141725478 0 70.143980141725478 309.13607164646146 0 0 0 0 10.793364802098949 274.04667680552302 0 274.04667680552302 767.42760829083272 0 0 0 0 107.4589892384829 344.95221945121011 0 344.95221945121011 395.16514333744817 0 0 0 0 -89.712651750378427 10.281631894602469 0 10.281631894602469 81.20432375352766 0 0 0 0 40.765893879521172 177.86403144898941 0 177.86403144898941 101.02817305296412 0 0 0 0 36.766253435591352 129.04615656944588 0 129.04615656944588 186.75626137875588 0 0 0 0 13.556607522026752 241.84895254766525 0 241.84895254766525 358.4472947815762 0 0 0 0 -30.24003188633651 50.978792677178717 0 50.978792677178717 -109.19744955930037 0 0 0 0 -90.138189312710892 110.99052048151771 0 110.99052048151771 167.7836666004805 0 0 0 0 -161.99085139005911 227.17770691854093 0 227.17770691854093 -20.067397316815914 0 0 0 0 -27.230723008120549 213.54476129515388 0 213.54476129515388 197.3439681987802 0 0 0 0 -154.23098780815781 284.0117722996838 0 284.0117722996838 271.1810096287154 0 0 0 0 -23.599872269769548 175.47300485957021 0 175.47300485957021 353.23818287629183 0 0 0 0 -285.7737551004102 204.79920315841082 0 204.79920315841082 171.39453627901094 0 0 0 0 -195.92468857645508 160.95625117387362 0 160.95625117387362 224.86262410006748 0 0 0 0 -294.12185881321784 215.89459160304614 0 215.89459160304614 345.13555244688359 0 0 0 0 -325.96596201581997 193.6063767323285 0 193.6063767323285 234.41301395174378 0 0 0 0 -289.75301830541866 130.09040597770945 0 130.09040597770945 146.68736249957874 0 0 0 0 -330.7486303704427 147.82771594051519 0 147.82771594051519 210.04959947778843 0 0 0 0 -418.52362881076988 125.91907537651423 0 125.91907537651423 161.92456029597997 0 0 0 0 -223.4171338572487 277.06815630208439 0 277.06815630208439 -54.14637685625712 0 0 0 0 -387.89901574281976 251.20886460313704 0 251.20886460313704 61.38847425397762 0 0 0 0 -236.75948689607321 128.23417924428941 0 128.23417924428941 161.08511588500187 0 0 0 0 10.37915405413446 201.92129242302644 0 201.92129242302644 -15.66079356546004 0 0 0 0 34.953252739302116 57.7589201242954 0 57.7589201242954 -363.18056009206612 0 0 0 0 -44.062246423790526 32.958523369005022 0 32.958523369005022 -7.1239501103489715 0 0 0 0 27.966225706973418 19.274829300905065 0 19.274829300905065 -5.752160020014168 0 0 0 0 64.724746763167786 -282.4662812702075 0 -282.4662812702075 123.31029972620161 0 0 0 0 -55.859419079357707 43.816464660918626 0 43.816464660918626 -23.946069929696762 0 0 0 0 -29.888792849229503 106.98506546281737 0 106.98506546281737 -29.415886814205805 0 0 0 0 -9.8750153391330571 33.999621635765223 0 33.999621635765223 -17.900004828840629 0 0 0 0 26.581641189670336 278.29445093220079 0 278.29445093220079 646.25166265250846 0 0 0 0 110.0323591313936 237.52812854818876 0 237.52812854818876 626.53015853622128 0 0 0 0 -33.765357353538548 23.46245745858328 0 23.46245745858328 -4.7920849368536773 0 0 0 0 1487.4491389187751 424.06755573489454 0 424.06755573489454 -147.9445181969395 0 0 0 0 40.109216482749616 229.97660352327557 0 229.97660352327557 805.64696035221823 0 0 0 0 142.38644668472261 524.76836403971083 0 524.76836403971083 708.61324054641545 0 0 0 0 62.17672414615663 255.16093089091737 0 255.16093089091737 826.69670858480708 0 0 0 0 -5.2945512343424923 2.5530888636350362 0 2.5530888636350362 1.1047371863005964 0 0 0 0 -100.94437903864309 752.68034225776137 0 752.68034225776137 -1060.3675544071521 0 0 0 0 -568.45645623165547 619.06854703436056 0 619.06854703436056 146.21099915936065 0 0 0 0 -442.87559208448511 444.29866051393401 0 444.29866051393401 -7.480539160715125 0 0 0 0 -257.80457080245833 285.1873794452149 0 285.1873794452149 -588.80464276017301 0 0 0 0 53.920858340388804 160.58361220107872 0 160.58361220107872 47.719391812515823 0 0 0 0 -329.34690390515607 535.08941204790267 0 535.08941204790267 923.716148567456 0 0 0 0 -233.38842131736419 99.289241052361376 0 99.289241052361376 -112.1019381660517 0 0 0 0 -58.468506685559333 57.67462331373666 0 57.67462331373666 -32.904149621995408 0 0 0 0 -18.104316931309 13.632994984976598 0 13.632994984976598 -18.950140385400537 0 0 0 0 -20.035230944172554 7.9198821053958319 0 7.9198821053958319 -2.6058639149674772 0 0 0 0 -6296.7750172510569 -1047.3959224187388 0 -1047.3959224187388 757.60889260447311 0 0 0 0 -2797.742224045669 653.2351324619849 0 653.2351324619849 1093.7441964145039 0 0 0 0 1441.250288455089 -462.02044564113947 0 -462.02044564113947 -1285.1535382061822 0 0 0 0 1465.7388955275819 74.062942472957758 0 74.062942472957758 -1550.0908403433 0 0 0 0 -471.21043898383505 576.06150058766434 0 576.06150058766434 146.41350283287466 0 0 0 0 -55.160856104958754 67.5332368080701 0 67.5332368080701 -38.774509277565151 0 0 0 0 -30.304360200824462 16.527909746719807 0 16.527909746719807 -13.191431138524653 0 0 0 0 -2016.2555444667523 304.7469891770852 0 304.7469891770852 673.66692388146839 0 0 0 0 -2450.268209204607 681.81406842441095 0 681.81406842441095 213.39286594133591 0 0 0 0 -2101.0271388283727 -1351.8854560192067 0 -1351.8854560192067 68.375243495764153 0 0 0 0 -810.43500411123387 -206.77968297344705 0 -206.77968297344705 -9.1725120235223585 0 0 0 0 -96.577903084689751 -1850.098344705174 0 -1850.098344705174 -845.77251804398838 0 0 0 0 -1166.8668557143246 1092.6776090351541 0 1092.6776090351541 -213.22851073930178 0 0 0 0 -498.33104665274732 974.25338764419485 0 974.25338764419485 -338.10226374096419 0 0 0 0 -154.4445492701343 721.5360416818512 0 721.5360416818512 -202.34495684531794 0 0 0 0 383.28304453684541 280.92371049825806 0 280.92371049825806 -142.37007506006103 0 0 0 0 -66.995993146887486 710.12078412532492 0 710.12078412532492 1.952116391288655 0 0 0 0 -196.36300349716839 565.87302415775002 0 565.87302415775002 -109.95799117924435 0 0 0 0 -60.6767680935518 716.83373676828796 0 716.83373676828796 -136.80011786418106 0 0 0 0 -285.45693169321021 354.63299462055511 0 354.63299462055511 -50.965880542973537 0 0 0 0 -1073.4765728601778 330.04574414873696 0 330.04574414873696 226.14735882027253 0 0 0 0 -745.26697478426649 309.42282287289436 0 309.42282287289436 113.86765054637817 0 0 0 0 -602.00957072348683 -54.753881363594701 0 -54.753881363594701 -63.411827793726843 0 0 0 0 211.3602701918353 515.38947132186058 0 515.38947132186058 484.71890792277372 0 0 0 0 314.49946860095224 718.83672855182976 0 718.83672855182976 411.9498148161249 0 0 0 0 193.74228775718075 616.73241441190657 0 616.73241441190657 180.56883675779829 0 0 0 0 150.3340218780213 366.1342759363497 0 366.1342759363497 194.20347276778193 0 0 0 0 244.70167441902959 591.92400106262357 0 591.92400106262357 -171.79695785613876 0 0 0 0 -40.399503043379809 573.19502349422055 0 573.19502349422055 -119.49738094243457 0 0 0 0 273.34246953809998 541.48014606161451 0 541.48014606161451 -30.93365145610187 0 0 0 0 369.68703560697031 695.17980095283656 0 695.17980095283656 -194.69959245241171 0 0 0 0 268.62910074366664 596.02161506841321 0 596.02161506841321 -258.03749721441272 0 0 0 0 277.77075655800581 565.81000199788969 0 565.81000199788969 -443.15817146224254 0 0 0 0 234.28781530374181 599.30798985594947 0 599.30798985594947 -189.85402840646566 0 0 0 0 383.68969065549027 579.57594177526335 0 579.57594177526335 -443.04389114126053 0 0 0 0 308.30901162534428 446.73926192404542 0 446.73926192404542 -493.31386748894511 0 0 0 0 -116.22274430692778 501.43253127280332 0 501.43253127280332 -2.1692424292759824 0 0 0 0 -370.25622113613463 573.99201672549611 0 573.99201672549611 -11.156335901645434 0 0 0 0 -200.01346404304059 351.14176834309819 0 351.14176834309819 64.005605814595128 0 0 0 0 -20.532833834229677 339.60349097876679 0 339.60349097876679 -436.59363436045351 0 0 0 0 12.333689987597609 566.06214796272593 0 566.06214796272593 -932.92655454534361 0 0 0 0 36.550371716466955 17.503208326804739 0 17.503208326804739 8.2806881657748583 0 0 0 0 -91.747706117672806 214.33702813149898 0 214.33702813149898 -626.75535162282176 0 0 0 0 -225.51539585003047 558.71688816830465 0 558.71688816830465 597.09448636354136 0 0 0 0 12.307355063408352 8.5995605315124521 0 8.5995605315124521 3.6682486245027626 0 0 0 0 -304.15631958905942 330.22155835876538 0 330.22155835876538 -38.30751493084972 0 0 0 0 4.572031435523968 592.08930456100279 0 592.08930456100279 -765.43440631099111 0 0 0 0 322.41008469433655 664.13976684120189 0 664.13976684120189 -550.30452689560298 0 0 0 0 387.17666922938952 740.45675806258805 0 740.45675806258805 -554.08296798790434 0 0 0 0 873.95703652931843 521.33642231458725 0 521.33642231458725 -1001.8881170191307 0 0 0 0 756.88030697342128 1129.6122258688042 0 1129.6122258688042 -146.69978178051679 0 0 0 0 109.214831930949 751.14666132594175 0 751.14666132594175 377.04635578943271 0 0 0 0 264.86686065563845 241.64093187501385 0 241.64093187501385 71.418812518760205 0 0 0 0 165.09224577205896 457.56434261518461 0 457.56434261518461 -388.27481549430377 0 0 0 0 522.06562214236305 346.44995438967771 0 346.44995438967771 -570.61159330380178 0 0 0 0 543.22361776777302 897.59654228622128 0 897.59654228622128 163.52387878486843 0 0 0 0 3.0349068949236084 5.5401593817783166 0 5.5401593817783166 -2.3590806605536017 0 0 0 0 43.515396655544464 505.78345061101209 0 505.78345061101209 1605.5074704331901 0 0 0 0 1197.5194117797764 306.31711412763207 0 306.31711412763207 -1929.8982922478026 0 0 0 0 26.825793848598551 969.15934861266851 0 969.15934861266851 322.99381022139551 0 0 0 0 -49.504808564131963 796.78809251542134 0 796.78809251542134 -63.634181290781271 0 0 0 0 -69.929041702838731 742.44214029282921 0 742.44214029282921 77.51358667275781 0 0 0 0 -153.95179775426368 710.06109903452216 0 710.06109903452216 130.65639596283654 0 0 0 0 205.24032976594754 289.37042916873634 0 289.37042916873634 255.34663066207577 0 0 0 0 6.2775562977462016 12.115862256168324 0 12.115862256168324 -4.6281705577744923 0 0 0 0 90.371431525622029 556.18172207930866 0 556.18172207930866 -337.51236303112637 0 0 0 0 -184.97498265598551 574.98976542066157 0 574.98976542066157 769.03633298794921 0 0 0 0 384.43721778221516 505.1992058822816 0 505.1992058822816 238.26344211666947 0 0 0 0 3.2668768143321358 296.02167604476563 0 296.02167604476563 192.1501537796612 0 0 0 0 67.643753608161205 416.14956966224872 0 416.14956966224872 114.99056980675596 0 0 0 0 227.15963147219009 416.53121328607631 0 416.53121328607631 8.6371429243481543 0 0 0 0 -676.05252304856913 391.292662928553 0 391.292662928553 259.12912094803323 0 0 0 0 -334.42692490689296 310.53407705713198 0 310.53407705713198 57.935320218643028 0 0 0 0 -387.39925117926032 275.12089507102974 0 275.12089507102974 535.11529563807926 0 0 0 0 -252.27238950492756 293.34793388835897 0 293.34793388835897 76.428317969670388 0 0 0 0 -129.71093975382973 201.95156927136668 0 201.95156927136668 -192.22303852898222 0 0 0 0 -366.49154422696301 121.98015309824223 0 121.98015309824223 -58.947420646709361 0 0 0 0 36.839477342642567 203.0647832362738 0 203.0647832362738 -207.59016663646617 0 0 0 0 72.953697112228838 200.24080327280717 0 200.24080327280717 -221.74195401855832 0 0 0 0 -15.32632445199124 325.25528364580714 0 325.25528364580714 -129.44775974663025 0 0 0 0 -6.0724611710393219 -37.747944032787927 0 -37.747944032787927 -303.64732271015282 0 0 0 0 -12.711246842124467 62.26785461394909 0 62.26785461394909 -56.571899121496038 0 0 0 0 197.85831936014438 -80.631080336363084 0 -80.631080336363084 -631.50627440809876 0 0 0 0 29.168168446878553 116.94908211322036 0 116.94908211322036 153.76458710392762 0 0 0 0 -1.0496927779681471 64.263858474586655 0 64.263858474586655 -44.257291461366677 0 0 0 0 -337.44545590972757 -293.52077098195673 0 -293.52077098195673 -499.67610111070098 0 0 0 0 -342.54770585529877 -202.75583165345734 0 -202.75583165345734 -492.51691618136829 0 0 0 0 -168.37899440874844 -257.77967100976434 0 -257.77967100976434 -643.09756142871629 0 0 0 0 -178.2519527314289 -62.025016178500664 0 -62.025016178500664 -386.35119860801206 0 0 0 0 -134.75746814359445 23.830866497693933 0 23.830866497693933 -406.77524262288352 0 0 0 0 201.08567154867342 193.98964714966132 0 193.98964714966132 -441.00849887860068 0 0 0 0 -32.441667013030383 -148.66203889023927 0 -148.66203889023927 -457.98236690572958 0 0 0 0 147.9048657893436 -65.644257068286606 0 -65.644257068286606 -533.84888107606457 0 0 0 0 -98.418601419267361 117.02052014423316 0 117.02052014423316 -304.29276411401224 0 0 0 0 161.85529857904839 66.201182213787433 0 66.201182213787433 -16.461471584338142 0 0 0 0 467.6802000767857 123.76295709927399 0 123.76295709927399 -370.44303932388266 0 0 0 0 318.13157083815713 217.6533305111418 0 217.6533305111418 35.841622073907274 0 0 0 0 -73.405376353039173 533.85048130340419 0 533.85048130340419 116.82956426837336 0 0 0 0 32.352921723912004 476.60931427232845 0 476.60931427232845 118.50738001293757 0 0 0 0 -7.8753093453269685 376.01705952968223 0 376.01705952968223 87.087859453020883 0 0 0 0 78.053419906866111 534.41147108150926 0 534.41147108150926 -363.84654338546898 0 0 0 0 118.72645985962299 263.93669125602901 0 263.93669125602901 48.669949118799195 0 0 0 0 96.665363219537539 377.8748481968978 0 377.8748481968978 162.72388864311415 0 0 0 0 756.99109088769183 792.71547487272164 0 792.71547487272164 -78.515637151427654 0 0 0 0 -577.30079238355029 17.954309669814393 0 17.954309669814393 285.42833597102435 0 0 0 0 -919.76417620184657 633.86538622925764 0 633.86538622925764 691.6783109011667 0 0 0 0 1393.2903458951259 -229.51086331549232 0 -229.51086331549232 -123.48077318052674 0 0 0 0 1343.2901464149618 271.06270723423495 0 271.06270723423495 -244.10317925963318 0 0 0 0 0.63647013934659213 2.1928560428033705 0 2.1928560428033705 -1.0630943388924123 0 0 0 0 -485.99151583830826 261.09967264382431 0 261.09967264382431 669.13870123323068 0 0 0 0 1149.5357890214218 -1.0072958012206072 0 -1.0072958012206072 -116.67361035826252 0 0 0 0 2.0497889406964163 0.56235296903366816 0 0.56235296903366816 8.2806306035264754 0 0 0 0 1167.3117078659125 923.22700255518612 0 923.22700255518612 -868.82377137787626 0 0 0 0 416.37734099909721 1069.4014015994799 0 1069.4014015994799 -10.755272645092191 0 0 0 0 3.5964407601933601 3.8425955209114164 0 3.8425955209114164 -1.0600047161806732 0 0 0 0 -144.76999713134137 411.7369633432445 0 411.7369633432445 1919.3850513348034 0 0 0 0 294.22129337274237 -76.400571178679456 0 -76.400571178679456 -1162.4858314825178 0 0 0 0 -417.84420302110084 188.56485241302289 0 188.56485241302289 170.19992546612593 0 0 0 0 455.85378252120427 511.37795926938543 0 511.37795926938543 586.02653333652052 0 0 0 0 24.80420035829593 435.29106573556055 0 435.29106573556055 584.78664106714064 0 0 0 0 -20.029986222572916 -108.86738278129087 0 -108.86738278129087 357.00364134986012 0 0 0 0 285.36182511452353 513.46277264029959 0 513.46277264029959 289.32331304555009 0 0 0 0 7.115497908177673 11.007852854277429 0 11.007852854277429 -3.8335171085809083 0 0 0 0 -21.466762593161548 610.79254499443778 0 610.79254499443778 1073.149434352722 0 0 0 0 -48.403543896434712 209.27447107126136 0 209.27447107126136 838.36279093365192 0 0 0 0 42.682890260621207 643.13754014825099 0 643.13754014825099 -217.84519671170165 0 0 0 0 20.465878207227433 305.77347467116965 0 305.77347467116965 241.86953720521342 0 0 0 0 -10.804576147835178 209.20754881712674 0 209.20754881712674 -276.93535768723723 0 0 0 0 293.52666740369023 274.3089058317928 0 274.3089058317928 620.52746995461894 0 0 0 0 1.1973925338967888 -0.19150572515299302 0 -0.19150572515299302 -0.61224494277800545 0 0 0 0 -100.07062578751356 63.924060937375543 0 63.924060937375543 -73.033131493026303 0 0 0 0 -114.41677367119701 38.124239449547531 0 38.124239449547531 135.5117390636351 0 0 0 0 -15.51704773300736 22.838358257253617 0 22.838358257253617 -7.1556996649359021 0 0 0 0 -149.40202863559534 196.65596847981033 0 196.65596847981033 34.226572581708751 0 0 0 0 402.387603537838 401.25248187883562 0 401.25248187883562 227.94014772969967 0 0 0 0 -168.1037154380756 914.94205095926372 0 914.94205095926372 1088.2745407231414 0 0 0 0 -22.407010020506277 157.46391208101068 0 157.46391208101068 -178.82586175410688 0 0 0 0 -5.1202727860556365 10.470291096718181 0 10.470291096718181 -5.4554705717509053 0 0 0 0 250.59088968829019 312.66042693402414 0 312.66042693402414 382.6461430291638 0 0 0 0 -18.483581284336708 1.594134874472914 0 1.594134874472914 2.6637549666911511 0 0 0 0 -62.400305960043625 104.80208507254338 0 104.80208507254338 244.71108780418399 0 0 0 0 -171.30105723681481 103.74553337116004 0 103.74553337116004 -48.575571314113404 0 0 0 0 -58.52018654671437 49.494133133403182 0 49.494133133403182 -27.550295042906182 0 0 0 0 -44.224504249388701 66.177194794101524 0 66.177194794101524 -75.925697561133347 0 0 0 0 113.93510964923189 437.5114393727365 0 437.5114393727365 -94.624207810191365 0 0 0 0 -261.03336447856418 76.895976343730354 0 76.895976343730354 799.5225191362706 0 0 0 0 -223.70995586407662 216.76054707936237 0 216.76054707936237 -107.9687234763669 0 0 0 0 -21.113794329976656 13.692613256098497 0 13.692613256098497 -5.9193128581414562 0 0 0 0 -235.12787126171315 333.2070896818268 0 333.2070896818268 -258.33391603058772 0 0 0 0 -53.197079170254241 62.976879708553156 0 62.976879708553156 -40.042429053845204 0 0 0 0 -104.70736906993261 257.97444596785499 0 257.97444596785499 -641.93481461802367 0 0 0 0 611.68934344849549 879.65284356245638 0 879.65284356245638 -1011.0693943263632 0 0 0 0 -38.277417684110105 69.976666657589803 0 69.976666657589803 -44.200486947473976 0 0 0 0 -385.08227808931406 412.62444312480693 0 412.62444312480693 -662.45033238712108 0 0 0 0 514.24541457787564 1045.9585027110757 0 1045.9585027110757 -723.51404518150048 0 0 0 0 -122.45301384280901 656.75376864924056 0 656.75376864924056 -119.94075717651958 0 0 0 0 -739.04365487806353 706.9351717382267 0 706.9351717382267 -389.55777065989969 0 0 0 0 -791.84009857442288 702.07434738991628 0 702.07434738991628 282.93779845699328 0 0 0 0 -77.322955012059538 710.02037316650399 0 710.02037316650399 -393.57095610207898 0 0 0 0 -251.11666988966317 337.45046286777324 0 337.45046286777324 -355.08644294526403 0 0 0 0 -48.42349857723093 342.76680393233801 0 342.76680393233801 -891.71137582387382 0 0 0 0 -158.00091457436793 314.71593929557821 0 314.71593929557821 -351.32065716273064 0 0 0 0 -232.70913351560012 305.09331666300386 0 305.09331666300386 -352.56002516279659 0 0 0 0 -56.132185730830315 582.65108585655935 0 582.65108585655935 -788.66399195531631 0 0 0 0 -166.22701599146967 649.06768338926486 0 649.06768338926486 -1064.3930356799756 0 0 0 0 37.474625123701514 39.275040476812777 0 39.275040476812777 2.19528071275953 0 0 0 0 -310.02038926395471 336.32319244793598 0 336.32319244793598 -439.33865848328787 0 0 0 0 -200.84684516792549 382.13459102807519 0 382.13459102807519 -201.9234970746511 0 0 0 0 -17.535981998007628 237.08710747862096 0 237.08710747862096 -438.17766767432323 0 0 0 0 -78.753428533489455 83.495166555810712 0 83.495166555810712 -19.456437835502808 0 0 0 0 369.15377901811735 781.14831162306245 0 781.14831162306245 -549.72378832104914 0 0 0 0 -31.876172108080937 324.47383507866834 0 324.47383507866834 -673.10478906708295 0 0 0 0 -49.86184652516809 82.801933211365821 0 82.801933211365821 -20.093504867934193 0 0 0 0 306.2334680389904 296.13258567304683 0 296.13258567304683 -189.68105913414865 0 0 0 0 368.9598879244586 532.184187032929 0 532.184187032929 -240.36090833311573 0 0 0 0 263.03373865311733 171.33486540633567 0 171.33486540633567 -337.40793448425939 0 0 0 0 273.79531940204106 195.20230448823327 0 195.20230448823327 -405.39186445043015 0 0 0 0 -6.4394393392108498 8.8504578962584972 0 8.8504578962584972 0.36225761481457397 0 0 0 0 43.530071605178819 103.47967046589429 0 103.47967046589429 -148.74405426706107 0 0 0 0 -164.70197417888267 -33.751258273803614 0 -33.751258273803614 193.02389282348304 0 0 0 0 -1936.2026675418601 1825.1472928789265 0 1825.1472928789265 -1427.8667723502858 0 0 0 0 159.33619838859886 451.01202749834738 0 451.01202749834738 -1391.4681364606226 0 0 0 0 -54.918793860808364 659.31539032386172 0 659.31539032386172 -1588.8895184171015 0 0 0 0 15.024139867011399 574.52859913539919 0 574.52859913539919 -2900.8897204861232 0 0 0 0 125.24900513826287 1035.8921778012832 0 1035.8921778012832 -544.09956444743875 0 0 0 0 65.911028818387422 1256.7209785693963 0 1256.7209785693963 -1349.6427044043367 0 0 0 0 542.14583064874751 1150.4781579002693 0 1150.4781579002693 -34.612238787221031 0 0 0 0 713.36346001270067 726.30794648942049 0 726.30794648942049 -1099.5658080626636 0 0 0 0 -33.817981120444699 37.472315571139262 0 37.472315571139262 13.900858023517845 0 0 0 0 379.00660775159486 505.46386655883543 0 505.46386655883543 -861.39355641856673 0 0 0 0 379.15569847798906 581.20673556478414 0 581.20673556478414 -1423.6664415850864 0 0 0 0 11.236238497687737 -193.36324499525017 0 -193.36324499525017 -650.63860822763854 0 0 0 0 271.70770120376255 163.68591854885472 0 163.68591854885472 -1138.567693433346 0 0 0 0 287.0415868388618 191.66150308615144 0 191.66150308615144 -1107.6931890451906 0 0 0 0 404.02105367046897 434.81891656779044 0 434.81891656779044 -970.47650909178992 0 0 0 0 285.73667368620499 212.19653744812564 0 212.19653744812564 -609.61213366107586 0 0 0 0 218.73961405950831 37.275691694420857 0 37.275691694420857 -647.7546614884784 0 0 0 0 113.43705703706655 41.725638108527164 0 41.725638108527164 -505.54517590038722 0 0 0 0 -246.03274690100079 -602.68890976920511 0 -602.68890976920511 -936.30993378848507 0 0 0 0 -19.325572489703717 14.244347279262485 0 14.244347279262485 -14.977541613959973 0 0 0 0 -149.26930873015954 -450.18767641804141 0 -450.18767641804141 -2352.4579796964399 0 0 0 0 -2298.4450783051143 997.16378223482991 0 997.16378223482991 191.22375598482472 0 0 0 0 -6.6030103868833976 -513.86949129268078 0 -513.86949129268078 -1602.1245902427272 0 0 0 0 254.002637284706 311.56976430238979 0 311.56976430238979 -1977.6600095357298 0 0 0 0 -2464.3097977341095 1472.6597318122467 0 1472.6597318122467 -24.088604245957072 0 0 0 0 -2590.2754825487791 1861.118376040826 0 1861.118376040826 -486.82186519676407 0 0 0 0 -2265.4865456300031 -734.18574047227889 0 -734.18574047227889 -180.04599341830954 0 0 0 0 -616.00056395489082 -625.44653145560608 0 -625.44653145560608 -1846.2751838704585 0 0 0 0 -579.61034668534103 -109.58223702013935 0 -109.58223702013935 -298.02886273341937 0 0 0 0 4.6942985001660418 -316.70993223185656 0 -316.70993223185656 -528.86702237416171 0 0 0 0 786.93146546336357 540.79173379482552 0 540.79173379482552 -869.60254861027033 0 0 0 0 -1688.0102722009542 274.15909537205971 0 274.15909537205971 1313.5681496773122 0 0 0 0 -37.319056259996671 24.713472300580861 0 24.713472300580861 -15.268016789580084 0 0 0 0 252.49940753899864 888.47351065842645 0 888.47351065842645 654.53556572800608 0 0 0 0 -81.004662911000196 50.963378302227284 0 50.963378302227284 34.873072292261895 0 0 0 0 -17.064370214379977 10.753469212347994 0 10.753469212347994 -2.9155588822549845 0 0 0 0 327.80601175999618 262.4587054419348 0 262.4587054419348 522.95952034969628 0 0 0 0 473.26195633161115 909.14235806950796 0 909.14235806950796 323.3977701397157 0 0 0 0 291.30208989561652 424.74919689296439 0 424.74919689296439 314.93498567967617 0 0 0 0 181.62400225299643 405.86130917139599 0 405.86130917139599 482.89337884471752 0 0 0 0 326.89267258305335 456.96705171999474 0 456.96705171999474 394.82136791021912 0 0 0 0 191.1243422376283 427.44644662013343 0 427.44644662013343 256.6776685476143 0 0 0 0 59.898015332059003 125.02092410721889 0 125.02092410721889 209.68675130760676 0 0 0 0 92.139184374515025 241.75063160839454 0 241.75063160839454 157.92535582829441 0 0 0 0 44.909366755135125 239.46272601825331 0 239.46272601825331 303.46804245799103 0 0 0 0 6.3801885540015064 27.440964235269348 0 27.440964235269348 4.8891302905858538 0 0 0 0 -13.489379336670424 24.761813026998183 0 24.761813026998183 -21.595037750115182 0 0 0 0 -92.140337952005211 -53.838245983104571 0 -53.838245983104571 -151.4650718462035 0 0 0 0 253.00056276284158 216.47066534748592 0 216.47066534748592 78.429010302532333 0 0 0 0 218.81796723027946 251.2732863929341 0 251.2732863929341 183.11468099559715 0 0 0 0 -101.02302009407367 328.10475428171645 0 328.10475428171645 189.95501900659292 0 0 0 0 163.95795637011179 327.06704138287387 0 327.06704138287387 341.94061676316051 0 0 0 0 -14.001664392931509 22.999768287863276 0 22.999768287863276 -19.712682759537756 0 0 0 0 -2.4524429702178168 23.052919409912192 0 23.052919409912192 -28.132477032497263 0 0 0 0 -25.30567819785314 19.7072457173565 0 19.7072457173565 -1.4398898224985501 0 0 0 0 -25.069181482022998 28.695038554088583 0 28.695038554088583 -15.458726983909099 0 0 0 0 521.51913933271135 295.86160801760565 0 295.86160801760565 16.408972943012259 0 0 0 0 349.59391208333545 147.91473191202203 0 147.91473191202203 25.089331066740669 0 0 0 0 -3.0608371227229725 13.04345176177489 0 13.04345176177489 -26.729833347459152 0 0 0 0 471.89782532388926 367.48528190309838 0 367.48528190309838 -321.01644740601137 0 0 0 0 201.08628638343362 259.44694647400365 0 259.44694647400365 -132.96360055036507 0 0 0 0 381.51262079818116 -26.271544159607402 0 -26.271544159607402 -437.44420256126295 0 0 0 0 -219.39837932943192 -70.887475597710818 0 -70.887475597710818 -189.11951689442822 0 0 0 0 113.20334027990884 -131.71869962171857 0 -131.71869962171857 -373.5780453013831 0 0 0 0 20.225320267803909 34.591830407404132 0 34.591830407404132 -11.779271011651872 0 0 0 0 509.26946638843219 165.04632729942887 0 165.04632729942887 -189.13105670997265 0 0 0 0 129.34643566122395 -19.757121006365196 0 -19.757121006365196 1.2559455240843818 0 0 0 0 343.07648902188339 -34.509332656920947 0 -34.509332656920947 -126.52397787145674 0 0 0 0 -1.1669009576466465 5.6362585049296143 0 5.6362585049296143 -10.434727118488041 0 0 0 0 -2.7006438029943141 21.229273817576001 0 21.229273817576001 -33.954065122620541 0 0 0 0 -1.999816357747477 25.52841907737934 0 25.52841907737934 -32.801099225831422 0 0 0 0 86.950045913879876 -241.1624387947295 0 -241.1624387947295 103.71723165398544 0 0 0 0 87.889175085103489 -271.85943480116293 0 -271.85943480116293 -222.37971703336734 0 0 0 0 -444.30534398923919 -448.54395472587294 0 -448.54395472587294 -225.03731177449617 0 0 0 0 -993.66332823340781 -217.84100871857618 0 -217.84100871857618 144.31180940094055 0 0 0 0 -818.55031316865643 603.26556507426176 0 603.26556507426176 -410.0769532100594 0 0 0 0 -1.8908181344602326 -4.0136209603228679 0 -4.0136209603228679 -1.4169734509805565 0 0 0 0 -327.81590250719455 -827.88435775971766 0 -827.88435775971766 536.82688521339969 0 0 0 0 -980.49932275548053 -156.54738524159802 0 -156.54738524159802 75.560537704858689 0 0 0 0 -506.21303267859912 -556.99036638809412 0 -556.99036638809412 -521.06924376150573 0 0 0 0 243.24607188884693 1041.0598251217616 0 1041.0598251217616 1635.2049150085095 0 0 0 0 351.5747395893768 990.7664712458286 0 990.7664712458286 1649.9702437621381 0 0 0 0 367.36785085801966 648.09256240505965 0 648.09256240505965 892.71979504675619 0 0 0 0 910.00778641444049 2098.8000928361716 0 2098.8000928361716 1935.5045063825628 0 0 0 0 509.38955359898603 1559.1334092045472 0 1559.1334092045472 2225.7652254082896 0 0 0 0 1021.5382814780532 2027.4149590226168 0 2027.4149590226168 1930.9730284233592 0 0 0 0 890.07941596493765 1692.8616011751801 0 1692.8616011751801 1630.098536522255 0 0 0 0 513.83864822539681 1112.5105055873112 0 1112.5105055873112 1451.0274512608412 0 0 0 0 925.68687153095379 1635.266064454514 0 1635.266064454514 1712.1057680258773 0 0 0 0 761.79729365084495 1185.7218305174706 0 1185.7218305174706 1260.4787930909733 0 0 0 0 854.92261331016198 1342.9284806711421 0 1342.9284806711421 1427.9848662239992 0 0 0 0 488.67360339028528 1018.7852750565762 0 1018.7852750565762 1339.2544600477977 0 0 0 0 684.39641074978863 889.39918018369281 0 889.39918018369281 938.15708721297415 0 0 0 0 432.0344382650801 925.23927133111647 0 925.23927133111647 1113.7022580998382 0 0 0 0 293.49607175146957 616.96593095565186 0 616.96593095565186 963.65226555164554 0 0 0 0 566.63045210920973 891.0026365159938 0 891.0026365159938 1090.9252194452129 0 0 0 0 570.03141898274771 1148.9256092305986 0 1148.9256092305986 1305.941141541829 0 0 0 0 336.63464600621955 629.39590829186977 0 629.39590829186977 911.43688190792454 0 0 0 0 370.99899817779078 865.66740755251521 0 865.66740755251521 1288.0037247390533 0 0 0 0 -56.304768520902144 226.4243021010443 0 226.4243021010443 727.97408163427463 0 0 0 0 26.061383134889184 725.61273629999778 0 725.61273629999778 931.95438435356482 0 0 0 0 238.67082743096398 188.05734404911345 0 188.05734404911345 444.90869932341593 0 0 0 0 1.8391965380953934 4.4974821290032025 0 4.4974821290032025 -6.0174240669809009 0 0 0 0 264.57183089619502 247.75988452324964 0 247.75988452324964 470.65296863632102 0 0 0 0 214.44421676604543 444.76265061635058 0 444.76265061635058 863.72097071645112 0 0 0 0 316.32227587432135 360.95821938852896 0 360.95821938852896 357.32014552081091 0 0 0 0 313.00323155865772 602.14677964095245 0 602.14677964095245 837.18843092777388 0 0 0 0 369.0372429836716 485.60376355349581 0 485.60376355349581 546.80010257115646 0 0 0 0 102.68909680889919 505.81294200141565 0 505.81294200141565 358.2067082540234 0 0 0 0 266.94286720838863 475.27025762059202 0 475.27025762059202 339.22965302188823 0 0 0 0 277.10324325965485 411.80075514130658 0 411.80075514130658 563.35944673320046 0 0 0 0 379.88607858819887 583.82256363065244 0 583.82256363065244 542.86717321046217 0 0 0 0 405.81910105794668 618.16177812442402 0 618.16177812442402 760.4746705399084 0 0 0 0 350.17842068715254 431.58936271693528 0 431.58936271693528 650.42100712205138 0 0 0 0 573.90307155044866 700.94036815855725 0 700.94036815855725 730.54341373810166 0 0 0 0 432.93778025489883 743.98401738155371 0 743.98401738155371 1023.3378464313864 0 0 0 0 698.76990415187902 953.15816403047393 0 953.15816403047393 1210.5443298940845 0 0 0 0 764.18244982144097 996.84030809568503 0 996.84030809568503 989.39372004286588 0 0 0 0 564.26703335966158 727.34150335271352 0 727.34150335271352 979.52587583277636 0 0 0 0 542.94310668177786 799.43984925272525 0 799.43984925272525 860.25893848272244 0 0 0 0 449.87418525682006 583.35635821440428 0 583.35635821440428 762.67228899657493 0 0 0 0 350.95808927586768 597.70094087256439 0 597.70094087256439 844.36883380136032 0 0 0 0 386.74470110953553 626.93632280499878 0 626.93632280499878 710.68329703769996 0 0 0 0 214.49364706178312 468.28681902728931 0 468.28681902728931 667.35945872054435 0 0 0 0 218.17579821607796 496.25648440738223 0 496.25648440738223 633.5607837741627 0 0 0 0 187.66608749172883 272.49608829028875 0 272.49608829028875 468.23222289390833 0 0 0 0 320.29175053720246 480.44554223110754 0 480.44554223110754 586.75124505727581 0 0 0 0 401.66463989432668 623.15595999676589 0 623.15595999676589 730.39943430300991 0 0 0 0 314.12293791500269 448.98667067374299 0 448.98667067374299 630.25895589386346 0 0 0 0 311.98603466131317 454.82921707690366 0 454.82921707690366 652.3574518453388 0 0 0 0 484.9231400891731 638.6038732545785 0 638.6038732545785 689.61015378051525 0 0 0 0 415.79026956279995 718.77651012474598 0 718.77651012474598 927.67945185826829 0 0 0 0 369.21248226164607 623.32202600992059 0 623.32202600992059 616.35104742457042 0 0 0 0 346.02181568063679 512.67629920619765 0 512.67629920619765 694.18260685964196 0 0 0 0 363.05198887528968 555.59626013557499 0 555.59626013557499 565.75551982524485 0 0 0 0 270.89893603813834 402.3628481896485 0 402.3628481896485 478.82083762450929 0 0 0 0 249.20005178381689 344.80398094273551 0 344.80398094273551 416.01997807898442 0 0 0 0 280.95371793664526 276.13764884067859 0 276.13764884067859 170.34854159176757 0 0 0 0 260.52377795538632 325.83011722464653 0 325.83011722464653 439.58560679507718 0 0 0 0 136.14356566168135 163.77015279826446 0 163.77015279826446 362.05387416012491 0 0 0 0 200.96747356173 288.20474272222691 0 288.20474272222691 425.54225001929444 0 0 0 0 219.95572210213868 124.85727655447408 0 124.85727655447408 229.14617066637948 0 0 0 0 5.2436265070136869 24.461041547235254 0 24.461041547235254 -28.31543998199686 0 0 0 0 -14.493839649222764 20.438733392446238 0 20.438733392446238 -20.104863941154484 0 0 0 0 191.03590449172771 0.42947881105646957 0 0.42947881105646957 191.03915987734581 0 0 0 0 40.967437339306343 106.61136324905237 0 106.61136324905237 382.42293490674638 0 0 0 0 115.19343777457834 302.9566019347476 0 302.9566019347476 462.12368255411275 0 0 0 0 -19.480881880735978 401.54497897710098 0 401.54497897710098 565.73684240337752 0 0 0 0 275.98897206690162 404.01433167140749 0 404.01433167140749 508.68601950240554 0 0 0 0 -292.50186260329792 287.44308996290056 0 287.44308996290056 522.02836944962473 0 0 0 0 136.79047271516174 354.23524373678083 0 354.23524373678083 472.95699610230804 0 0 0 0 -172.53268953214865 472.32988124462281 0 472.32988124462281 449.08957007036952 0 0 0 0 -168.57582170900423 280.47790268070094 0 280.47790268070094 99.863071859697811 0 0 0 0 -115.22847368969815 80.19118219979282 0 80.19118219979282 438.77143736174185 0 0 0 0 6.3099845624806221 10.84575725555888 0 10.84575725555888 -19.312012072451743 0 0 0 0 5.329378557333257 -5.118412196105055 0 -5.118412196105055 3.0309511323139304 0 0 0 0 3.9618502516241278 21.660416270716269 0 21.660416270716269 -68.588866379759565 0 0 0 0 -0.85233149910345674 19.332934568339169 0 19.332934568339169 -23.823205468217566 0 0 0 0 -2.4223368044131917 10.993348737882172 0 10.993348737882172 -33.602116291831436 0 0 0 0 8.3739289441145957 15.868898620348773 0 15.868898620348773 -28.379105807747692 0 0 0 0 -4.4245822054384121 18.53721289845322 0 18.53721289845322 -29.740274804998279 0 0 0 0 16.982583921997502 32.906368541005662 0 32.906368541005662 -39.363106653579962 0 0 0 0 18.314706052595284 13.100854675136361 0 13.100854675136361 -30.171501569725933 0 0 0 0 5.5962480574962683 36.467241498508201 0 36.467241498508201 -39.35481230370533 0 0 0 0 -1.8163237786584432 26.269074171641122 0 26.269074171641122 -22.436676497421377 0 0 0 0 -20.294164254271891 37.681535194683534 0 37.681535194683534 -46.609807463962262 0 0 0 0 -68.227297014847863 77.626235178420558 0 77.626235178420558 -43.345554051203152 0 0 0 0 10.642400692158844 78.605231876011658 0 78.605231876011658 -112.91123655944017 0 0 0 0 -9.4229484585071646 17.718601298420854 0 17.718601298420854 -13.384698531851525 0 0 0 0 -60.603428015019745 42.889616433481933 0 42.889616433481933 -5.9830988395866598 0 0 0 0 -23.211084755150267 68.177461167173419 0 68.177461167173419 1.3607636283709503 0 0 0 0 3.8415343839442357 64.97910937000654 0 64.97910937000654 -107.65434188937087 0 0 0 0 7.5423486951993937 34.123001821377756 0 34.123001821377756 -28.793230318490675 0 0 0 0 29.404327681921131 29.800449606148959 0 29.800449606148959 -12.894612835210864 0 0 0 0 8.714887675880469 29.725897466774256 0 29.725897466774256 -48.505813693030341 0 0 0 0 0.83176189382317034 43.495182369553859 0 43.495182369553859 -74.499799157508335 0 0 0 0 15.533946870360523 -0.52623656623836723 0 -0.52623656623836723 -140.18193282325228 0 0 0 0 3.4490115864809923 86.969594246013912 0 86.969594246013912 -161.07099756933167 0 0 0 0 21.278498910664553 46.77671686686385 0 46.77671686686385 2.2115866126291692 0 0 0 0 31.847662771266187 69.66941168530866 0 69.66941168530866 -33.57681484497698 0 0 0 0 50.294750552508049 29.789183468409647 0 29.789183468409647 -7.2288319090148434 0 0 0 0 2.4928310540562961 55.657635164110616 0 55.657635164110616 -20.072273625282833 0 0 0 0 -0.70709519964259471 12.739283391772677 0 12.739283391772677 -8.5466314474079397 0 0 0 0 -7.7015996338741388 23.720497784790496 0 23.720497784790496 -58.884383059408719 0 0 0 0 -1.2580887447402347 10.807989814718894 0 10.807989814718894 -100.60548734914482 0 0 0 0 7.0400244032935007 24.144286675710646 0 24.144286675710646 -82.231225373485358 0 0 0 0 -28.422081195487408 -4.9265081768462551 0 -4.9265081768462551 -69.852064531693031 0 0 0 0 -25.978357521176804 0.49951596385290031 0 0.49951596385290031 -64.107170289287751 0 0 0 0 -1.8301549471661929 4.225563301663783 0 4.225563301663783 5.6734021288474636 0 0 0 0 -31.389148788119201 171.14914667463017 0 171.14914667463017 -227.70540367612557 0 0 0 0 195.06961925585347 448.93153534857265 0 448.93153534857265 1066.7166850757021 0 0 0 0 -110.82256373050041 -235.06429172643402 0 -235.06429172643402 -113.27169500920445 0 0 0 0 -28.100073139736196 21.354035235104675 0 21.354035235104675 311.79224714013253 0 0 0 0 13.537630232937431 40.977166544747476 0 40.977166544747476 23.699633695672834 0 0 0 0 3.183274475253711 67.180653092616922 0 67.180653092616922 -63.918885421284358 0 0 0 0 27.678586126217851 84.456945312702373 0 84.456945312702373 -98.725966165988211 0 0 0 0 77.026753383463074 187.72897693402001 0 187.72897693402001 -256.53072104467719 0 0 0 0 49.212168204947432 28.612990495598268 0 28.612990495598268 -5.4303723681820113 0 0 0 0 -268.93568984192098 424.3567627356615 0 424.3567627356615 -349.29038042225147 0 0 0 0 -84.785770272064838 236.56423254194988 0 236.56423254194988 -254.54830482234502 0 0 0 0 -146.34563024935778 164.93453151078666 0 164.93453151078666 -39.598905753822692 0 0 0 0 -355.56800909497542 237.50120340556259 0 237.50120340556259 -49.822893777736681 0 0 0 0 60.564216494281936 43.811827281814686 0 43.811827281814686 16.251869172396091 0 0 0 0 79.451072007446783 -0.49773344139339315 0 -0.49773344139339315 404.0072890267038 0 0 0 0 24.380757251420164 5.3293245944135492 0 5.3293245944135492 -26.135566602323976 0 0 0 0 186.65119662192956 745.98779496312682 0 745.98779496312682 1523.9040575726867 0 0 0 0 -69.770389628916746 23.546598327112633 0 23.546598327112633 97.862133063877991 0 0 0 0 -25.115412057348294 -21.576994659734282 0 -21.576994659734282 63.620995639388639 0 0 0 0 -20.373997385111579 94.102107754064718 0 94.102107754064718 -64.802604663736929 0 0 0 0 -54.554236676665823 130.38305475667454 0 130.38305475667454 -114.19355547186387 0 0 0 0 -96.366012992599281 99.967136380168995 0 99.967136380168995 -50.044712364602674 0 0 0 0 -63.906981677511794 77.572470441072483 0 77.572470441072483 -0.6888366565835895 0 0 0 0 -27.418138345878106 123.86249918555222 0 123.86249918555222 -77.190783529115606 0 0 0 0 -77.574545387236867 157.90467671715896 0 157.90467671715896 -76.26353788313827 0 0 0 0 -131.7217550460191 100.40810334828438 0 100.40810334828438 -79.931099365339833 0 0 0 0 -129.34878224425483 168.90337460865794 0 168.90337460865794 -72.517243011650862 0 0 0 0 -108.158174820157 184.56681567918258 0 184.56681567918258 -99.489678687747073 0 0 0 0 -118.31088373810053 181.56766535522547 0 181.56766535522547 -66.004272825119642 0 0 0 0 -44.976933401441784 83.012862872484675 0 83.012862872484675 24.704373381634468 0 0 0 0 -1.684736663456988 13.19716911521645 0 13.19716911521645 -3.6050893476247046 0 0 0 0 -116.39283708226867 187.81544520859916 0 187.81544520859916 -73.662767655670905 0 0 0 0 -92.35707698907936 184.51050963004036 0 184.51050963004036 -220.4828154859315 0 0 0 0 -109.31468933625729 215.9770133228505 0 215.9770133228505 -154.10641054874395 0 0 0 0 -70.860387519351207 87.827122208197579 0 87.827122208197579 -80.501017619473714 0 0 0 0 -6.5652944757240164 72.299854444067421 0 72.299854444067421 -56.794154779380733 0 0 0 0 79.965123984060483 136.78339900022729 0 136.78339900022729 -77.477733807965706 0 0 0 0 92.071120405918919 170.38531003506068 0 170.38531003506068 -229.78674849955678 0 0 0 0 19.527350308747387 43.849492921776971 0 43.849492921776971 -40.392561131555361 0 0 0 0 -20.03133754391456 51.611179924977932 0 51.611179924977932 -20.394490759541441 0 0 0 0 108.62530826637521 -11.702536158567455 0 -11.702536158567455 -63.02181097668381 0 0 0 0 5.1252044933144134 59.840926651431488 0 59.840926651431488 -31.245106078628076 0 0 0 0 19.979514876763858 0.70780806075998726 0 0.70780806075998726 -7.0407902699017555 0 0 0 0 89.575881033437327 11.680465408728196 0 11.680465408728196 -49.440762263055149 0 0 0 0 87.350945249170763 14.390220620435684 0 14.390220620435684 38.539999709406402 0 0 0 0 -15.692355124520176 34.401738040961931 0 34.401738040961931 -8.6562736508154163 0 0 0 0 -18.137321459711529 79.718727006831614 0 79.718727006831614 -48.17296759691817 0 0 0 0 13.197096456799358 26.833646819647981 0 26.833646819647981 -19.206727690944668 0 0 0 0 38.313731515168911 71.526094155108694 0 71.526094155108694 -25.090683414216528 0 0 0 0 44.833638479321962 56.812336222102999 0 56.812336222102999 -5.7940867150746271 0 0 0 0 11.321847493061796 37.175759936311806 0 37.175759936311806 -25.328046178685327 0 0 0 0 47.098868400022582 52.035176530601888 0 52.035176530601888 -48.068792778541315 0 0 0 0 -3.211369059069682 43.696256556719703 0 43.696256556719703 -19.54366403654809 0 0 0 0 58.330711169748241 46.081455438081235 0 46.081455438081235 -30.022036647004565 0 0 0 0 32.280190923336704 34.821348071840731 0 34.821348071840731 2.4824432205035762 0 0 0 0 39.487289645738201 53.689073677790475 0 53.689073677790475 -19.985758688342685 0 0 0 0 26.539314253604971 54.266402461236112 0 54.266402461236112 -5.6277850982796735 0 0 0 0 -0.87253174464188987 60.398641822896586 0 60.398641822896586 -32.677894696009666 0 0 0 0 -54.804190660695895 65.695397532609263 0 65.695397532609263 -15.90660091767927 0 0 0 0 -29.549305981498037 61.138944165771903 0 61.138944165771903 -25.030374282206594 0 0 0 0 -51.854224258597242 71.066879097805099 0 71.066879097805099 -40.765775846059455 0 0 0 0 -38.51788369314454 68.018708553763986 0 68.018708553763986 -29.464912526326088 0 0 0 0 -24.753431392120575 28.82103258490784 0 28.82103258490784 -26.293759690885718 0 0 0 0 -42.873476971348282 52.202935938574569 0 52.202935938574569 -4.2825034349077384 0 0 0 0 -31.437770686216027 42.060422669813676 0 42.060422669813676 -16.643813668142478 0 0 0 0 -60.083990951941814 68.94073117068865 0 68.94073117068865 -37.615707797562322 0 0 0 0 -51.241900770075517 54.722920288020418 0 54.722920288020418 -31.187677328489372 0 0 0 0 -24.450135092337035 37.603266531365122 0 37.603266531365122 -9.1761924541895823 0 0 0 0 -27.132084819105934 54.692814943661119 0 54.692814943661119 -32.321868176021226 0 0 0 0 -30.565839029534629 14.317036888504248 0 14.317036888504248 -6.4580487747780921 0 0 0 0 -567.46084694007004 -46.087879282738868 0 -46.087879282738868 59.506159541553643 0 0 0 0 -18.064667454057542 78.119139444578991 0 78.119139444578991 -44.934282653698858 0 0 0 0 -56.113843490427826 95.876973726807591 0 95.876973726807591 -36.233286046689045 0 0 0 0 -309.31993516880175 -87.939662558985219 0 -87.939662558985219 -173.02787497763711 0 0 0 0 -42.452775973198129 59.15462292925482 0 59.15462292925482 5.093192267788055 0 0 0 0 -7.5543196106180019 91.592509764994958 0 91.592509764994958 -57.720635012727286 0 0 0 0 -13.06112791836388 81.229174884720976 0 81.229174884720976 -54.220286383909887 0 0 0 0 -17.23664133004786 87.861557241033552 0 87.861557241033552 -51.435567017638277 0 0 0 0 -53.466629208734958 89.305091084858759 0 89.305091084858759 -51.4546189783714 0 0 0 0 -60.860824729265005 114.84690229483977 0 114.84690229483977 -14.818941499113862 0 0 0 0 -83.173929302283796 106.0730386524001 0 106.0730386524001 -16.003025407429959 0 0 0 0 -73.591256432322552 103.81657443430595 0 103.81657443430595 -4.4757684811884246 0 0 0 0 -48.38174187601544 132.13812132326893 0 132.13812132326893 -14.718979567260249 0 0 0 0 -40.640107097728105 55.026041540217477 0 55.026041540217477 67.616008949256866 0 0 0 0 -133.59777249471517 292.55896623102751 0 292.55896623102751 -54.351383390228136 0 0 0 0 -105.34582042903639 147.46111467528544 0 147.46111467528544 -122.22791830525341 0 0 0 0 28.926928367384221 62.176025507694163 0 62.176025507694163 30.451845471636663 0 0 0 0 12.233878097151319 40.082882199056087 0 40.082882199056087 11.323853457989637 0 0 0 0 -36.912632282803315 88.792163769341983 0 88.792163769341983 -36.474677349422564 0 0 0 0 40.679781931103207 153.67063717175915 0 153.67063717175915 17.769354715172085 0 0 0 0 64.275311263161711 120.32945683896105 0 120.32945683896105 -74.733822739908646 0 0 0 0 -83.847433298356918 98.005875543191252 0 98.005875543191252 -369.60367074683495 0 0 0 0 37.228086566487207 26.369396913743387 0 26.369396913743387 22.553108622858812 0 0 0 0 38.736683261906535 23.150599548411606 0 23.150599548411606 17.686739993398049 0 0 0 0 29.048740485450253 142.77408609498343 0 142.77408609498343 -51.082275973934884 0 0 0 0 54.00319985387614 30.459226797571318 0 30.459226797571318 -48.398153732143783 0 0 0 0 -143.40151433941355 -15.836480338080946 0 -15.836480338080946 -185.0002338433751 0 0 0 0 -100.43182722293722 4.2432552025318557 0 4.2432552025318557 1.2560016391659481 0 0 0 0 -209.77495394114703 186.56742830037911 0 186.56742830037911 -185.73392354072712 0 0 0 0 -101.1482551257989 14.321965584156413 0 14.321965584156413 -1.198533378893379 0 0 0 0 -519.21628629240149 61.6653861540035 0 61.6653861540035 -25.800423103776097 0 0 0 0 -253.21187381788332 105.55641268796609 0 105.55641268796609 -35.839168882147533 0 0 0 0 -291.78335287717346 106.5065291240071 0 106.5065291240071 202.10704683546498 0 0 0 0 -239.09827083977871 206.38658120431955 0 206.38658120431955 4.0750360013871614 0 0 0 0 -482.39243334997445 -104.50725299776218 0 -104.50725299776218 367.08266205005657 0 0 0 0 -113.59608230326558 -140.65363038530631 0 -140.65363038530631 178.73740813976565 0 0 0 0 -481.465044636323 -13.221846985195953 0 -13.221846985195953 151.4701738666281 0 0 0 0 -117.90746046853019 -108.02365710717913 0 -108.02365710717913 -24.844380909340543 0 0 0 0 -99.709081346838502 -38.078501828373192 0 -38.078501828373192 69.153976827644328 0 0 0 0 -24.354232339159353 19.008667096841691 0 19.008667096841691 -24.474596691066836 0 0 0 0 -26.332146364060463 -10.292575539184327 0 -10.292575539184327 -109.97423102636367 0 0 0 0 -98.918760724771545 14.502210958692586 0 14.502210958692586 -3.9467210512481783 0 0 0 0 -233.07592958552414 -24.803713831919595 0 -24.803713831919595 -71.152818974661614 0 0 0 0 -161.81516185117107 26.370849446305556 0 26.370849446305556 -56.387143854917667 0 0 0 0 -165.05605663627284 -53.416047348244774 0 -53.416047348244774 -126.9596587359556 0 0 0 0 -113.9004077539721 -10.128742300570593 0 -10.128742300570593 -209.37242444307662 0 0 0 0 -156.89251561981655 -93.451340895161593 0 -93.451340895161593 -119.82995395297257 0 0 0 0 -74.311549674566777 -145.29127370405331 0 -145.29127370405331 -152.82333903463223 0 0 0 0 -322.57934157646378 -203.13074032325312 0 -203.13074032325312 -142.0975440582497 0 0 0 0 -515.08991298171168 25.945594024949969 0 25.945594024949969 -17.694243799797732 0 0 0 0 -116.58480219228659 -141.1072508888501 0 -141.1072508888501 -238.19810685293487 0 0 0 0 -440.62944180355407 40.140585721450407 0 40.140585721450407 -41.222358796598201 0 0 0 0 -535.71426530510871 -100.13508436439679 0 -100.13508436439679 99.567050806093903 0 0 0 0 154.81967943740892 -207.54918742336849 0 -207.54918742336849 -80.380304694113875 0 0 0 0 -129.4639961070352 -67.436083117876478 0 -67.436083117876478 -121.45712404094047 0 0 0 0 252.57866553025087 121.34969029128115 0 121.34969029128115 -127.32089234396381 0 0 0 0 3.8712599693462835 186.3798343064509 0 186.3798343064509 114.83978547186416 0 0 0 0 -76.153631236426008 23.82992952548193 0 23.82992952548193 -143.3443614638054 0 0 0 0 10.245088055940869 8.0339685948392798 0 8.0339685948392798 -184.47069455451492 0 0 0 0 61.001362440285448 158.2623142430748 0 158.2623142430748 -187.8192414901132 0 0 0 0 -325.11605776211218 206.53927940094945 0 206.53927940094945 39.120147311328765 0 0 0 0 118.25302081575501 424.36852261765125 0 424.36852261765125 143.28198459695523 0 0 0 0 -20.04702037518291 331.05870970884098 0 331.05870970884098 256.33354109571883 0 0 0 0 175.96949097702964 621.67257092226464 0 621.67257092226464 675.87965507615445 0 0 0 0 -106.23395860498567 42.811816103683668 0 42.811816103683668 906.94989379672597 0 0 0 0 6.5069802587514971 5.0134926288196908 0 5.0134926288196908 10.884393718445253 0 0 0 0 827.18843923950044 343.7047801462204 0 343.7047801462204 66.22548452610863 0 0 0 0 577.10628755483594 -352.36865564792015 0 -352.36865564792015 277.88922891282346 0 0 0 0 -174.55131029812037 -68.699402494397873 0 -68.699402494397873 178.26283359995068 0 0 0 0 -169.68012971668031 -95.312999147535493 0 -95.312999147535493 14.492463166519883 0 0 0 0 -561.46326721503283 -1.4704851302722091 0 -1.4704851302722091 72.440232250322879 0 0 0 0 -452.37284297713632 -134.99434299958193 0 -134.99434299958193 228.12737990780806 0 0 0 0 -600.69014042754134 97.441694992496195 0 97.441694992496195 266.6223415196846 0 0 0 0 -309.67910150423268 98.787288756842827 0 98.787288756842827 144.99885307288059 0 0 0 0 -864.73515649861656 420.17271861212976 0 420.17271861212976 547.24566868473812 0 0 0 0 475.32217501218111 807.4265792741171 0 807.4265792741171 403.67437620009241 0 0 0 0 -364.13479845438269 13.832565230670298 0 13.832565230670298 940.17674254511621 0 0 0 0 13.010382542750449 206.01693711971529 0 206.01693711971529 -296.92744886969376 0 0 0 0 -416.44360819687427 551.31920659692696 0 551.31920659692696 -43.511170926760315 0 0 0 0 81.149242143779702 351.67842478063903 0 351.67842478063903 33.706816255284139 0 0 0 0 130.73092021374759 289.1059093270178 0 289.1059093270178 -34.055489362741355 0 0 0 0 54.492996743370895 191.64603608907055 0 191.64603608907055 -158.64446031684565 0 0 0 0 7.118841768064641 136.35639753409026 0 136.35639753409026 -77.351196680670881 0 0 0 0 103.94665071758209 102.45999061742714 0 102.45999061742714 -148.68882687274163 0 0 0 0 1.9980353076316533 220.82104804931441 0 220.82104804931441 165.96522845984873 0 0 0 0 22.659738229129914 36.392417321350479 0 36.392417321350479 -16.309768290349879 0 0 0 0 855.72663121287405 11.7683546880412 0 11.7683546880412 -136.35996224594419 0 0 0 0 -184.85227687506995 -5.9930748887554728 0 -5.9930748887554728 -134.65192835486232 0 0 0 0 -311.38888406658225 319.49654036746188 0 319.49654036746188 -71.591663445015001 0 0 0 0 60.972344566325773 225.2392512143806 0 225.2392512143806 -49.520588055442204 0 0 0 0 -109.28672953785281 178.31165810865605 0 178.31165810865605 13.720631274244624 0 0 0 0 -101.73470960878421 84.35126394383019 0 84.35126394383019 96.178043507998154 0 0 0 0 31.003996556712082 195.32889398536918 0 195.32889398536918 50.59143281435172 0 0 0 0 275.24095183690952 209.55508696884863 0 209.55508696884863 -231.81991760743404 0 0 0 0 168.18430850974983 71.117356241878952 0 71.117356241878952 -375.20255657514645 0 0 0 0 -53.211518371759489 147.50009118777484 0 147.50009118777484 19.765832301531475 0 0 0 0 -329.74209360278473 5.5782678647055945 0 5.5782678647055945 35.155171660415363 0 0 0 0 -124.82730319813709 117.83326517085334 0 117.83326517085334 -39.218851618627809 0 0 0 0 -100.44063938341242 126.28611388777381 0 126.28611388777381 -42.324479708549916 0 0 0 0 -82.069974455168051 40.309687313563558 0 40.309687313563558 -0.088793674340791995 0 0 0 0 -39.215756000448494 78.606571971534862 0 78.606571971534862 -46.798654264153505 0 0 0 0 -506.14878347123886 43.908663301031993 0 43.908663301031993 -79.579747269948712 0 0 0 0 -692.60304911414278 -124.25724392322081 0 -124.25724392322081 -10.448575558315497 0 0 0 0 -35.435964806459367 21.637270840934889 0 21.637270840934889 11.22988403591949 0 0 0 0 -737.98829598625889 -12.093676232761936 0 -12.093676232761936 52.73291843746847 0 0 0 0 -556.0042174004484 -15.099093447701307 0 -15.099093447701307 -12.953439621451253 0 0 0 0 -579.45378707139935 157.58178490524597 0 157.58178490524597 -45.532424542921945 0 0 0 0 -599.71321252369671 81.356428470568062 0 81.356428470568062 49.924728885147488 0 0 0 0 -545.73782703300822 91.050975762467715 0 91.050975762467715 -130.78825795480589 0 0 0 0 -27.494406043196928 100.21120466372221 0 100.21120466372221 -13.026088509770659 0 0 0 0 -695.62997197769801 632.54796908300932 0 632.54796908300932 -205.40719336072652 0 0 0 0 -23.316187403474387 11.815449409493297 0 11.815449409493297 -12.995945930629169 0 0 0 0 -167.6485111076945 79.770734123814691 0 79.770734123814691 17.170142425442464 0 0 0 0 -156.70200373448461 42.802351302598254 0 42.802351302598254 30.898771782816766 0 0 0 0 -151.62830332526573 125.20773096858284 0 125.20773096858284 74.162284284833731 0 0 0 0 -29.630106734573644 89.164433545910967 0 89.164433545910967 8.3145689736755628 0 0 0 0 348.24608224898111 -57.807577687977755 0 -57.807577687977755 14.880213324082433 0 0 0 0 51.998420461110072 -417.74995491503432 0 -417.74995491503432 294.97498576368525 0 0 0 0 17.101490177788946 75.464808785838159 0 75.464808785838159 -239.39606672206719 0 0 0 0 -308.61995301129355 264.34678758193058 0 264.34678758193058 117.63320175723129 0 0 0 0 -264.0564249441959 491.19360733068243 0 491.19360733068243 -20.824458467945078 0 0 0 0 -331.94131967019348 414.73830170189149 0 414.73830170189149 123.81094205569389 0 0 0 0 -689.5784657713848 -243.84698700794797 0 -243.84698700794797 361.61714774572465 0 0 0 0 -58.05092621483125 154.06736260301406 0 154.06736260301406 -8.8854367892619877 0 0 0 0 122.18489284398674 -3.7936721797614155 0 -3.7936721797614155 -157.37334819258831 0 0 0 0 -335.06542535506014 438.89688472211219 0 438.89688472211219 215.82701044606802 0 0 0 0 -4.2391890555875023 5.806171716070196 0 5.806171716070196 -2.3662713868641703 0 0 0 0 -261.21897489719413 517.04243717367035 0 517.04243717367035 131.73529568966478 0 0 0 0 58.19141046286677 114.55991383069886 0 114.55991383069886 -596.55687263864456 0 0 0 0 294.69310275727184 1108.5792132347851 0 1108.5792132347851 -1363.9129196281283 0 0 0 0 -611.88221357828297 -25.415284225322466 0 -25.415284225322466 141.89947926597961 0 0 0 0 -48.668068876140751 165.25348313771332 0 165.25348313771332 -41.594617912215554 0 0 0 0 176.63524629698804 351.90220120079812 0 351.90220120079812 -448.87830497030518 0 0 0 0 712.39812258450547 325.51887409268238 0 325.51887409268238 90.103441513492726 0 0 0 0 -1470.526203960464 -226.0667014797873 0 -226.0667014797873 527.45990622110548 0 0 0 0 -6.4219830464320751 35.841338909477656 0 35.841338909477656 6.8184321512131021 0 0 0 0 81.696489159309266 66.597846448527875 0 66.597846448527875 -43.641268046362967 0 0 0 0 552.8462140528427 574.02371906888584 0 574.02371906888584 200.30217420846748 0 0 0 0 -46.260392502523246 229.22160757669735 0 229.22160757669735 225.04204555288743 0 0 0 0 -47.60173256923953 114.03503377537612 0 114.03503377537612 55.509279804475767 0 0 0 0 -179.16726392834244 1410.2544256226356 0 1410.2544256226356 -1518.3430987846805 0 0 0 0 -1587.0578318900734 -0.88407597536206595 0 -0.88407597536206595 871.78028665931197 0 0 0 0 -3.3635608100812533 129.88339174387511 0 129.88339174387511 49.880665305816365 0 0 0 0 12.780812627065188 135.29744433795048 0 135.29744433795048 -106.2428803107575 0 0 0 0 57.920791666445439 234.09060807137575 0 234.09060807137575 -139.86471277946112 0 0 0 0 208.82623363884341 351.52651817208971 0 351.52651817208971 -89.825203289103229 0 0 0 0 35.007256517186761 407.24089828722936 0 407.24089828722936 0.68357884215947706 0 0 0 0 182.39063031580008 482.46620199368772 0 482.46620199368772 -5.7530850586190354 0 0 0 0 138.33732606405829 438.17314385581994 0 438.17314385581994 8.4466390714951558 0 0 0 0 314.72273965676504 285.75587510448895 0 285.75587510448895 -22.827220421429956 0 0 0 0 181.52335766166289 350.04266915944027 0 350.04266915944027 -53.684827715362189 0 0 0 0 -15.838102393533152 76.107567143396423 0 76.107567143396423 -76.887941830937962 0 0 0 0 222.50143468621536 168.97625951220834 0 168.97625951220834 41.482836396680796 0 0 0 0 -1118.1072421326498 73.927626160915679 0 73.927626160915679 125.04175275779562 0 0 0 0 -40.207828733383195 87.8934134616253 0 87.8934134616253 -32.568229828546194 0 0 0 0 372.82891937979002 268.01100519151078 0 268.01100519151078 131.68018571683206 0 0 0 0 -61.253655971974823 175.09562142526883 0 175.09562142526883 74.807176295011317 0 0 0 0 185.77074709137327 151.22035079092205 0 151.22035079092205 -7.9270533256276678 0 0 0 0 -32.114723186508527 119.54143288241853 0 119.54143288241853 15.471239039678835 0 0 0 0 -529.3286129187145 571.06959420711064 0 571.06959420711064 -58.839691286251764 0 0 0 0 -52.369846384632382 92.832452943348358 0 92.832452943348358 85.447613563109769 0 0 0 0 -12.187993954194098 238.28167821740863 0 238.28167821740863 208.5578132692317 0 0 0 0 -19.455369006115802 110.64295356756288 0 110.64295356756288 -47.734209185126304 0 0 0 0 -18.764048953593431 90.038342617824696 0 90.038342617824696 -55.197996322562133 0 0 0 0 8.0269159492127073 225.6953817428539 0 225.6953817428539 144.06835996919835 0 0 0 0 -32.43135081307264 325.98202490569383 0 325.98202490569383 139.94682301548301 0 0 0 0 -103.62941594613949 209.12021216566791 0 209.12021216566791 160.80234523967192 0 0 0 0 -91.243550323193631 139.46249083475413 0 139.46249083475413 130.21385685492714 0 0 0 0 -13.039385478863551 172.64643444015746 0 172.64643444015746 141.86015262290312 0 0 0 0 -19.778955815825611 179.82404926337767 0 179.82404926337767 138.46927725835121 0 0 0 0 3.2051985970941814 127.14236813145217 0 127.14236813145217 -105.77688274069203 0 0 0 0 9.2841427065141033 244.02679754103156 0 244.02679754103156 162.20460500283571 0 0 0 0 -40.499890826755291 276.54976422435357 0 276.54976422435357 207.50976672334946 0 0 0 0 1.6429864256604958 126.16592860573645 0 126.16592860573645 -100.97346281191444 0 0 0 0 -129.10025286822565 391.6696343301528 0 391.6696343301528 233.51252179350195 0 0 0 0 -24.054712367505999 318.00630849931622 0 318.00630849931622 126.46527122915722 0 0 0 0 68.230246697599341 311.78860493261436 0 311.78860493261436 70.782159162510652 0 0 0 0 -5.5233385443643783 254.65868026043609 0 254.65868026043609 157.1452050460357 0 0 0 0 -42.717384693954955 279.88524615010101 0 279.88524615010101 141.14815196116979 0 0 0 0 -9.3468989461034653 380.13898827471712 0 380.13898827471712 60.009864231986285 0 0 0 0 -105.47981658729987 421.36067575667403 0 421.36067575667403 97.581996209184581 0 0 0 0 -31.772721348312189 525.53527099440544 0 525.53527099440544 65.11376240089885 0 0 0 0 -86.444239885568095 422.1043721937167 0 422.1043721937167 96.044658824204816 0 0 0 0 -150.94254984708459 298.275702487339 0 298.275702487339 153.5001764104527 0 0 0 0 -287.63992610907007 127.94469457949162 0 127.94469457949162 150.92814706818899 0 0 0 0 -316.26296404220921 315.52337513312523 0 315.52337513312523 159.84056201654312 0 0 0 0 -145.73789604429749 166.5354972187788 0 166.5354972187788 134.08612809577608 0 0 0 0 -160.09198573391768 286.51668453080492 0 286.51668453080492 140.88136389623105 0 0 0 0 -62.980037821391306 188.54621893427975 0 188.54621893427975 138.96820721204858 0 0 0 0 -141.23287686088315 77.487900532587446 0 77.487900532587446 90.461732818526798 0 0 0 0 -154.89202033929905 162.58385997188452 0 162.58385997188452 143.87330333115824 0 0 0 0 -35.060289248343906 63.610643228617846 0 63.610643228617846 69.939178429522144 0 0 0 0 -23.928293334960472 81.783937115738809 0 81.783937115738809 49.314294673731638 0 0 0 0 -39.329829975062239 75.396036207748693 0 75.396036207748693 49.127149392428691 0 0 0 0 -8.5463163755193818 71.688764315309527 0 71.688764315309527 32.625491666927701 0 0 0 0 4.0956938879389782 92.774878983051167 0 92.774878983051167 44.517285685389652 0 0 0 0 -40.399289255285112 112.5003813072035 0 112.5003813072035 92.346219833649229 0 0 0 0 -37.949589366056898 118.80199190598069 0 118.80199190598069 106.98302781463281 0 0 0 0 11.110017244762275 149.56417745255749 0 149.56417745255749 114.94021445261023 0 0 0 0 -40.060249119720538 135.45121354541334 0 135.45121354541334 135.02201294375118 0 0 0 0 34.635529786915868 114.6201020678709 0 114.6201020678709 52.764222072801203 0 0 0 0 -9.5420270823342435 106.77458408596067 0 106.77458408596067 98.221300249977503 0 0 0 0 15.83134798987885 4.2019109857064905 0 4.2019109857064905 251.97304559014447 0 0 0 0 157.95328394146054 142.79925225771149 0 142.79925225771149 103.02301651483867 0 0 0 0 -42.263693468790734 105.79342009473476 0 105.79342009473476 140.06780725208955 0 0 0 0 -14.199064868094865 177.08969679868824 0 177.08969679868824 171.3679364247073 0 0 0 0 -60.677628868317697 227.089945872518 0 227.089945872518 269.19017887028167 0 0 0 0 34.618490582506638 145.20340853341622 0 145.20340853341622 -36.212635633644823 0 0 0 0 227.42641710204043 36.035822714671667 0 36.035822714671667 -191.93543539778329 0 0 0 0 13.613304131009642 7.0857888842790828 0 7.0857888842790828 -21.823989610022807 0 0 0 0 37.84601850792464 68.766961387862551 0 68.766961387862551 60.451353057701994 0 0 0 0 -62.688378140679561 36.361508098314516 0 36.361508098314516 -1.8470330819836818 0 0 0 0 36.721970550337574 154.00271620642161 0 154.00271620642161 -187.32699033385143 0 0 0 0 -39.061769242864102 138.7713616613546 0 138.7713616613546 106.1203196089773 0 0 0 0 68.294537081033923 247.03487113694428 0 247.03487113694428 74.574051706687897 0 0 0 0 -30.944018046779092 124.38143290384323 0 124.38143290384323 88.724449291503333 0 0 0 0 -30.311557742152218 123.70311720111204 0 123.70311720111204 113.95320212093065 0 0 0 0 -30.757970086327987 127.58254237953224 0 127.58254237953224 111.36341726969113 0 0 0 0 -59.151419168803841 73.931862204495701 0 73.931862204495701 53.835836338643276 0 0 0 0 3.2103588732173058 54.860838739071312 0 54.860838739071312 34.641926051695975 0 0 0 0 -21.430663530187473 67.059480537890693 0 67.059480537890693 0.69901579964147231 0 0 0 0 -40.030576825371924 27.38615706221006 0 27.38615706221006 27.388011489695842 0 0 0 0 23.225960187003096 82.584073770219874 0 82.584073770219874 37.812003034289006 0 0 0 0 26.369979850453092 124.42535927514109 0 124.42535927514109 -79.531808791274671 0 0 0 0 -11.070876364086871 236.32445117791212 0 236.32445117791212 17.629361698665889 0 0 0 0 -33.220482484624341 69.351194941633651 0 69.351194941633651 56.901112850572588 0 0 0 0 -24.281299713533372 79.726404919107154 0 79.726404919107154 117.86000203533331 0 0 0 0 -88.962539767744602 91.60115733427665 0 91.60115733427665 147.41989307048789 0 0 0 0 -4.1532530386029975 75.013872904251912 0 75.013872904251912 105.48970820341492 0 0 0 0 -56.138347926811548 -3.1189232925316901 0 -3.1189232925316901 137.31926063595165 0 0 0 0 -85.371069317152433 65.731999342169729 0 65.731999342169729 -1.3343239351888769 0 0 0 0 -209.67163139211334 160.86951550477534 0 160.86951550477534 107.72544778163137 0 0 0 0 -240.47934128514134 43.460650464523496 0 43.460650464523496 351.99717594467802 0 0 0 0 198.41794951770862 86.607140212800005 0 86.607140212800005 -106.49235482623044 0 0 0 0 -36.899223256705092 61.13498716759149 0 61.13498716759149 43.171395372891766 0 0 0 0 79.772398131000955 130.30112149670458 0 130.30112149670458 -81.454206723647076 0 0 0 0 -32.452593637688551 68.037230064306641 0 68.037230064306641 48.303473910942557 0 0 0 0 6.4020933996188347 12.351437747992065 0 12.351437747992065 11.662987256093174 0 0 0 0 -180.55263558835759 188.5038972907023 0 188.5038972907023 166.58363989778445 0 0 0 0 -34.297325105981145 85.21818313370386 0 85.21818313370386 67.886422693147324 0 0 0 0 -176.09467088897509 192.09336953404272 0 192.09336953404272 -10.390306938526919 0 0 0 0 -13.129476406037497 6.0040109117623857 0 6.0040109117623857 1.7946888252218969 0 0 0 0 -37.022323927441903 25.298809616477229 0 25.298809616477229 -33.248928068620444 0 0 0 0 112.97637118486455 -24.764534678368364 0 -24.764534678368364 -19.812965407596494 0 0 0 0 206.61988561915859 248.43836162373918 0 248.43836162373918 182.75065791532688 0 0 0 0 108.56316876053461 118.63173335684405 0 118.63173335684405 111.05061467413907 0 0 0 0 0.090015672358504162 27.185014469947802 0 27.185014469947802 17.885476997797127 0 0 0 0 -33.670891132926045 58.247584374272265 0 58.247584374272265 170.49108408391476 0 0 0 0 -29.142678772608633 56.600264073404105 0 56.600264073404105 117.57363183642155 0 0 0 0 23.267998695853748 189.56640127141145 0 189.56640127141145 153.34176882517204 0 0 0 0 -15.400255443440983 125.69043300923659 0 125.69043300923659 146.37079498041567 0 0 0 0 23.35305812417937 171.6921326330048 0 171.6921326330048 242.24184140338184 0 0 0 0 129.9740118810987 -95.215558422063623 0 -95.215558422063623 152.73739772179397 0 0 0 0 -29.251662824695813 68.455924329544359 0 68.455924329544359 174.57966287259478 0 0 0 0 -16.827491152565926 9.1852704101765994 0 9.1852704101765994 347.60674424358876 0 0 0 0 -137.63507453181955 -2.6989634273049887 0 -2.6989634273049887 250.75699604712281 0 0 0 0 -129.26848375581721 121.1507744323535 0 121.1507744323535 164.57708072963578 0 0 0 0 -80.48273961466839 61.340814276270976 0 61.340814276270976 357.25537127591087 0 0 0 0 -90.429925927393924 40.344820173850167 0 40.344820173850167 321.24206541206513 0 0 0 0 -47.471501401087153 56.708045874940581 0 56.708045874940581 274.27572000605869 0 0 0 0 -89.451953790608968 -23.242080778072705 0 -23.242080778072705 203.50191062740487 0 0 0 0 22.175160040798389 72.171700448109164 0 72.171700448109164 150.14474387544473 0 0 0 0 -189.5545068393767 82.012252924836503 0 82.012252924836503 187.71222511446103 0 0 0 0 -162.74579811323929 16.575371540755441 0 16.575371540755441 242.68019016468315 0 0 0 0 -10.604402546276106 15.504851611680351 0 15.504851611680351 104.41272517350444 0 0 0 0 -91.522111256963399 13.225164041956305 0 13.225164041956305 193.40656647544529 0 0 0 0 -48.452057166061422 -5.8663319569532177 0 -5.8663319569532177 201.11250589437986 0 0 0 0 -34.180530949962204 0.91647715636062799 0 0.91647715636062799 5.3761593977688875 0 0 0 0 155.69672300376988 -150.864542744348 0 -150.864542744348 83.280349847584148 0 0 0 0 85.917951292736689 140.29895985192707 0 140.29895985192707 -144.95672774509148 0 0 0 0 -5.3149054174973571 93.204637600050773 0 93.204637600050773 64.703743906895397 0 0 0 0 479.28651263028223 -201.0911085372536 0 -201.0911085372536 -315.02718761621509 0 0 0 0 182.00379075536966 389.39410030189538 0 389.39410030189538 -555.2222686962632 0 0 0 0 197.35443430259352 62.5661395070656 0 62.5661395070656 -104.34395825545653 0 0 0 0 632.75463673955892 85.726293535852164 0 85.726293535852164 -764.42036255003768 0 0 0 0 135.00506736154784 30.090513457500492 0 30.090513457500492 7.2191965585661819 0 0 0 0 2.25534498801116 31.676552217186625 0 31.676552217186625 -31.833246323691156 0 0 0 0 -36.272345235527609 60.483866373338969 0 60.483866373338969 52.145381112408359 0 0 0 0 7.4723148280172609 51.383030763579882 0 51.383030763579882 66.976359949680045 0 0 0 0 23.014363714813953 59.268387838004855 0 59.268387838004855 27.229742295690812 0 0 0 0 7.5426367074502707 56.762708127949445 0 56.762708127949445 66.530976430766543 0 0 0 0 9.5505812926039084 42.304951686377123 0 42.304951686377123 4.5666457284938389 0 0 0 0 59.98840236995602 74.196484989595774 0 74.196484989595774 120.996253244135 0 0 0 0 63.037948629411403 75.968795267770474 0 75.968795267770474 68.369763943308499 0 0 0 0 22.35790782917033 42.895729404235745 0 42.895729404235745 8.9189026466006851 0 0 0 0 -4.7677660783217419 30.194546867435875 0 30.194546867435875 25.939586663361723 0 0 0 0 74.004281563276891 88.145286250302888 0 88.145286250302888 20.298053980644909 0 0 0 0 36.639082757035794 133.08790581533685 0 133.08790581533685 71.625003746077709 0 0 0 0 67.40215618005459 146.58213747022091 0 146.58213747022091 55.416831864713458 0 0 0 0 168.15030134360131 116.47019630735667 0 116.47019630735667 49.543966051220195 0 0 0 0 93.634175911880448 200.7911360219332 0 200.7911360219332 85.821514452865813 0 0 0 0 -1.8183428509424999 11.305278755237179 0 11.305278755237179 8.7183149290916901 0 0 0 0 -0.28130798993515782 48.986873664289305 0 48.986873664289305 14.68071909340506 0 0 0 0 -165.57338254115894 -45.686214202374686 0 -45.686214202374686 433.79246846796013 0 0 0 0 13.952845601626905 194.75484181880893 0 194.75484181880893 143.32788617545157 0 0 0 0 44.309822923212778 184.33811856858665 0 184.33811856858665 113.12214928015601 0 0 0 0 -4.3244776908913991 74.301992386485381 0 74.301992386485381 -70.137489082408138 0 0 0 0 162.03097021918256 134.69762646808704 0 134.69762646808704 25.700285515718861 0 0 0 0 1.1786972869688981 19.720887570457919 0 19.720887570457919 -1.2582208483851218 0 0 0 0 97.782565696092206 49.790513542015105 0 49.790513542015105 -84.370058771710319 0 0 0 0 14.009122532836415 41.017335358506216 0 41.017335358506216 29.873220028695926 0 0 0 0 -38.683352136453323 128.29175480560662 0 128.29175480560662 111.20169417813304 0 0 0 0 7.6958871337265009 118.12617370978114 0 118.12617370978114 110.05866175357369 0 0 0 0 0.50294289077282883 143.30471839036909 0 143.30471839036909 62.624235847237287 0 0 0 0 -49.104653817499639 80.647065124729124 0 80.647065124729124 44.861377625824389 0 0 0 0 29.913595536374487 82.227066270599607 0 82.227066270599607 106.74979374557734 0 0 0 0 -7.7274631892505568 121.73257557510078 0 121.73257557510078 93.280221995169995 0 0 0 0 31.23967262590304 97.899908332299674 0 97.899908332299674 98.802335629785375 0 0 0 0 24.289271145204111 47.491950255905977 0 47.491950255905977 7.5693790101213381 0 0 0 0 20.10000275632018 72.102878967381614 0 72.102878967381614 60.022245101720216 0 0 0 0 -8.0982509257564459 69.10797414044643 0 69.10797414044643 74.076423061570381 0 0 0 0 -3.0408373916288838 37.374805540835951 0 37.374805540835951 3.0815039764565881 0 0 0 0 28.918299924427174 71.827348783031837 0 71.827348783031837 22.093097621214724 0 0 0 0 13.302262993455173 50.592939543322473 0 50.592939543322473 43.531983490161366 0 0 0 0 5.7831347016495442 50.409481688989104 0 50.409481688989104 50.668527575842205 0 0 0 0 -5.3827536999087897 51.584433402149443 0 51.584433402149443 19.336604086405714 0 0 0 0 30.043263285250617 61.054513459489726 0 61.054513459489726 42.831570969295427 0 0 0 0 21.866930278898508 107.73968984337625 0 107.73968984337625 86.659887140514911 0 0 0 0 -10.319137620710535 50.098003016013536 0 50.098003016013536 88.638107341106661 0 0 0 0 15.696243858874368 67.778450370329665 0 67.778450370329665 20.006556021202414 0 0 0 0 -10.13268564784812 52.354665886408839 0 52.354665886408839 11.16930868246709 0 0 0 0 -27.044669121336483 64.967006756112823 0 64.967006756112823 37.904639760090504 0 0 0 0 -35.540851992554963 82.324614441226004 0 82.324614441226004 23.426402586469521 0 0 0 0 21.385314349195568 39.896975022286284 0 39.896975022286284 23.842698831586802 0 0 0 0 -22.764902697468642 64.729291778166953 0 64.729291778166953 23.31923921930138 0 0 0 0 -39.297815073208767 49.308395049454703 0 49.308395049454703 10.831153913502931 0 0 0 0 -52.630339105009625 70.974519056326244 0 70.974519056326244 1.9638650625602168 0 0 0 0 -22.549431091607403 35.722357891427237 0 35.722357891427237 -46.832361333988956 0 0 0 0 -48.139166010063491 66.101103823402809 0 66.101103823402809 -39.069239005621057 0 0 0 0 3.1798891144171648 56.748291613751462 0 56.748291613751462 -21.473959238574025 0 0 0 0 -15.212071745343565 69.815142720726726 0 69.815142720726726 -2.9554097247491882 0 0 0 0 17.060232630030605 42.406790742770625 0 42.406790742770625 -9.5573403705340638 0 0 0 0 32.976385173184099 83.315779600328824 0 83.315779600328824 8.6415880118729547 0 0 0 0 18.31829632181325 102.2256646218666 0 102.2256646218666 -15.726787497638725 0 0 0 0 1.856412362492847 96.669265671549965 0 96.669265671549965 29.69048831705004 0 0 0 0 5.2234567644190975 110.41944905483979 0 110.41944905483979 13.273347690614173 0 0 0 0 1.3875523691726812 88.608771396704014 0 88.608771396704014 12.647684641182423 0 0 0 0 84.946063791911001 78.667308110307204 0 78.667308110307204 -15.690542604512302 0 0 0 0 110.56271081652085 978.39570554313832 0 978.39570554313832 -265.11127945638145 0 0 0 0 3.6866992342911544 17.231150646875903 0 17.231150646875903 -61.992339555552462 0 0 0 0 -71.882081580595695 56.497157401463483 0 56.497157401463483 67.911177362140734 0 0 0 0 -22.851616625237511 96.760709254915128 0 96.760709254915128 34.682987329812022 0 0 0 0 -5.3044704128406011 125.11242408877297 0 125.11242408877297 72.491176008887123 0 0 0 0 -57.421804301535303 85.567848641934688 0 85.567848641934688 111.33341884240508 0 0 0 0 -24.411711383872898 152.05186213419074 0 152.05186213419074 170.74368814377522 0 0 0 0 15.494386759150075 136.67435158594162 0 136.67435158594162 75.97567610880651 0 0 0 0 2.3662915646418696 135.20707659138134 0 135.20707659138134 84.173547202139162 0 0 0 0 9.7227884665771853 108.22540335170925 0 108.22540335170925 47.092990736098727 0 0 0 0 5.6486370149359573 123.70643643131189 0 123.70643643131189 35.062207890616264 0 0 0 0 6.2897863837570185 105.8645314181631 0 105.8645314181631 9.6219170981348725 0 0 0 0 7.4183827152301092 119.3035076927481 0 119.3035076927481 -9.7686056292732246 0 0 0 0 -0.83725103485630825 95.410241117875557 0 95.410241117875557 3.7526071920983668 0 0 0 0 17.738083407992235 103.5968662114301 0 103.5968662114301 5.7403241626889212 0 0 0 0 15.568719115151026 103.7697099142524 0 103.7697099142524 56.982286324811867 0 0 0 0 7.1126238328433828 116.61190615191299 0 116.61190615191299 43.055639134719968 0 0 0 0 13.913108739288873 71.163394030911149 0 71.163394030911149 16.564738386368845 0 0 0 0 -30.231234959108406 85.035597404683358 0 85.035597404683358 12.411168215257931 0 0 0 0 -73.637194013906992 96.02026996697532 0 96.02026996697532 -10.503841661717161 0 0 0 0 -35.367280693055363 72.556779967984767 0 72.556779967984767 1.5058184443914797 0 0 0 0 -34.24140490177524 107.54787653424501 0 107.54787653424501 -67.095337388571352 0 0 0 0 -7.1447536505802418 133.7881989017842 0 133.7881989017842 -94.180833635487943 0 0 0 0 -37.132498237071559 102.69766065933072 0 102.69766065933072 -32.265065708663315 0 0 0 0 -8.8061840349801059 105.96540305839153 0 105.96540305839153 -32.834567632889957 0 0 0 0 -16.844522768733441 107.41887739199592 0 107.41887739199592 -4.5049201434012502 0 0 0 0 12.391272162014502 102.33690585328441 0 102.33690585328441 -17.611557486736274 0 0 0 0 8.9542064531851793 118.12564122011827 0 118.12564122011827 -50.155558800048311 0 0 0 0 14.078856171341613 101.48690742242616 0 101.48690742242616 -49.066161298463157 0 0 0 0 34.04830837942427 93.75583925547835 0 93.75583925547835 -46.234171960459207 0 0 0 0 18.677906073829945 120.80398956693534 0 120.80398956693534 -84.121271061798325 0 0 0 0 19.22593545478594 114.87283735758319 0 114.87283735758319 -45.133003139024368 0 0 0 0 28.143106029776391 95.814958412694978 0 95.814958412694978 -15.619679550590718 0 0 0 0 49.726278877475124 85.66644020867534 0 85.66644020867534 -140.82861171173863 0 0 0 0 32.174115072295535 97.591345425797044 0 97.591345425797044 -85.910620755339551 0 0 0 0 49.881912115604791 81.414879471672975 0 81.414879471672975 -104.75645790764247 0 0 0 0 39.133031306813791 108.65442227395033 0 108.65442227395033 -86.667960221631802 0 0 0 0 15.738008896893007 100.20849633567559 0 100.20849633567559 -104.13467733380458 0 0 0 0 19.442543696437497 114.31274104057957 0 114.31274104057957 -105.94340504767024 0 0 0 0 38.858296664926456 72.349629270371224 0 72.349629270371224 -191.685370005187 0 0 0 0 39.175983369947062 78.28275979270984 0 78.28275979270984 -123.36212339079066 0 0 0 0 0.72174085713777458 80.274591865188995 0 80.274591865188995 -181.87650410755305 0 0 0 0 4.7409278230043128 92.762738185330818 0 92.762738185330818 -336.3907683911093 0 0 0 0 -23.347844118155081 106.71203408198744 0 106.71203408198744 -149.21954513053061 0 0 0 0 -19.977258427941706 139.71821896308393 0 139.71821896308393 -145.94239777406619 0 0 0 0 -87.117847779474687 132.42143288865918 0 132.42143288865918 -75.497614363041066 0 0 0 0 -75.252836154089891 127.47748886903719 0 127.47748886903719 -123.00721319724107 0 0 0 0 -103.97401066567545 126.84903563182161 0 126.84903563182161 -123.01843566203024 0 0 0 0 -40.337692371060257 101.90745535420137 0 101.90745535420137 -236.9067595414017 0 0 0 0 -64.730049008634523 196.05566358634678 0 196.05566358634678 -441.80508520921285 0 0 0 0 -60.543714708139305 164.39161633051117 0 164.39161633051117 -227.09241347601346 0 0 0 0 -3.2959299297656344 -1.030945326243895 0 -1.030945326243895 0.78995563129032575 0 0 0 0 21.074605905138014 16.113870188099099 0 16.113870188099099 -473.71483253322367 0 0 0 0 14.765493421291467 91.922045474188053 0 91.922045474188053 200.15560906442988 0 0 0 0 73.103231769739068 85.496359638818831 0 85.496359638818831 199.08614673913598 0 0 0 0 2.0848979965085164 -51.667603509560649 0 -51.667603509560649 -202.90513137579546 0 0 0 0 4.9649841341306455 -51.07982201516279 0 -51.07982201516279 -292.96852693153778 0 0 0 0 44.118234069468599 43.470416604042839 0 43.470416604042839 -74.860618192818947 0 0 0 0 11.906949264623108 43.379662329003622 0 43.379662329003622 -26.458654956808459 0 0 0 0 1.4371048378598061 9.8758330821745162 0 9.8758330821745162 2.9851715783926949 0 0 0 0 9.8514457905403106 -1.3101341265210067 0 -1.3101341265210067 -49.794708269160765 0 0 0 0 43.456727321034123 17.484893562133948 0 17.484893562133948 -141.14607519609854 0 0 0 0 -16.333062133316815 54.996549861889946 0 54.996549861889946 -36.034003342742821 0 0 0 0 -5.2428522905247519 124.2359819034973 0 124.2359819034973 -68.644079640803284 0 0 0 0 -189.12417894692771 212.19709384976159 0 212.19709384976159 245.79856268714502 0 0 0 0 28.338375733306748 62.018958751839818 0 62.018958751839818 -121.86400811774365 0 0 0 0 26.298609686465262 43.517735758080519 0 43.517735758080519 -116.91469437665279 0 0 0 0 151.83400038430045 -87.608051116785646 0 -87.608051116785646 -101.32733166986145 0 0 0 0 10.381983420117535 9.2197547781823239 0 9.2197547781823239 -11.805054968022631 0 0 0 0 67.697430783497111 116.29340176920959 0 116.29340176920959 -72.198483370011672 0 0 0 0 -38.771457380134962 10.626116482839279 0 10.626116482839279 -13.00451013231941 0 0 0 0 10.666622267345318 9.6562726731454376 0 9.6562726731454376 -20.240308107147627 0 0 0 0 -89.899215341174568 49.746857302205171 0 49.746857302205171 -20.800820401622332 0 0 0 0 -142.67107726381801 128.03893316661561 0 128.03893316661561 -86.065207082807319 0 0 0 0 -118.37677749567956 79.88917017923086 0 79.88917017923086 -31.00479178241585 0 0 0 0 -289.49032937051379 167.50769406495965 0 167.50769406495965 -109.82490870312904 0 0 0 0 -97.22847030984849 140.5647125079704 0 140.5647125079704 -224.88458340079524 0 0 0 0 -245.34061641740846 239.71836706601607 0 239.71836706601607 -239.36603611455212 0 0 0 0 29.667262124683475 8.2520591955399141 0 8.2520591955399141 -153.08721467271971 0 0 0 0 -33.472656076262751 72.463393141541872 0 72.463393141541872 -58.870048760475498 0 0 0 0 -104.4619250629039 325.02553849632386 0 325.02553849632386 -101.2820871044969 0 0 0 0 -70.738677318120608 172.45654431144794 0 172.45654431144794 -219.94602370505163 0 0 0 0 -140.07567040645517 225.81882795556339 0 225.81882795556339 -177.19314701050598 0 0 0 0 -6.9503214530928545 25.355795662235749 0 25.355795662235749 16.746767265135695 0 0 0 0 352.03815175387717 -57.671555042013097 0 -57.671555042013097 -590.51008713492047 0 0 0 0 -33.009939473471604 366.8121137594062 0 366.8121137594062 398.40839161724034 0 0 0 0 20.338151699215814 146.38159168238235 0 146.38159168238235 -378.37387958433328 0 0 0 0 -104.31392951673479 64.057604655449722 0 64.057604655449722 -401.30088163314213 0 0 0 0 25.433870848239167 374.20649172087724 0 374.20649172087724 100.91104553929836 0 0 0 0 215.65739459962424 144.94104386330218 0 144.94104386330218 106.17161877219041 0 0 0 0 -253.06320852720455 42.437899164578084 0 42.437899164578084 74.087866629444761 0 0 0 0 4.3466993456553098 11.289135616190947 0 11.289135616190947 -6.3625658161632259 0 0 0 0 237.2582685280031 121.67241875710988 0 121.67241875710988 29.580148438792094 0 0 0 0 3.9598852313516204 7.4062583872345158 0 7.4062583872345158 0.087253263752984367 0 0 0 0 204.34272440224049 75.449136765335425 0 75.449136765335425 -33.638995821012941 0 0 0 0 135.36798165725486 132.77584346820549 0 132.77584346820549 -43.558519557096588 0 0 0 0 -72.715681196859805 -13.778595558927918 0 -13.778595558927918 -61.021352934687457 0 0 0 0 2.0816442945506424 98.726564161930582 0 98.726564161930582 -23.9212518123677 0 0 0 0 168.07502804831893 207.91114224194826 0 207.91114224194826 56.816464220821217 0 0 0 0 118.51590044535988 117.13771207160244 0 117.13771207160244 -15.530346441861184 0 0 0 0 180.73373301081483 181.36306285785554 0 181.36306285785554 38.797294023257564 0 0 0 0 144.34027505014456 320.36464644829539 0 320.36464644829539 161.11520363696036 0 0 0 0 274.65896722413891 163.74709147789508 0 163.74709147789508 41.830563636024635 0 0 0 0 468.19830021898088 485.47803921053674 0 485.47803921053674 108.96854158462247 0 0 0 0 566.700856663374 46.733865810045245 0 46.733865810045245 127.71533058978821 0 0 0 0 212.63374906672834 310.26486414770807 0 310.26486414770807 161.80409559337204 0 0 0 0 112.90648710890673 311.34260430011636 0 311.34260430011636 214.24360838850771 0 0 0 0 7.4103929006523686 332.50899740022032 0 332.50899740022032 210.92553641455743 0 0 0 0 117.83788822722272 427.9319262988538 0 427.9319262988538 119.53524305321844 0 0 0 0 -67.213370109819152 408.73201501108088 0 408.73201501108088 313.64159857689083 0 0 0 0 -39.597352824544942 181.79889241130695 0 181.79889241130695 397.5218652710264 0 0 0 0 -32.704734209528397 66.635759238361061 0 66.635759238361061 122.0439951046792 0 0 0 0 -18.961754537158413 177.65077712156562 0 177.65077712156562 116.61354467307319 0 0 0 0 16.951693101218552 218.07191561508262 0 218.07191561508262 152.98864566071097 0 0 0 0 32.0028759966699 168.77976818517664 0 168.77976818517664 117.43978054429681 0 0 0 0 33.59590056759771 107.34263252443543 0 107.34263252443543 34.937621852512166 0 0 0 0 9.1432918239224819 147.33955199198499 0 147.33955199198499 86.283525496894981 0 0 0 0 33.87394360700273 121.82774738354055 0 121.82774738354055 -8.5872974477533717 0 0 0 0 44.920491607830627 239.35330968178459 0 239.35330968178459 247.80698056233814 0 0 0 0 -2.6310618010656412 1.6125681935647549 0 1.6125681935647549 21.616215498457066 0 0 0 0 45.755197748501274 111.18611543817602 0 111.18611543817602 16.498406667531924 0 0 0 0 45.633381782885408 200.70704997246503 0 200.70704997246503 146.6525375135825 0 0 0 0 9.8913055740082712 73.687169563229247 0 73.687169563229247 -41.003826150022725 0 0 0 0 34.34710632803035 141.86914847206208 0 141.86914847206208 0.75808057719405042 0 0 0 0 60.515108740888536 113.57147228409303 0 113.57147228409303 -15.523162460041931 0 0 0 0 -7.4739634152501822 115.99327112117317 0 115.99327112117317 -13.740952638312592 0 0 0 0 -4.8253458610124653 123.08036889892901 0 123.08036889892901 -4.4520522227830952 0 0 0 0 12.708454271247319 72.9057888293828 0 72.9057888293828 41.946587613943848 0 0 0 0 37.697237064625369 43.27656701054002 0 43.27656701054002 -11.415367904439336 0 0 0 0 -17.734247151922318 107.49040197079739 0 107.49040197079739 20.458382053089736 0 0 0 0 3.9994581711500672 46.85740767816597 0 46.85740767816597 -5.0092611958247915 0 0 0 0 -43.589439639486955 51.153417700294085 0 51.153417700294085 17.153492950135842 0 0 0 0 -14.44954048006263 51.349729313243294 0 51.349729313243294 32.059113250832979 0 0 0 0 67.191443744595745 77.227780830027768 0 77.227780830027768 0.024251811439171433 0 0 0 0 -3.8013732785454195 76.577252840741011 0 76.577252840741011 27.532382732030072 0 0 0 0 33.806390544853059 59.905092015457612 0 59.905092015457612 -35.198496423266789 0 0 0 0 39.653828783041916 55.187416146349925 0 55.187416146349925 -8.0795486835133659 0 0 0 0 58.999432533993968 115.69682825986456 0 115.69682825986456 72.20551497859924 0 0 0 0 14.995875770666316 111.51842500623843 0 111.51842500623843 17.428273109468137 0 0 0 0 42.716743898751361 55.107740346955964 0 55.107740346955964 -56.028164013020522 0 0 0 0 117.71998121080105 77.488854733361222 0 77.488854733361222 -71.577396856300766 0 0 0 0 30.01976293331245 130.46758618223248 0 130.46758618223248 73.612451324777794 0 0 0 0 -14.241034245157778 14.206392401583514 0 14.206392401583514 -18.761893468760917 0 0 0 0 82.889129064860754 140.86164980813192 0 140.86164980813192 63.001209686164657 0 0 0 0 16.665798002912197 67.735950648286234 0 67.735950648286234 59.420335242875808 0 0 0 0 68.149209755880293 82.895452494500205 0 82.895452494500205 54.836722888790973 0 0 0 0 -6.5035021438183662 5.2227020794151997 0 5.2227020794151997 -4.4079236621641371 0 0 0 0 0.12404627569776494 71.270469358643822 0 71.270469358643822 77.705917332023091 0 0 0 0 18.469572364891064 -84.997551577293052 0 -84.997551577293052 -540.4635028170851 0 0 0 0 493.99242687571677 567.96158918990477 0 567.96158918990477 -455.66285687030086 0 0 0 0 245.49907628662186 437.23151404612145 0 437.23151404612145 -91.197503402501752 0 0 0 0 329.69493210079963 684.5523878105414 0 684.5523878105414 536.55284570147342 0 0 0 0 178.83295565517619 42.250841786721139 0 42.250841786721139 164.20210852287164 0 0 0 0 263.88470162443264 335.67084059459557 0 335.67084059459557 92.42847712970979 0 0 0 0 70.658461165038375 40.988005218086926 0 40.988005218086926 2.5305037118902973 0 0 0 0 -3.3837190401615089 38.672242363003932 0 38.672242363003932 -19.637161345291929 0 0 0 0 45.449507799639832 -8.3168093601925648 0 -8.3168093601925648 -32.935395381459784 0 0 0 0 90.821300230774796 135.23883822406788 0 135.23883822406788 -9.6378713212834555 0 0 0 0 70.2669506684623 53.621646430777645 0 53.621646430777645 13.631214134133419 0 0 0 0 180.8972693976466 167.73002335993533 0 167.73002335993533 -33.316030911744747 0 0 0 0 -380.14701850761776 177.9523412558101 0 177.9523412558101 32.47643818537108 0 0 0 0 -198.54681978357257 346.80318059827914 0 346.80318059827914 -87.103770290758803 0 0 0 0 10.56557639405969 19.048242022811365 0 19.048242022811365 1.2231457356750113 0 0 0 0 109.79491906365729 -174.59218957260964 0 -174.59218957260964 -40.19998399987162 0 0 0 0 127.26965407731768 108.31914859146082 0 108.31914859146082 -100.26344165237242 0 0 0 0 150.0522690336802 576.57399831752082 0 576.57399831752082 548.56188844771714 0 0 0 0 -55.103223655591137 50.852813842814612 0 50.852813842814612 281.32078705494132 0 0 0 0 41.007763756846145 27.642844734841489 0 27.642844734841489 14.701029823543571 0 0 0 0 -62.985453087778296 359.16944777905701 0 359.16944777905701 776.54610474478523 0 0 0 0 -43.040829697891354 -2.5112489183135409 0 -2.5112489183135409 13.741463601569045 0 0 0 0 10.724354358782875 142.53251703705428 0 142.53251703705428 155.11219459869244 0 0 0 0 78.152486028935527 89.467285702688969 0 89.467285702688969 -110.7293971993895 0 0 0 0 76.018124107034964 58.315476408727136 0 58.315476408727136 -77.700763471169921 0 0 0 0 34.509232273441739 77.728551576448808 0 77.728551576448808 37.934119060042576 0 0 0 0 -0.051320529004442506 109.13922438759801 0 109.13922438759801 -8.2104605613312742 0 0 0 0 49.937441257818136 97.30341630284147 0 97.30341630284147 -143.72925310772553 0 0 0 0 1.0087085809061591 -1.2227015529058889 0 -1.2227015529058889 9.7196575152185716 0 0 0 0 0.025183061137795448 39.683747892075189 0 39.683747892075189 35.942726755842159 0 0 0 0 -0.67085006138029257 2.1970973463500485 0 2.1970973463500485 14.758625457850314 0 0 0 0 16.065109078888781 9.5884021834717714 0 9.5884021834717714 -206.10584705881047 0 0 0 0 -71.642049450485501 77.044147313157737 0 77.044147313157737 1170.1599305890686 0 0 0 0 194.60325871132954 237.01504894196023 0 237.01504894196023 -200.65589949090281 0 0 0 0 -0.10231732726970222 325.5429621324929 0 325.5429621324929 421.96550821001074 0 0 0 0 -146.95928175735753 43.750812939259049 0 43.750812939259049 611.28835726926627 0 0 0 0 -0.84708650763263904 -1.7935498569390589 0 -1.7935498569390589 0.64323941178222777 0 0 0 0 106.43061462962942 182.94121016535132 0 182.94121016535132 -3.4210684917106846 0 0 0 0 0.27307749212777294 253.96986930490777 0 253.96986930490777 58.815676438511218 0 0 0 0 -0.025570293061150551 -3.7034471517149257 0 -3.7034471517149257 0.028696927310766895 0 0 0 0 -73.701022484980058 -57.153137056155174 0 -57.153137056155174 704.34889535236971 0 0 0 0 20.722372881980846 90.533901209680153 0 90.533901209680153 -171.15314882031771 0 0 0 0 21.295750259654596 340.56580419978536 0 340.56580419978536 -325.61093230568986 0 0 0 0 -203.73151016558404 122.25929164216996 0 122.25929164216996 -10.469542433204879 0 0 0 0 -213.56173216807656 232.99648579875384 0 232.99648579875384 -328.83353723797973 0 0 0 0 -56.218037631433617 309.27115448402566 0 309.27115448402566 -406.84923550984058 0 0 0 0 -253.32174308027606 362.98005611420513 0 362.98005611420513 -310.35352460521011 0 0 0 0 -424.86489327912568 234.5255267950719 0 234.5255267950719 -372.51222170479832 0 0 0 0 -289.32865380041767 375.108414640104 0 375.108414640104 -364.10242365683462 0 0 0 0 -212.63074916112237 249.4666312969016 0 249.4666312969016 -270.67935566754545 0 0 0 0 0.046424437692621723 266.15373955362111 0 266.15373955362111 -317.69441432752501 0 0 0 0 -51.706077637092676 239.37855145311619 0 239.37855145311619 -308.62806077758626 0 0 0 0 7.1340707853669301 24.569632521326639 0 24.569632521326639 -143.21052156721453 0 0 0 0 38.927465087326709 35.181671888050914 0 35.181671888050914 -144.48162826980115 0 0 0 0 11.67129906185437 47.15175254740916 0 47.15175254740916 -58.831822146937157 0 0 0 0 148.47709275106899 115.99252783738029 0 115.99252783738029 -162.75338778990044 0 0 0 0 3.8018700460743275 -0.72673835631337624 0 -0.72673835631337624 -4.6607249708353127 0 0 0 0 179.49732434184989 5.5191315061620116 0 5.5191315061620116 -15.096424690020285 0 0 0 0 3.3976908569457009 13.268358899845225 0 13.268358899845225 8.5417471113414649 0 0 0 0 17.021115580467438 17.090013642730611 0 17.090013642730611 -2.7025048176937378 0 0 0 0 -0.59927860375375985 1.1142215623487175 0 1.1142215623487175 3.1587944831557326 0 0 0 0 -171.39732782868668 -169.85816855318444 0 -169.85816855318444 339.4851993724842 0 0 0 0 -0.71319357140288275 5.8178466727343618 0 5.8178466727343618 7.8309682059616499 0 0 0 0 -18.922855941331363 122.1964287982421 0 122.1964287982421 -332.88757836765672 0 0 0 0 5.5673654556358088 -22.39621153778171 0 -22.39621153778171 -130.45718465439313 0 0 0 0 77.274786330293864 68.511543868986337 0 68.511543868986337 -42.96118070331795 0 0 0 0 122.96394753851928 -136.44397974274943 0 -136.44397974274943 -430.81486191740623 0 0 0 0 -903.23393098899396 619.61585853840052 0 619.61585853840052 -221.06569555645092 0 0 0 0 -458.20336829505686 387.60086910185146 0 387.60086910185146 -101.45129332001579 0 0 0 0 39.783734960947186 25.386548187876542 0 25.386548187876542 -166.78961408368832 0 0 0 0 160.97319162059284 -28.125825788617931 0 -28.125825788617931 -256.05442654831495 0 0 0 0 1.0248828855326906 1.7344218083675287 0 1.7344218083675287 -6.9197136942058428 0 0 0 0 -358.30372449500646 680.03329421060528 0 680.03329421060528 -533.59262394882899 0 0 0 0 13.322964557999512 289.6599631568115 0 289.6599631568115 -662.47249179381333 0 0 0 0 69.346953278582077 325.50049006163863 0 325.50049006163863 -640.84828511546857 0 0 0 0 142.63039290788583 32.493274459325221 0 32.493274459325221 -418.14274749845572 0 0 0 0 47.668976125598419 118.77811943352026 0 118.77811943352026 -204.79332082009023 0 0 0 0 59.759838198500802 54.780020773273918 0 54.780020773273918 -203.42327751529592 0 0 0 0 105.63772045699443 179.41902014326888 0 179.41902014326888 -257.81182118058496 0 0 0 0 98.129265438125003 186.55833509723107 0 186.55833509723107 -230.39895516991237 0 0 0 0 -247.70230798149714 414.79021441934128 0 414.79021441934128 -146.04933221179635 0 0 0 0 -104.3046936984465 398.00018271258932 0 398.00018271258932 -70.168045207319665 0 0 0 0 -32.779658826475497 406.17699762643861 0 406.17699762643861 -215.52102418979393 0 0 0 0 -151.91342145495582 560.42424577177007 0 560.42424577177007 -408.49544828064791 0 0 0 0 -101.01391071267426 557.05308692205108 0 557.05308692205108 -10.296620103258647 0 0 0 0 -382.60943407769082 54.452968177429284 0 54.452968177429284 630.92416170199431 0 0 0 0 -682.07250006163667 227.05537511046032 0 227.05537511046032 -41.685849182680613 0 0 0 0 132.53298227064079 213.74740102141914 0 213.74740102141914 -73.539742741016653 0 0 0 0 -81.104019066199612 10.505193335167384 0 10.505193335167384 4.8677664807830006 0 0 0 0 165.77020037472539 193.3891559204767 0 193.3891559204767 369.54178840488203 0 0 0 0 -105.49183728621574 274.20815348945416 0 274.20815348945416 1155.6319616566343 0 0 0 0 174.57740892766742 267.41039937648748 0 267.41039937648748 1057.1098005659214 0 0 0 0 -0.35195268882660002 -1.4603004605196404 0 -1.4603004605196404 0.41260052142500214 0 0 0 0 1076.0613071040716 809.05584327890756 0 809.05584327890756 -1339.2557817154811 0 0 0 0 -798.0058243234671 -1160.8052616052219 0 -1160.8052616052219 620.70648812467334 0 0 0 0 -102.82455995129675 14.785442845757686 0 14.785442845757686 3.6903320719220929 0 0 0 0 -229.80237964424305 699.31509901317895 0 699.31509901317895 604.79150354495323 0 0 0 0 -864.16085849644151 332.15975503985828 0 332.15975503985828 1318.5555757295056 0 0 0 0 101.75452886798303 241.42906537791532 0 241.42906537791532 144.05369378910342 0 0 0 0 -251.4324333347613 -4.776306184535315 0 -4.776306184535315 10.307352913845534 0 0 0 0 -205.64381015895196 -172.3819176622103 0 -172.3819176622103 304.86196809441753 0 0 0 0 -96.506195884518092 156.72900891627614 0 156.72900891627614 141.2931780435074 0 0 0 0 -99.567819627396773 20.83462606839911 0 20.83462606839911 12.200154652213993 0 0 0 0 -15.038717720643035 223.60971259432927 0 223.60971259432927 168.86967593802365 0 0 0 0 -145.72495317744324 337.95084232608315 0 337.95084232608315 659.4840936086664 0 0 0 0 -105.49265468445083 541.14907887951608 0 541.14907887951608 130.99661693710004 0 0 0 0 38.885962543456117 148.07033716260503 0 148.07033716260503 177.979420713531 0 0 0 0 67.382610601605847 264.99882283939769 0 264.99882283939769 96.787097791349879 0 0 0 0 87.8386559492792 244.61956091377306 0 244.61956091377306 -110.77151676571339 0 0 0 0 -1.1394972982961917 287.69909119280874 0 287.69909119280874 165.98247613058629 0 0 0 0 101.96945790428435 156.17630914629217 0 156.17630914629217 -81.986321770000359 0 0 0 0 135.44807822759321 39.765141673256721 0 39.765141673256721 -98.286136591697868 0 0 0 0 85.392267932707909 116.80505534842177 0 116.80505534842177 -142.13569645206735 0 0 0 0 83.159099894826795 154.46077701723689 0 154.46077701723689 -12.390340733258199 0 0 0 0 37.557455152564216 160.15133923323083 0 160.15133923323083 -12.493519113646471 0 0 0 0 -41.645442352630198 140.01300470214755 0 140.01300470214755 30.236081007049506 0 0 0 0 28.436960712468135 126.81812939609472 0 126.81812939609472 -44.053511722811891 0 0 0 0 41.902701730850822 201.82799310124938 0 201.82799310124938 52.383089449065665 0 0 0 0 26.272582499892451 109.71871037172332 0 109.71871037172332 -47.476458536191785 0 0 0 0 40.157895169744734 72.085022443783146 0 72.085022443783146 -60.96786593253637 0 0 0 0 19.705576440028381 36.565716978595447 0 36.565716978595447 41.996058169451544 0 0 0 0 15.048063860886032 121.29869065400635 0 121.29869065400635 -38.5003989249808 0 0 0 0 39.318689585719767 38.720254842347828 0 38.720254842347828 27.418532359540517 0 0 0 0 8.9883048175610156 12.64586507293572 0 12.64586507293572 12.257767990887601 0 0 0 0 -41.495471779664513 87.073862539742549 0 87.073862539742549 36.829113776146073 0 0 0 0 26.809136236319318 128.6202804921918 0 128.6202804921918 -60.951943252566707 0 0 0 0 74.413121006567962 66.461139789401386 0 66.461139789401386 0.85485252281523572 0 0 0 0 56.390895277261734 59.254771469513798 0 59.254771469513798 -30.815142493216626 0 0 0 0 54.763326821528608 51.268899749379671 0 51.268899749379671 -61.976848107851765 0 0 0 0 -1.3627602980122901 104.06508801590007 0 104.06508801590007 -43.177486617168597 0 0 0 0 -29.129497414502111 54.727235529706832 0 54.727235529706832 71.249530977256654 0 0 0 0 -9.4265395972561805 27.745141659827397 0 27.745141659827397 27.502973085766417 0 0 0 0 3.6870443423977122 -9.9205965165947418 0 -9.9205965165947418 62.439691739225964 0 0 0 0 -142.27290426447871 77.255264086712486 0 77.255264086712486 84.046568166213547 0 0 0 0 116.50828291650396 20.093106441067903 0 20.093106441067903 -75.436141732543547 0 0 0 0 -12.753098556921898 -0.79129650561560538 0 -0.79129650561560538 0.81466457132076897 0 0 0 0 -13.343885064416099 24.844249028566708 0 24.844249028566708 32.847251449826217 0 0 0 0 -40.901968746412422 123.11391113479951 0 123.11391113479951 44.364702302351361 0 0 0 0 20.347041808883034 32.740516169864009 0 32.740516169864009 36.234812165761376 0 0 0 0 -146.31076022627531 97.316696392927042 0 97.316696392927042 81.924251945099968 0 0 0 0 -12.57446617652306 30.673788616296548 0 30.673788616296548 47.226200531660758 0 0 0 0 19.166734020429431 38.779784472068059 0 38.779784472068059 62.072620337776243 0 0 0 0 32.674269951996394 14.700955903314025 0 14.700955903314025 73.045745941155474 0 0 0 0 12.675033011917947 28.354249599878386 0 28.354249599878386 22.530226730961612 0 0 0 0 -2.714269697011332 28.575493975307154 0 28.575493975307154 20.161348211938503 0 0 0 0 -35.671399546182357 35.104811992326518 0 35.104811992326518 45.207339210558857 0 0 0 0 -20.419366823838971 22.846308566773686 0 22.846308566773686 25.077724921891615 0 0 0 0 -32.625666589156026 25.937825066116943 0 25.937825066116943 42.04978872012839 0 0 0 0 -17.864271470661635 -2.7819829960713776 0 -2.7819829960713776 31.916171917597236 0 0 0 0 -27.955652769116568 13.96986587237916 0 13.96986587237916 50.327676391496425 0 0 0 0 -7.6457437570158504 3.113413371565386 0 3.113413371565386 5.224603681808329 0 0 0 0 604.32652880816022 -320.56405052622176 0 -320.56405052622176 -215.03984526925797 0 0 0 0 -1.1180442803140522 8.2224690210883153 0 8.2224690210883153 3.7894102074799907 0 0 0 0 -5.3368360938984551 34.31630615756518 0 34.31630615756518 28.937275031944864 0 0 0 0 1593.869293859665 408.85677324260269 0 408.85677324260269 36.743745039870191 0 0 0 0 -300.71933202049695 -35.174546522038327 0 -35.174546522038327 1442.9414742847603 0 0 0 0 -1.1371118881215807 554.44900809683713 0 554.44900809683713 1512.3328353186407 0 0 0 0 2329.2917202183212 559.56465109508008 0 559.56465109508008 280.42442095174192 0 0 0 0 310.64947985862091 -547.75325405445619 0 -547.75325405445619 -305.23315264820667 0 0 0 0 -1282.2315928638563 -151.72999545245148 0 -151.72999545245148 951.2786762367823 0 0 0 0 -1103.9756822180061 32.456476853476488 0 32.456476853476488 1775.6026866399006 0 0 0 0 -370.8403932825895 -211.28362782292606 0 -211.28362782292606 949.41444572790988 0 0 0 0 -96.851103473607509 -322.26656007206998 0 -322.26656007206998 356.81199911604381 0 0 0 0 109.69992291054223 820.70005870361911 0 820.70005870361911 1546.0118265147394 0 0 0 0 -4.0660604095610324 34.260998385045241 0 34.260998385045241 1113.4190093278175 0 0 0 0 -216.93573281800491 330.24053883189936 0 330.24053883189936 812.76052430048821 0 0 0 0 -83.440731657843571 -441.0109795856979 0 -441.0109795856979 -351.52435909755241 0 0 0 0 4.147332044383802 -92.091239207739818 0 -92.091239207739818 587.73581447277502 0 0 0 0 -6.7059830762189563 0.81027879057347718 0 0.81027879057347718 6.1339848926445946 0 0 0 0 -3.0165971784044245 1.157300212196958 0 1.157300212196958 10.103557208870662 0 0 0 0 -711.87512605794473 975.4984427300551 0 975.4984427300551 1015.5774300524317 0 0 0 0 -637.87268935528118 269.89881118501216 0 269.89881118501216 15.155711168858943 0 0 0 0 -229.30043528046372 222.82235543838215 0 222.82235543838215 -296.8023320835091 0 0 0 0 -804.32795234685182 -282.57606004516128 0 -282.57606004516128 161.64540279509947 0 0 0 0 -506.72571712778881 30.348691472545397 0 30.348691472545397 -132.09040490266761 0 0 0 0 -567.38318196394903 247.39949321095219 0 247.39949321095219 -385.52891860987802 0 0 0 0 185.57794823398581 1590.0553723897156 0 1590.0553723897156 -1565.8205519634885 0 0 0 0 67.068104121903673 45.227614776678351 0 45.227614776678351 18.707310264627978 0 0 0 0 1171.1037449255819 425.93825880447548 0 425.93825880447548 184.81369707588237 0 0 0 0 -1307.9594739701715 1601.0361655224679 0 1601.0361655224679 -15.659553615038931 0 0 0 0 150.8623240652596 449.61322367665889 0 449.61322367665889 869.99033955328196 0 0 0 0 199.85953143352526 128.58504836928114 0 128.58504836928114 1352.676548094134 0 0 0 0 1.3332136245953734 213.21271313334091 0 213.21271313334091 764.18438209360465 0 0 0 0 392.58150977050536 1267.6728428179358 0 1267.6728428179358 395.27422085610669 0 0 0 0 122.52663788650534 836.10989158735356 0 836.10989158735356 1113.28643317159 0 0 0 0 679.01258640435117 1566.2900537243568 0 1566.2900537243568 1334.6136362184516 0 0 0 0 484.3495999211591 1665.2573204361815 0 1665.2573204361815 1740.3415116986589 0 0 0 0 1728.2336907115969 2836.6543582102167 0 2836.6543582102167 2871.6072301530512 0 0 0 0 2159.958562159969 1430.5170916188654 0 1430.5170916188654 1431.3257981761781 0 0 0 0 2875.2690061818066 1651.009419756444 0 1651.009419756444 851.63713635275053 0 0 0 0 7143.9540358227387 4218.5718939157414 0 4218.5718939157414 2597.8605349899481 0 0 0 0 4689.5047732830872 3419.3355863557053 0 3419.3355863557053 -2568.0506364653411 0 0 0 0 -50.351211458793841 479.96502498211339 0 479.96502498211339 3833.4520934443544 0 0 0 0 33.075615385032677 17.468687135827267 0 17.468687135827267 7.6015982272155895 0 0 0 0 389.78088492780807 1969.8336584334611 0 1969.8336584334611 6706.5591035000489 0 0 0 0 1.6787587250717024 4.033167188490097 0 4.033167188490097 1.2026099909116112 0 0 0 0 -471.79051320350845 928.32674964224407 0 928.32674964224407 925.37839848722706 0 0 0 0 -3015.8857690038494 -677.44597412670828 0 -677.44597412670828 -3426.0095903240472 0 0 0 0 -1874.2922233379941 992.95795559509043 0 992.95795559509043 -981.87977169623446 0 0 0 0 4694.0679811666378 3236.2030169519326 0 3236.2030169519326 2440.0388283654393 0 0 0 0 3867.194356983644 -378.81337354306379 0 -378.81337354306379 121.59165296358697 0 0 0 0 -4357.9617933645786 1766.0385612616437 0 1766.0385612616437 3825.7236508996211 0 0 0 0 9.4803358190875002 26.650778840181459 0 26.650778840181459 37.58771465129751 0 0 0 0 3247.6051435415575 774.20415020588189 0 774.20415020588189 48.387022112881823 0 0 0 0 644.06472477885836 -194.05628850608082 0 -194.05628850608082 1046.740951733922 0 0 0 0 -2390.9107446716662 1395.528810119984 0 1395.528810119984 -550.26183608309475 0 0 0 0 16.273256787091739 54.08243433260219 0 54.08243433260219 83.262684197907632 0 0 0 0 -228.03680070961127 1019.7799846815542 0 1019.7799846815542 -1295.3309008624992 0 0 0 0 500.24114652301068 830.21026743900711 0 830.21026743900711 -1216.7487767977145 0 0 0 0 -184.01429188884504 241.84966823551804 0 241.84966823551804 -331.05164255388445 0 0 0 0 8.1593916448924233 5.1242543347353973 0 5.1242543347353973 0.42602188583787814 0 0 0 0 222.80541148179327 321.49253685461053 0 321.49253685461053 -425.11348234745174 0 0 0 0 -320.74856437488779 1206.9600183783698 0 1206.9600183783698 1439.0078434517673 0 0 0 0 61.510064934467664 1462.7180765574358 0 1462.7180765574358 1371.9978583081911 0 0 0 0 348.31853616089211 834.79721172216296 0 834.79721172216296 959.60498400160941 0 0 0 0 1242.0257113555999 1172.7309475168759 0 1172.7309475168759 728.65560592390557 0 0 0 0 898.5495806002582 1986.0362686454141 0 1986.0362686454141 2579.5240232252704 0 0 0 0 428.89935601096659 2194.6676376258943 0 2194.6676376258943 2566.580247886699 0 0 0 0 -836.02808152401121 2543.6763101814981 0 2543.6763101814981 3203.9938662071063 0 0 0 0 918.15149453890626 2898.3847163423588 0 2898.3847163423588 2708.4590122354994 0 0 0 0 986.11502280388959 2693.0629384453218 0 2693.0629384453218 1695.5695477058553 0 0 0 0 -4159.4608717011433 1944.678680703782 0 1944.678680703782 3079.5851138521175 0 0 0 0 371.43582901223272 3786.1534387842376 0 3786.1534387842376 3727.8358701558591 0 0 0 0 7702.9128420399793 4381.8053487480838 0 4381.8053487480838 1147.7213178373404 0 0 0 0 2303.1652326931253 2391.0105375879925 0 2391.0105375879925 4972.102369186483 0 0 0 0 3644.8399092874024 1218.9978144831857 0 1218.9978144831857 1074.7207219470965 0 0 0 0 3385.1070335928816 3860.4351064255306 0 3860.4351064255306 2250.9632139621808 0 0 0 0 822.06473122158786 1083.7558705760748 0 1083.7558705760748 1242.1732945802328 0 0 0 0 1026.757317486612 1378.4707343331193 0 1378.4707343331193 1819.5312527511792 0 0 0 0 1419.0068234525388 984.47988858825556 0 984.47988858825556 700.06071761255771 0 0 0 0 -399.37428847455885 1246.6895342481366 0 1246.6895342481366 909.58365770619912 0 0 0 0 1697.7153263944492 2345.9872587875534 0 2345.9872587875534 1864.7214387264667 0 0 0 0 10.809418406674013 3.7553966422003953 0 3.7553966422003953 -14.783318473288158 0 0 0 0 883.35758322697075 1631.680322010759 0 1631.680322010759 1525.4903197397794 0 0 0 0 682.21170246953261 1731.6470591094348 0 1731.6470591094348 2908.5264996324186 0 0 0 0 432.33681221498409 2388.8041803596016 0 2388.8041803596016 2230.3280971610184 0 0 0 0 38.898307399707846 44.438468269016084 0 44.438468269016084 30.865582187971086 0 0 0 0 23.52982454282278 27.174476767991422 0 27.174476767991422 -14.531314626040356 0 0 0 0 17.334731481940253 66.199626981801885 0 66.199626981801885 54.766092388726975 0 0 0 0 22.468282710848143 55.18507400622093 0 55.18507400622093 47.690613100785868 0 0 0 0 15.555825770745287 54.021311414412594 0 54.021311414412594 47.509496849083007 0 0 0 0 19.135677261423552 47.925467291586756 0 47.925467291586756 43.060487962296975 0 0 0 0 35.038862827117555 49.929416280335317 0 49.929416280335317 42.961224491923701 0 0 0 0 -5.5692686831173432 18.892215854942123 0 18.892215854942123 -3.4485468188123463 0 0 0 0 -17.997741394516197 31.846831091716467 0 31.846831091716467 186.29693539227992 0 0 0 0 102.83189783641137 -114.09644358952028 0 -114.09644358952028 93.691642871845033 0 0 0 0 -72.544591466576094 76.100508183433703 0 76.100508183433703 1032.675227919739 0 0 0 0 2.3205433842119305 13.354153684685002 0 13.354153684685002 -10.68997816554333 0 0 0 0 1.5992713385785464 112.37719664229553 0 112.37719664229553 130.16246440292252 0 0 0 0 33.588691236416707 32.225114504639606 0 32.225114504639606 85.366823964712239 0 0 0 0 -18.343045832007192 252.83720135926887 0 252.83720135926887 187.60503237970261 0 0 0 0 -84.814903254005912 178.94293595047543 0 178.94293595047543 540.18561949191644 0 0 0 0 313.37713214289397 518.41609647678342 0 518.41609647678342 -0.40213351676538878 0 0 0 0 -27.193509557386278 682.53290385800119 0 682.53290385800119 83.817153645719372 0 0 0 0 232.23680438424344 181.77665156387502 0 181.77665156387502 -4.9569236304851074 0 0 0 0 219.74768053359003 280.07610972900738 0 280.07610972900738 -545.34954884456965 0 0 0 0 505.24932322911627 609.6937783925332 0 609.6937783925332 -1184.4206783587542 0 0 0 0 409.43270481968648 10.487438221280172 0 10.487438221280172 -1108.5949641502666 0 0 0 0 -258.81707512511639 -1677.1834727547594 0 -1677.1834727547594 -2988.8422040608712 0 0 0 0 -165.05253516259836 156.38981115133993 0 156.38981115133993 45.923594492156553 0 0 0 0 1.1487413833709184 2.2776248594706487 0 2.2776248594706487 6.6529368808411249 0 0 0 0 -47.452993664599489 99.714081243499095 0 99.714081243499095 -36.598845585829622 0 0 0 0 338.42337318055797 1183.3088343345808 0 1183.3088343345808 -96.015802191119292 0 0 0 0 -42.05925976333674 660.08630851219277 0 660.08630851219277 1048.6235946809779 0 0 0 0 58.430822834576247 107.00390269384752 0 107.00390269384752 -238.41012529293948 0 0 0 0 11.985271074635534 9.7574836420462674 0 9.7574836420462674 -7.8847069880157488 0 0 0 0 172.96026049702778 174.75735891854947 0 174.75735891854947 253.00923373062415 0 0 0 0 89.199081310944166 99.755745019730966 0 99.755745019730966 135.29912478046299 0 0 0 0 107.26394778335816 43.153084112654142 0 43.153084112654142 -158.21225945329707 0 0 0 0 107.43892314653931 53.883884901459851 0 53.883884901459851 18.785661144702317 0 0 0 0 205.3217561916681 78.619434280300993 0 78.619434280300993 -263.03030002228076 0 0 0 0 62.420059867043165 131.35107999094771 0 131.35107999094771 4.471897446352159 0 0 0 0 -99.099901602428872 37.720923759137804 0 37.720923759137804 207.5230186855697 0 0 0 0 1193.7412385378775 1275.8804208574429 0 1275.8804208574429 3760.6381362017341 0 0 0 0 19.949429984091182 18.182231683781382 0 18.182231683781382 -11.631811182069857 0 0 0 0 46.301010080802371 34.045098858641722 0 34.045098858641722 -23.890541853715149 0 0 0 0 843.5638614698546 1833.4876893997098 0 1833.4876893997098 3586.3714928709414 0 0 0 0 459.50750458973926 1523.0623348117228 0 1523.0623348117228 3351.5499311103845 0 0 0 0 392.90181636527996 2054.6766405539661 0 2054.6766405539661 3222.9548137096913 0 0 0 0 806.85845242779033 2144.0654016547205 0 2144.0654016547205 3931.1357548450083 0 0 0 0 361.23643435520353 751.35149865535823 0 751.35149865535823 2213.6304612069703 0 0 0 0 1323.2012744964159 2368.3469326439299 0 2368.3469326439299 2835.0613478273699 0 0 0 0 23.36680245659312 14.002487136711892 0 14.002487136711892 9.9928514419398446 0 0 0 0 2549.372214129864 2742.8303131730672 0 2742.8303131730672 4837.4790418931916 0 0 0 0 3028.6063579740294 2776.5023714983695 0 2776.5023714983695 2298.4502115199166 0 0 0 0 2337.4695407624067 4117.6903568896296 0 4117.6903568896296 3927.0833209053581 0 0 0 0 2973.1188873269566 2591.7564248399131 0 2591.7564248399131 4057.0860960892232 0 0 0 0 9.721338027573097 8.0112745821838445 0 8.0112745821838445 -1.9289579372708312 0 0 0 0 247.86207687326532 -133.31772175203059 0 -133.31772175203059 -105.80401981808791 0 0 0 0 544.44294018499204 16.972279415021148 0 16.972279415021148 -51.190888366502804 0 0 0 0 2449.4434952612501 3024.6991394684155 0 3024.6991394684155 4365.2146547061302 0 0 0 0 2141.066531685341 2253.9417092045073 0 2253.9417092045073 2364.8448748254432 0 0 0 0 3807.9967184593406 1944.1864546007441 0 1944.1864546007441 2317.3778168175495 0 0 0 0 2346.1744839127641 1851.2504325428526 0 1851.2504325428526 1891.8672072682821 0 0 0 0 2427.9472515560919 1952.8962083704973 0 1952.8962083704973 1550.4960585705376 0 0 0 0 2176.4867671576794 2382.2049531990019 0 2382.2049531990019 1821.5313069365757 0 0 0 0 10.283063047567509 5.7891040242855638 0 5.7891040242855638 -3.7944476242733742 0 0 0 0 1363.5012417028483 2208.7495539553984 0 2208.7495539553984 2139.5634417897918 0 0 0 0 909.19399412198209 2160.9815362209174 0 2160.9815362209174 2170.6300140055428 0 0 0 0 1362.8722501653829 2220.8418017588292 0 2220.8418017588292 2664.7681597041656 0 0 0 0 2186.661261999514 2602.5514419576184 0 2602.5514419576184 1944.6168310419507 0 0 0 0 2603.8038936501034 3492.2003232910779 0 3492.2003232910779 3755.9764972986704 0 0 0 0 265.70680248626741 1752.6935551124479 0 1752.6935551124479 3622.4764968687796 0 0 0 0 -172.87472513801185 273.19889366285315 0 273.19889366285315 2114.5365295679094 0 0 0 0 553.90408296417445 442.43023370674928 0 442.43023370674928 553.57146614355952 0 0 0 0 260.33274298381002 1630.2327659680232 0 1630.2327659680232 6365.0171026101107 0 0 0 0 24.007268644846135 18.290388522532325 0 18.290388522532325 11.765368256242764 0 0 0 0 2132.211811764756 1889.2528387095845 0 1889.2528387095845 -906.50141807266118 0 0 0 0 -76.450755887199193 -183.64169615446554 0 -183.64169615446554 243.8352747919871 0 0 0 0 1155.0182185331923 368.3743845221282 0 368.3743845221282 447.65990526680434 0 0 0 0 -240.15556710108649 -320.28233289308628 0 -320.28233289308628 317.0095316318118 0 0 0 0 -156.42561207932886 -311.8381182037183 0 -311.8381182037183 120.76462601553976 0 0 0 0 -321.09016736317426 -281.28296539018811 0 -281.28296539018811 1044.0610188937881 0 0 0 0 -250.87765740661416 -860.05110952134601 0 -860.05110952134601 469.84909378532939 0 0 0 0 -627.7876564070466 388.5472262653293 0 388.5472262653293 -29.056632687468664 0 0 0 0 -650.41002508360543 84.188799128194205 0 84.188799128194205 406.11074303377973 0 0 0 0 -347.85452372385771 -146.49678216179677 0 -146.49678216179677 77.431454565776221 0 0 0 0 -309.62314705341123 118.18581588950656 0 118.18581588950656 121.17885830589967 0 0 0 0 -289.61773105227621 36.506259794554353 0 36.506259794554353 32.626131766545768 0 0 0 0 -75.412788099667523 52.160179614162189 0 52.160179614162189 -44.252595139858158 0 0 0 0 -248.83695245426497 60.31719708081755 0 60.31719708081755 -41.335373200696267 0 0 0 0 -76.731302521890029 -236.65569294792022 0 -236.65569294792022 -29.240777484652426 0 0 0 0 -68.318508348296746 -97.902236846999585 0 -97.902236846999585 -177.0014774491101 0 0 0 0 16.874532410234679 -138.57105483635496 0 -138.57105483635496 -288.65101408772989 0 0 0 0 0.73226862581213936 55.073950158777734 0 55.073950158777734 -207.46464458534319 0 0 0 0 20.029459064389812 31.945373628318066 0 31.945373628318066 -338.27640455532674 0 0 0 0 -121.03884917568939 -18.886665580918361 0 -18.886665580918361 -148.70266218200777 0 0 0 0 14.682921470259316 86.1647880134351 0 86.1647880134351 -138.17500984241451 0 0 0 0 -82.78175809016102 149.73432842306556 0 149.73432842306556 99.228972690556475 0 0 0 0 21.381006726645865 216.40018911170228 0 216.40018911170228 -42.446243355901913 0 0 0 0 -217.45292264246382 560.08370232106427 0 560.08370232106427 -2.9397356535300787 0 0 0 0 -51.002016201091465 99.958663633764445 0 99.958663633764445 -44.330440262092452 0 0 0 0 19.179060935974121 109.14302503099498 0 109.14302503099498 -216.31939374683134 0 0 0 0 51.369574330805335 175.0237112117884 0 175.0237112117884 -117.46039583331731 0 0 0 0 318.02096669902676 -66.288532362239494 0 -66.288532362239494 83.04450906719353 0 0 0 0 11.284878470968579 8.6196002111111625 0 8.6196002111111625 4.5480242494302932 0 0 0 0 -221.08245366100471 133.85634740445755 0 133.85634740445755 -912.96691603053659 0 0 0 0 368.99589142779587 -172.08444434034755 0 -172.08444434034755 57.966136853975513 0 0 0 0 407.79639129788848 -174.59281991552598 0 -174.59281991552598 55.710335915118321 0 0 0 0 207.26783368637552 -190.34129299182314 0 -190.34129299182314 16.907171208694308 0 0 0 0 353.64493580369162 40.505368742681185 0 40.505368742681185 363.32509355344337 0 0 0 0 160.0075772437267 -36.554421866510893 0 -36.554421866510893 -689.19665640558378 0 0 0 0 -376.69105793256313 1359.4764900364371 0 1359.4764900364371 457.48358565711806 0 0 0 0 40.053890461311994 30.547000741561007 0 30.547000741561007 20.958998877852743 0 0 0 0 50.06050270202104 71.865535496890516 0 71.865535496890516 -405.33381156390169 0 0 0 0 126.90490672527812 -240.25275949070419 0 -240.25275949070419 -612.42759216735067 0 0 0 0 27.016917381879466 -179.06901744040078 0 -179.06901744040078 -229.13862391598013 0 0 0 0 -72.190688433503965 -436.033077394065 0 -436.033077394065 112.28605840435193 0 0 0 0 -85.645511601003818 -284.83322893755576 0 -284.83322893755576 -288.73122709670497 0 0 0 0 224.95028137086774 -482.77517703300782 0 -482.77517703300782 -979.14072520985428 0 0 0 0 22.109741547843441 -871.19575499082566 0 -871.19575499082566 -594.2857658018911 0 0 0 0 154.56850133201806 -370.90754360246319 0 -370.90754360246319 -324.76320881476204 0 0 0 0 -18.112484046170721 -530.89526335833034 0 -530.89526335833034 122.18036004326132 0 0 0 0 41.674297256744467 -554.81414853232855 0 -554.81414853232855 -384.75766440956431 0 0 0 0 -109.45036597602302 -907.84120467023968 0 -907.84120467023968 68.882333608151384 0 0 0 0 1893.1178267310024 -626.61539812230421 0 -626.61539812230421 -339.9152960830279 0 0 0 0 -481.05801730009262 -1075.9060559716963 0 -1075.9060559716963 770.59531067479838 0 0 0 0 -1783.6856761509698 -573.32761386805055 0 -573.32761386805055 2705.8635271288877 0 0 0 0 3111.4875832210237 655.22573187304658 0 655.22573187304658 50.612582112074051 0 0 0 0 2461.5176503549737 2575.8090491493467 0 2575.8090491493467 2260.7336212779974 0 0 0 0 711.04298080457374 -136.35621147780284 0 -136.35621147780284 472.34510717611511 0 0 0 0 1216.3715630760562 90.440272827819626 0 90.440272827819626 -189.14047964873771 0 0 0 0 898.92374772756011 -321.31689297094181 0 -321.31689297094181 90.364329702794748 0 0 0 0 324.23770088679157 210.52370493179205 0 210.52370493179205 1177.3604266277835 0 0 0 0 237.52941629089764 -162.66086295469722 0 -162.66086295469722 395.99290469082916 0 0 0 0 349.20909499918343 -578.99165865729628 0 -578.99165865729628 905.74263331338875 0 0 0 0 445.74917324954004 -76.845291440601613 0 -76.845291440601613 244.14855233622256 0 0 0 0 498.72420842954307 -287.80281205697156 0 -287.80281205697156 28.187211409050178 0 0 0 0 560.60463774397067 -48.091637100724029 0 -48.091637100724029 -111.36863316516974 0 0 0 0 -117.05638468304824 503.06474751685619 0 503.06474751685619 -315.69211678794636 0 0 0 0 343.35262958948442 -354.60603403881305 0 -354.60603403881305 -373.25811839931885 0 0 0 0 672.80924574186793 260.12912328247876 0 260.12912328247876 -990.68534840330585 0 0 0 0 618.2635381105938 -217.63683762854816 0 -217.63683762854816 -819.27352451272236 0 0 0 0 6.9435891427278875 0.59706839580387339 0 0.59706839580387339 -1.6068344881934493 0 0 0 0 294.19249799134559 67.722935735691863 0 67.722935735691863 -263.07742981395631 0 0 0 0 619.62055349341244 265.31738049968226 0 265.31738049968226 -221.21648138056753 0 0 0 0 49.79548156830424 122.87997444268626 0 122.87997444268626 -53.359136218907224 0 0 0 0 80.539526187640149 140.79992749337544 0 140.79992749337544 -55.732795073225134 0 0 0 0 161.82665637238642 -7.3718625765997672 0 -7.3718625765997672 -100.30984060010451 0 0 0 0 240.04249915259425 -38.839528352782509 0 -38.839528352782509 -88.413739969986636 0 0 0 0 154.04715118253262 102.16589463306775 0 102.16589463306775 -57.385419383273984 0 0 0 0 -42.511753204331399 89.374438074619491 0 89.374438074619491 -31.964792001683236 0 0 0 0 -26.962646248468445 -99.905272357659157 0 -99.905272357659157 -10.185186466271261 0 0 0 0 365.90715198888211 -143.90442137153696 0 -143.90442137153696 -110.55427531186069 0 0 0 0 235.90241852815961 -121.81096739641907 0 -121.81096739641907 -106.23079043072585 0 0 0 0 481.34764347621967 -40.853376773392256 0 -40.853376773392256 -216.88099950454489 0 0 0 0 506.97681552295398 -111.08890643644327 0 -111.08890643644327 -292.31418025270432 0 0 0 0 507.41674543509725 -224.53068559996154 0 -224.53068559996154 -205.82927994284728 0 0 0 0 481.71968366831425 64.171669767528329 0 64.171669767528329 -196.01528181942194 0 0 0 0 332.72375690913759 316.58534776861597 0 316.58534776861597 -455.52278370072236 0 0 0 0 333.58315740586841 162.33596937330549 0 162.33596937330549 -239.89058229188595 0 0 0 0 179.47419748542598 153.70996327625198 0 153.70996327625198 -76.332219811674804 0 0 0 0 196.6168605308776 231.16149971202253 0 231.16149971202253 -13.377671600164831 0 0 0 0 39.214145720456145 454.86616733091887 0 454.86616733091887 146.28236471312448 0 0 0 0 -108.49017608634313 240.87437617951673 0 240.87437617951673 -75.26514835177295 0 0 0 0 38.70125694775561 507.04606311928637 0 507.04606311928637 -246.0539278404176 0 0 0 0 550.055556281397 369.08387865979876 0 369.08387865979876 -242.34111495834259 0 0 0 0 134.96654296241104 254.28339726560944 0 254.28339726560944 -169.6934736841431 0 0 0 0 217.25772885631886 262.95700468732866 0 262.95700468732866 -183.67094473126235 0 0 0 0 -205.83629307544834 422.73878219159565 0 422.73878219159565 -70.115172528781841 0 0 0 0 -141.09997651554659 253.77011222858619 0 253.77011222858619 39.711748063527921 0 0 0 0 244.28359114712111 128.11551036159312 0 128.11551036159312 46.028150021120382 0 0 0 0 551.29220057881321 281.62532833219666 0 281.62532833219666 -36.785228348530836 0 0 0 0 483.02432565604977 133.27046211119159 0 133.27046211119159 -362.79942924027273 0 0 0 0 415.75943874183577 14.826103344967123 0 14.826103344967123 -198.8335094175286 0 0 0 0 570.54029923498456 530.97078685102588 0 530.97078685102588 -149.59463008357125 0 0 0 0 -4.9937228709929968 9.0821191490308024 0 9.0821191490308024 -8.3087908714932723 0 0 0 0 19.99726553792425 39.4937446792228 0 39.4937446792228 183.37480954606872 0 0 0 0 207.96800642355811 564.32714933200896 0 564.32714933200896 -100.1337585909605 0 0 0 0 -3.383528160111041 5.6120717683900523 0 5.6120717683900523 -3.1220038941483921 0 0 0 0 104.95211153612763 -84.105630892247063 0 -84.105630892247063 154.25719571925856 0 0 0 0 542.81154491571215 306.12885002481835 0 306.12885002481835 -335.67273878559354 0 0 0 0 37.629867064439168 119.97500988808406 0 119.97500988808406 287.02498068151181 0 0 0 0 541.25937455368694 1019.0852579330967 0 1019.0852579330967 -415.14607097492762 0 0 0 0 -44.554604975312884 63.677508310538983 0 63.677508310538983 -56.029199837499064 0 0 0 0 676.22971538224192 -209.59724612929881 0 -209.59724612929881 -23.011847404573928 0 0 0 0 8.5977067792555317 321.28237743765931 0 321.28237743765931 225.70576155753224 0 0 0 0 -27.952914113668442 82.342114147544947 0 82.342114147544947 -64.581684282508917 0 0 0 0 25.412885435420321 197.43115174148988 0 197.43115174148988 415.92737288154603 0 0 0 0 58.724627159710508 167.75180910450581 0 167.75180910450581 94.269269941869425 0 0 0 0 -18.458613420199981 -220.78293897790036 0 -220.78293897790036 19.187314056507603 0 0 0 0 -554.24456043579266 880.65233609558345 0 880.65233609558345 1588.1880548685003 0 0 0 0 -13.767448907534515 82.309418320837437 0 82.309418320837437 -59.367855218015919 0 0 0 0 59.100980899849674 168.81722246207664 0 168.81722246207664 375.3449574765109 0 0 0 0 65.240300215198658 311.79762733116513 0 311.79762733116513 294.49045701813884 0 0 0 0 -375.46419012796832 1168.6777546058584 0 1168.6777546058584 438.53824203039403 0 0 0 0 -35.03497307604124 61.950397473568692 0 61.950397473568692 -56.221576115131427 0 0 0 0 298.91403555462603 512.51098358925083 0 512.51098358925083 -594.25082832335465 0 0 0 0 356.10346451125588 217.90421339886188 0 217.90421339886188 -1100.0905962170218 0 0 0 0 -155.48056934178749 519.28798381707929 0 519.28798381707929 -722.34484103617069 0 0 0 0 -14.27573574365266 -4.5786849356659811 0 -4.5786849356659811 0.62753746204879945 0 0 0 0 -795.56282593499054 445.40370375171733 0 445.40370375171733 -53.855861011757952 0 0 0 0 84.624995353166014 30.199617911312089 0 30.199617911312089 -939.30273400931765 0 0 0 0 56.05069008920691 235.74708298624319 0 235.74708298624319 -810.7494817208717 0 0 0 0 -136.70195920080005 400.8113734668259 0 400.8113734668259 0.025747006833626074 0 0 0 0 -276.1507694572756 308.51650347683699 0 308.51650347683699 -25.692899306122854 0 0 0 0 -362.99722578441288 480.24650436078718 0 480.24650436078718 -40.239481483691634 0 0 0 0 -395.47648906693212 332.99038435441798 0 332.99038435441798 -24.480296881956747 0 0 0 0 -213.7362383059517 210.29149890761983 0 210.29149890761983 55.359017002600012 0 0 0 0 -214.92977871891344 428.74280863312924 0 428.74280863312924 -228.88499800966019 0 0 0 0 -20.71627151282155 208.01799063950602 0 208.01799063950602 -86.740237889933269 0 0 0 0 -25.515902843765332 24.150845473302837 0 24.150845473302837 37.403216693677578 0 0 0 0 -106.18346890054818 196.26917530946957 0 196.26917530946957 62.503959887944802 0 0 0 0 -26.264791320558288 150.30353472054412 0 150.30353472054412 -41.328176233697377 0 0 0 0 15.89234571905034 73.55367398718019 0 73.55367398718019 80.231131701137627 0 0 0 0 -211.68345062631124 66.560975875154327 0 66.560975875154327 76.38211527391104 0 0 0 0 -254.71420305702486 180.9060693134852 0 180.9060693134852 487.03338297919981 0 0 0 0 -195.96904587862082 1.8967983710645058 0 1.8967983710645058 779.64448250758142 0 0 0 0 -126.600641079247 -29.555091137139243 0 -29.555091137139243 21.541973507293733 0 0 0 0 -63.473659236653475 116.8666962327261 0 116.8666962327261 414.46409033600503 0 0 0 0 -122.50554586062208 21.424929205459193 0 21.424929205459193 -15.614519475198904 0 0 0 0 -44.005276054053184 105.1456827762474 0 105.1456827762474 -5.3290730852116539 0 0 0 0 -98.857852020941209 -19.221298613108956 0 -19.221298613108956 53.139350581070175 0 0 0 0 -62.108347465546103 112.8406582667958 0 112.8406582667958 117.97064006194705 0 0 0 0 -187.97173352484242 25.559401214915852 0 25.559401214915852 146.31205675445381 0 0 0 0 -27.90865459816996 102.0236599146665 0 102.0236599146665 94.888499284526915 0 0 0 0 -247.69682283286238 132.36972703309584 0 132.36972703309584 229.26414347518948 0 0 0 0 21.839274013220773 63.75701244800058 0 63.75701244800058 89.037925825124049 0 0 0 0 -8.5348579982473893 237.26662123436608 0 237.26662123436608 453.96510381625558 0 0 0 0 123.14551398604817 321.74895771572619 0 321.74895771572619 162.23797079239012 0 0 0 0 191.9013051478978 241.98299966014383 0 241.98299966014383 93.593040794568878 0 0 0 0 1127.7355468859751 320.41413575868137 0 320.41413575868137 -51.669241736992262 0 0 0 0 20.983032744848188 65.329361960901565 0 65.329361960901565 91.364712030930434 0 0 0 0 -460.45867394574452 437.12329420207243 0 437.12329420207243 -85.760484785894732 0 0 0 0 -401.82845949698822 344.24342283165242 0 344.24342283165242 -6.5404368860945397 0 0 0 0 -819.60749951223625 413.72057491897795 0 413.72057491897795 17.911336256132927 0 0 0 0 -410.85395187175891 441.94176918113226 0 441.94176918113226 13.840713553792739 0 0 0 0 -453.55444260523655 419.49080877140841 0 419.49080877140841 -43.281315490699853 0 0 0 0 -815.89083141402807 364.8695135089938 0 364.8695135089938 -40.516520695363397 0 0 0 0 -214.83932369165996 480.74960458361829 0 480.74960458361829 -555.19504722684542 0 0 0 0 -1832.6695330550283 682.22629426291678 0 682.22629426291678 -144.33052228690576 0 0 0 0 1733.7227888533816 -12.743785590828338 0 -12.743785590828338 -293.5905485539588 0 0 0 0 583.56019978409313 248.46436155037236 0 248.46436155037236 -8.5336716052552219 0 0 0 0 19.456428362784379 61.374784545843994 0 61.374784545843994 90.991214567096307 0 0 0 0 -1120.3708174339117 628.98754163249032 0 628.98754163249032 -144.34847412871204 0 0 0 0 1973.8880169139593 1048.7740971466192 0 1048.7740971466192 -295.54179271764588 0 0 0 0 2186.5262414336248 1342.2336462299436 0 1342.2336462299436 85.144263404756202 0 0 0 0 1693.9018983477727 1396.5735934840413 0 1396.5735934840413 813.07345449322929 0 0 0 0 1388.5077469736643 1000.4032179052301 0 1000.4032179052301 315.47954943279183 0 0 0 0 1091.1460845641923 1652.470275482231 0 1652.470275482231 -542.76565162227052 0 0 0 0 1208.4323238028301 1287.1111765417127 0 1287.1111765417127 435.76863060054893 0 0 0 0 862.41492875085532 2059.1765728449163 0 2059.1765728449163 766.89549886078748 0 0 0 0 753.32411990959372 1420.5118184858402 0 1420.5118184858402 459.54013569503149 0 0 0 0 -6.0012051478999524 7.4119929525983252 0 7.4119929525983252 -1.8607694928255398 0 0 0 0 572.31952401553281 1552.2368492483183 0 1552.2368492483183 1670.0357024305777 0 0 0 0 969.04756400106635 1368.0709717110758 0 1368.0709717110758 1408.9326747114828 0 0 0 0 614.20630601685843 646.72295347433828 0 646.72295347433828 1047.6839253908183 0 0 0 0 236.26460890351154 618.62544322922258 0 618.62544322922258 755.4993239858868 0 0 0 0 566.58643718662961 1352.5776078257777 0 1352.5776078257777 287.11464424443693 0 0 0 0 861.89542307161901 1084.4233214730593 0 1084.4233214730593 -273.37871907205044 0 0 0 0 521.657111562723 822.44762863126743 0 822.44762863126743 755.95833726888668 0 0 0 0 402.44915872967249 457.40162613009306 0 457.40162613009306 197.67183751146513 0 0 0 0 83.103303113042784 261.24479169992082 0 261.24479169992082 688.60300608456964 0 0 0 0 185.1933351614789 301.39028545106248 0 301.39028545106248 244.45789581589634 0 0 0 0 49.026349422318162 41.025279837827838 0 41.025279837827838 164.35696008151717 0 0 0 0 -119.52159517306427 40.552625211392296 0 40.552625211392296 231.46829735364031 0 0 0 0 101.58296620682813 21.358608388009088 0 21.358608388009088 -312.13727451588056 0 0 0 0 -45.001767545003077 90.751449156448132 0 90.751449156448132 -48.316975573324832 0 0 0 0 -5.246358310629148 -78.633004821629584 0 -78.633004821629584 -211.91092812361603 0 0 0 0 -98.516187579502002 168.35431904302823 0 168.35431904302823 273.85268181693027 0 0 0 0 183.00246776881977 81.447219594861963 0 81.447219594861963 279.3343703103892 0 0 0 0 149.95231050759048 521.45697667650575 0 521.45697667650575 505.06121732047177 0 0 0 0 225.17853032615676 889.07959926422518 0 889.07959926422518 1271.5115000089427 0 0 0 0 437.20698380397516 501.80738907942214 0 501.80738907942214 524.46658363114148 0 0 0 0 846.98993996539502 894.99716232078208 0 894.99716232078208 1119.5261033180286 0 0 0 0 -10.215566194209487 11.150203233733819 0 11.150203233733819 -2.4239058632147419 0 0 0 0 1015.0608804089279 1301.8883716576756 0 1301.8883716576756 1183.8447005507842 0 0 0 0 1746.9730218073237 1326.6363568450652 0 1326.6363568450652 1175.3088005322679 0 0 0 0 223.30037053181877 1135.6701200821267 0 1135.6701200821267 1890.5297265192785 0 0 0 0 49.886747329757782 306.02696335328073 0 306.02696335328073 855.19236393953179 0 0 0 0 -784.30802122465684 -91.254336107122072 0 -91.254336107122072 783.87595158091426 0 0 0 0 1.3652667179879998 3.1005379073729955 0 3.1005379073729955 18.22056524540065 0 0 0 0 87.358264608847094 339.43919076566817 0 339.43919076566817 -0.51693816780607449 0 0 0 0 40.875383833743399 72.978521291723155 0 72.978521291723155 190.45536810609337 0 0 0 0 -46.666975224914495 1217.3162705952709 0 1217.3162705952709 1418.6497570864594 0 0 0 0 583.73018695169594 1193.2675342075163 0 1193.2675342075163 1010.2307717018339 0 0 0 0 1396.1336135804013 547.65324088025955 0 547.65324088025955 81.827473390098021 0 0 0 0 632.37457313967752 1304.0217216755555 0 1304.0217216755555 1111.496733964339 0 0 0 0 1645.0880704815208 2135.3001666760974 0 2135.3001666760974 2052.2250303207256 0 0 0 0 746.22497158299666 839.266975303035 0 839.266975303035 1511.8619480756752 0 0 0 0 1138.8124346055847 1184.8284398934557 0 1184.8284398934557 1126.0660592330614 0 0 0 0 3220.4463001640797 1664.8211284215577 0 1664.8211284215577 691.17965609880048 0 0 0 0 487.38921051140642 1571.0011663354053 0 1571.0011663354053 1499.1304863339465 0 0 0 0 -0.46954420447106671 961.92683410863322 0 961.92683410863322 1223.658581674099 0 0 0 0 21.39463005214202 1080.3193263758531 0 1080.3193263758531 1776.1665241710289 0 0 0 0 0.35638177767395973 1003.5599152781433 0 1003.5599152781433 1850.8191727079029 0 0 0 0 -5.5252754937769168 3.34769808741963 0 3.34769808741963 3.9387121837168024 0 0 0 0 491.40274131932529 1130.076353306722 0 1130.076353306722 2670.0636645105078 0 0 0 0 791.13383198913652 1658.6722377851729 0 1658.6722377851729 1868.3974357134612 0 0 0 0 536.17663656439981 1047.8741669243245 0 1047.8741669243245 1650.1879822935953 0 0 0 0 0.075526075568632223 1271.7302418624367 0 1271.7302418624367 1564.2133603384864 0 0 0 0 515.0951151746267 1211.2778999377369 0 1211.2778999377369 737.81855022049831 0 0 0 0 990.63321212721348 1675.9286922911488 0 1675.9286922911488 1345.9266257205163 0 0 0 0 398.09974479528319 1217.1721540125236 0 1217.1721540125236 1713.9174745924174 0 0 0 0 1102.9392546683084 1226.2274522052521 0 1226.2274522052521 648.29043265886503 0 0 0 0 -12.261869780467237 14.7608033074101 0 14.7608033074101 -6.8282686038050144 0 0 0 0 582.51584882680618 1301.2331405022742 0 1301.2331405022742 665.94786938431935 0 0 0 0 397.68769576668274 824.38477184448675 0 824.38477184448675 187.99084381176544 0 0 0 0 860.11403532272925 910.59711617200173 0 910.59711617200173 -95.167947908150381 0 0 0 0 293.84667210417683 532.98241130791394 0 532.98241130791394 -224.91781260151765 0 0 0 0 320.71557225329161 156.75662290106084 0 156.75662290106084 -2906.552381642945 0 0 0 0 -0.41162642940522703 1518.3557503597717 0 1518.3557503597717 -64.578528469246521 0 0 0 0 -36.691035833762726 1230.2123142028504 0 1230.2123142028504 744.53624556364093 0 0 0 0 685.02332516502793 1198.2885848015012 0 1198.2885848015012 -660.14587365759508 0 0 0 0 -958.32334899863054 1935.5504364521548 0 1935.5504364521548 -3430.7555395502859 0 0 0 0 -669.03646919805033 2329.6240636760631 0 2329.6240636760631 -2923.2407775752945 0 0 0 0 -1.1647970665217144 2486.8812671242849 0 2486.8812671242849 -3667.2352046407541 0 0 0 0 -212.04363520861079 2436.7389887954341 0 2436.7389887954341 -2924.9733167619138 0 0 0 0 -0.32009929693595041 2873.2248306011898 0 2873.2248306011898 -2267.9383326714014 0 0 0 0 -523.12992843716347 3178.2868945513837 0 3178.2868945513837 -2221.8806594733469 0 0 0 0 -674.23795352841262 2891.8522199041836 0 2891.8522199041836 -2665.7581063807847 0 0 0 0 -784.29307419885299 3314.6673555823436 0 3314.6673555823436 -2074.7565459546749 0 0 0 0 -775.36208091513254 2644.5570830000142 0 2644.5570830000142 -2336.1717486581292 0 0 0 0 -982.91805690928049 3001.3406268376252 0 3001.3406268376252 -2484.1266497660545 0 0 0 0 -1284.7799868577422 2810.6446430880096 0 2810.6446430880096 -2595.2193253446603 0 0 0 0 -772.69137269462226 2230.227307220197 0 2230.227307220197 -3278.9435777286999 0 0 0 0 -793.92165553700033 2833.2438587344823 0 2833.2438587344823 -3271.2105681585963 0 0 0 0 -848.0886967376282 2586.3760765301413 0 2586.3760765301413 -2339.2889762248669 0 0 0 0 -62.366974630829645 1739.624702331188 0 1739.624702331188 -2706.4942546889943 0 0 0 0 -490.53695251938188 2383.901840971841 0 2383.901840971841 -3639.8717722704605 0 0 0 0 730.44312820001505 855.597185386614 0 855.597185386614 -3756.4057755230078 0 0 0 0 -0.023252091094036587 710.59578366587084 0 710.59578366587084 -2335.7365734980558 0 0 0 0 -1631.3211842280871 3092.4014061748967 0 3092.4014061748967 -4143.9796696050907 0 0 0 0 147.1818486333359 1921.4917809210019 0 1921.4917809210019 -5693.6754509004313 0 0 0 0 -2070.3966242835268 1017.2346828165437 0 1017.2346828165437 -4409.9056191558993 0 0 0 0 -233.48905092240602 2157.7887431111085 0 2157.7887431111085 -4105.5141373311926 0 0 0 0 0.82436319410044234 1593.321424998554 0 1593.321424998554 -5881.7986497558595 0 0 0 0 -766.24354482797207 2752.0775811251297 0 2752.0775811251297 -4854.5565341682668 0 0 0 0 -3003.2537246551437 2115.648163290748 0 2115.648163290748 -908.16834417535574 0 0 0 0 -2.7282562253194698 5.2474975986415302 0 5.2474975986415302 -39.679037909826548 0 0 0 0 -160.88348546205088 -237.02767075086012 0 -237.02767075086012 -1254.1229791501146 0 0 0 0 -1.5467187556641875 1030.235932895117 0 1030.235932895117 -2024.3358307394301 0 0 0 0 298.23553853321937 636.18580111053598 0 636.18580111053598 800.4543910934226 0 0 0 0 -544.66765547601972 837.82246665482671 0 837.82246665482671 -1789.5887246373459 0 0 0 0 -2.4856736278694598 -2.7465394513590269 0 -2.7465394513590269 1.1332516145918419 0 0 0 0 2.1847784230000826 30.837007095361855 0 30.837007095361855 -95.010771794601112 0 0 0 0 326.94235215984008 288.70149005445433 0 288.70149005445433 210.64068693637091 0 0 0 0 83.528765008653863 79.037200089300313 0 79.037200089300313 -847.89352760963084 0 0 0 0 2.6684174396468734 6.0264992592733506 0 6.0264992592733506 -9.719420761683125 0 0 0 0 501.95812733785715 495.38759124928765 0 495.38759124928765 443.52009507929324 0 0 0 0 1.1175410297723092 832.19766300066283 0 832.19766300066283 806.01569348057092 0 0 0 0 -6.8368678508529399 22.500092148723468 0 22.500092148723468 51.664064844326134 0 0 0 0 -186.45273229571467 232.19645884456986 0 232.19645884456986 -13.86515940065874 0 0 0 0 449.96817778041805 294.87216743910903 0 294.87216743910903 -702.63768271543086 0 0 0 0 -11.627910245118983 94.836438474609736 0 94.836438474609736 -52.833096378863992 0 0 0 0 -105.35503502399661 443.85171565518249 0 443.85171565518249 -219.23417929339485 0 0 0 0 204.40636020688544 33.411557835865096 0 33.411557835865096 -326.42287518954254 0 0 0 0 -212.26984680325677 -265.10413258749031 0 -265.10413258749031 -1414.9246078808646 0 0 0 0 -202.25730742447195 459.17747966281604 0 459.17747966281604 -720.97967911139131 0 0 0 0 468.72676765365395 -1348.5717229051661 0 -1348.5717229051661 -3574.2277582236857 0 0 0 0 163.48925283146673 319.62203503159981 0 319.62203503159981 -2466.3375107955071 0 0 0 0 -77.399658669077326 558.48458138717979 0 558.48458138717979 -2096.531236780982 0 0 0 0 183.48895069348509 95.184372646079282 0 95.184372646079282 -1759.7157063872655 0 0 0 0 -93.959737005992793 200.15188979974482 0 200.15188979974482 -1685.8226099272288 0 0 0 0 14.352553365635686 239.08356284097681 0 239.08356284097681 -1703.3203250847 0 0 0 0 165.73068154079374 82.110264384180482 0 82.110264384180482 -1650.2701919472311 0 0 0 0 10.036629558861023 71.659976645270945 0 71.659976645270945 -640.66674890744616 0 0 0 0 32.138739248242928 142.52181928159553 0 142.52181928159553 -1367.6456110235886 0 0 0 0 185.6971747369098 244.23755996533146 0 244.23755996533146 -1380.4806777336344 0 0 0 0 183.68855867345701 88.527036794905143 0 88.527036794905143 -1283.0147423403214 0 0 0 0 4.5694449672300834 257.43235451355213 0 257.43235451355213 -1339.8858518830093 0 0 0 0 -158.61826778526301 407.37170169202 0 407.37170169202 -545.58207385051355 0 0 0 0 -22.804557206283789 497.51519761618692 0 497.51519761618692 -313.18164348063146 0 0 0 0 313.5088708128751 133.17239140818856 0 133.17239140818856 -66.563364182307851 0 0 0 0 -26.240457249682777 96.919984091259096 0 96.919984091259096 -46.583709801133281 0 0 0 0 199.78759279986843 162.14245640575609 0 162.14245640575609 -420.61372418248357 0 0 0 0 -176.21883191046072 541.41854429230443 0 541.41854429230443 447.3031580996103 0 0 0 0 66.907507877665921 75.689950243757266 0 75.689950243757266 132.33887285448145 0 0 0 0 -175.95988026075065 -97.488005336683273 0 -97.488005336683273 424.43955700300285 0 0 0 0 -37.146835369005771 95.729398622771384 0 95.729398622771384 -44.872289612983437 0 0 0 0 -132.84649726787757 553.68566283829568 0 553.68566283829568 325.65617983229458 0 0 0 0 -314.65669943694957 312.68112841133552 0 312.68112841133552 1009.8145373917068 0 0 0 0 31.255322544253431 37.179998352527036 0 37.179998352527036 -189.03120934635808 0 0 0 0 -204.4494655278686 515.90998576726997 0 515.90998576726997 -718.29252759634983 0 0 0 0 -112.56400372466305 254.09593453948037 0 254.09593453948037 -661.24390352386399 0 0 0 0 -677.85275172826368 447.12425260129385 0 447.12425260129385 -191.28472231483465 0 0 0 0 -599.40197217444074 296.94804785115412 0 296.94804785115412 64.496363378988463 0 0 0 0 -260.96249461293337 14.469714226652286 0 14.469714226652286 202.64437432706472 0 0 0 0 -201.59761311291368 45.777775086491602 0 45.777775086491602 -70.241634056234034 0 0 0 0 -390.12127828772645 823.96593967218359 0 823.96593967218359 -1957.8919026300428 0 0 0 0 -418.27464247663738 157.51916465794784 0 157.51916465794784 -1683.9702169057127 0 0 0 0 -378.89793594474031 80.664327904109086 0 80.664327904109086 -2346.3238172068959 0 0 0 0 -112.74381014498067 249.90457396947022 0 249.90457396947022 -1990.8048889708298 0 0 0 0 -576.77664074109634 -195.56182987851207 0 -195.56182987851207 -1762.8932161593693 0 0 0 0 -222.06634283449966 530.30877182912081 0 530.30877182912081 -3273.9760889637982 0 0 0 0 -1295.6936616022722 917.96819410464377 0 917.96819410464377 -2428.5249981011293 0 0 0 0 -1877.3367777689127 -248.39487490736065 0 -248.39487490736065 -1951.372820805118 0 0 0 0 54.663597577658948 63.281687960188719 0 63.281687960188719 -1100.6859080229042 0 0 0 0 -410.81704403704498 646.83856837822532 0 646.83856837822532 -1006.0493264592369 0 0 0 0 -35.556030677485978 124.2019619186467 0 124.2019619186467 -1788.3594492060511 0 0 0 0 -6.8989790025370894 277.76331829023184 0 277.76331829023184 -1413.4351308402256 0 0 0 0 86.55306273867609 -5.1469505609711632 0 -5.1469505609711632 -1741.3981098198419 0 0 0 0 -157.28679701413785 -24.314623729067762 0 -24.314623729067762 -1710.3904286232137 0 0 0 0 -156.89708572434029 -41.305071738694096 0 -41.305071738694096 -1600.7653373609064 0 0 0 0 -204.46508082357468 -39.98293275089236 0 -39.98293275089236 -1428.9875950982678 0 0 0 0 -5.3468353904027026 86.075584227291984 0 86.075584227291984 -1557.0287041855627 0 0 0 0 -130.18809502024669 -42.627137404793757 0 -42.627137404793757 -1602.8120124130437 0 0 0 0 -1117.4719089269056 324.38218825227523 0 324.38218825227523 -1671.531981799053 0 0 0 0 -227.01454886916326 112.00529942197318 0 112.00529942197318 -1643.3390253748221 0 0 0 0 -407.83846679498674 253.01383261752198 0 253.01383261752198 -2121.4487564379233 0 0 0 0 -442.01650881400565 17.434631455602357 0 17.434631455602357 -2084.2652066560404 0 0 0 0 -257.19897101901006 -158.24652958553634 0 -158.24652958553634 -1644.9790183571386 0 0 0 0 -639.76276816966129 13.917823144947761 0 13.917823144947761 -1282.9020822358725 0 0 0 0 -171.84742291326984 -8.7054408163094195 0 -8.7054408163094195 -1058.4735955488577 0 0 0 0 -385.91987734870054 31.159708654391579 0 31.159708654391579 -1088.8553974319075 0 0 0 0 -200.96623889158946 122.28153337360709 0 122.28153337360709 -1279.8556338540538 0 0 0 0 -316.55505582864862 253.60795169194171 0 253.60795169194171 -757.38531896234781 0 0 0 0 -245.43153745021846 212.29122555238428 0 212.29122555238428 -1093.3326693003764 0 0 0 0 6.4247395056154346 167.0980298438817 0 167.0980298438817 -752.01659099463723 0 0 0 0 -431.78046131914016 527.31202200990083 0 527.31202200990083 -238.7301754190994 0 0 0 0 -437.23997874048655 470.43632089337916 0 470.43632089337916 -691.0732836106763 0 0 0 0 -517.26842331961961 569.52423112100951 0 569.52423112100951 -792.00938907530508 0 0 0 0 -313.69631730479887 124.22014523629332 0 124.22014523629332 -1156.3460254165693 0 0 0 0 -291.66770578513388 5.4379959515645169 0 5.4379959515645169 -1439.752321646949 0 0 0 0 -287.53620008661528 258.33112180558965 0 258.33112180558965 -1564.8661459480018 0 0 0 0 -257.28685208293609 143.00973205188347 0 143.00973205188347 -1181.844788816903 0 0 0 0 -93.825345628662035 345.73356004887319 0 345.73356004887319 -1797.4025511671789 0 0 0 0 -595.18064718419919 843.04132289523841 0 843.04132289523841 -1557.2805231139791 0 0 0 0 -466.84763038068195 1484.3760192646369 0 1484.3760192646369 -2517.4463547644882 0 0 0 0 69.024674818705535 597.17535277044226 0 597.17535277044226 -2159.075861448131 0 0 0 0 -340.13497331229155 1103.9112968939298 0 1103.9112968939298 -1403.3610470450658 0 0 0 0 -943.36069406209572 1644.3619306347246 0 1644.3619306347246 -1782.1770476338133 0 0 0 0 -1202.3178074547031 1204.8174129831095 0 1204.8174129831095 -666.69752951867849 0 0 0 0 -472.33383781169687 624.47402256446003 0 624.47402256446003 -1234.1530574559583 0 0 0 0 -1161.9645869969681 2135.4270990198056 0 2135.4270990198056 -1026.3148514089262 0 0 0 0 -985.91294912235571 2999.6459965731729 0 2999.6459965731729 -1590.7693520325411 0 0 0 0 -1049.9366049117816 2543.4438535769877 0 2543.4438535769877 -2120.3468707708671 0 0 0 0 -1527.4680874579644 3343.372797713746 0 3343.372797713746 -1802.4946023549273 0 0 0 0 -1733.2176719837589 2958.471430728503 0 2958.471430728503 -903.28933204668283 0 0 0 0 -1569.8876517963727 1913.6140719986379 0 1913.6140719986379 -44.265884083724814 0 0 0 0 -1873.3869695037865 3214.8983513487547 0 3214.8983513487547 -1319.7413477053051 0 0 0 0 -1809.0243439839396 2597.6883533123473 0 2597.6883533123473 -1295.3017517451372 0 0 0 0 -2762.1155209450517 2993.4353792666225 0 2993.4353792666225 -46.641152624083503 0 0 0 0 -639.06236824535154 138.57729233688588 0 138.57729233688588 1130.6843578633707 0 0 0 0 -2834.8971161775407 2107.3864298344924 0 2107.3864298344924 1546.1999800442718 0 0 0 0 1052.4310173957492 849.11081977380672 0 849.11081977380672 99.364987452308014 0 0 0 0 -123.04457823424309 171.41342529870599 0 171.41342529870599 167.35166128739365 0 0 0 0 -1899.3833431303356 1662.2776589627902 0 1662.2776589627902 -190.73541464432492 0 0 0 0 -976.97065933117119 792.31782898458187 0 792.31782898458187 82.951020052889362 0 0 0 0 562.08689661248354 397.56069068949728 0 397.56069068949728 780.74092875835777 0 0 0 0 697.52008609297627 1627.1209483766434 0 1627.1209483766434 1404.3863416127169 0 0 0 0 -15.602203991342662 24.478143873414083 0 24.478143873414083 -23.46975414968432 0 0 0 0 172.50918139252462 -121.08568366683176 0 -121.08568366683176 -120.62754482279706 0 0 0 0 20.408475771648227 71.789936370983924 0 71.789936370983924 -61.014238638381357 0 0 0 0 -30.621277702841326 75.858323825683328 0 75.858323825683328 -42.289588336687302 0 0 0 0 13.820778115841676 64.543752569163189 0 64.543752569163189 -54.140552651748294 0 0 0 0 -0.8671853121505162 40.816251604187102 0 40.816251604187102 -59.589055687102416 0 0 0 0 121.16576358382008 -90.094409340970742 0 -90.094409340970742 -89.678068490446094 0 0 0 0 -6.5602385319693433 47.210507050639023 0 47.210507050639023 -32.475909508696475 0 0 0 0 251.9179699243723 51.830903042382261 0 51.830903042382261 -228.17682860640343 0 0 0 0 28.470949144655606 53.416272893926362 0 53.416272893926362 -63.904155597483623 0 0 0 0 1.6090985518990806 25.38777832993155 0 25.38777832993155 -33.915689238408078 0 0 0 0 698.29547368716158 1013.2002795732988 0 1013.2002795732988 601.74762272820226 0 0 0 0 913.74626583818463 988.17138494050596 0 988.17138494050596 166.69226400033222 0 0 0 0 1078.5997492216411 286.45062105359102 0 286.45062105359102 277.50173854465538 0 0 0 0 792.15927410766199 393.25222433568752 0 393.25222433568752 -119.08436729401001 0 0 0 0 -40.885090272665195 46.37441870858909 0 46.37441870858909 -32.140956399340723 0 0 0 0 -42.163174754714419 52.766456346490941 0 52.766456346490941 -461.20873906058841 0 0 0 0 70.642779078247258 326.93092285544117 0 326.93092285544117 85.226896511681844 0 0 0 0 -8.5901435688998937 18.398980214840009 0 18.398980214840009 0.9027765746226919 0 0 0 0 253.11589817301137 478.39766824685648 0 478.39766824685648 -552.16083743248601 0 0 0 0 850.51619566320005 401.43605457608282 0 401.43605457608282 -1113.9736584106577 0 0 0 0 592.67299513175385 336.84824406984262 0 336.84824406984262 -1129.3934169318818 0 0 0 0 760.63236191275064 702.63448067224817 0 702.63448067224817 -623.70060748678952 0 0 0 0 768.29994947192608 726.51134897096199 0 726.51134897096199 -192.39400920100161 0 0 0 0 749.99964355299744 236.29281126255592 0 236.29281126255592 -523.55071571900044 0 0 0 0 909.30387877643807 569.10102261738211 0 569.10102261738211 -1151.4582753489958 0 0 0 0 853.11203397758072 349.09456345264334 0 349.09456345264334 -892.20242802779831 0 0 0 0 775.95131759774267 597.51195966331488 0 597.51195966331488 -1227.1826001617592 0 0 0 0 786.91776813478282 443.90897980167392 0 443.90897980167392 -1289.9860703418381 0 0 0 0 556.22066539607476 349.23911571188364 0 349.23911571188364 -1095.0288709146262 0 0 0 0 515.25390292823431 600.92088389307901 0 600.92088389307901 -864.13817530311644 0 0 0 0 755.22821008175379 413.38408713140234 0 413.38408713140234 -725.81916226349131 0 0 0 0 1018.0173545379657 533.74293324408609 0 533.74293324408609 81.411844078043941 0 0 0 0 660.52973958975053 813.91157635733543 0 813.91157635733543 -138.03975466983684 0 0 0 0 586.41302699041262 350.84126634053973 0 350.84126634053973 -496.2358658562589 0 0 0 0 512.06325860295328 753.30707777609496 0 753.30707777609496 264.59442210225097 0 0 0 0 705.11201144316692 463.12969875890485 0 463.12969875890485 -646.30036764958641 0 0 0 0 -39.340557034589438 466.86602303320069 0 466.86602303320069 -420.76635209968663 0 0 0 0 294.96232816370321 175.93323977846012 0 175.93323977846012 -865.03325275929819 0 0 0 0 272.34946298383875 537.97234783608292 0 537.97234783608292 -625.28594907854858 0 0 0 0 -147.90921046177664 410.37440360996152 0 410.37440360996152 -988.12496791995363 0 0 0 0 -414.76352197251981 441.0230729602772 0 441.0230729602772 -1430.2694603744021 0 0 0 0 180.19053713628091 191.17189479654189 0 191.17189479654189 -1327.3707276498608 0 0 0 0 136.20412951185608 549.24238520876861 0 549.24238520876861 -1190.172592190851 0 0 0 0 183.91390084341401 458.50573006845661 0 458.50573006845661 -1818.5863989485661 0 0 0 0 205.55857243240462 338.86031138488033 0 338.86031138488033 -1487.4060776823899 0 0 0 0 143.60024267516565 158.15056956172339 0 158.15056956172339 -1804.9023157168067 0 0 0 0 -119.74659058242105 226.73031688193441 0 226.73031688193441 -1865.401053008507 0 0 0 0 99.740006100451865 238.39525871996011 0 238.39525871996011 -1874.574818374007 0 0 0 0 -246.26547139878676 536.96132251239032 0 536.96132251239032 -2406.7552314388449 0 0 0 0 583.03040065831738 442.69448465431924 0 442.69448465431924 -1282.5430235257518 0 0 0 0 755.42388751008548 549.60982437567145 0 549.60982437567145 -1491.4272237945697 0 0 0 0 579.37663915050507 527.33822161000717 0 527.33822161000717 -1543.038441095734 0 0 0 0 420.31774232926546 319.78721918098745 0 319.78721918098745 -1492.9553105638479 0 0 0 0 410.53181724940077 371.90447944789776 0 371.90447944789776 -1478.9312955270871 0 0 0 0 433.91525351422024 419.82950195377634 0 419.82950195377634 -1791.2031843389268 0 0 0 0 645.29705242888303 433.82316461998562 0 433.82316461998562 -1623.7290336950682 0 0 0 0 631.32424697015085 421.79503953816311 0 421.79503953816311 -1486.10541850765 0 0 0 0 562.08130583632737 309.06979683587269 0 309.06979683587269 -1487.4098903770209 0 0 0 0 406.69270364730619 256.89196458860533 0 256.89196458860533 -1483.8881735444011 0 0 0 0 194.0339799108915 -42.075289077300113 0 -42.075289077300113 -1642.9405751707818 0 0 0 0 439.00465092467493 283.31068392608722 0 283.31068392608722 -1783.9982045817887 0 0 0 0 249.28503860026831 205.36800864565885 0 205.36800864565885 -1651.2579924028396 0 0 0 0 146.4870436675119 -220.17212124416255 0 -220.17212124416255 -2109.7105044393102 0 0 0 0 175.70359534920135 -41.349684707864071 0 -41.349684707864071 -1612.0573200500803 0 0 0 0 -284.7354687374318 -795.77905516512692 0 -795.77905516512692 -1691.4458398612333 0 0 0 0 -445.18814377865056 -620.88356293388642 0 -620.88356293388642 -993.35278695065062 0 0 0 0 110.99305249052122 -261.05048071587225 0 -261.05048071587225 -1743.9927785341861 0 0 0 0 -153.43149915104732 -333.3620326698292 0 -333.3620326698292 -850.20854157046415 0 0 0 0 55.653076366812456 -196.91095210370258 0 -196.91095210370258 -1235.1388719023671 0 0 0 0 310.98638885078253 41.381223791540833 0 41.381223791540833 -1586.7843642937369 0 0 0 0 306.50700120499459 138.92218318985078 0 138.92218318985078 -1140.8055103334482 0 0 0 0 209.74421993541182 -22.873163452779409 0 -22.873163452779409 -1171.2514273900888 0 0 0 0 172.13058103923686 -33.67548210491077 0 -33.67548210491077 -1026.6490270558861 0 0 0 0 251.95602530195902 262.56228045132229 0 262.56228045132229 -587.38308990350924 0 0 0 0 228.42460643366212 143.80610915645957 0 143.80610915645957 -851.19665968755726 0 0 0 0 138.36746837047394 -442.5305250158126 0 -442.5305250158126 -3035.8238844890911 0 0 0 0 -198.45831493099831 807.14256991594084 0 807.14256991594084 -732.67989532185311 0 0 0 0 -323.13009383215103 -17.535493273549946 0 -17.535493273549946 459.97426841815468 0 0 0 0 -6.9323749598048039 7.6519225859420601 0 7.6519225859420601 -12.642293365863566 0 0 0 0 134.94773219744093 122.1925506436819 0 122.1925506436819 -2635.4980969800381 0 0 0 0 -5.7725371611886658 34.859607112768572 0 34.859607112768572 -2409.7391242373851 0 0 0 0 130.6487947027199 305.3633957527345 0 305.3633957527345 -2304.392464340548 0 0 0 0 146.78351288294652 -76.594966137985466 0 -76.594966137985466 -2238.4114183810379 0 0 0 0 294.25596724930801 213.44174191454658 0 213.44174191454658 -2036.7878192422795 0 0 0 0 222.26463195506949 -201.88449309204589 0 -201.88449309204589 -2376.6739779718919 0 0 0 0 142.9672387407627 20.29201570013538 0 20.29201570013538 -2082.8489470862551 0 0 0 0 57.189221276901662 -7.0590327925165184 0 -7.0590327925165184 -1834.7097442183876 0 0 0 0 24.087286287394818 -774.79458277512458 0 -774.79458277512458 -2449.8136021316423 0 0 0 0 -6.6730176625701461 -1.2581182653592293 0 -1.2581182653592293 -1.2569239799677518 0 0 0 0 -215.19048541644588 100.42196694203449 0 100.42196694203449 38.041917630063836 0 0 0 0 10.89386334939627 -23.513983793294756 0 -23.513983793294756 61.81397688089055 0 0 0 0 -50.028486954281107 -41.759954387438484 0 -41.759954387438484 89.989585678384174 0 0 0 0 -41.752216567576397 76.387560542556457 0 76.387560542556457 217.35717690840829 0 0 0 0 58.756260731082875 -12.219429618009599 0 -12.219429618009599 135.4785910641076 0 0 0 0 69.093389060872141 7.6235552387079224 0 7.6235552387079224 75.312454525497742 0 0 0 0 -0.64249522052705288 4.0842727818526328 0 4.0842727818526328 132.18184888463293 0 0 0 0 -9.8909411396120959 16.220309335290324 0 16.220309335290324 9.8710871196994674 0 0 0 0 353.23403703212534 364.08418329141568 0 364.08418329141568 123.30267523914517 0 0 0 0 51.300710323659587 34.084852091426001 0 34.084852091426001 131.21521569455217 0 0 0 0 -376.37273127457593 -240.89524556935066 0 -240.89524556935066 -232.09659198625013 0 0 0 0 -315.42510303889867 -336.85807892668527 0 -336.85807892668527 -389.70505275088362 0 0 0 0 -237.7864393517375 11.652216239541303 0 11.652216239541303 -128.47752397546719 0 0 0 0 60.95284466969315 172.61077844718238 0 172.61077844718238 -417.71691368536267 0 0 0 0 83.615982778661419 195.91573746940412 0 195.91573746940412 -609.86429359286558 0 0 0 0 -36.747070912388153 -13.555381359299645 0 -13.555381359299645 -451.93096636596601 0 0 0 0 -37.190446143853478 -18.793631790846121 0 -18.793631790846121 -513.77529904665425 0 0 0 0 60.38346524341614 20.377818058543198 0 20.377818058543198 148.87541197717655 0 0 0 0 21.782408792067145 80.937361672667976 0 80.937361672667976 133.27805926547444 0 0 0 0 24.896266730436764 57.101018162513355 0 57.101018162513355 254.85539552825503 0 0 0 0 -40.444045736367116 48.80544505223952 0 48.80544505223952 275.11519357439829 0 0 0 0 -82.187881508463761 203.41948467488692 0 203.41948467488692 697.42918235478282 0 0 0 0 35.993921427812893 -26.649895974987885 0 -26.649895974987885 200.05241696543817 0 0 0 0 -63.209811463071674 615.85287545923711 0 615.85287545923711 757.30914865421073 0 0 0 0 -63.913938130754104 66.652037556073992 0 66.652037556073992 238.01835904098698 0 0 0 0 -174.77845662794425 390.52531493276183 0 390.52531493276183 827.69069854686859 0 0 0 0 416.57365298544755 570.47141086074407 0 570.47141086074407 -21.593801146082114 0 0 0 0 27.970501468668829 137.3447235431365 0 137.3447235431365 -46.773743406525909 0 0 0 0 6.3501602151539203 97.948158148200974 0 97.948158148200974 216.69390592243963 0 0 0 0 -39.005295421549818 159.31099083451772 0 159.31099083451772 247.02555619565828 0 0 0 0 -9.8310262414743192 217.1926043547428 0 217.1926043547428 -190.52591768208367 0 0 0 0 5.793099100214036 40.755649234172523 0 40.755649234172523 -13.624563381367921 0 0 0 0 637.08519339966006 704.74544861741742 0 704.74544861741742 52.105017074150965 0 0 0 0 -19.163682187088625 30.265617596436499 0 30.265617596436499 2.5422255806516887 0 0 0 0 -20.879206547993817 265.33835433558124 0 265.33835433558124 683.03187560476363 0 0 0 0 118.92031735833734 210.07131709663372 0 210.07131709663372 -270.39470379357226 0 0 0 0 132.61839349975344 348.45397629943909 0 348.45397629943909 -237.13025369381648 0 0 0 0 812.12023984917323 585.13206832605647 0 585.13206832605647 -536.0742912387941 0 0 0 0 458.0956972372951 633.80976548534818 0 633.80976548534818 -512.62809226756508 0 0 0 0 244.2402141852217 445.01235702676786 0 445.01235702676786 476.27077782456763 0 0 0 0 422.35368507119711 811.96180269606702 0 811.96180269606702 231.81883720803307 0 0 0 0 293.91523287842574 726.39814783690235 0 726.39814783690235 188.6922195868101 0 0 0 0 169.60920575002092 746.18511522353219 0 746.18511522353219 -272.45988926637801 0 0 0 0 -15.220271934871562 456.56087812217811 0 456.56087812217811 311.05655557103455 0 0 0 0 103.97338669348392 920.99194198648911 0 920.99194198648911 -954.20987301511923 0 0 0 0 536.46105846372666 766.8344664164033 0 766.8344664164033 -913.35481546074152 0 0 0 0 327.63182627799688 549.54514341674803 0 549.54514341674803 -362.52476683933492 0 0 0 0 605.60256543604191 747.75557718952768 0 747.75557718952768 -1165.841782899297 0 0 0 0 599.59628302481724 614.29691265142174 0 614.29691265142174 -1070.3967116065905 0 0 0 0 485.41499208642927 950.17684778759576 0 950.17684778759576 -1497.8282636697986 0 0 0 0 336.32359891472152 757.95098821479041 0 757.95098821479041 -1104.6744382669858 0 0 0 0 371.0462327566056 297.61758688010741 0 297.61758688010741 -1011.8390150499181 0 0 0 0 611.47771930840099 505.99354436260182 0 505.99354436260182 -1086.6741629384196 0 0 0 0 449.99692364357179 577.5475182266382 0 577.5475182266382 -538.65166729755583 0 0 0 0 582.16586037003435 657.78242696329835 0 657.78242696329835 -894.72112838759131 0 0 0 0 494.6399832059542 550.75641942610673 0 550.75641942610673 -882.4788785657729 0 0 0 0 789.90440341836074 627.20606298853818 0 627.20606298853818 -1338.8283928045494 0 0 0 0 612.22088977581006 522.75744772108737 0 522.75744772108737 -1280.7813576572516 0 0 0 0 551.2252718458767 346.23673363756097 0 346.23673363756097 -1376.5458861217485 0 0 0 0 753.77817963174311 552.57192660213332 0 552.57192660213332 -1415.7282043536943 0 0 0 0 759.23653350019595 558.71461504966283 0 558.71461504966283 -1488.1949959472404 0 0 0 0 767.44220436901378 694.95290103720617 0 694.95290103720617 -1531.7567608795944 0 0 0 0 802.34941871993942 639.95736409130041 0 639.95736409130041 -1480.3140777715307 0 0 0 0 881.89990543607564 622.3890372577589 0 622.3890372577589 -1516.1785436226637 0 0 0 0 907.34648629685398 406.3204378636874 0 406.3204378636874 -1297.9202900507225 0 0 0 0 932.49252212577267 539.79316809402371 0 539.79316809402371 -1489.161017109519 0 0 0 0 783.83731677671312 465.28940874938417 0 465.28940874938417 -1279.0717011250963 0 0 0 0 -106.42464683539583 1233.775890531324 0 1233.775890531324 -1611.8445348190435 0 0 0 0 793.12303325586254 710.95402832509717 0 710.95402832509717 -1628.0777984524466 0 0 0 0 669.08377814583946 717.212105763203 0 717.212105763203 -1579.3441650754539 0 0 0 0 894.47199205017751 553.70448530219164 0 553.70448530219164 -1732.291631513508 0 0 0 0 609.53880897322233 963.00620742050887 0 963.00620742050887 -2350.9935185173526 0 0 0 0 597.35740561689454 242.94259206916104 0 242.94259206916104 -2132.6335489606718 0 0 0 0 -1280.2251661942719 2104.1186091268755 0 2104.1186091268755 -2631.3448651802464 0 0 0 0 -272.79304134607082 905.3445335078577 0 905.3445335078577 -1222.4630599913071 0 0 0 0 -651.44075406811316 356.65289457752078 0 356.65289457752078 -3742.4663289407035 0 0 0 0 -2953.8548789047709 525.92474331749327 0 525.92474331749327 -447.72520431267912 0 0 0 0 -815.57994447249803 165.78603986444068 0 165.78603986444068 -557.30327432629565 0 0 0 0 -878.04780626311549 286.91836903617514 0 286.91836903617514 -153.77232914078922 0 0 0 0 -558.97411433712114 1160.2987233783933 0 1160.2987233783933 -1040.0222955377758 0 0 0 0 -1358.7104760560178 551.11268451921933 0 551.11268451921933 -128.58145145492745 0 0 0 0 -144.7507664347504 647.39611741652334 0 647.39611741652334 -405.0448754944955 0 0 0 0 -244.0434223675984 839.43783650052501 0 839.43783650052501 -298.01260869076214 0 0 0 0 -526.12508453379269 422.30258320327266 0 422.30258320327266 263.99214285143535 0 0 0 0 -486.17705878143897 542.89619400745141 0 542.89619400745141 -137.02104106453771 0 0 0 0 -191.25504006206756 128.26834528746986 0 128.26834528746986 336.08617846548441 0 0 0 0 -706.76182045508904 -64.250281555734546 0 -64.250281555734546 264.78011453893851 0 0 0 0 -100.57869094458874 340.51283409028838 0 340.51283409028838 835.16239119095553 0 0 0 0 -217.13116354661179 -17.551286125228216 0 -17.551286125228216 592.95329285351909 0 0 0 0 -17.802350443302657 58.113303277160171 0 58.113303277160171 -13.888897446983123 0 0 0 0 4.776130006084145 72.777486533897729 0 72.777486533897729 -83.772881336351361 0 0 0 0 79.520785411237739 251.38578608544776 0 251.38578608544776 527.07169919821899 0 0 0 0 164.36122243905265 471.45561177212221 0 471.45561177212221 254.5307585748069 0 0 0 0 -106.93339167367958 797.50570755529043 0 797.50570755529043 445.60222210055872 0 0 0 0 115.29880527645582 -52.328816940862453 0 -52.328816940862453 177.62731893236196 0 0 0 0 48.738888600637438 -128.88824684130668 0 -128.88824684130668 89.757273641298525 0 0 0 0 49.83875093262759 16.839934900242952 0 16.839934900242952 163.26426507171709 0 0 0 0 -121.92740528634749 -110.62585116463015 0 -110.62585116463015 354.3831395927009 0 0 0 0 8.464431952976156 57.098808843133156 0 57.098808843133156 362.6457763381768 0 0 0 0 -10.2560083589633 40.369186128460569 0 40.369186128460569 349.60508877818211 0 0 0 0 -277.09481724383659 -241.1252233919804 0 -241.1252233919804 245.40174915391253 0 0 0 0 -10.183417358610313 -243.45022749854252 0 -243.45022749854252 37.80699787728372 0 0 0 0 -86.596740808541654 -150.1803763044154 0 -150.1803763044154 44.014982824131948 0 0 0 0 500.66772741742898 -136.01916860128404 0 -136.01916860128404 -29.745765531100915 0 0 0 0 204.89144633000251 -163.8590760108782 0 -163.8590760108782 -14.918547423265409 0 0 0 0 124.52421587894787 -146.69135043022106 0 -146.69135043022106 91.849249570892425 0 0 0 0 250.32634258415783 42.615526077459435 0 42.615526077459435 36.297629242675612 0 0 0 0 53.154194245289546 34.57480092082551 0 34.57480092082551 75.349984511529328 0 0 0 0 387.59341784115531 64.728601192575297 0 64.728601192575297 13.652329995762557 0 0 0 0 884.39214362933308 -6.897472324748378 0 -6.897472324748378 -236.7641708428564 0 0 0 0 823.21022631082451 -508.09862403116858 0 -508.09862403116858 -240.91365206270711 0 0 0 0 -6.4298588067227058 6.1919883031004872 0 6.1919883031004872 -23.576906933255543 0 0 0 0 917.77337460817944 14.117357877272298 0 14.117357877272298 213.34562939594616 0 0 0 0 87.061537978850538 -395.41585430345003 0 -395.41585430345003 -42.058513739233604 0 0 0 0 55.698934991654824 -594.00113952978609 0 -594.00113952978609 366.18421475330251 0 0 0 0 -721.96419502303615 -556.46679273046539 0 -556.46679273046539 -21.912272170768119 0 0 0 0 -23.787478276935872 -234.12682384175423 0 -234.12682384175423 -864.07462869933806 0 0 0 0 178.57669804152101 1233.8290413348077 0 1233.8290413348077 -795.58616481913486 0 0 0 0 -612.69096667358826 779.33913423525519 0 779.33913423525519 -741.12381450434623 0 0 0 0 -379.20751699359971 857.85172194920597 0 857.85172194920597 -810.90998124948601 0 0 0 0 -293.10730237676398 485.19828286406664 0 485.19828286406664 459.59434226996382 0 0 0 0 420.29190597813795 688.45166466750925 0 688.45166466750925 479.46998162279488 0 0 0 0 -0.45705787486969029 4.9829734692594911 0 4.9829734692594911 -9.223863218104384 0 0 0 0 265.15350056206444 -159.41875365272972 0 -159.41875365272972 -725.73328342981404 0 0 0 0 1513.6399607464991 502.5106325388042 0 502.5106325388042 -1108.6851249512401 0 0 0 0 1228.2377263389208 -123.37232738867533 0 -123.37232738867533 -1830.8621791733312 0 0 0 0 -61.006449883871667 176.78756189159154 0 176.78756189159154 -36.991587166060697 0 0 0 0 60.6286363479594 1044.9444683643451 0 1044.9444683643451 -941.89357735680824 0 0 0 0 -1040.7721171162266 1519.5711493583367 0 1519.5711493583367 -1146.4079738152504 0 0 0 0 -667.35335039142228 1234.6202066878686 0 1234.6202066878686 -1734.6205458490294 0 0 0 0 135.56867011223221 980.96907184905649 0 980.96907184905649 -2282.0567885902419 0 0 0 0 -1971.8208442843606 1963.1128557900811 0 1963.1128557900811 -1307.5558790622454 0 0 0 0 76.486687987460755 40.332585083087906 0 40.332585083087906 -1069.746060661826 0 0 0 0 -19.656911734004609 13.507906035282005 0 13.507906035282005 -12.413730854327298 0 0 0 0 -1867.0426107664825 289.42862372199306 0 289.42862372199306 437.861892406072 0 0 0 0 77.803793095081346 -125.34853699451924 0 -125.34853699451924 -4105.4131687275003 0 0 0 0 38.40602621238213 -19.293228771552094 0 -19.293228771552094 -285.50105539026117 0 0 0 0 -1033.4027417586622 976.51946492074421 0 976.51946492074421 -277.14679658622481 0 0 0 0 -812.7040899361964 236.53214532298443 0 236.53214532298443 -97.863680683338316 0 0 0 0 -669.58487960111233 638.14094546819979 0 638.14094546819979 -563.57557196000562 0 0 0 0 -37.507697698223637 61.702412480197381 0 61.702412480197381 -296.15689395521622 0 0 0 0 -29.067633680024301 107.73584459902486 0 107.73584459902486 -61.98198455144302 0 0 0 0 -19.739587949443376 50.179258444390143 0 50.179258444390143 -218.57507003692444 0 0 0 0 -490.46326182408666 134.7716593344594 0 134.7716593344594 -127.86754092910269 0 0 0 0 -413.90223764115945 419.13415651024843 0 419.13415651024843 -812.87551508058095 0 0 0 0 -473.3033026829653 22.005958862151601 0 22.005958862151601 -325.05853472106537 0 0 0 0 -25.031296821201067 580.02587857989056 0 580.02587857989056 -779.52761117494083 0 0 0 0 -74.947621788846845 174.79823420808691 0 174.79823420808691 -32.70854022408605 0 0 0 0 -648.56955191644374 493.95358674802992 0 493.95358674802992 -363.67560576867254 0 0 0 0 -678.58748748150538 719.49939886399079 0 719.49939886399079 -705.9135255292058 0 0 0 0 -306.57846986572258 192.61012294437387 0 192.61012294437387 -550.86507128618541 0 0 0 0 -192.96021212111009 135.87136919404838 0 135.87136919404838 64.809544148971327 0 0 0 0 -141.6653422031668 73.382330406137044 0 73.382330406137044 -35.318942378551583 0 0 0 0 344.51565144189044 294.56534803993964 0 294.56534803993964 -189.13250758110371 0 0 0 0 -56.113337872676546 118.65797677318189 0 118.65797677318189 -27.450765618194851 0 0 0 0 32.973204283490333 29.786065162545611 0 29.786065162545611 -10.774704783342713 0 0 0 0 -410.41098405240336 189.78733356063458 0 189.78733356063458 -74.144716877010069 0 0 0 0 -59.262918348471089 61.634292674557514 0 61.634292674557514 -11.873652935760788 0 0 0 0 -350.49841027447837 -57.86616253235843 0 -57.86616253235843 14.668725881609134 0 0 0 0 -62.183048232880537 7.0526784909598064 0 7.0526784909598064 -46.809355179197155 0 0 0 0 3.3039480630665139 2.1101415215672432 0 2.1101415215672432 -13.304421806666809 0 0 0 0 -78.904106011501426 0.83369097144532134 0 0.83369097144532134 3.520177527811029 0 0 0 0 -68.819300371149438 13.621417642942106 0 13.621417642942106 -53.290069185197353 0 0 0 0 -47.593901553904288 17.92255728377495 0 17.92255728377495 -94.892099874152336 0 0 0 0 -85.79271412962845 16.518149886924846 0 16.518149886924846 4.5008548576909106 0 0 0 0 -56.551362207130296 -22.338994937606913 0 -22.338994937606913 -153.95237779786112 0 0 0 0 -173.58503463989109 124.41752808972888 0 124.41752808972888 213.46376602654345 0 0 0 0 -4.1203244445059681 -4.2600641369208461 0 -4.2600641369208461 34.386495144819492 0 0 0 0 -54.863218286985159 15.839042969726364 0 15.839042969726364 -6.2161609859034002 0 0 0 0 -9.5262284732584703 247.59015066355073 0 247.59015066355073 -58.323711031931452 0 0 0 0 -59.179031665509683 216.16216651204013 0 216.16216651204013 -208.73213709410629 0 0 0 0 -60.480599618604174 187.5201009381999 0 187.5201009381999 -94.339062417653622 0 0 0 0 61.527495603484567 141.23943910282105 0 141.23943910282105 -219.05903324998508 0 0 0 0 -157.01934385902132 -39.693949757929659 0 -39.693949757929659 -115.17238755751168 0 0 0 0 7.1133919223187831 23.236758203855629 0 23.236758203855629 -11.591912931187295 0 0 0 0 -309.72219175401551 101.76680657522229 0 101.76680657522229 -2.2281696035788627 0 0 0 0 -25.286769696687319 116.50591292247145 0 116.50591292247145 -45.277883799366691 0 0 0 0 -168.59966199687915 34.871685970996623 0 34.871685970996623 3.2358935631127679 0 0 0 0 342.40622583031472 79.954468127376458 0 79.954468127376458 -268.18048376405204 0 0 0 0 109.69641259373748 136.31409124461061 0 136.31409124461061 -83.320474579151778 0 0 0 0 239.34447997603274 117.50908902588708 0 117.50908902588708 -45.253547170912498 0 0 0 0 127.08630897485705 4.6249903075491261 0 4.6249903075491261 -16.126248912731654 0 0 0 0 287.92322757530928 -86.043203658344282 0 -86.043203658344282 -163.72919704951346 0 0 0 0 211.07489383894426 100.6654030558675 0 100.6654030558675 -61.642360679426929 0 0 0 0 4.1793982584713376 33.252220127309556 0 33.252220127309556 71.104417507827748 0 0 0 0 126.50471286579705 97.214539953751228 0 97.214539953751228 -194.48212864185916 0 0 0 0 5.1402144763337105 42.462408511138818 0 42.462408511138818 -45.661163297887242 0 0 0 0 37.557601695189078 59.429755844190367 0 59.429755844190367 -82.611526637716452 0 0 0 0 -20.369787888741513 38.465397063362488 0 38.465397063362488 -33.162092405355907 0 0 0 0 -13.148264669533091 83.935958819485677 0 83.935958819485677 -3.8574769739643671 0 0 0 0 18.991073985598632 49.298480971192475 0 49.298480971192475 -75.15405984211975 0 0 0 0 9.8403150073422125 10.519164008383655 0 10.519164008383655 -10.566397165085959 0 0 0 0 1.3173115045783561 1.7169957292668983 0 1.7169957292668983 -2.0081548822506647 0 0 0 0 126.80582054633851 -137.38261985107602 0 -137.38261985107602 -180.07183827410336 0 0 0 0 -204.97575761799817 -49.068584810534958 0 -49.068584810534958 145.2161655206437 0 0 0 0 863.91938793005829 122.31835498962027 0 122.31835498962027 157.50949698360637 0 0 0 0 643.33890745106692 1031.4821601808289 0 1031.4821601808289 1334.5050053743762 0 0 0 0 826.05387013862492 -247.40077470176038 0 -247.40077470176038 -104.11220218247036 0 0 0 0 8.2836680916740875 4.3095665729766779 0 4.3095665729766779 0.24373790563716824 0 0 0 0 54.348715671498212 118.17882494507649 0 118.17882494507649 314.17136184123228 0 0 0 0 302.34699540937436 121.76673310346087 0 121.76673310346087 -4.0769122427627735 0 0 0 0 41.059686979511753 8.6216487971832976 0 8.6216487971832976 -76.032077016760013 0 0 0 0 -124.31260515100257 159.54340779747508 0 159.54340779747508 -61.48822509625461 0 0 0 0 -84.092636527573632 -12.275278003537096 0 -12.275278003537096 16.235613937872131 0 0 0 0 20.008090727166859 11.418711699680841 0 11.418711699680841 -4.7367267256462853 0 0 0 0 -14.771366529075948 28.134913885088224 0 28.134913885088224 -1.7699399825316959 0 0 0 0 -0.81781196237727727 38.394709893754396 0 38.394709893754396 -21.351405029549777 0 0 0 0 13.792051232288941 34.058099145258893 0 34.058099145258893 7.0702457786537707 0 0 0 0 -21.63588688155204 42.032390879636353 0 42.032390879636353 -13.637503446694893 0 0 0 0 265.64870073916973 223.73674719437258 0 223.73674719437258 117.5646483397868 0 0 0 0 1.4388831730120017 -2.5424500878577589 0 -2.5424500878577589 -1.0168516553588915 0 0 0 0 239.3389105227543 243.9648933708304 0 243.9648933708304 258.54662998492131 0 0 0 0 494.54496332602866 304.89740362562588 0 304.89740362562588 0.45783324420335703 0 0 0 0 949.1013325793956 634.70898676262914 0 634.70898676262914 196.05247129715281 0 0 0 0 949.14526016930176 636.98333126626676 0 636.98333126626676 242.01148968248162 0 0 0 0 188.74917130003087 361.17662164091234 0 361.17662164091234 507.73603234891198 0 0 0 0 -1.7071831007931451 5.2096541341684883 0 5.2096541341684883 -4.3323313523901561 0 0 0 0 -455.41064438124886 72.476758625853108 0 72.476758625853108 -91.022634555294644 0 0 0 0 -235.0404952896788 310.96049520846282 0 310.96049520846282 -755.48157672336674 0 0 0 0 -520.262231704226 378.69513671394088 0 378.69513671394088 -41.945968358122627 0 0 0 0 238.73608131888614 -121.18584435226512 0 -121.18584435226512 -443.11725170548016 0 0 0 0 -1534.7205730389978 1208.1971661254065 0 1208.1971661254065 -719.86594195689486 0 0 0 0 -22.260081778862514 203.2170173903869 0 203.2170173903869 -1.1852329739340348 0 0 0 0 -105.59398362136562 124.36855785649095 0 124.36855785649095 -44.332639799569733 0 0 0 0 -5.6938957974052755 13.580660616440582 0 13.580660616440582 -6.3312167919357307 0 0 0 0 -6.463940628368448 -1.4275831275575683 0 -1.4275831275575683 2.3765223554023578 0 0 0 0 -29.168226701333879 17.722543826708915 0 17.722543826708915 -6.402642331077157 0 0 0 0 -73.002399808436166 38.03369532963552 0 38.03369532963552 -11.75337006618247 0 0 0 0 -9.6160409375734162 15.968640612671152 0 15.968640612671152 -1.8676843906869181 0 0 0 0 -11.542302474467135 13.335809876007801 0 13.335809876007801 -6.206862190740992 0 0 0 0 -53.680344366643112 47.724029304328724 0 47.724029304328724 -35.18064421856252 0 0 0 0 -82.620191725902259 -106.71383916574996 0 -106.71383916574996 -39.040961625971249 0 0 0 0 -279.47885083162691 6.034175735374447 0 6.034175735374447 189.33393048099242 0 0 0 0 4.9069775506504811 28.749091326622874 0 28.749091326622874 -8.1356406459672144 0 0 0 0 -24.636084157110872 22.719838699239233 0 22.719838699239233 -1.0437897213384986 0 0 0 0 -29.243668545503169 22.119813080353197 0 22.119813080353197 151.13140183634823 0 0 0 0 291.06729942281527 -23.781692978554929 0 -23.781692978554929 -20.825288701744284 0 0 0 0 -25.071455125805116 10.690319023044054 0 10.690319023044054 4.9020024813913778 0 0 0 0 -486.08621479064459 -123.87277049775003 0 -123.87277049775003 104.56180865739589 0 0 0 0 3.445078097312944 29.061442974532838 0 29.061442974532838 -7.0068427367077675 0 0 0 0 -8.2703103558014277 3.0125224294466193 0 3.0125224294466193 -1.6814425539474769 0 0 0 0 4.0398732088215183 28.203474919515429 0 28.203474919515429 -5.9345226431614719 0 0 0 0 -64.25634489805816 18.918881689554837 0 18.918881689554837 21.173549294297118 0 0 0 0 -157.16721283542574 2.1772613212815486 0 2.1772613212815486 24.191286095781834 0 0 0 0 -105.35319622134557 107.14045501789951 0 107.14045501789951 28.3346013273258 0 0 0 0 -9.7986254403949715 51.11640938394703 0 51.11640938394703 4.991823208387359 0 0 0 0 -209.70615188580996 204.87245964687099 0 204.87245964687099 -112.9089000223903 0 0 0 0 -21.653133801257354 -5.6224196693801787 0 -5.6224196693801787 -31.550623458810151 0 0 0 0 -314.41123249613156 -122.07787661803013 0 -122.07787661803013 -64.909890041890321 0 0 0 0 79.340244453269406 11.690716252065613 0 11.690716252065613 -42.329014255577931 0 0 0 0 -0.33704676580865112 -1.6179987844336097 0 -1.6179987844336097 -0.64856159309636041 0 0 0 0 -1560.1238975223096 840.43882708292222 0 840.43882708292222 -109.84581402169715 0 0 0 0 -1714.8150032067861 231.78648982230516 0 231.78648982230516 405.15844091668259 0 0 0 0 -869.19398646714399 -489.47700180049287 0 -489.47700180049287 629.04076284897747 0 0 0 0 -2235.9063616646454 645.04076199144765 0 645.04076199144765 909.69469355168621 0 0 0 0 -3504.5374093507271 1185.8683696012158 0 1185.8683696012158 533.87312320177443 0 0 0 0 -2164.5927217125864 846.92859191517164 0 846.92859191517164 -164.79257626016624 0 0 0 0 -6343.9944192108378 1211.9913561840585 0 1211.9913561840585 760.79157936590491 0 0 0 0 4.7246861388848629 27.457147040084237 0 27.457147040084237 -5.3107828423962928 0 0 0 0 -8.5528712717807593 45.011948767549057 0 45.011948767549057 -12.109022535322424 0 0 0 0 29.560205255489564 124.40327531602816 0 124.40327531602816 -1132.5420783129084 0 0 0 0 5.5818625346146291 27.920825694571249 0 27.920825694571249 -6.8390745621873066 0 0 0 0 5.3431207585963421 28.422604827588657 0 28.422604827588657 -7.892473522661021 0 0 0 0 -143.08517524518538 31.774631909385789 0 31.774631909385789 193.68683937352034 0 0 0 0 700.50508696300676 293.42694373356062 0 293.42694373356062 -118.00010697357357 0 0 0 0 -224.51186827680795 462.27506823014119 0 462.27506823014119 -123.46548978085048 0 0 0 0 -747.76682917750441 57.981266437593149 0 57.981266437593149 225.2709918282635 0 0 0 0 -548.81735924066743 2807.2140986920567 0 2807.2140986920567 -2428.7153532784796 0 0 0 0 883.31275270097558 -461.22503612265064 0 -461.22503612265064 -1860.0113207265968 0 0 0 0 -15.426859509195321 9.3648113597203917 0 9.3648113597203917 4.0320800201850489 0 0 0 0 -50.539316098069548 14.162303737930245 0 14.162303737930245 3.0074544377457073 0 0 0 0 -1992.3902280917391 2739.6995407803624 0 2739.6995407803624 -5220.5441470884471 0 0 0 0 -3095.7835016447934 -1559.0796626958836 0 -1559.0796626958836 94.189003218096332 0 0 0 0 -4660.5390259770793 4486.6008937597217 0 4486.6008937597217 -2945.2827050262276 0 0 0 0 -7738.9284641138511 3391.5986833809311 0 3391.5986833809311 -273.03219673829153 0 0 0 0 -4186.3562614033726 2035.9853079304594 0 2035.9853079304594 -1.3218123427504906 0 0 0 0 -1387.7025006680924 1228.2438386931317 0 1228.2438386931317 -1218.9659896899993 0 0 0 0 975.06780803395668 74.869869750196813 0 74.869869750196813 -749.16758974370896 0 0 0 0 -1429.3219162318128 1593.8679780158272 0 1593.8679780158272 -1246.0229322467349 0 0 0 0 -4185.9022238541875 2707.4637047624565 0 2707.4637047624565 -1146.078325799841 0 0 0 0 -1136.803860909713 1767.0932417747681 0 1767.0932417747681 -1183.5834580230403 0 0 0 0 -4057.5807442421356 2995.8702649307525 0 2995.8702649307525 -1505.7560347602121 0 0 0 0 -7694.0919508204415 1690.8480153612688 0 1690.8480153612688 -733.31717582972487 0 0 0 0 -6179.3845972962736 2744.6537840390956 0 2744.6537840390956 -2.1296799914999731 0 0 0 0 -4300.9471780183958 3879.7215014971734 0 3879.7215014971734 -2588.7352043004976 0 0 0 0 -5128.7059759786353 2006.747308722508 0 2006.747308722508 -3000.5538396591437 0 0 0 0 -4058.1979757515073 3367.1478276867711 0 3367.1478276867711 -1362.5017796511238 0 0 0 0 -3825.7997506885526 3712.652466135185 0 3712.652466135185 -1486.2063240179268 0 0 0 0 -3812.6752726928244 3123.3641554028291 0 3123.3641554028291 -1552.4022376126813 0 0 0 0 -5630.1110686637403 4028.8677366893826 0 4028.8677366893826 -1123.5325568759872 0 0 0 0 -4941.0724518755451 3126.3254842360911 0 3126.3254842360911 -208.49585424106044 0 0 0 0 -2979.3695279062958 2137.3318685966951 0 2137.3318685966951 -150.88656343019102 0 0 0 0 -3227.6265325777294 2451.456250389856 0 2451.456250389856 -434.1523618499341 0 0 0 0 -3677.542547259407 3108.5597673885241 0 3108.5597673885241 -989.57060339211603 0 0 0 0 -2916.1397816225799 3049.3353688897769 0 3049.3353688897769 -1615.324755100155 0 0 0 0 -2110.5527363375149 2038.1365307796004 0 2038.1365307796004 -710.05480535133393 0 0 0 0 -3132.7404054860963 2461.160000941738 0 2461.160000941738 -1193.5564804164023 0 0 0 0 -1004.1048568358965 1249.6349329584482 0 1249.6349329584482 -1431.8003999999928 0 0 0 0 -406.37135409421171 159.67898534621054 0 159.67898534621054 -730.15595893234422 0 0 0 0 -2241.9849106064939 1714.2834458952275 0 1714.2834458952275 -532.76310107966128 0 0 0 0 -2051.4989475594589 1840.5937774626809 0 1840.5937774626809 -791.35613832619856 0 0 0 0 -2047.1493293722656 937.16666587958912 0 937.16666587958912 43.029943158966489 0 0 0 0 -342.08506666001631 471.83142456968199 0 471.83142456968199 -429.53387107577873 0 0 0 0 -600.69732550770277 241.0410518237768 0 241.0410518237768 -183.07010265302961 0 0 0 0 -139.33609062751202 478.5418647149163 0 478.5418647149163 -258.02942305081524 0 0 0 0 -738.81121335743228 846.78770391312719 0 846.78770391312719 -741.28264675030368 0 0 0 0 -0.21400507074672337 37.46089684390131 0 37.46089684390131 -45.647238582618002 0 0 0 0 122.99914499543956 -14.919185619422933 0 -14.919185619422933 34.330686395929661 0 0 0 0 137.94928577677638 -26.136007196582796 0 -26.136007196582796 16.055198160698637 0 0 0 0 493.03265396326606 153.2208914649309 0 153.2208914649309 -464.60994574686629 0 0 0 0 46.619760305387899 -420.84003876023053 0 -420.84003876023053 -143.83910964123788 0 0 0 0 -0.54833109500570743 -0.93166405147718478 0 -0.93166405147718478 -0.37966695890281699 0 0 0 0 140.00374099198962 -28.800427533889888 0 -28.800427533889888 -17.505591784691205 0 0 0 0 -34.472747493942734 8.708996256638784 0 8.708996256638784 -92.389215439558029 0 0 0 0 -155.17998612043448 247.02034897526028 0 247.02034897526028 13.801393460133113 0 0 0 0 124.46966979165154 -27.264340190849907 0 -27.264340190849907 103.76041852805065 0 0 0 0 -257.78417709557107 -11.877798365138005 0 -11.877798365138005 392.94460832648474 0 0 0 0 -143.14601334798499 463.17310803571308 0 463.17310803571308 240.63393235229887 0 0 0 0 -576.29757339620846 230.75246588391019 0 230.75246588391019 -284.96298608228972 0 0 0 0 -232.40318282187218 -50.44196718162857 0 -50.44196718162857 13.287118986496353 0 0 0 0 62.129872075980529 -318.12947681614605 0 -318.12947681614605 -42.457448735629441 0 0 0 0 29.264465772197582 3.5087316285644192 0 3.5087316285644192 -385.93426185175485 0 0 0 0 -521.60692985470814 299.18049406544742 0 299.18049406544742 -200.72761610031012 0 0 0 0 -14.835049642635568 29.671016037478694 0 29.671016037478694 241.21010863422998 0 0 0 0 -232.17174618545687 -227.34127023121982 0 -227.34127023121982 -26.697771391016431 0 0 0 0 269.69941241653578 -173.81143776282988 0 -173.81143776282988 -150.30285808289773 0 0 0 0 -29.89870859569055 4.2183295490103774 0 4.2183295490103774 -88.041963653944549 0 0 0 0 -39.976085233371123 -1.1946306288591586 0 -1.1946306288591586 -61.504968489636667 0 0 0 0 -10.662773163119493 15.43430189257964 0 15.43430189257964 -50.827326916951279 0 0 0 0 -47.109200387660223 28.044388821729513 0 28.044388821729513 -18.584931163734737 0 0 0 0 12.822080163838109 93.934963634266751 0 93.934963634266751 -39.411389039072674 0 0 0 0 30.25320252936217 69.689079678078997 0 69.689079678078997 -60.680033608419762 0 0 0 0 273.66988622878853 406.41418231250282 0 406.41418231250282 319.40581266471418 0 0 0 0 -91.658129261719296 -390.54443355921831 0 -390.54443355921831 -386.01531707066169 0 0 0 0 903.04603552716435 158.68098860875762 0 158.68098860875762 -848.95230768603506 0 0 0 0 -45.199340123210277 1602.6222640962151 0 1602.6222640962151 -3690.9041059806186 0 0 0 0 -758.75752140636905 319.0295852897907 0 319.0295852897907 -299.17951919956249 0 0 0 0 -503.25326544753625 539.84184697570163 0 539.84184697570163 -125.51726362644695 0 0 0 0 -77.629444326565135 423.42736382724252 0 423.42736382724252 -538.0765043876454 0 0 0 0 -45.822888254922816 21.499764767791333 0 21.499764767791333 -5.9709315598849457 0 0 0 0 -2997.1223982220399 2944.2664254036645 0 2944.2664254036645 -2868.5185537051293 0 0 0 0 -3917.8698527571978 2201.3670471919759 0 2201.3670471919759 -2579.0327465873706 0 0 0 0 -4642.7627636644902 3334.790042436427 0 3334.790042436427 -2112.9008398248407 0 0 0 0 -1168.1637744287145 2805.856776937726 0 2805.856776937726 -4903.3041751249766 0 0 0 0 -20.357181943781143 11.85802652279088 0 11.85802652279088 -5.2057672734497658 0 0 0 0 -1734.7704994221567 451.18539044588397 0 451.18539044588397 1598.1750344992251 0 0 0 0 -5643.4991825060715 3540.9361510283561 0 3540.9361510283561 -2511.9258356201753 0 0 0 0 -11.062193419259643 11.060720863451621 0 11.060720863451621 -8.426919918799058 0 0 0 0 -4698.5944666870782 3459.3714417496303 0 3459.3714417496303 -1380.1618122090731 0 0 0 0 -397.53789728458651 257.93512954529797 0 257.93512954529797 -1466.941465713986 0 0 0 0 -2533.429525505464 3282.5634261541181 0 3282.5634261541181 -1087.7035210095928 0 0 0 0 -2490.6133007691533 2759.6541721380927 0 2759.6541721380927 -1971.3130342669028 0 0 0 0 -2697.6216192514876 3512.7111156462688 0 3512.7111156462688 -1344.7002382499923 0 0 0 0 -1783.1134903630737 3460.4793789640607 0 3460.4793789640607 -2093.9469287547836 0 0 0 0 -1019.2405640042125 3507.500903610322 0 3507.500903610322 -1775.6454443512921 0 0 0 0 -1953.7077722762624 3814.3434659351587 0 3814.3434659351587 -1832.7115959854273 0 0 0 0 -1874.9412706535222 3250.1662817059987 0 3250.1662817059987 -2541.0432508445228 0 0 0 0 -3393.8218260316644 3487.7054082188406 0 3487.7054082188406 -1943.7981466712954 0 0 0 0 -3520.0294985598539 3881.8169750797115 0 3881.8169750797115 -2652.4946939015354 0 0 0 0 -3628.6664957501416 2458.5344104994142 0 2458.5344104994142 -2371.8867344387982 0 0 0 0 -2102.034092109534 3596.3729100029705 0 3596.3729100029705 -1562.7647601573553 0 0 0 0 -3.1188072360245904 22.050912630321193 0 22.050912630321193 -13.073130396908368 0 0 0 0 -9535.4942462508188 2808.5817009236634 0 2808.5817009236634 -444.97278684844787 0 0 0 0 -5405.0462246629759 4359.3625786522025 0 4359.3625786522025 -2476.6878287076252 0 0 0 0 -4671.4808936658374 2906.7089735255358 0 2906.7089735255358 -1680.5022456516745 0 0 0 0 -4022.1763035401236 2845.2011469069403 0 2845.2011469069403 -1744.6267404422397 0 0 0 0 -4131.452302618447 3236.2976693695819 0 3236.2976693695819 -1188.9507841226878 0 0 0 0 -4177.6578598488413 2620.4701974921481 0 2620.4701974921481 -2397.276088758721 0 0 0 0 -4304.2851920626745 3019.1010690682888 0 3019.1010690682888 -1571.1178889902076 0 0 0 0 -3253.0632118589128 2838.4983457802009 0 2838.4983457802009 -2307.0723154512962 0 0 0 0 -3569.1887404758309 2970.262599843838 0 2970.262599843838 -882.79314104051446 0 0 0 0 -3599.4843588599761 3132.0766001098818 0 3132.0766001098818 -1746.9539937800073 0 0 0 0 -3537.1568633008719 3349.5964603395296 0 3349.5964603395296 -1193.3386542426015 0 0 0 0 -3645.9042030233104 3418.4263622750223 0 3418.4263622750223 -1056.68973299957 0 0 0 0 -3541.868190758978 3269.8302667760145 0 3269.8302667760145 -1241.2865002483231 0 0 0 0 -4083.7908439910825 3074.7427153578683 0 3074.7427153578683 -788.74388597032521 0 0 0 0 -3257.4287998626241 2854.4999362305462 0 2854.4999362305462 -1039.0139156311634 0 0 0 0 -2835.6589352653973 2564.0776158643494 0 2564.0776158643494 -850.26667960376653 0 0 0 0 -3596.5730716135877 3394.3055067937967 0 3394.3055067937967 -1047.7722452101661 0 0 0 0 -3406.5832407257403 3355.6463851493463 0 3355.6463851493463 -1569.5526558947458 0 0 0 0 -3234.9504873410915 3234.2039163474547 0 3234.2039163474547 -1787.5833501519737 0 0 0 0 -2785.3301892715954 2947.2391922733605 0 2947.2391922733605 -1863.1646309606731 0 0 0 0 -3265.1130964260665 3138.2985158926749 0 3138.2985158926749 -1385.5994962301484 0 0 0 0 -2352.9327713681851 2733.288754247711 0 2733.288754247711 -1575.1487905676477 0 0 0 0 -2744.6590694604965 2739.5630524927838 0 2739.5630524927838 -1468.6027058459003 0 0 0 0 -1751.936811226391 3215.6997147574075 0 3215.6997147574075 -3765.8107068628888 0 0 0 0 -110.85095358279068 289.51287676193169 0 289.51287676193169 728.6770440158798 0 0 0 0 1.2242264814933606 8.9689336292714188 0 8.9689336292714188 1.4390688348390341 0 0 0 0 -1136.0826499399845 2070.4493948380987 0 2070.4493948380987 -2765.1934817186993 0 0 0 0 -1901.7514846862759 5018.4148967836518 0 5018.4148967836518 3.5481536384637509 0 0 0 0 -3378.4329649757128 4024.4920010502829 0 4024.4920010502829 -166.70034037315781 0 0 0 0 -2404.3842165284877 3380.1037026314152 0 3380.1037026314152 -2004.7637042713468 0 0 0 0 -15.582076713126753 39.62521152794443 0 39.62521152794443 -50.60337893232645 0 0 0 0 -17.864551358276387 10.320654704508286 0 10.320654704508286 -0.39238344539228365 0 0 0 0 66.107611311890651 -77.983638750825776 0 -77.983638750825776 1.3599211981066337 0 0 0 0 -1058.36981549146 479.99464258106309 0 479.99464258106309 -111.60782336445118 0 0 0 0 -358.32708101106255 835.49391836771247 0 835.49391836771247 -1556.8904619752429 0 0 0 0 11.012076156408398 27.366549753924176 0 27.366549753924176 -0.89504279079258708 0 0 0 0 -2324.9932691503254 2007.5224196523138 0 2007.5224196523138 -715.89273744515958 0 0 0 0 -392.89062578098674 731.2242312264425 0 731.2242312264425 -1011.3459371577774 0 0 0 0 171.49347096792235 495.74832081179761 0 495.74832081179761 660.82481099924189 0 0 0 0 -6.7981831826384429 59.004378583267595 0 59.004378583267595 -23.296803075283265 0 0 0 0 -2.3173833525782843 49.203476988556076 0 49.203476988556076 -26.841968011160191 0 0 0 0 -3339.3689564833039 1659.6966083425141 0 1659.6966083425141 -591.77901020969148 0 0 0 0 2696.0566216302586 1223.7690642970394 0 1223.7690642970394 17.875636560085695 0 0 0 0 -2229.2650695086049 641.88470219597366 0 641.88470219597366 164.44838308420731 0 0 0 0 -2910.2398246996599 2444.9513904439227 0 2444.9513904439227 -1038.0433088072168 0 0 0 0 -4373.9920790234119 1498.3810046660847 0 1498.3810046660847 -161.93666056168149 0 0 0 0 -4073.2294811035827 3285.195560713335 0 3285.195560713335 -1214.8492270165007 0 0 0 0 -1937.5361550854723 1689.1734949944366 0 1689.1734949944366 -3.1877320483035874 0 0 0 0 955.35208024890744 1955.6467822843551 0 1955.6467822843551 741.66558233441356 0 0 0 0 -190.39868995200959 2051.9374801131744 0 2051.9374801131744 1374.8374132410681 0 0 0 0 237.42016238181532 1411.5156304855263 0 1411.5156304855263 660.34240429956117 0 0 0 0 -281.45967979618581 1893.5211503507453 0 1893.5211503507453 635.63832841046769 0 0 0 0 433.59398835393949 856.20010623006965 0 856.20010623006965 4.8994392539898399 0 0 0 0 235.6920871517068 495.21991825479927 0 495.21991825479927 578.24340608657803 0 0 0 0 488.88297515416343 1100.70404583462 0 1100.70404583462 949.21000791239203 0 0 0 0 -0.54738638102719506 6.4117888302783399 0 6.4117888302783399 5.1204788314156531 0 0 0 0 -440.57475888714544 302.73063491285939 0 302.73063491285939 5671.9011794421531 0 0 0 0 187.47342150962504 1891.5441394562877 0 1891.5441394562877 -614.37841732763627 0 0 0 0 134.6758503530873 264.57601223819074 0 264.57601223819074 953.41912932124808 0 0 0 0 -59.76790993161859 25.431885815240037 0 25.431885815240037 10.517039835057773 0 0 0 0 -503.58388771512227 837.32621329537449 0 837.32621329537449 -1409.1844331416651 0 0 0 0 -2211.4052550084598 5333.1793142032257 0 5333.1793142032257 -2643.5930760392803 0 0 0 0 6.4118689691094914 3937.6519900590283 0 3937.6519900590283 -3242.2894859612425 0 0 0 0 -731.32629521869239 -58.447488642064855 0 -58.447488642064855 5294.7419832401938 0 0 0 0 -17.492990985043775 10.746693768132161 0 10.746693768132161 4.9127020835970399 0 0 0 0 -1.1238370990251951 8.0065083303283018 0 8.0065083303283018 3.8684764174549855 0 0 0 0 -1869.991441961567 3807.2379604421876 0 3807.2379604421876 -1787.0403050962341 0 0 0 0 -510.09834472255898 1542.7613744544215 0 1542.7613744544215 4131.1982859569325 0 0 0 0 -498.81743599656329 1339.6413167665232 0 1339.6413167665232 609.98646161315264 0 0 0 0 -53.47341313349898 2481.1304555471725 0 2481.1304555471725 1052.9003876567003 0 0 0 0 0.46009909597341903 2791.7048289021841 0 2791.7048289021841 1767.8959738932172 0 0 0 0 25.56096218417224 2171.6614548645157 0 2171.6614548645157 1017.4477912426446 0 0 0 0 -0.065119035677770831 2813.1086436762312 0 2813.1086436762312 145.37491924797359 0 0 0 0 42.100068977480987 2224.9572316637277 0 2224.9572316637277 -461.10533657036285 0 0 0 0 367.17935915225826 2695.607533090566 0 2695.607533090566 -1455.9634861569211 0 0 0 0 671.18773855820473 2380.1055422537538 0 2380.1055422537538 -86.557594448764576 0 0 0 0 1043.7999472906231 1631.2131233231412 0 1631.2131233231412 802.7802246266383 0 0 0 0 6024.0842433977596 2465.602242835178 0 2465.602242835178 -1320.08169366527 0 0 0 0 -74.613240561215207 4141.4804330130719 0 4141.4804330130719 -1780.5998509096098 0 0 0 0 231.47444437397644 2369.3498223085771 0 2369.3498223085771 -83.769181819332516 0 0 0 0 1149.3657894096978 3067.5979068760316 0 3067.5979068760316 -2185.484379001573 0 0 0 0 -518.65188877139008 3340.6881858508423 0 3340.6881858508423 -1765.5874481548235 0 0 0 0 -660.54255379340611 3759.962159520961 0 3759.962159520961 -2190.1057329634932 0 0 0 0 -1014.100235304209 3351.2164806336395 0 3351.2164806336395 -2054.7422549847106 0 0 0 0 -47.656558269125526 2825.8808581762642 0 2825.8808581762642 -2104.7244278442231 0 0 0 0 -288.12842349123093 3586.800051664919 0 3586.800051664919 -2124.9056374891297 0 0 0 0 57.782252100063488 2482.222994833377 0 2482.222994833377 -2052.9267769366088 0 0 0 0 0.3067401045070533 2838.2360825764522 0 2838.2360825764522 -1352.461173701653 0 0 0 0 -210.90216116633383 2972.2585730453939 0 2972.2585730453939 -1454.27692699412 0 0 0 0 -29.91467473938701 18.516102250037704 0 18.516102250037704 -9.4527959188072259 0 0 0 0 -233.70487307490475 288.74333809033124 0 288.74333809033124 501.7908098292246 0 0 0 0 140.93603134336809 231.38847006317519 0 231.38847006317519 258.00118513852794 0 0 0 0 96.09874010999556 211.47509538859595 0 211.47509538859595 249.33846742023889 0 0 0 0 572.76801871048519 271.58242631747271 0 271.58242631747271 121.93624974910199 0 0 0 0 395.37671356623105 261.87930731612869 0 261.87930731612869 132.05750562685353 0 0 0 0 -211.17227661103243 84.200731900869869 0 84.200731900869869 138.44961562208482 0 0 0 0 -683.43060049983615 125.92436989035923 0 125.92436989035923 154.38267854711739 0 0 0 0 -88.594972121471073 106.07121828197705 0 106.07121828197705 25.609756200574338 0 0 0 0 836.03131888226562 586.45290821845265 0 586.45290821845265 218.96862383830012 0 0 0 0 -26.431181514754481 56.032194537323441 0 56.032194537323441 2.6139439601057575 0 0 0 0 -173.67341678940284 52.186214235800435 0 52.186214235800435 160.45358680457866 0 0 0 0 124.15199202648728 413.76540124862368 0 413.76540124862368 502.18316458130721 0 0 0 0 161.13092272477661 671.05957721766026 0 671.05957721766026 -794.42488551678252 0 0 0 0 572.76893424258924 213.79205418315178 0 213.79205418315178 215.50310108321719 0 0 0 0 -11.522765566876373 6.1063744571949314 0 6.1063744571949314 -1.9143414495578668 0 0 0 0 1886.0620413356719 1075.6209773706432 0 1075.6209773706432 -1795.0574176808295 0 0 0 0 -19.077319740352291 48.569257990050581 0 48.569257990050581 -3.1353962606744972 0 0 0 0 578.36909792537335 46.615909547763295 0 46.615909547763295 1139.3869889474008 0 0 0 0 -135.63152097076454 -43.292333577774116 0 -43.292333577774116 -21.181641695002327 0 0 0 0 720.00473579329446 551.46116030782105 0 551.46116030782105 602.61553833886865 0 0 0 0 1329.1621082011698 -381.63624148853705 0 -381.63624148853705 804.71062027318112 0 0 0 0 2.3295060816257234 -6.8537992857722898 0 -6.8537992857722898 -3.3150535969402881 0 0 0 0 -3503.1532513107813 1139.318030758528 0 1139.318030758528 -376.91929101708229 0 0 0 0 329.25942923727962 1174.3870366157134 0 1174.3870366157134 -1012.2727534138539 0 0 0 0 846.03237640337829 1073.119463573863 0 1073.119463573863 -630.31410550218425 0 0 0 0 737.79420608353394 542.28439558288665 0 542.28439558288665 -135.36649865008076 0 0 0 0 1166.1685320147808 474.52013135072775 0 474.52013135072775 -428.88920974422945 0 0 0 0 -911.93129543650866 1067.1505549685753 0 1067.1505549685753 -231.28108754873392 0 0 0 0 284.85987579068569 334.31266557643175 0 334.31266557643175 99.00001249750494 0 0 0 0 -187.6081658679268 220.89316425797369 0 220.89316425797369 333.58559676664299 0 0 0 0 -275.57896456107301 114.3073181679174 0 114.3073181679174 671.57877086405642 0 0 0 0 17.189717852670583 232.50736058154871 0 232.50736058154871 324.93390203107265 0 0 0 0 65.687996294404002 138.48768132221448 0 138.48768132221448 97.170502759923693 0 0 0 0 38.020279146774556 77.38962563527457 0 77.38962563527457 -30.008095772500383 0 0 0 0 -104.85356794259133 -23.404606526877615 0 -23.404606526877615 102.39928523416165 0 0 0 0 236.76002722466001 348.22510401982436 0 348.22510401982436 105.0096879919729 0 0 0 0 138.31694817680909 -261.39791866433006 0 -261.39791866433006 484.58997655959683 0 0 0 0 5.5022455888264048 3.682564408286396 0 3.682564408286396 13.080265711352581 0 0 0 0 -142.28395396174528 5.5296179684592062 0 5.5296179684592062 2.7564765943097882 0 0 0 0 -192.31258887305694 82.077193232059471 0 82.077193232059471 -3.9601890264311805 0 0 0 0 -14.463144065912914 21.781879453876485 0 21.781879453876485 32.851675870576628 0 0 0 0 -180.40462762478273 -7.5724385679786792 0 -7.5724385679786792 86.437425924581476 0 0 0 0 -61.771531076559768 -36.347427971457364 0 -36.347427971457364 35.431142670036934 0 0 0 0 18.071588644874282 -18.945639652694808 0 -18.945639652694808 54.32638854511606 0 0 0 0 -510.82311865311931 69.631565099902218 0 69.631565099902218 217.02517024456756 0 0 0 0 -389.92168236354701 314.04541563454404 0 314.04541563454404 233.90121875295881 0 0 0 0 -286.15833104356125 170.45219304871762 0 170.45219304871762 -72.767275040561799 0 0 0 0 -201.21072445810205 303.16086283996265 0 303.16086283996265 140.0386345830193 0 0 0 0 -285.274674403365 132.85908122999581 0 132.85908122999581 520.92582015061635 0 0 0 0 -257.84025072251825 338.24201690487098 0 338.24201690487098 195.69008891133126 0 0 0 0 -279.12400713889292 264.23860146650986 0 264.23860146650986 30.251389878074406 0 0 0 0 5.5577956981057746 44.680819870348451 0 44.680819870348451 69.641331181819965 0 0 0 0 38.990219919778468 64.438481052676138 0 64.438481052676138 67.896202461205348 0 0 0 0 -80.703451576333464 31.977367025188869 0 31.977367025188869 -49.193839614890749 0 0 0 0 -77.90481678703145 417.28626635041655 0 417.28626635041655 669.56841374162468 0 0 0 0 -230.09554645360367 312.79799662097867 0 312.79799662097867 1035.8373851115757 0 0 0 0 390.37923201547164 686.85085979333235 0 686.85085979333235 -22.751958240667591 0 0 0 0 -45.433352782033651 30.683480721456846 0 30.683480721456846 -23.450847894146023 0 0 0 0 -89.804287872888381 -525.63096886285348 0 -525.63096886285348 300.12884757823849 0 0 0 0 52.516647735807055 322.15269645958324 0 322.15269645958324 137.26457981737622 0 0 0 0 -47.846807823359995 163.74299711144704 0 163.74299711144704 -36.853813173685921 0 0 0 0 -64.99084423116858 54.226047074724534 0 54.226047074724534 -17.033091513141471 0 0 0 0 -195.44466912152348 420.73975173510917 0 420.73975173510917 -122.35039560560836 0 0 0 0 -71.329287823307823 140.50013910899725 0 140.50013910899725 -378.06675464424188 0 0 0 0 -98.202987144613871 60.773886317154393 0 60.773886317154393 427.06924876195262 0 0 0 0 -21.916817717807135 121.47058242189087 0 121.47058242189087 851.01544525862118 0 0 0 0 -8.4501391801890406 13.616544071459373 0 13.616544071459373 4.130441378744024 0 0 0 0 6.7752637060488894 -4.3468820293426234 0 -4.3468820293426234 -5.4984518804785978 0 0 0 0 55.310964859032538 594.98896460085962 0 594.98896460085962 -488.62572747122613 0 0 0 0 -9.1824643560766557 103.39411423608907 0 103.39411423608907 69.4473454417178 0 0 0 0 399.43978037966644 -243.15987801985648 0 -243.15987801985648 578.90235392999602 0 0 0 0 90.752080834092993 156.6835642697053 0 156.6835642697053 99.625710629955961 0 0 0 0 -97.509998882145737 375.59709341116832 0 375.59709341116832 32.967419084219728 0 0 0 0 50.389642208032981 140.1153340033153 0 140.1153340033153 84.764706698790462 0 0 0 0 -41.299018775069271 360.09170321887359 0 360.09170321887359 28.857303473540469 0 0 0 0 -18.376269164300538 114.08133393229218 0 114.08133393229218 61.414851249777712 0 0 0 0 -8.7936403384437085 97.215698904393449 0 97.215698904393449 79.586077986878138 0 0 0 0 -106.61071410031036 427.25097174256189 0 427.25097174256189 -252.27132747310679 0 0 0 0 -135.56624871978056 503.25522613967769 0 503.25522613967769 0.58487340729334392 0 0 0 0 -10.333702893658426 104.67962090054817 0 104.67962090054817 96.687304666370267 0 0 0 0 -18.40389293345288 111.64199085955624 0 111.64199085955624 158.2413338037004 0 0 0 0 -94.012541166190204 88.376993366081479 0 88.376993366081479 262.30702427701908 0 0 0 0 -75.685306508312266 41.170483564763146 0 41.170483564763146 109.70626935390047 0 0 0 0 42.174568832077057 131.61313128102483 0 131.61313128102483 216.83604384358208 0 0 0 0 -16.153004830273858 105.16362440442026 0 105.16362440442026 123.0506495978334 0 0 0 0 -140.24418182049885 180.85125676350435 0 180.85125676350435 251.57616322953254 0 0 0 0 -31.110126189320738 94.041828449060091 0 94.041828449060091 131.60976048806504 0 0 0 0 180.49580576784592 204.19260944312555 0 204.19260944312555 228.799963551166 0 0 0 0 16.157985089051408 303.33915130929381 0 303.33915130929381 215.9871229198468 0 0 0 0 14.238092175825917 41.011073041888736 0 41.011073041888736 -15.688014463084187 0 0 0 0 -70.64431284618513 246.54205016936612 0 246.54205016936612 299.49971172052028 0 0 0 0 8.4770699998405306 104.83963805301597 0 104.83963805301597 248.32342932421244 0 0 0 0 -104.05981022374908 297.00757298292592 0 297.00757298292592 242.1651624544611 0 0 0 0 -52.803014594417974 69.6425876836405 0 69.6425876836405 12.817703271088121 0 0 0 0 -106.39740504686051 72.210129217884969 0 72.210129217884969 276.16795678371273 0 0 0 0 -210.87288726805127 149.00778287371941 0 149.00778287371941 314.18875713889429 0 0 0 0 36.704787982932103 87.869409973207112 0 87.869409973207112 200.1047311459505 0 0 0 0 -314.22178372280541 199.57878060057556 0 199.57878060057556 275.48303284648136 0 0 0 0 -198.39183367714213 179.16534896371377 0 179.16534896371377 234.33649834778043 0 0 0 0 -190.99151634049122 83.33345615044891 0 83.33345615044891 252.80720317934174 0 0 0 0 -43.311151242654887 186.23223781198612 0 186.23223781198612 156.97669040127221 0 0 0 0 -62.124464949603862 184.66808937679889 0 184.66808937679889 262.76682017643179 0 0 0 0 -47.392987070023082 216.55448514094587 0 216.55448514094587 304.85294523485936 0 0 0 0 173.38702712954478 321.22068276830419 0 321.22068276830419 221.38359910261352 0 0 0 0 172.04458950879842 405.95826530625607 0 405.95826530625607 115.45709733635886 0 0 0 0 -20.050219116645167 120.91675981745357 0 120.91675981745357 286.07681207775022 0 0 0 0 92.994330090428775 137.49894948761539 0 137.49894948761539 198.10792155413947 0 0 0 0 59.835018877740367 228.19878495617013 0 228.19878495617013 200.86786327405207 0 0 0 0 241.79959443307598 223.22153482334397 0 223.22153482334397 234.22626093815234 0 0 0 0 257.31652497107643 301.05924611135379 0 301.05924611135379 134.84809330565622 0 0 0 0 -8.552299627253845 3.9335193147872474 0 3.9335193147872474 5.5309555186747161 0 0 0 0 -336.58497985509166 265.62106266280171 0 265.62106266280171 90.684350572759286 0 0 0 0 -415.84828770727472 -41.120106518574175 0 -41.120106518574175 47.981570577627281 0 0 0 0 223.68683711521589 193.18293349190935 0 193.18293349190935 -32.461912438433501 0 0 0 0 -8.0011908306987607 43.809125949643203 0 43.809125949643203 136.54902215229231 0 0 0 0 59.004988912906356 122.92504074526732 0 122.92504074526732 106.1696008471481 0 0 0 0 55.042020230823255 164.93186050490476 0 164.93186050490476 -60.141165165201528 0 0 0 0 -172.01374931547412 105.49440701154822 0 105.49440701154822 143.21935640828451 0 0 0 0 -16.989535664477444 313.30143798668723 0 313.30143798668723 140.22213996729988 0 0 0 0 63.95101673771569 425.54259639901284 0 425.54259639901284 260.32549538665808 0 0 0 0 -179.4087198850757 324.71418773781625 0 324.71418773781625 281.88497651554644 0 0 0 0 136.06942633038125 220.01062336863833 0 220.01062336863833 185.77068225084804 0 0 0 0 125.07169626501582 182.932665998429 0 182.932665998429 101.34956120399875 0 0 0 0 177.17265917207806 297.61495692616154 0 297.61495692616154 110.86767459109251 0 0 0 0 262.33277986290523 165.63595454308961 0 165.63595454308961 103.31262353192142 0 0 0 0 -637.803094479008 335.87146338603634 0 335.87146338603634 48.580516762252955 0 0 0 0 79.257767802464514 232.55386744207135 0 232.55386744207135 -98.403976746107219 0 0 0 0 -26.585875547142578 54.925644072163912 0 54.925644072163912 11.928804066156772 0 0 0 0 -25.211712159218962 51.240004390707369 0 51.240004390707369 24.659427906211704 0 0 0 0 303.3087840428343 52.368380414187413 0 52.368380414187413 -0.80974359984975308 0 0 0 0 318.47914194312762 131.12630395410088 0 131.12630395410088 47.96549137783586 0 0 0 0 -339.56313327635871 -40.768757952522719 0 -40.768757952522719 67.130525836400921 0 0 0 0 218.76681852688489 -123.99620964089991 0 -123.99620964089991 -336.25289973555482 0 0 0 0 -474.34271677487413 428.67157733377098 0 428.67157733377098 -279.69846421357943 0 0 0 0 -29.845376226175262 9.5776030838627264 0 9.5776030838627264 -1.5720680255477077 0 0 0 0 -245.86714235317049 -189.66761190667603 0 -189.66761190667603 349.5152744781517 0 0 0 0 -22.623292564005169 98.862585394177586 0 98.862585394177586 434.15118626083131 0 0 0 0 -72.020229422298144 94.630992008576868 0 94.630992008576868 92.476667176495539 0 0 0 0 -5.4466466400044737 -6.5425351458397927 0 -6.5425351458397927 41.496312046670937 0 0 0 0 -16.765015492702673 29.827179427148678 0 29.827179427148678 5.1017094977144097 0 0 0 0 21.100217854313087 82.141791550500784 0 82.141791550500784 49.664955980062587 0 0 0 0 73.874927591459709 56.065111945863464 0 56.065111945863464 88.951960389065789 0 0 0 0 -29.713773744240633 49.292662506158365 0 49.292662506158365 43.578118418906342 0 0 0 0 -114.19008453926654 61.229530059499666 0 61.229530059499666 70.977386002381536 0 0 0 0 -26.681064957767376 17.868322540314693 0 17.868322540314693 58.394432422530372 0 0 0 0 -377.78134617977776 133.2833695313675 0 133.2833695313675 157.16998809674988 0 0 0 0 -241.05793533664109 -47.306922908013803 0 -47.306922908013803 46.423364682559622 0 0 0 0 -12.71312644831653 4.5346605871265808 0 4.5346605871265808 -0.11126217641702851 0 0 0 0 -1101.8972918900981 -265.23958322402905 0 -265.23958322402905 -17.935495791793073 0 0 0 0 -37.82924625861051 42.606426404570811 0 42.606426404570811 13.938463276859693 0 0 0 0 -438.54704594110808 -253.26463094062638 0 -253.26463094062638 -19.605292740045115 0 0 0 0 -1522.0700434288883 568.11729496587941 0 568.11729496587941 3.1813141255042865 0 0 0 0 -902.78286183588352 183.16264072451304 0 183.16264072451304 191.71304355896427 0 0 0 0 -637.73031242477009 373.94545538025704 0 373.94545538025704 45.74420131550869 0 0 0 0 -528.42276121565601 376.45018941060243 0 376.45018941060243 142.56339118198957 0 0 0 0 -512.20264659442182 98.561377942300169 0 98.561377942300169 209.38647511829186 0 0 0 0 -331.67278257821454 311.49201608983276 0 311.49201608983276 160.46957016967644 0 0 0 0 -258.73970337849278 486.29814012001225 0 486.29814012001225 115.1164939707669 0 0 0 0 -279.92393465974601 428.43221835957957 0 428.43221835957957 86.708967868340551 0 0 0 0 85.638089651438349 450.63461909483158 0 450.63461909483158 31.135787482751766 0 0 0 0 -130.46878469463263 606.64453939307714 0 606.64453939307714 1.0279911639809143 0 0 0 0 -152.47689062254358 427.17324940615799 0 427.17324940615799 -25.662969466531649 0 0 0 0 50.158283820310317 498.87618705625937 0 498.87618705625937 -124.83212654155795 0 0 0 0 -527.55033409733005 612.21935969907645 0 612.21935969907645 -8.5269384492130484 0 0 0 0 -596.95331368472398 324.66555762285134 0 324.66555762285134 104.91473579365993 0 0 0 0 -211.48524149913283 559.58773413591189 0 559.58773413591189 -311.43409263584181 0 0 0 0 -474.52961014091852 330.66376699320972 0 330.66376699320972 -144.37842031463515 0 0 0 0 -321.47726925583265 270.33272381684219 0 270.33272381684219 -239.87831382713921 0 0 0 0 -307.23101083403162 311.63627755818015 0 311.63627755818015 -312.009461004287 0 0 0 0 137.78468893111858 423.99363824090688 0 423.99363824090688 -122.4613544967724 0 0 0 0 -97.32114262021787 313.55474021770351 0 313.55474021770351 -30.879281431167328 0 0 0 0 -153.99184192086977 415.96230057562934 0 415.96230057562934 -172.46627165479003 0 0 0 0 -293.64573826077685 255.92687530450348 0 255.92687530450348 -101.31307553993975 0 0 0 0 -93.028492043851656 326.35674782950446 0 326.35674782950446 -155.79169021683629 0 0 0 0 -91.658897301025718 311.03198645906741 0 311.03198645906741 -24.1006705192558 0 0 0 0 152.6109770325711 277.80527579622867 0 277.80527579622867 -167.84302957411273 0 0 0 0 -294.92485194528854 209.72435102659801 0 209.72435102659801 -110.55118177965051 0 0 0 0 -100.60328494787245 366.19514838856412 0 366.19514838856412 -136.85829577091499 0 0 0 0 -671.39047474561085 160.38881270604907 0 160.38881270604907 166.90221144614043 0 0 0 0 -568.82475853982032 60.180946854496142 0 60.180946854496142 -176.13883140903636 0 0 0 0 -354.68059870886646 259.6568182986739 0 259.6568182986739 1.1292724134982564 0 0 0 0 -593.35989806258294 159.15473074329202 0 159.15473074329202 150.64391228790919 0 0 0 0 76.004909031340503 287.31544745247811 0 287.31544745247811 24.03939994686516 0 0 0 0 -595.49920071140514 109.41518059378723 0 109.41518059378723 418.97926443908364 0 0 0 0 257.88410773575742 -148.21915340690612 0 -148.21915340690612 132.5494710036437 0 0 0 0 -187.89879271827522 -128.90844127719174 0 -128.90844127719174 427.75874043084332 0 0 0 0 -3.1259352133344329 8.6498707081875494 0 8.6498707081875494 -5.2942120627430995 0 0 0 0 -2130.1324982874212 276.63072103662125 0 276.63072103662125 361.76569681763067 0 0 0 0 936.24035175722747 668.59069925416406 0 668.59069925416406 -587.07856521353824 0 0 0 0 -582.65430744674813 223.42788550614932 0 223.42788550614932 -71.873223284550477 0 0 0 0 -1227.0525995397184 -304.29820560911321 0 -304.29820560911321 163.99054614063061 0 0 0 0 -1610.8367573121359 -201.28544969976065 0 -201.28544969976065 303.16255418176297 0 0 0 0 -1542.7218240419315 585.09379956012708 0 585.09379956012708 -43.001953420112841 0 0 0 0 -446.61875784582662 983.63087321382773 0 983.63087321382773 -282.623549774813 0 0 0 0 -1373.8349556948742 1068.2865088874969 0 1068.2865088874969 -602.03475232480559 0 0 0 0 681.94786059350008 -29.387876129185315 0 -29.387876129185315 -988.10047879081685 0 0 0 0 -473.17675013566986 386.56184094163268 0 386.56184094163268 -1168.970329762873 0 0 0 0 -842.2930014782396 -113.70497732279182 0 -113.70497732279182 -88.849676531244768 0 0 0 0 -1001.0344615878712 418.27622459524719 0 418.27622459524719 80.903967168327654 0 0 0 0 -42.886063927988289 1415.9056217904144 0 1415.9056217904144 -438.28059504320845 0 0 0 0 -75.138075974365591 151.38763925602677 0 151.38763925602677 45.859439871862094 0 0 0 0 1003.967270849229 309.05397051169712 0 309.05397051169712 26.172367814870086 0 0 0 0 38.857818913315299 21.117988930086099 0 21.117988930086099 -26.506504732317296 0 0 0 0 19.078670467162738 4.8590666235977551 0 4.8590666235977551 141.05855983121728 0 0 0 0 51.387306068994803 6.031864798424067 0 6.031864798424067 118.42862681464612 0 0 0 0 -1527.7647939783201 -344.62672500821645 0 -344.62672500821645 209.25471956002002 0 0 0 0 -224.86867466979857 529.25456938956449 0 529.25456938956449 -205.11415930543444 0 0 0 0 -12.801474092940815 37.508585196602397 0 37.508585196602397 -50.032102343537588 0 0 0 0 -2017.8770776203455 -503.38719149315875 0 -503.38719149315875 319.32163511280305 0 0 0 0 564.41950854520837 301.43208241547109 0 301.43208241547109 152.08401703234267 0 0 0 0 521.97551836087223 271.89260226768965 0 271.89260226768965 -56.331351894739782 0 0 0 0 808.5111585685645 516.6176690238317 0 516.6176690238317 -17.449154024448944 0 0 0 0 165.38121556231636 558.32821066044562 0 558.32821066044562 63.803586210502544 0 0 0 0 472.81863770730524 468.93709135882818 0 468.93709135882818 -28.601584649673896 0 0 0 0 376.92079489881871 413.6446221669903 0 413.6446221669903 15.142841655841039 0 0 0 0 572.35511004435102 485.70625602244399 0 485.70625602244399 -55.200381442846265 0 0 0 0 350.57918818312464 542.49819173102151 0 542.49819173102151 54.346444395690924 0 0 0 0 54.687297655608745 451.22276392937511 0 451.22276392937511 93.06195195595501 0 0 0 0 200.62594802472267 301.30041246224209 0 301.30041246224209 76.896260386361973 0 0 0 0 604.2716129228138 344.26784704811143 0 344.26784704811143 -130.73696556960931 0 0 0 0 171.50064748650129 374.07672135998109 0 374.07672135998109 -24.174295069329673 0 0 0 0 451.41980662706919 226.1594070870633 0 226.1594070870633 -213.53460834240832 0 0 0 0 1059.7540642746462 23.378426640134421 0 23.378426640134421 -1.6397058199509047 0 0 0 0 567.06008701158134 435.38624323903059 0 435.38624323903059 -326.23850518997642 0 0 0 0 620.19558793721944 457.3935543508087 0 457.3935543508087 252.76802237101947 0 0 0 0 1427.5694325761287 479.54822904598404 0 479.54822904598404 -66.205853455816396 0 0 0 0 -9.5741273039248966 28.991351402747664 0 28.991351402747664 -22.42846337355661 0 0 0 0 1981.4441436832385 523.62093448565793 0 523.62093448565793 -671.50581102771685 0 0 0 0 -3.9661256048821443 10.758824278461113 0 10.758824278461113 -6.0113984936032239 0 0 0 0 -2636.9901690996885 -522.29192254337249 0 -522.29192254337249 475.08491350310578 0 0 0 0 -73.99835370290748 582.60715175471705 0 582.60715175471705 -369.85661975103721 0 0 0 0 -56.158235916482376 166.0814532886121 0 166.0814532886121 -9.7602432148544835 0 0 0 0 923.86841705659754 388.31421977284481 0 388.31421977284481 58.190248168002654 0 0 0 0 -155.68219560116268 136.44517884247762 0 136.44517884247762 -1122.6413755713074 0 0 0 0 115.72011708080754 404.92180408171043 0 404.92180408171043 -1347.5097839354421 0 0 0 0 -60.60407678082948 173.11593044670227 0 173.11593044670227 -37.871812796063182 0 0 0 0 535.66093065778114 966.37325608900574 0 966.37325608900574 -753.49289594090078 0 0 0 0 -433.16316834220561 433.04851982575929 0 433.04851982575929 -633.05434182086901 0 0 0 0 658.65835359605262 579.77905097381154 0 579.77905097381154 -954.51225387235172 0 0 0 0 845.44127638075588 375.38345925125031 0 375.38345925125031 -787.56437924745842 0 0 0 0 628.61842441757472 251.85352357696684 0 251.85352357696684 -398.5240293192619 0 0 0 0 466.99768198211677 471.49567316107277 0 471.49567316107277 -696.36262569061364 0 0 0 0 124.98024298807286 441.06494743080111 0 441.06494743080111 -343.77474413905293 0 0 0 0 357.79613526456524 356.38258550224418 0 356.38258550224418 -412.88264956069179 0 0 0 0 469.69430163042125 584.82628850467154 0 584.82628850467154 -823.27356973677524 0 0 0 0 133.51322376161261 513.56616931133613 0 513.56616931133613 -522.97651549667353 0 0 0 0 615.64993577318819 437.30606602480111 0 437.30606602480111 -703.09807047233699 0 0 0 0 523.1735364332053 595.69159913202748 0 595.69159913202748 -831.14521185378544 0 0 0 0 737.11998855544516 719.65767918204801 0 719.65767918204801 -768.43398894241545 0 0 0 0 312.37232990132179 177.43225422562682 0 177.43225422562682 -178.98681065164146 0 0 0 0 422.77269589524803 719.97280779431458 0 719.97280779431458 -202.08963098854292 0 0 0 0 320.54434899907938 523.34275242780859 0 523.34275242780859 -546.76084287042613 0 0 0 0 893.03614442051912 499.69669525894278 0 499.69669525894278 -591.98459554549481 0 0 0 0 694.96428634062704 461.34235304600952 0 461.34235304600952 -805.4600912265596 0 0 0 0 306.03727974155481 577.17801741126459 0 577.17801741126459 -805.20390113763278 0 0 0 0 8.334520316679118 576.3997040682807 0 576.3997040682807 -652.98250879117404 0 0 0 0 342.69116043923168 438.68321716116043 0 438.68321716116043 -892.26066453973181 0 0 0 0 286.18609878283951 383.27393078024943 0 383.27393078024943 -560.57438121625455 0 0 0 0 -183.93352082392994 255.21921771304369 0 255.21921771304369 -786.04045705508906 0 0 0 0 13.098351052827638 423.48506488717976 0 423.48506488717976 -1086.49611143324 0 0 0 0 -751.78483630837582 199.75266001727141 0 199.75266001727141 -186.76680461498836 0 0 0 0 -1052.0419437481978 580.50667294738378 0 580.50667294738378 -14.613763812754769 0 0 0 0 -1438.9623710342421 173.91670882234757 0 173.91670882234757 -183.01958050770554 0 0 0 0 -0.64638766133370495 0.068416847445803342 0 0.068416847445803342 -3.4053674245462844 0 0 0 0 92.671566875149438 -214.38199263739807 0 -214.38199263739807 78.977580531791318 0 0 0 0 -2367.5619367532563 1124.1301532966463 0 1124.1301532966463 952.93502078269375 0 0 0 0 -6.3540194840546178 16.433018921068559 0 16.433018921068559 -14.493584332414684 0 0 0 0 -1495.8195578540981 -311.01888005482033 0 -311.01888005482033 -521.9206111356616 0 0 0 0 -419.87809892518271 -387.2949177893388 0 -387.2949177893388 217.63789292692672 0 0 0 0 -578.33843858311229 -350.70248285515481 0 -350.70248285515481 243.93165039992891 0 0 0 0 -1366.8853162232554 -4.1121307617868297 0 -4.1121307617868297 129.21158496958014 0 0 0 0 -695.43583882874191 325.40894946682602 0 325.40894946682602 72.089313465141458 0 0 0 0 -678.20119316861383 151.27391394786537 0 151.27391394786537 396.81129715425777 0 0 0 0 -730.03426937078984 431.35407285117071 0 431.35407285117071 148.0351117310347 0 0 0 0 -678.6398603568814 292.552187729656 0 292.552187729656 280.64900091348682 0 0 0 0 -596.5879047285016 362.68608500393748 0 362.68608500393748 79.073807235865388 0 0 0 0 -513.98043009459798 296.68266034359112 0 296.68266034359112 -7.3973108387144748 0 0 0 0 -431.69145164423389 602.52237292622158 0 602.52237292622158 -248.68441701604752 0 0 0 0 -655.84171833089931 413.8980726487498 0 413.8980726487498 54.410676639876328 0 0 0 0 -711.90645543794381 500.75815838968265 0 500.75815838968265 6.2879879044776317 0 0 0 0 -9.2943133535882225 301.52974985416222 0 301.52974985416222 -162.3883144456704 0 0 0 0 -260.87512243842866 465.44418501471955 0 465.44418501471955 -205.23640128364787 0 0 0 0 -360.26272409940429 520.48866446127067 0 520.48866446127067 -208.21708851304902 0 0 0 0 -280.59373574012716 856.30157046164095 0 856.30157046164095 -654.32398901546549 0 0 0 0 108.97625937439443 616.6314496625273 0 616.6314496625273 -509.5819598142989 0 0 0 0 -558.42797118937597 653.83322410559049 0 653.83322410559049 -263.17952403079107 0 0 0 0 -607.037039648676 722.2890887997346 0 722.2890887997346 -316.92280640875106 0 0 0 0 -459.09566673716108 931.72203958368118 0 931.72203958368118 -980.11385947544477 0 0 0 0 -1452.8333029031928 1059.9279570358776 0 1059.9279570358776 -451.59496619724086 0 0 0 0 -423.04148678272759 1023.0753686912067 0 1023.0753686912067 -882.69225188627024 0 0 0 0 52.084546143232728 584.75626721337903 0 584.75626721337903 -991.4187790160322 0 0 0 0 -1289.4099451765505 1009.4959840502415 0 1009.4959840502415 -887.64816621333011 0 0 0 0 67.129199776085443 679.1088924837095 0 679.1088924837095 -733.02152353723068 0 0 0 0 254.69933527802641 834.68675322637137 0 834.68675322637137 -787.21466169084306 0 0 0 0 376.39563735718548 519.03726304780866 0 519.03726304780866 -794.80393373633387 0 0 0 0 113.30222624368616 74.678485631317017 0 74.678485631317017 -694.26803635200486 0 0 0 0 137.45115760134649 712.06715631307452 0 712.06715631307452 -804.7328669844137 0 0 0 0 -115.64544398531871 24.138544995992561 0 24.138544995992561 -1015.6084546352176 0 0 0 0 -232.80247675566352 314.53037511587172 0 314.53037511587172 -26.073600548523245 0 0 0 0 -314.17408986997907 1198.0593056886137 0 1198.0593056886137 -1418.8787341066927 0 0 0 0 -9.2056299344403669 768.77831016811251 0 768.77831016811251 -2391.2648361465035 0 0 0 0 -1560.7937039572571 2070.4201195125061 0 2070.4201195125061 -1522.4602124344965 0 0 0 0 -4.181493790815594 8.8735560996450005 0 8.8735560996450005 -8.8873314877722578 0 0 0 0 -3544.180609261628 982.414777033684 0 982.414777033684 -116.46654871874489 0 0 0 0 -15.081504465817829 -9.2729553294731488 0 -9.2729553294731488 -14.320963443808182 0 0 0 0 -1134.0000020055013 -740.19338723488909 0 -740.19338723488909 -662.59412875807902 0 0 0 0 -1861.9299704143341 731.97361119247944 0 731.97361119247944 -179.73570069787093 0 0 0 0 583.94001235711585 1092.5519179693038 0 1092.5519179693038 -1196.8982849982858 0 0 0 0 -2771.1536168936582 2029.1299275949714 0 2029.1299275949714 -911.52508016790671 0 0 0 0 -1895.6351247619168 1738.2416048948653 0 1738.2416048948653 -1151.8637407745118 0 0 0 0 -1799.9161462011507 1106.1364957144287 0 1106.1364957144287 -823.9719127555145 0 0 0 0 -3151.7426118879521 1397.3236416928557 0 1397.3236416928557 -557.49381183399237 0 0 0 0 -2338.9745176081196 506.92847072187578 0 506.92847072187578 -159.37499669037061 0 0 0 0 -3072.1209077912317 1133.9271719277749 0 1133.9271719277749 -580.12460550223477 0 0 0 0 -2793.0253181258686 1712.4559908956817 0 1712.4559908956817 480.82765278025181 0 0 0 0 -1057.7097971579278 211.32854314171709 0 211.32854314171709 -338.89203253194864 0 0 0 0 -616.62860079824895 541.7495141577092 0 541.7495141577092 -178.60136896421318 0 0 0 0 580.73290158931195 -34.384131650731433 0 -34.384131650731433 31.91597400419414 0 0 0 0 -310.75353259631083 335.59397983578674 0 335.59397983578674 -481.41458868737391 0 0 0 0 -720.20551357779914 718.73836293966451 0 718.73836293966451 -478.3831442775554 0 0 0 0 -1675.4731855327991 218.09909160158713 0 218.09909160158713 2230.887166859 0 0 0 0 -1577.163437447758 1967.4419213512374 0 1967.4419213512374 -2347.1971985468699 0 0 0 0 -10.789019662176543 7.4767162994785963 0 7.4767162994785963 -0.21040229765797491 0 0 0 0 -9.7023876704666066 13.252380301663266 0 13.252380301663266 -0.64546823130400277 0 0 0 0 -152.78599091053184 445.67771669889044 0 445.67771669889044 81.983890442177653 0 0 0 0 -631.58291477644525 1252.0328655027552 0 1252.0328655027552 -67.2852172587327 0 0 0 0 444.92005749787495 389.00283313568798 0 389.00283313568798 -435.66881298013323 0 0 0 0 -1189.3603326019511 961.84793043610989 0 961.84793043610989 351.13499952931306 0 0 0 0 1289.1382076990776 2052.9811947043345 0 2052.9811947043345 256.71522500933497 0 0 0 0 5.4188818544823505 8.1724124769269793 0 8.1724124769269793 7.2244396988326116 0 0 0 0 -784.87020405977364 740.85995029405967 0 740.85995029405967 280.10223486469476 0 0 0 0 141.10499362720293 1026.3698441064043 0 1026.3698441064043 -150.12644984471262 0 0 0 0 -773.14961997422506 764.47188533935696 0 764.47188533935696 -205.78789713765582 0 0 0 0 -98.102916449141048 679.95819521498925 0 679.95819521498925 -799.71049615513766 0 0 0 0 8.8649645116363729 15.215176337501475 0 15.215176337501475 16.047046775259787 0 0 0 0 -452.32134199106076 695.03709162469022 0 695.03709162469022 -796.15481057961006 0 0 0 0 810.42215427612246 -618.22523494621419 0 -618.22523494621419 -473.89859721055836 0 0 0 0 302.61949413448019 -715.72435073803354 0 -715.72435073803354 -904.77670649244101 0 0 0 0 -964.73137197030155 222.24787574369111 0 222.24787574369111 -388.30593934669741 0 0 0 0 7.0499786564621729 0.57322601374153237 0 0.57322601374153237 -5.1876187293300973 0 0 0 0 -609.82885087129398 1074.6123555433915 0 1074.6123555433915 -552.94638071977533 0 0 0 0 -39.822599447288667 171.57533624226926 0 171.57533624226926 -702.51158867955746 0 0 0 0 -651.72961540762844 423.24419318771834 0 423.24419318771834 -520.62787276195741 0 0 0 0 -460.93028043438244 584.81546007198631 0 584.81546007198631 -702.34563846688252 0 0 0 0 -1177.2423548603183 631.66893737841747 0 631.66893737841747 -574.50207874932676 0 0 0 0 -598.35216877199127 679.9660383957671 0 679.9660383957671 -659.99637648250064 0 0 0 0 -2292.4661413506165 785.31919318146174 0 785.31919318146174 -381.65439037774922 0 0 0 0 -853.67702911460219 652.07278101846168 0 652.07278101846168 -749.80845929105999 0 0 0 0 -398.3211095664883 488.75322962697828 0 488.75322962697828 -748.06141719814332 0 0 0 0 -842.08074488192005 468.07060418928313 0 468.07060418928313 -692.71522359887604 0 0 0 0 -9.0384273262206989 474.92392524974275 0 474.92392524974275 241.63968015037972 0 0 0 0 -16.44597267473273 547.77510789538792 0 547.77510789538792 -473.86733785070828 0 0 0 0 183.12374650077254 606.75115988076141 0 606.75115988076141 -563.63714191142822 0 0 0 0 27.989708252534911 354.75476842457283 0 354.75476842457283 -308.2755788169161 0 0 0 0 343.03422794005746 540.93542328747571 0 540.93542328747571 -527.6479004711 0 0 0 0 -61.19804331810883 33.404548359816545 0 33.404548359816545 -968.78418834242621 0 0 0 0 248.35439917948679 346.80587299419676 0 346.80587299419676 -342.68402044117101 0 0 0 0 504.94741808693652 1055.3259072272485 0 1055.3259072272485 1030.9456779565808 0 0 0 0 1.0420524456600333 4.2809397730937349 0 4.2809397730937349 -1.6565508522226278 0 0 0 0 2528.8195974646369 -285.97259366457001 0 -285.97259366457001 -3329.6471253781829 0 0 0 0 400.94203620906228 762.5693195355725 0 762.5693195355725 -1583.6216009557247 0 0 0 0 2102.1225765070776 499.28029884232092 0 499.28029884232092 -1597.0749249511864 0 0 0 0 2415.6002958835488 928.26643872996647 0 928.26643872996647 -684.50080345905735 0 0 0 0 75.456837864301633 196.68740900066041 0 196.68740900066041 104.73736571436166 0 0 0 0 612.31080655206461 634.75561337566614 0 634.75561337566614 286.29622990143253 0 0 0 0 27.99349292008219 1.5786241062859858 0 1.5786241062859858 -1.3566290462381119 0 0 0 0 1002.5108400432728 1756.7230973135593 0 1756.7230973135593 2230.2591793372703 0 0 0 0 612.00363870611909 -94.991692929310375 0 -94.991692929310375 -1693.7976362518821 0 0 0 0 75.669036294927537 -6.1290960195530602 0 -6.1290960195530602 -0.11569341603851058 0 0 0 0 618.37176318294223 602.02934877150983 0 602.02934877150983 446.46326176170624 0 0 0 0 409.10324722583391 375.83622874889807 0 375.83622874889807 209.15274440552457 0 0 0 0 329.66832969491225 45.47793810305302 0 45.47793810305302 -29.834071410266915 0 0 0 0 127.59434118703211 69.445926530650468 0 69.445926530650468 -728.73311237810412 0 0 0 0 1254.7535817282478 -181.82829234077508 0 -181.82829234077508 -184.08564440897317 0 0 0 0 1698.0773878688196 890.72200910074753 0 890.72200910074753 -30.789474257362599 0 0 0 0 668.28913706401363 355.57964332013216 0 355.57964332013216 -50.532289885246428 0 0 0 0 693.17525464065693 311.27700885187369 0 311.27700885187369 25.579957224166719 0 0 0 0 803.32960689380161 741.38162817550256 0 741.38162817550256 272.2092721810186 0 0 0 0 939.99276433771593 593.44909452793945 0 593.44909452793945 61.235671325674048 0 0 0 0 882.10945452245505 957.84453730216774 0 957.84453730216774 935.26187506184215 0 0 0 0 793.12099687145383 710.47331093366665 0 710.47331093366665 268.16591596173384 0 0 0 0 13.926259048325846 1.8528318162527171 0 1.8528318162527171 -9.2251027860175441 0 0 0 0 740.50065592313331 690.67904380030086 0 690.67904380030086 235.92794747377047 0 0 0 0 845.99203053736255 146.11060132728198 0 146.11060132728198 -442.49531822206336 0 0 0 0 13.466102111677685 1.2717147972666112 0 1.2717147972666112 -9.2140930377246377 0 0 0 0 369.23459687909417 445.79242364899255 0 445.79242364899255 329.0658219751349 0 0 0 0 364.68173383836029 261.64169879214296 0 261.64169879214296 58.950789286056533 0 0 0 0 313.63498301851905 273.74865197780309 0 273.74865197780309 56.085452263127081 0 0 0 0 339.30330726273678 327.51795319322264 0 327.51795319322264 -11.136564008775167 0 0 0 0 298.53699107273133 321.97298912360566 0 321.97298912360566 0.11045296599331778 0 0 0 0 370.89319182516556 311.63464783993913 0 311.63464783993913 86.302780882717343 0 0 0 0 388.08069097824045 259.8991161017475 0 259.8991161017475 55.457064898349927 0 0 0 0 173.66830009563637 -26.35560297900156 0 -26.35560297900156 -205.16249423407135 0 0 0 0 9.0435938154984683 1.7474594914142472 0 1.7474594914142472 -6.087910986376869 0 0 0 0 704.29747694631806 182.2041519737104 0 182.2041519737104 -220.6134918898606 0 0 0 0 1355.0716899307008 569.57171084685251 0 569.57171084685251 -0.46363199465352911 0 0 0 0 1926.3869779200904 909.26662012076122 0 909.26662012076122 272.89954518330342 0 0 0 0 1915.9484917874361 901.52711507630011 0 901.52711507630011 925.02929274644703 0 0 0 0 -381.20764412113203 166.21147791676049 0 166.21147791676049 115.96992476486048 0 0 0 0 -541.0637925603769 348.15273824827455 0 348.15273824827455 553.48452569259098 0 0 0 0 -1.6237514394211985 4.1813995407296716 0 4.1813995407296716 7.9779610917473178 0 0 0 0 -816.49635035511892 846.98692644816765 0 846.98692644816765 -628.24438345985254 0 0 0 0 -830.80074058387254 607.1915646262787 0 607.1915646262787 -46.098373928718502 0 0 0 0 3.983674600845589 11.287102425450087 0 11.287102425450087 14.633649222225813 0 0 0 0 -161.95041852378199 416.03288853933918 0 416.03288853933918 -169.72368175156589 0 0 0 0 -141.33104421896132 208.38339692080626 0 208.38339692080626 381.24138832855897 0 0 0 0 449.54876698678709 914.43613538715726 0 914.43613538715726 283.51485244421929 0 0 0 0 324.43063798764342 175.19107873061876 0 175.19107873061876 122.14584947191179 0 0 0 0 -94.974523418018975 328.0624883983711 0 328.0624883983711 200.28868493557093 0 0 0 0 -93.837182815122901 277.45230562789664 0 277.45230562789664 172.33329606364714 0 0 0 0 255.08622958675187 338.30778602107239 0 338.30778602107239 -0.046980238839751109 0 0 0 0 123.25712511002348 227.66518437122431 0 227.66518437122431 117.29265077678428 0 0 0 0 -16.730487247436031 395.74560372123233 0 395.74560372123233 0.21844465978210792 0 0 0 0 -210.55387229123153 385.41663834920473 0 385.41663834920473 172.01602087994979 0 0 0 0 -295.48653110758823 633.23970484983874 0 633.23970484983874 369.25564971283893 0 0 0 0 -175.17497083174385 568.32293336623843 0 568.32293336623843 -0.019562727669836022 0 0 0 0 -208.5514074779536 498.43282435734056 0 498.43282435734056 169.75008741475176 0 0 0 0 -361.56643672663995 478.48257652085158 0 478.48257652085158 135.35596662697208 0 0 0 0 -593.21871315176395 672.02821069882339 0 672.02821069882339 0.24874795936921146 0 0 0 0 -155.42490355643531 556.13938531279564 0 556.13938531279564 105.58103892020154 0 0 0 0 -572.74923455230601 682.50930980606063 0 682.50930980606063 -0.064619620839948766 0 0 0 0 -586.36580079790656 682.49661290665972 0 682.49661290665972 13.995315032501821 0 0 0 0 -566.52200307007297 753.72423295016051 0 753.72423295016051 53.1108441324468 0 0 0 0 -563.6355773547175 761.89106296666978 0 761.89106296666978 -120.04947794112377 0 0 0 0 -913.33711121584565 1064.4081507717347 0 1064.4081507717347 -164.41396150276705 0 0 0 0 -304.11162991955143 938.71897779948722 0 938.71897779948722 -348.60822171979817 0 0 0 0 -1124.1038531337545 1530.2476646220457 0 1530.2476646220457 -742.60997486331325 0 0 0 0 -658.77960507749231 1143.8012570761639 0 1143.8012570761639 -84.960213925980497 0 0 0 0 -798.73988974791791 574.55263763503172 0 574.55263763503172 401.24708091169305 0 0 0 0 -1069.2289951298371 574.83932542188268 0 574.83932542188268 -675.5023355166777 0 0 0 0 -336.50377891868629 561.14759663058794 0 561.14759663058794 -550.68997821715311 0 0 0 0 -588.34862262743991 966.7717173290439 0 966.7717173290439 -682.75302657502471 0 0 0 0 -1201.1791891358125 1203.140406943638 0 1203.140406943638 -773.73589878703933 0 0 0 0 -957.15891601439216 1166.5209528129781 0 1166.5209528129781 -937.61372116347775 0 0 0 0 -1901.7443425243691 2002.4121322474584 0 2002.4121322474584 -1541.0911104894767 0 0 0 0 -56.949480493520241 735.01587832112273 0 735.01587832112273 -416.03229243529495 0 0 0 0 -1008.4140780451316 984.14421877095629 0 984.14421877095629 -20.232193037460092 0 0 0 0 -1201.302320789091 1578.5211142395419 0 1578.5211142395419 -598.14438919891836 0 0 0 0 -670.37309591674057 1258.9799854702069 0 1258.9799854702069 -1430.3764092379424 0 0 0 0 -1016.0821725750466 662.4845625392627 0 662.4845625392627 678.08094635004818 0 0 0 0 -6.3254732836123537 9.9712778367240844 0 9.9712778367240844 -10.007995684438242 0 0 0 0 374.55354041003011 718.68578567264194 0 718.68578567264194 -1371.107903695367 0 0 0 0 201.14468787127839 130.81482942883667 0 130.81482942883667 -26.306558023934485 0 0 0 0 -52.716975115820105 991.7959453582007 0 991.7959453582007 761.63060732252779 0 0 0 0 -16.235332466276674 20.614790800995735 0 20.614790800995735 -18.221406967946393 0 0 0 0 170.26295370104708 -364.33817127128714 0 -364.33817127128714 176.72905643042031 0 0 0 0 -20.059411046646801 -63.589611198213788 0 -63.589611198213788 -184.94239451471367 0 0 0 0 -13.666611956820844 2.1614588600075422 0 2.1614588600075422 -0.29078727229639867 0 0 0 0 -590.825349784438 759.43188253655535 0 759.43188253655535 -885.54132152791135 0 0 0 0 -44.023029135814795 681.39442286060512 0 681.39442286060512 -2883.2308762240282 0 0 0 0 -380.20990793095916 -166.69424150320265 0 -166.69424150320265 73.005077376205008 0 0 0 0 -902.72099341769717 502.28059505432248 0 502.28059505432248 -115.35063326256932 0 0 0 0 874.15459892297076 137.78428976418218 0 137.78428976418218 -951.32157599379934 0 0 0 0 938.29246489188517 -158.14734285627128 0 -158.14734285627128 112.84304359927773 0 0 0 0 -2.9360426297475648 19.585171281107932 0 19.585171281107932 -20.927805880896244 0 0 0 0 -3104.5774721307025 1396.3983197388879 0 1396.3983197388879 -657.8463883146178 0 0 0 0 2692.7342681592854 -586.26224419724895 0 -586.26224419724895 -175.62554001918761 0 0 0 0 -3024.4962617103956 1368.6052737740538 0 1368.6052737740538 -1182.9365749936551 0 0 0 0 -2775.8497518195672 1665.9121117933973 0 1665.9121117933973 -963.4164541537175 0 0 0 0 1689.3120042708506 285.64107285959471 0 285.64107285959471 -132.57448752623168 0 0 0 0 2.7828206889879894 6.718676996413194 0 6.718676996413194 -7.8717903287954414 0 0 0 0 -5170.2983122667356 2264.2991469408735 0 2264.2991469408735 -148.07274521778163 0 0 0 0 2826.1890762036091 -848.24061866928969 0 -848.24061866928969 -17.451168288302142 0 0 0 0 1936.5104173069994 316.81139090120269 0 316.81139090120269 -567.81987047720759 0 0 0 0 -30.230732001933575 1141.4725484905794 0 1141.4725484905794 -376.37893597713264 0 0 0 0 -1294.6521289150551 2461.088105827992 0 2461.088105827992 -1490.3711588550359 0 0 0 0 -178.38446391848078 67.290395029944193 0 67.290395029944193 120.44433226290857 0 0 0 0 -15.375861816359269 18.561946565640824 0 18.561946565640824 3.2746258638048857 0 0 0 0 -190.83038005491926 104.53266897096182 0 104.53266897096182 14.26435626525199 0 0 0 0 -206.9506367435024 -14.85418080961972 0 -14.85418080961972 72.198432514822343 0 0 0 0 -122.80746904572334 48.251865283600637 0 48.251865283600637 71.662940442096442 0 0 0 0 -177.63237104208383 28.06774644619145 0 28.06774644619145 130.09981053206138 0 0 0 0 -114.05253872099439 22.370231388997468 0 22.370231388997468 23.817292876883613 0 0 0 0 -3668.2436796853435 485.93890238855965 0 485.93890238855965 -1911.1741231537599 0 0 0 0 -86.802871812143991 4.0123837910647921 0 4.0123837910647921 9.4845698740325872 0 0 0 0 -192.86181146914896 90.423091979660967 0 90.423091979660967 82.778535892139189 0 0 0 0 485.74584422144108 1398.8995868118946 0 1398.8995868118946 -3003.2156234100985 0 0 0 0 -46.460578168585698 3.4116007156664523 0 3.4116007156664523 0.47618427220191961 0 0 0 0 -69.678777702742082 56.70987897660234 0 56.70987897660234 283.68571828183485 0 0 0 0 871.86115157547829 365.44887568878767 0 365.44887568878767 -2105.4208877218771 0 0 0 0 -116.71500942162675 -336.51319436906488 0 -336.51319436906488 20.363854927549255 0 0 0 0 -6.4263357464023017 11.412731641759052 0 11.412731641759052 -12.687875219018906 0 0 0 0 -995.68755363210585 474.32436668509035 0 474.32436668509035 748.58354917863471 0 0 0 0 -1871.359746958213 898.28732609676626 0 898.28732609676626 618.94304303324316 0 0 0 0 539.65639591376021 716.58999372291873 0 716.58999372291873 -2181.1589265984003 0 0 0 0 -291.12287885909973 -8.23373790171172 0 -8.23373790171172 488.34486792216194 0 0 0 0 -880.09863537922502 327.64316565897025 0 327.64316565897025 327.95096608463791 0 0 0 0 279.16495579382899 110.53342657594476 0 110.53342657594476 6.4358760995964985 0 0 0 0 310.40179992287449 740.8498064647647 0 740.8498064647647 377.09438231920649 0 0 0 0 -215.17890550877564 406.18814576778095 0 406.18814576778095 -123.87645889008127 0 0 0 0 -251.2669595048319 161.78177073812549 0 161.78177073812549 -159.26346518297396 0 0 0 0 -850.2441533991929 458.9080036314981 0 458.9080036314981 -176.83491193919326 0 0 0 0 -1141.4790994228836 977.85796186563311 0 977.85796186563311 31.202093460800825 0 0 0 0 15.656894397277711 149.86928416445153 0 149.86928416445153 -145.0104753501073 0 0 0 0 -1295.8155523707339 623.2288369075759 0 623.2288369075759 -65.966134058107855 0 0 0 0 5.2854078306649779 5.9171033192868236 0 5.9171033192868236 7.0282033490016147 0 0 0 0 -1383.799256255553 553.17147468127951 0 553.17147468127951 -115.65829074000794 0 0 0 0 -711.21999216510198 340.99552711004071 0 340.99552711004071 -250.96696193946991 0 0 0 0 -588.17661122996105 455.94894999574535 0 455.94894999574535 -272.5055377715471 0 0 0 0 -678.03982796575929 365.24390488198696 0 365.24390488198696 -248.44865079660303 0 0 0 0 -715.57180068702814 646.2256664542474 0 646.2256664542474 -135.26214848041127 0 0 0 0 -421.09559455485305 532.54319615393251 0 532.54319615393251 -141.99712029543298 0 0 0 0 15.730093121387654 558.10539282586979 0 558.10539282586979 -597.44941462477436 0 0 0 0 -284.17815365206314 724.88661224335556 0 724.88661224335556 -426.76129734955612 0 0 0 0 -467.59299848981937 640.90931940075097 0 640.90931940075097 -317.79127437534044 0 0 0 0 -614.68366676320875 545.63751821512051 0 545.63751821512051 -138.65192006192228 0 0 0 0 -567.88887567441998 653.0077250021568 0 653.0077250021568 -64.975116134934069 0 0 0 0 -565.07782131339445 632.98906629023259 0 632.98906629023259 -0.10527720078243874 0 0 0 0 -649.48045491926791 535.55181754988371 0 535.55181754988371 -0.014201114099705592 0 0 0 0 -610.874813008572 563.08384246125934 0 563.08384246125934 -77.428685991137172 0 0 0 0 -537.49599319296794 486.74705934069061 0 486.74705934069061 -0.17046584621130023 0 0 0 0 -444.7137783079088 554.53524677749374 0 554.53524677749374 -107.89374681111804 0 0 0 0 -417.34301441946013 393.1548335726402 0 393.1548335726402 -92.231769975423958 0 0 0 0 -720.43024272118021 247.98310718987341 0 247.98310718987341 -20.50829373052693 0 0 0 0 -678.99724406613859 358.26880959096889 0 358.26880959096889 -95.264958599864258 0 0 0 0 -1140.7382614256931 292.40443513100035 0 292.40443513100035 -10.374461858649738 0 0 0 0 -1006.1313382936059 305.83875743785757 0 305.83875743785757 -0.1040336505684536 0 0 0 0 -754.99506177966941 412.64916571453796 0 412.64916571453796 -53.136109366037999 0 0 0 0 -259.16075632110005 188.98988611376262 0 188.98988611376262 146.16058375552529 0 0 0 0 68.589876307863506 16.115402070381606 0 16.115402070381606 -2.9861265066138003 0 0 0 0 48.498437757071201 -1.9021096645819426 0 -1.9021096645819426 -3.0232934539851612 0 0 0 0 -530.16762293355714 477.7008476157207 0 477.7008476157207 -345.33793754503131 0 0 0 0 3.4828769516700859 11.778861814310687 0 11.778861814310687 -0.39620171067083731 0 0 0 0 311.09252689464847 -83.037700308763306 0 -83.037700308763306 -288.18101911307895 0 0 0 0 25.193787618297968 41.420973900983348 0 41.420973900983348 25.172627307393554 0 0 0 0 -905.83132011710222 397.36783884331817 0 397.36783884331817 27.303060767953866 0 0 0 0 24.787060772724505 50.709222333634543 0 50.709222333634543 44.611334672504881 0 0 0 0 -353.99151563555642 254.74208315851865 0 254.74208315851865 120.74839262432215 0 0 0 0 46.174574155556911 115.78922465431242 0 115.78922465431242 9.9286383078724612 0 0 0 0 -81.23738819269056 133.16085086096427 0 133.16085086096427 37.699394925039087 0 0 0 0 285.62174954463353 279.48142130958149 0 279.48142130958149 -181.3990381947915 0 0 0 0 -1.5628217478560988 0.99395824869944249 0 0.99395824869944249 4.2519241850759499 0 0 0 0 415.48630045073526 -76.536766586250451 0 -76.536766586250451 -69.354865829751361 0 0 0 0 -597.50265879523749 501.67550627884521 0 501.67550627884521 104.44808389399259 0 0 0 0 613.06122722780128 103.87692197527213 0 103.87692197527213 -2144.1070549749275 0 0 0 0 -45.194114589205128 206.46881551783008 0 206.46881551783008 -879.06647913423149 0 0 0 0 17.445382957438966 6.5556374013623895 0 6.5556374013623895 -2.5448216187053845 0 0 0 0 139.17323362848583 -120.26371599598133 0 -120.26371599598133 -703.88599685014924 0 0 0 0 198.07574242963165 40.290946767228888 0 40.290946767228888 -1124.7509044455546 0 0 0 0 -163.55187753467908 -213.09657472785329 0 -213.09657472785329 -1166.9141530385205 0 0 0 0 297.92808483627596 582.18396706732165 0 582.18396706732165 1293.6724903506692 0 0 0 0 522.28277111201896 1429.7690721841645 0 1429.7690721841645 1703.144700357414 0 0 0 0 949.11468490920379 705.45866536132235 0 705.45866536132235 0.76369740754307713 0 0 0 0 1035.3366551392464 1184.0678574279736 0 1184.0678574279736 364.01424154611595 0 0 0 0 201.25958478127723 184.07868038071319 0 184.07868038071319 720.28420797039871 0 0 0 0 238.66248971474442 67.45936939674084 0 67.45936939674084 16.857321878051152 0 0 0 0 -198.76096918950498 176.6858689366054 0 176.6858689366054 -615.39199823353556 0 0 0 0 -360.49324176915616 -13.825721105771663 0 -13.825721105771663 -835.10379636971629 0 0 0 0 154.19113529883907 440.38817273349559 0 440.38817273349559 -285.3057938903803 0 0 0 0 144.28607167715381 365.13760124363762 0 365.13760124363762 -807.63663319418265 0 0 0 0 266.50846819709113 26.985199587419629 0 26.985199587419629 -565.38976090806682 0 0 0 0 44.88693937862169 9.3693582976465564 0 9.3693582976465564 -4.4548405004018719 0 0 0 0 64.191794114572986 13.29562900349265 0 13.29562900349265 0.38792546892364044 0 0 0 0 122.58792651644035 158.24211122022825 0 158.24211122022825 -685.04743379566935 0 0 0 0 64.20194352013641 12.85057269281242 0 12.85057269281242 -0.14288095613301266 0 0 0 0 67.580287087395732 9.0805910682178137 0 9.0805910682178137 -5.1044139678601113 0 0 0 0 224.14976274491346 258.52121724211611 0 258.52121724211611 -63.783798644608396 0 0 0 0 469.09987325365364 545.99205381960201 0 545.99205381960201 -110.45011195854931 0 0 0 0 -413.29387738329251 -150.66696114271326 0 -150.66696114271326 -31.928169729566434 0 0 0 0 -3.1400503136921714 2.7284138451414037 0 2.7284138451414037 -1.7575964062627349 0 0 0 0 -95.757445448667568 27.660750531998929 0 27.660750531998929 48.415862968016881 0 0 0 0 -136.72241734618001 16.127260790832224 0 16.127260790832224 64.739666391862556 0 0 0 0 -9.2543013817328728 6.1477213648352063 0 6.1477213648352063 -1.7489092205503312 0 0 0 0 -130.89850781146038 -43.067897300656114 0 -43.067897300656114 9.4646975594514515 0 0 0 0 452.23002609583909 179.89921008452893 0 179.89921008452893 -65.895869031344773 0 0 0 0 70.039754518311383 474.11076889678225 0 474.11076889678225 610.15911073003372 0 0 0 0 -0.11385931366069713 4.1236755748888072 0 4.1236755748888072 -1.4904257990916676 0 0 0 0 61.204360815588188 434.35548789357563 0 434.35548789357563 1015.2760811258049 0 0 0 0 -27.291785478282691 226.26962051814189 0 226.26962051814189 -919.68281562489574 0 0 0 0 209.35150859600526 354.13473199833606 0 354.13473199833606 567.4209812717454 0 0 0 0 160.85561992431758 130.9255148126831 0 130.9255148126831 424.85061932399776 0 0 0 0 -8.2597817805186224 18.07671512177501 0 18.07671512177501 -1.1153610724462624 0 0 0 0 -2.461881216015172 89.139122147529633 0 89.139122147529633 32.020497428311501 0 0 0 0 14.21825659031856 40.863840316400456 0 40.863840316400456 27.423882412840612 0 0 0 0 -15.939124253753107 59.415700713201659 0 59.415700713201659 17.357650224934332 0 0 0 0 63.751911857717459 252.00460264198591 0 252.00460264198591 264.44743814959656 0 0 0 0 -14.038528613943313 7.2721796917911661 0 7.2721796917911661 -2.9360348290786078 0 0 0 0 19.854465515098127 80.373736382709467 0 80.373736382709467 427.30272702362481 0 0 0 0 -30.982994772093662 26.735349203467194 0 26.735349203467194 48.875381500271033 0 0 0 0 -13.319066927790118 22.905016462202184 0 22.905016462202184 48.18753341442789 0 0 0 0 -35.237048724782653 28.205312757083448 0 28.205312757083448 49.359280082731857 0 0 0 0 -11.034278125881428 35.60042734640956 0 35.60042734640956 48.567095548612997 0 0 0 0 -47.905519801852279 39.287946416690829 0 39.287946416690829 61.327024591184454 0 0 0 0 -42.602379513537016 46.157839762701769 0 46.157839762701769 67.503250401066907 0 0 0 0 -103.60497934027808 32.422946613514796 0 32.422946613514796 73.279642095192685 0 0 0 0 -35.955395017379487 10.017939754092367 0 10.017939754092367 14.989444377340078 0 0 0 0 -85.691967328026294 66.918193642068218 0 66.918193642068218 132.47104644165665 0 0 0 0 -48.407593538467708 56.192192035732177 0 56.192192035732177 -24.41101951096401 0 0 0 0 -138.67792474239104 185.55441556188089 0 185.55441556188089 216.05155845091213 0 0 0 0 49.219313858466194 195.2153752794402 0 195.2153752794402 -28.530768534730669 0 0 0 0 72.097822237544278 122.10641498301811 0 122.10641498301811 -63.657325247200788 0 0 0 0 -15.82190371305478 97.036469892831519 0 97.036469892831519 -1.2210727501951624 0 0 0 0 -40.389008878395543 52.614842136928928 0 52.614842136928928 70.67887037750188 0 0 0 0 -41.060033133117798 56.352623014962944 0 56.352623014962944 -14.510480203526527 0 0 0 0 -30.791706108429935 63.260180926678004 0 63.260180926678004 37.179964070674032 0 0 0 0 -4.5276654526582547 9.5899338597198209 0 9.5899338597198209 -20.901586298505975 0 0 0 0 -57.292629581570509 105.64524597197305 0 105.64524597197305 -87.041834671312245 0 0 0 0 -17.497786406001978 149.16840161672735 0 149.16840161672735 -1.0060706832300639 0 0 0 0 -14.198947327836549 102.33296558061602 0 102.33296558061602 -110.87485870273667 0 0 0 0 -59.884494149878265 124.16992990268773 0 124.16992990268773 -210.44789630560263 0 0 0 0 -133.9638968266554 145.20515845155023 0 145.20515845155023 -109.51074197793059 0 0 0 0 -34.436665994347536 42.560211981992353 0 42.560211981992353 -1.5462545856303223 0 0 0 0 -33.379252648994566 40.294636327299827 0 40.294636327299827 -15.434610572578919 0 0 0 0 -9.1632626146019902 37.204761361688725 0 37.204761361688725 -6.9319036689266795 0 0 0 0 -68.414483590822783 63.448009681102121 0 63.448009681102121 36.146021087944973 0 0 0 0 -17.173993155134369 46.311012428596939 0 46.311012428596939 -6.2274613666743335 0 0 0 0 -38.966634299693396 84.543543263920583 0 84.543543263920583 19.403797734372347 0 0 0 0 1.6703638751161094 7.2366192043139108 0 7.2366192043139108 10.640951517428107 0 0 0 0 34.561957164820342 39.674909555382328 0 39.674909555382328 26.730571193504147 0 0 0 0 -203.91997201267804 258.53421949352196 0 258.53421949352196 -190.75658785674023 0 0 0 0 4.9090736385394251 26.523788129520938 0 26.523788129520938 31.138063866986727 0 0 0 0 -154.46832156744131 270.11802949869889 0 270.11802949869889 -256.52897457208019 0 0 0 0 12.618357769053546 126.31627311022021 0 126.31627311022021 219.91488103341544 0 0 0 0 -208.92726391785845 365.15577640473202 0 365.15577640473202 316.30498119582626 0 0 0 0 527.780529300132 -393.6765667766449 0 -393.6765667766449 -99.681756969846901 0 0 0 0 -666.31861765049939 209.30313737063261 0 209.30313737063261 816.2855925206386 0 0 0 0 -259.67106601781825 296.95738704371615 0 296.95738704371615 -80.440805597798317 0 0 0 0 -69.182714570496046 106.94502517679939 0 106.94502517679939 -159.41769322095206 0 0 0 0 -132.7782180427057 312.52412415467552 0 312.52412415467552 -195.12131245291675 0 0 0 0 -192.33098650204738 288.39612511105952 0 288.39612511105952 -120.89739941846346 0 0 0 0 -70.578031000375461 115.26345897137799 0 115.26345897137799 15.478985938738333 0 0 0 0 106.6906556762483 248.65714333669166 0 248.65714333669166 -143.44319788180292 0 0 0 0 -140.52910748986869 440.86837088596076 0 440.86837088596076 -142.12980996038095 0 0 0 0 -290.37595489625483 403.55698744566325 0 403.55698744566325 -83.254055388621055 0 0 0 0 25.743214209251839 63.833643936501161 0 63.833643936501161 60.010514756148154 0 0 0 0 -49.733543324333368 99.577579937740666 0 99.577579937740666 72.027977525518509 0 0 0 0 -146.59948447445458 79.680293398345384 0 79.680293398345384 80.490948106598807 0 0 0 0 -41.752136166345736 75.854389772459399 0 75.854389772459399 80.608197478124566 0 0 0 0 -69.153409817608917 118.46853019403352 0 118.46853019403352 103.4126631355175 0 0 0 0 -83.61938214089605 118.92895709504955 0 118.92895709504955 305.29292126947257 0 0 0 0 -50.242393067985773 67.357175065195463 0 67.357175065195463 5.8397955505980974 0 0 0 0 -14.221407365883351 113.62981793473591 0 113.62981793473591 222.22421403904445 0 0 0 0 -39.188506243797747 51.56141567773011 0 51.56141567773011 95.569740459963214 0 0 0 0 -95.431918635636976 48.302814224654867 0 48.302814224654867 257.94225619485951 0 0 0 0 -36.338011449101032 88.208157262866735 0 88.208157262866735 202.82509659859352 0 0 0 0 -14.691396811735103 131.56137617061904 0 131.56137617061904 36.836695332080126 0 0 0 0 -264.10846333780501 296.34800865798024 0 296.34800865798024 -6.2746295975957764 0 0 0 0 -106.86274325307932 84.155588620757044 0 84.155588620757044 40.424480826623039 0 0 0 0 -79.820607003068289 117.99937799829058 0 117.99937799829058 80.756620124684559 0 0 0 0 -12.765441942410689 31.975478788786859 0 31.975478788786859 25.688078179678996 0 0 0 0 25.821567314918866 70.458443663825165 0 70.458443663825165 63.198521075675671 0 0 0 0 27.718754879303265 57.521551431628545 0 57.521551431628545 71.47279720863844 0 0 0 0 -34.367681579128089 43.734165035198203 0 43.734165035198203 168.09263042767998 0 0 0 0 -11.020266754715713 74.172609272673085 0 74.172609272673085 161.74572940762778 0 0 0 0 37.066725910190144 94.464222568472906 0 94.464222568472906 189.24888782249764 0 0 0 0 2.9365726083196932 68.73397352109896 0 68.73397352109896 170.11351593658037 0 0 0 0 -118.52676619134485 25.146745011241705 0 25.146745011241705 32.305208527218269 0 0 0 0 -208.59894951280376 38.593491655163234 0 38.593491655163234 102.72781106372713 0 0 0 0 105.95020948881029 130.82500848489872 0 130.82500848489872 -70.649128028191626 0 0 0 0 -21.819193642998339 23.140621637098192 0 23.140621637098192 -2.1267204210864747 0 0 0 0 -19.237732641705861 -141.44191719099763 0 -141.44191719099763 240.17473032072303 0 0 0 0 -35.204727182297688 64.017780006525783 0 64.017780006525783 84.072027584181839 0 0 0 0 -73.556508636557567 154.39049216899002 0 154.39049216899002 90.858987371204421 0 0 0 0 5.4493954070016262 59.392512736775771 0 59.392512736775771 48.70559009771614 0 0 0 0 -298.99051634566786 85.278879498669994 0 85.278879498669994 76.353144148193678 0 0 0 0 -67.19480890721843 68.536001701999339 0 68.536001701999339 44.826949165806582 0 0 0 0 -147.46772906884144 15.083823645480152 0 15.083823645480152 30.77506802541393 0 0 0 0 5.0976096157883148 97.447243223770784 0 97.447243223770784 30.422789484495297 0 0 0 0 -77.854113149811383 196.60972376571954 0 196.60972376571954 -71.656138838327024 0 0 0 0 25.307343306709424 51.79927322286558 0 51.79927322286558 71.710509978228856 0 0 0 0 16.095793335824318 52.597083958965854 0 52.597083958965854 64.420141455187718 0 0 0 0 -123.95948734123317 170.01633919709275 0 170.01633919709275 95.856978995725513 0 0 0 0 433.23119266102003 210.29412289266475 0 210.29412289266475 -213.44564649244421 0 0 0 0 -219.79896198495953 27.762750232795952 0 27.762750232795952 35.575988305266947 0 0 0 0 -353.98397644070792 -262.70345019678643 0 -262.70345019678643 683.30908985582937 0 0 0 0 790.73967567399086 -227.83101466772496 0 -227.83101466772496 -89.925288006750634 0 0 0 0 36.383915183645513 -207.98693969516899 0 -207.98693969516899 104.95564682473196 0 0 0 0 687.48565517889074 707.11046627743053 0 707.11046627743053 355.39094312567613 0 0 0 0 433.12265731253865 205.11829160949856 0 205.11829160949856 33.292880665707344 0 0 0 0 157.24183298316075 131.27025769707689 0 131.27025769707689 142.9228135625599 0 0 0 0 259.57390074642171 365.28060927134356 0 365.28060927134356 947.64015669423679 0 0 0 0 742.02346766568371 507.42953803272394 0 507.42953803272394 362.94200277730124 0 0 0 0 -4.3048421877100012 1.8208589864056535 0 1.8208589864056535 12.280621867783339 0 0 0 0 994.94353024220618 470.64907631816459 0 470.64907631816459 -21.373236575149349 0 0 0 0 431.80493168975227 24.808159385662293 0 24.808159385662293 97.399894810980186 0 0 0 0 987.7093283948052 575.3270010430715 0 575.3270010430715 127.09441438730573 0 0 0 0 850.87806540351085 791.74460477128741 0 791.74460477128741 1105.5183602982434 0 0 0 0 953.49093536347209 659.73676506280026 0 659.73676506280026 -55.254775791428983 0 0 0 0 -1.1485945982236387 3.2637809961174185 0 3.2637809961174185 -2.8964154062227294 0 0 0 0 -120.29636905264124 56.412553970163572 0 56.412553970163572 22.92043964882032 0 0 0 0 -161.99889514660026 28.089290286559844 0 28.089290286559844 33.344436102692271 0 0 0 0 -476.51155035524425 103.0409037884092 0 103.0409037884092 234.59881666273577 0 0 0 0 -29.134853848082102 40.510220462144446 0 40.510220462144446 38.433619894123353 0 0 0 0 -51.041366274503162 53.788729775118554 0 53.788729775118554 116.08626435002952 0 0 0 0 -0.96130535312056509 3.9417556328470482 0 3.9417556328470482 -8.8970140962446749 0 0 0 0 2.2971665750628745 229.35179171653726 0 229.35179171653726 -432.15553151788481 0 0 0 0 -1422.8454127016448 16.383214731249609 0 16.383214731249609 118.56072061070518 0 0 0 0 -338.90109238232253 406.26876008574618 0 406.26876008574618 354.91834636896965 0 0 0 0 -133.11613628693885 584.35790193322464 0 584.35790193322464 -420.68567723099841 0 0 0 0 -578.36823569015542 776.52443090025918 0 776.52443090025918 28.395291007589549 0 0 0 0 -807.32538151023618 -251.64843397418008 0 -251.64843397418008 91.288338180944265 0 0 0 0 130.98607537085809 -152.83842552740862 0 -152.83842552740862 -507.95246716984548 0 0 0 0 -655.87967846280662 400.62838160393585 0 400.62838160393585 92.606097671960015 0 0 0 0 -181.04608805189309 173.59850449361693 0 173.59850449361693 79.088181291546789 0 0 0 0 -122.18547638845121 10.487789279774006 0 10.487789279774006 43.621689041409354 0 0 0 0 -143.93497820146331 -10.45417122663639 0 -10.45417122663639 44.472968951900839 0 0 0 0 -295.51990636742084 179.74195805915224 0 179.74195805915224 37.588391818469972 0 0 0 0 -326.04231591667576 150.77685357935115 0 150.77685357935115 76.656432873700396 0 0 0 0 443.2199428240765 279.37776728385506 0 279.37776728385506 -56.23482564326514 0 0 0 0 -572.53251502148123 207.73892304537003 0 207.73892304537003 118.63448974213679 0 0 0 0 -0.20359683330228862 1.0144068791354641 0 1.0144068791354641 -1.5328968183233087 0 0 0 0 188.43177387290416 84.949894100209349 0 84.949894100209349 -7.0274636746908072 0 0 0 0 74.771248723020108 213.22952329517284 0 213.22952329517284 -49.544555110747751 0 0 0 0 58.660576431342633 216.2853648093369 0 216.2853648093369 8.2443331446047523 0 0 0 0 8.8602237960221828 169.32337066147011 0 169.32337066147011 72.861824683248415 0 0 0 0 -0.38504701298057498 2.4822977975671279 0 2.4822977975671279 -2.9651801713091004 0 0 0 0 -61.012739302830596 169.00227345475832 0 169.00227345475832 -175.88371793433907 0 0 0 0 -111.1156458314872 241.89797323002131 0 241.89797323002131 -70.225562516068749 0 0 0 0 -54.266393220281316 205.15608526431606 0 205.15608526431606 -62.266930806494202 0 0 0 0 -17.752782256862702 162.08630851831549 0 162.08630851831549 -13.046704563705134 0 0 0 0 -68.198381267504374 254.90004431152192 0 254.90004431152192 -1.6670768524345476 0 0 0 0 -8.491621148375998 259.72600461773982 0 259.72600461773982 -52.932871480461472 0 0 0 0 -71.616282055241754 278.37758285185919 0 278.37758285185919 -101.97622620101902 0 0 0 0 -114.56472741231482 286.9027253092645 0 286.9027253092645 59.484698757529259 0 0 0 0 -111.80913077872538 296.96311486227205 0 296.96311486227205 28.186447730389773 0 0 0 0 -60.013080391123367 289.79327865118103 0 289.79327865118103 -15.116703720828809 0 0 0 0 -43.898787429832737 277.60059131454909 0 277.60059131454909 -13.971257567318389 0 0 0 0 -70.878638639069322 230.58999479324848 0 230.58999479324848 -25.847785643185489 0 0 0 0 -69.234627969155554 228.40296535240486 0 228.40296535240486 99.950137037474633 0 0 0 0 -81.709934810842242 252.61230265592894 0 252.61230265592894 95.784488207398681 0 0 0 0 -80.503766569923755 262.76030343851016 0 262.76030343851016 46.011158324981807 0 0 0 0 -160.27838588609302 302.36877662208281 0 302.36877662208281 119.90362421024474 0 0 0 0 -130.52040623782523 264.20583490625722 0 264.20583490625722 135.57278068489541 0 0 0 0 105.82375972787668 300.17560320095072 0 300.17560320095072 -152.46953197901894 0 0 0 0 -108.10188430543712 176.80237437032338 0 176.80237437032338 23.884807421505684 0 0 0 0 -254.34286319018065 392.86746017121186 0 392.86746017121186 65.897676419874188 0 0 0 0 -559.06039975897511 132.15473875991302 0 132.15473875991302 97.879791928880877 0 0 0 0 -232.77855875526438 228.90315684925008 0 228.90315684925008 113.78242942245561 0 0 0 0 400.07053046705551 166.07919624840724 0 166.07919624840724 -80.19069280421536 0 0 0 0 -0.15632410837342192 0.63533066747851308 0 0.63533066747851308 -1.6567764370252576 0 0 0 0 -136.00871572858523 82.635113657626789 0 82.635113657626789 27.778849469992565 0 0 0 0 -202.6757556369339 111.5569960862631 0 111.5569960862631 113.81618021850591 0 0 0 0 -102.02538180162529 25.231908017820018 0 25.231908017820018 -14.841517419613385 0 0 0 0 -118.94876441217093 233.52826466630358 0 233.52826466630358 160.73428732441971 0 0 0 0 -90.847608913696604 334.12862358911661 0 334.12862358911661 -38.116690088558244 0 0 0 0 47.935814053813374 65.225199749031162 0 65.225199749031162 135.04536147468025 0 0 0 0 -31.966378200340841 203.00704570882954 0 203.00704570882954 -32.780750000650187 0 0 0 0 -15.263559405413162 80.403124794062023 0 80.403124794062023 -19.605249277316034 0 0 0 0 -906.90868146151638 2056.0880555410367 0 2056.0880555410367 -3082.9742735025065 0 0 0 0 -36.30739367138267 80.131958894868148 0 80.131958894868148 5.0542993525236852 0 0 0 0 1.0694865573617456 77.668385777563429 0 77.668385777563429 -13.865027454190184 0 0 0 0 2.5715238881966798 202.7311360797612 0 202.7311360797612 -3702.1525365371344 0 0 0 0 12.090800282567216 79.836061065750982 0 79.836061065750982 -75.924078835145338 0 0 0 0 -32.583500099068189 51.542181803158002 0 51.542181803158002 -10.656094653589349 0 0 0 0 756.45218008200391 -361.93442512425099 0 -361.93442512425099 -1752.9467419532739 0 0 0 0 -105.12726347614411 82.178736238990439 0 82.178736238990439 18.862592666519816 0 0 0 0 1201.3368455292657 2008.7563692529802 0 2008.7563692529802 -4747.3392740300224 0 0 0 0 -2189.1229598989703 -2896.9481305121808 0 -2896.9481305121808 -1960.700069515733 0 0 0 0 -150.3649637506096 550.52574322963483 0 550.52574322963483 -102.44754456047667 0 0 0 0 -66.803459025504708 440.72342892644519 0 440.72342892644519 -681.37536295381142 0 0 0 0 -200.8863646707232 289.52556293514499 0 289.52556293514499 134.51438647846226 0 0 0 0 -155.33809041236782 516.34361024019381 0 516.34361024019381 256.11959532179753 0 0 0 0 -132.16524037304043 230.10338291389053 0 230.10338291389053 275.22758739482379 0 0 0 0 -227.6030540415959 391.11196833458962 0 391.11196833458962 522.34275406933739 0 0 0 0 -215.1632493681027 57.777745508006774 0 57.777745508006774 753.38500158232273 0 0 0 0 -27.836946333165571 12.728478936265986 0 12.728478936265986 -0.47201444604733211 0 0 0 0 -76.781758710068971 132.66750108469569 0 132.66750108469569 335.27587269243668 0 0 0 0 -35.076590686527197 249.33996602772095 0 249.33996602772095 73.538675514326314 0 0 0 0 -40.45997900428879 83.224770185284967 0 83.224770185284967 4.1926837333259517 0 0 0 0 -33.516218883550209 83.07609096647866 0 83.07609096647866 -5.2452567425643792 0 0 0 0 363.35811916853254 -1699.8887254277342 0 -1699.8887254277342 -4074.0892636577773 0 0 0 0 -71.700051387255371 84.66722715638025 0 84.66722715638025 22.152065288639278 0 0 0 0 -31.444184666828367 67.921155205063855 0 67.921155205063855 30.783031200978741 0 0 0 0 33.920173743133091 -486.34627777498281 0 -486.34627777498281 1390.2915070682666 0 0 0 0 -344.6053057052618 -465.89865173133967 0 -465.89865173133967 2088.0014838556563 0 0 0 0 -97.2930963210556 -737.83860355425168 0 -737.83860355425168 2131.452653244487 0 0 0 0 -33.562255213695835 9.5139971319003962 0 9.5139971319003962 672.03814360620163 0 0 0 0 -557.35525787148072 250.39022193756682 0 250.39022193756682 2177.4690417793099 0 0 0 0 -55.238640884087886 202.37183917680522 0 202.37183917680522 761.17120472648094 0 0 0 0 403.77985215919034 -5.9193928370805224 0 -5.9193928370805224 -18.071050418286177 0 0 0 0 23.459638095440269 8.7270882116280291 0 8.7270882116280291 -2.5228218139798813 0 0 0 0 -705.27809396652265 -220.45037357043111 0 -220.45037357043111 1714.867045246232 0 0 0 0 254.05715195823723 -51.979905639745994 0 -51.979905639745994 -7.9092079653200926 0 0 0 0 512.81072372395101 1090.854867196329 0 1090.854867196329 2919.6598607453852 0 0 0 0 838.61803646037333 -794.17401523671288 0 -794.17401523671288 851.41486973705105 0 0 0 0 -37.225701010349333 65.450341156373469 0 65.450341156373469 22.292225732648895 0 0 0 0 2.5383579494229913 0.30703526674374615 0 0.30703526674374615 23.556454351946741 0 0 0 0 392.18972490704982 494.2244877467092 0 494.2244877467092 227.18271624839326 0 0 0 0 2097.8988415591193 -515.77863973895728 0 -515.77863973895728 600.53178997303621 0 0 0 0 -745.82575155950326 -564.96994038681441 0 -564.96994038681441 3043.4000244071112 0 0 0 0 -276.30992548046561 -716.0509879809324 0 -716.0509879809324 1137.2922265925445 0 0 0 0 -1633.8289423724873 -530.44208196417458 0 -530.44208196417458 2366.9225402363954 0 0 0 0 -931.20137056652675 96.384134254356468 0 96.384134254356468 1672.6767017854872 0 0 0 0 248.4644535331463 -948.98541110812221 0 -948.98541110812221 2322.1527473839633 0 0 0 0 1978.5081895238181 2542.9030290978117 0 2542.9030290978117 692.44737965769309 0 0 0 0 -310.83207506704275 1678.1884877629273 0 1678.1884877629273 2745.9617934907546 0 0 0 0 -3.7549896292107903 -0.66331035880350697 0 -0.66331035880350697 15.617824486459256 0 0 0 0 -26.640108689926819 1388.1262055712832 0 1388.1262055712832 -373.20528176194057 0 0 0 0 -1915.5207935657454 821.97618411495932 0 821.97618411495932 913.93419498623189 0 0 0 0 64.571665967636363 1110.7559750974324 0 1110.7559750974324 751.27071362762945 0 0 0 0 334.79834394222053 -2857.4620428782218 0 -2857.4620428782218 -149.95449455984635 0 0 0 0 1964.9063276668644 172.27150434129834 0 172.27150434129834 149.83114047866547 0 0 0 0 -689.16734238140634 2764.772539998783 0 2764.772539998783 203.95747666711304 0 0 0 0 1141.419541363337 338.50000626628753 0 338.50000626628753 -260.00352990183455 0 0 0 0 -48.218348811285978 603.26150325780327 0 603.26150325780327 275.1172973845969 0 0 0 0 -450.97191298544584 202.40436223699362 0 202.40436223699362 641.79231814795639 0 0 0 0 -187.15572856996369 443.52421724790474 0 443.52421724790474 1493.7033491230104 0 0 0 0 400.08146988058434 -476.40980024925375 0 -476.40980024925375 1152.4655985650024 0 0 0 0 -489.2422426100311 -437.97608232073253 0 -437.97608232073253 642.7071013701061 0 0 0 0 -151.05101827690305 72.355298336246051 0 72.355298336246051 652.01885907692485 0 0 0 0 -52.980195074989297 -178.10794003069896 0 -178.10794003069896 -958.43113580589124 0 0 0 0 183.37257139521898 650.33297924329236 0 650.33297924329236 -32.679800034118671 0 0 0 0 -1649.9550242746482 -525.80737694572599 0 -525.80737694572599 699.36942559060117 0 0 0 0 -12.167791084300674 8.1791823982132854 0 8.1791823982132854 -3.9943303661503364 0 0 0 0 -1122.3267097757771 -1661.467349787712 0 -1661.467349787712 -412.28757983572723 0 0 0 0 -16.661321902149666 4.8883732558107198 0 4.8883732558107198 2.4286885941370429 0 0 0 0 -2156.9492434644962 -516.96422227453149 0 -516.96422227453149 1033.2193762811658 0 0 0 0 -345.80388295798912 -784.19309673711541 0 -784.19309673711541 356.55270795105025 0 0 0 0 239.09834608737583 382.24442515972987 0 382.24442515972987 565.28355366481992 0 0 0 0 -40.001593245791859 22.767851181262955 0 22.767851181262955 -19.048269583893557 0 0 0 0 146.55344556624186 315.51635871415056 0 315.51635871415056 381.03864720299543 0 0 0 0 223.02718087428366 337.94627658983518 0 337.94627658983518 452.39922249465599 0 0 0 0 155.19808082456439 267.85721701158764 0 267.85721701158764 383.81273768850951 0 0 0 0 24.226232033586712 194.76198642061354 0 194.76198642061354 395.49324737724965 0 0 0 0 -19.046689498958585 129.28212367731612 0 129.28212367731612 317.06341646306828 0 0 0 0 78.609957487373322 199.78159818577114 0 199.78159818577114 336.25231785750657 0 0 0 0 89.368610997335054 251.71139933819359 0 251.71139933819359 474.50746808065014 0 0 0 0 182.5662198162463 289.93761293214629 0 289.93761293214629 275.51451750769775 0 0 0 0 55.247714870012715 226.7068450437946 0 226.7068450437946 361.2613185365044 0 0 0 0 73.136236597667448 209.77790726456442 0 209.77790726456442 256.83814375062502 0 0 0 0 197.34020260607758 500.00769947041408 0 500.00769947041408 230.04727645360981 0 0 0 0 103.28805826039388 189.5583597552104 0 189.5583597552104 254.61925947874261 0 0 0 0 -3.6097361438232838 88.243182288817479 0 88.243182288817479 448.43319615491782 0 0 0 0 -43.535020546755774 18.112108891152843 0 18.112108891152843 -3.8258536224378759 0 0 0 0 175.71830342162866 -42.849392496405926 0 -42.849392496405926 456.55772362498101 0 0 0 0 -573.26641888593031 -302.36611585942524 0 -302.36611585942524 355.38653605731088 0 0 0 0 -530.67256890447356 466.91092385470256 0 466.91092385470256 109.80126890842803 0 0 0 0 -200.14183134700215 116.84694589094215 0 116.84694589094215 852.30530188832199 0 0 0 0 196.65913189278035 23.221536260560242 0 23.221536260560242 327.05206074302259 0 0 0 0 -3.3440685534735919 4.5324726332262344 0 4.5324726332262344 -4.8673082065310869 0 0 0 0 -229.63679097403656 731.68324684037361 0 731.68324684037361 -210.8574745109654 0 0 0 0 67.501700881018223 301.05501612706212 0 301.05501612706212 310.96766793448478 0 0 0 0 -227.15841120212281 111.64173692386248 0 111.64173692386248 1239.6425043965864 0 0 0 0 -47.806435695974088 54.575000653190955 0 54.575000653190955 2.201295329957162 0 0 0 0 -0.63960822482781055 -11.080136990535578 0 -11.080136990535578 -0.40069825364159328 0 0 0 0 -204.03115875502044 669.74739359866362 0 669.74739359866362 -679.89782982970064 0 0 0 0 -131.75336281286491 123.82702403208532 0 123.82702403208532 -138.20123277630773 0 0 0 0 -95.675092047710677 279.16735291795976 0 279.16735291795976 -312.96544782418641 0 0 0 0 -56.22032735862463 59.267911769680836 0 59.267911769680836 -42.35608374386652 0 0 0 0 -133.1748241055393 615.67908760672435 0 615.67908760672435 14.770675440402556 0 0 0 0 -67.524357709029573 144.9552882140415 0 144.9552882140415 14.86505747978299 0 0 0 0 -38.327293809427346 15.867981709829763 0 15.867981709829763 -3.3041968376626869 0 0 0 0 -245.48593900072592 68.942782468220685 0 68.942782468220685 46.754894924742985 0 0 0 0 -1122.3331710150014 1005.1333994909655 0 1005.1333994909655 -834.8344527752779 0 0 0 0 -1814.4249308557698 601.8519174012672 0 601.8519174012672 22.419530353290611 0 0 0 0 -875.94570316070588 806.73304331845975 0 806.73304331845975 -784.20263585100474 0 0 0 0 -88.338770988570275 66.571236208223382 0 66.571236208223382 -16.935558505082881 0 0 0 0 -2.0464162044152658 3.535642403779093 0 3.535642403779093 -25.606625946999131 0 0 0 0 17.561260711014256 199.01500418307842 0 199.01500418307842 269.87217760819476 0 0 0 0 -877.07579895137314 816.19692811199639 0 816.19692811199639 -118.33934133507137 0 0 0 0 461.38375832887687 501.62647264439147 0 501.62647264439147 -278.82948845627834 0 0 0 0 -30.2382248170994 7.4165110038937883 0 7.4165110038937883 50.148574919039618 0 0 0 0 327.02588279291012 943.08525451135938 0 943.08525451135938 828.4810638130366 0 0 0 0 376.15437535642559 394.35593188949861 0 394.35593188949861 551.92061600330635 0 0 0 0 5.5834173408833152 30.460194907196993 0 30.460194907196993 58.342792433524778 0 0 0 0 -17.911035884939338 963.34738547473535 0 963.34738547473535 1415.1565115249359 0 0 0 0 91.914810359572584 50.596684309821285 0 50.596684309821285 615.53932797770904 0 0 0 0 -118.93063335431361 328.37132179458786 0 328.37132179458786 1541.6281951859855 0 0 0 0 31.919343508157908 148.89446110245626 0 148.89446110245626 252.22301138462353 0 0 0 0 38.175478624360053 174.03343473659692 0 174.03343473659692 58.12399540181039 0 0 0 0 -386.20698523180909 75.13226240044969 0 75.13226240044969 378.77868538107941 0 0 0 0 -2.4232310866221951 206.67476766613598 0 206.67476766613598 78.686632917210943 0 0 0 0 61.77699748708983 285.41263285309833 0 285.41263285309833 -0.043611733042780543 0 0 0 0 -79.711021086615801 524.01862339927811 0 524.01862339927811 127.12571685708826 0 0 0 0 19.156496826661169 601.9814023081708 0 601.9814023081708 -110.69973896510146 0 0 0 0 42.557206941093654 208.89345310973945 0 208.89345310973945 79.704570616922709 0 0 0 0 -341.20311434886207 962.09247395305511 0 962.09247395305511 751.32518244978564 0 0 0 0 -301.78026095256064 816.6518240772275 0 816.6518240772275 1044.0480525875028 0 0 0 0 -280.42691148813901 429.22092915034409 0 429.22092915034409 577.28637115883976 0 0 0 0 -501.57974778777134 1064.4344603258232 0 1064.4344603258232 886.07286062918138 0 0 0 0 -49.729257329352549 887.66112811735184 0 887.66112811735184 199.28899193830875 0 0 0 0 -554.13108252025268 560.59535312156368 0 560.59535312156368 287.60226940174471 0 0 0 0 -515.88797896252299 1339.6786170139194 0 1339.6786170139194 880.15914069440623 0 0 0 0 -1193.518962018512 80.163974338436674 0 80.163974338436674 9.2015448216625373 0 0 0 0 -274.6478473595489 613.20446900931711 0 613.20446900931711 -1064.8386483220238 0 0 0 0 -865.77659907254929 633.7040763522732 0 633.7040763522732 -1457.2506231089064 0 0 0 0 -423.50979010602168 1098.7951671108967 0 1098.7951671108967 -1037.6740086177451 0 0 0 0 -427.80207355490074 790.2823652998718 0 790.2823652998718 175.71407123131212 0 0 0 0 -364.93875381504768 1122.1419288386496 0 1122.1419288386496 -321.40225958008159 0 0 0 0 -384.4355586090569 1346.9233243459348 0 1346.9233243459348 -731.35076193312125 0 0 0 0 -1019.9362368594302 866.94157623008869 0 866.94157623008869 422.03075242800696 0 0 0 0 -287.68379275094048 779.0342011326029 0 779.0342011326029 345.39236123241426 0 0 0 0 -494.12680362137326 500.80456623911141 0 500.80456623911141 1243.1515154077424 0 0 0 0 -452.41506824562384 417.88229449353184 0 417.88229449353184 756.78497491736925 0 0 0 0 -371.50779940367647 745.79056438673797 0 745.79056438673797 1072.0192459526843 0 0 0 0 -141.51267388225824 653.65930289227254 0 653.65930289227254 186.74527688790113 0 0 0 0 -275.89637978324754 156.87863733370614 0 156.87863733370614 -194.52053580611027 0 0 0 0 -4.2855211768929138 2.6004845488357411 0 2.6004845488357411 23.991663621931082 0 0 0 0 -467.07888690873369 -462.01981281642111 0 -462.01981281642111 2016.9340776365279 0 0 0 0 -248.97119916482461 -713.87751207510337 0 -713.87751207510337 1121.6419743831502 0 0 0 0 -0.74322226514050271 935.04996184658376 0 935.04996184658376 409.52909335151708 0 0 0 0 -444.63091727486972 736.38776463431805 0 736.38776463431805 2483.2941753252744 0 0 0 0 -155.04280274359189 215.18372108776384 0 215.18372108776384 -52.444130683452386 0 0 0 0 -781.2880319101132 564.2298259245581 0 564.2298259245581 286.49055832145314 0 0 0 0 -87.443245248672611 -417.67135165970467 0 -417.67135165970467 609.33833713009881 0 0 0 0 -107.84983392896538 -1.2213756945311616 0 -1.2213756945311616 1655.2816634271549 0 0 0 0 -23.830881258744739 9.4622161530842277 0 9.4622161530842277 1316.6052291185151 0 0 0 0 -37.731953576114556 82.393443899490165 0 82.393443899490165 1.2703574058725842 0 0 0 0 6.0742276340170065 68.211202527760179 0 68.211202527760179 9.4922842069354374 0 0 0 0 7.703639144441695 56.837934102324652 0 56.837934102324652 45.17221208610863 0 0 0 0 -54.19758060395543 79.226006480574142 0 79.226006480574142 37.508346818067366 0 0 0 0 -23.269824043770086 77.406555323878337 0 77.406555323878337 32.134596020150262 0 0 0 0 -403.25826523702563 -384.20213492627227 0 -384.20213492627227 2278.372764694006 0 0 0 0 -8.4551040005292464 82.300376952201276 0 82.300376952201276 35.254155070060762 0 0 0 0 159.73653263069718 296.89314089929394 0 296.89314089929394 -1.0780482102563838 0 0 0 0 112.767713369798 106.35747732596064 0 106.35747732596064 165.25242960313335 0 0 0 0 17.763935079164185 211.83646041412612 0 211.83646041412612 66.036959361692425 0 0 0 0 -573.63413958343153 -269.02668552854448 0 -269.02668552854448 416.30995100448672 0 0 0 0 -30.725080582902592 382.57731375879666 0 382.57731375879666 40.751688039075816 0 0 0 0 -235.0018687427837 401.84009428262652 0 401.84009428262652 54.928558499639621 0 0 0 0 -149.54327835608274 272.77813765752944 0 272.77813765752944 -18.691658701165579 0 0 0 0 621.74974412323354 635.78196560896686 0 635.78196560896686 506.86046245322359 0 0 0 0 318.64618696360412 -669.66120243833575 0 -669.66120243833575 1922.758145589205 0 0 0 0 -441.90923183409723 157.83519564215385 0 157.83519564215385 2506.595948422364 0 0 0 0 -140.86435783360503 633.64896485099598 0 633.64896485099598 2091.4449369096692 0 0 0 0 -9.3840912571527184 87.254748228670323 0 87.254748228670323 -15.118373422941648 0 0 0 0 -1.1193463446834357 174.51185203180648 0 174.51185203180648 202.21322844020324 0 0 0 0 -13.69171216536779 132.33105096152576 0 132.33105096152576 278.29377877224556 0 0 0 0 4.1281103577348404 131.53561349383381 0 131.53561349383381 161.34551699925214 0 0 0 0 44.848246576779275 163.72156615852509 0 163.72156615852509 129.35913070532843 0 0 0 0 -0.023044854266572656 129.23679972141758 0 129.23679972141758 300.65686132875271 0 0 0 0 15.280820993983738 158.50085376472776 0 158.50085376472776 67.482770133579791 0 0 0 0 6.7571717531318427 109.70328584319941 0 109.70328584319941 64.555629497903283 0 0 0 0 -33.471056725362359 207.22699698461656 0 207.22699698461656 98.825760392472148 0 0 0 0 -8.821609611826716 194.44379634960933 0 194.44379634960933 19.77016468202055 0 0 0 0 -108.44101795034294 262.82520149063203 0 262.82520149063203 1.8505415153813374 0 0 0 0 -116.47788529719764 144.95244500177068 0 144.95244500177068 58.862408780789337 0 0 0 0 -50.434563206762761 46.107280787850698 0 46.107280787850698 -53.669606772783084 0 0 0 0 165.80302676486099 236.65684634108766 0 236.65684634108766 6.7917984187515685 0 0 0 0 -102.31540099885569 321.66760679475374 0 321.66760679475374 67.277561018796405 0 0 0 0 -149.61519227759345 305.30549645766951 0 305.30549645766951 56.408601757109864 0 0 0 0 -98.783561677737453 340.38885250658495 0 340.38885250658495 79.661579423598596 0 0 0 0 -20.687497451504896 304.39685983415256 0 304.39685983415256 30.249462112609763 0 0 0 0 -64.794315061397356 224.06431811356742 0 224.06431811356742 79.319819479482248 0 0 0 0 -134.02137563201904 280.70466449723608 0 280.70466449723608 28.771601281841868 0 0 0 0 -65.906013213723782 231.55748118090924 0 231.55748118090924 -121.97050825174665 0 0 0 0 -96.17589621458319 312.67041608312138 0 312.67041608312138 -26.513572815238149 0 0 0 0 -135.54558970409016 240.53654050156183 0 240.53654050156183 -54.373120513148024 0 0 0 0 -177.27096201860695 295.60254127909866 0 295.60254127909866 -114.87203891618265 0 0 0 0 -223.19363576109663 145.24814027057982 0 145.24814027057982 -143.2764569476567 0 0 0 0 -106.98064217808496 243.37176317612466 0 243.37176317612466 -256.14825046317128 0 0 0 0 -4.2440428785303084 188.32941979239695 0 188.32941979239695 17.323480055943946 0 0 0 0 52.020760084549693 171.11378049760606 0 171.11378049760606 -143.78985606614151 0 0 0 0 -72.553661751604523 632.26138049579458 0 632.26138049579458 -177.91660398163367 0 0 0 0 -51.395440887055557 51.941963066756358 0 51.941963066756358 -47.239802924533194 0 0 0 0 -419.84277732272312 183.36748895382334 0 183.36748895382334 -131.42712349938665 0 0 0 0 172.09967413171398 165.872854893154 0 165.872854893154 -229.66140532073587 0 0 0 0 193.26587280591775 216.12500524456846 0 216.12500524456846 -222.7025543651489 0 0 0 0 277.96082187553111 324.54906946212577 0 324.54906946212577 -233.30666540279344 0 0 0 0 164.3581380481337 250.30008831926534 0 250.30008831926534 -9.1702759222243913 0 0 0 0 180.42253198880644 211.67607963230694 0 211.67607963230694 -66.564822965447092 0 0 0 0 76.775818566031376 191.69000691987821 0 191.69000691987821 101.78686416667188 0 0 0 0 61.900642378954217 231.31012092767196 0 231.31012092767196 11.74595485728787 0 0 0 0 39.653447350414353 274.16209422482643 0 274.16209422482643 77.556820614569006 0 0 0 0 -47.934923253013892 77.608918950894093 0 77.608918950894093 3.0095365325488501 0 0 0 0 44.489099124504719 288.65600096171693 0 288.65600096171693 215.86025214918482 0 0 0 0 7.6366030675926595 317.08864367224305 0 317.08864367224305 204.92223684409328 0 0 0 0 5.3590292780172604 284.38972370253032 0 284.38972370253032 60.168334618065273 0 0 0 0 204.99843768138089 327.01983179873787 0 327.01983179873787 -4.7217044491553679 0 0 0 0 114.75504286904106 304.8600008456051 0 304.8600008456051 62.54320586976246 0 0 0 0 -318.48914758456522 494.99232181737898 0 494.99232181737898 231.09120738349156 0 0 0 0 128.68522044373094 603.56677803023194 0 603.56677803023194 -190.96927404496819 0 0 0 0 -1011.1164928184844 307.15573885389313 0 307.15573885389313 3005.0410519563011 0 0 0 0 533.48208823684399 451.64238165177812 0 451.64238165177812 -168.36628208347065 0 0 0 0 159.74578742714493 286.1102965399723 0 286.1102965399723 -38.164311802567681 0 0 0 0 385.37917992770963 124.74463248711254 0 124.74463248711254 74.874111218203325 0 0 0 0 95.050704957713606 482.40660936827044 0 482.40660936827044 266.04206674030866 0 0 0 0 254.95984655677603 397.7235822508519 0 397.7235822508519 -396.49085461400682 0 0 0 0 215.43471701909584 829.69367970565509 0 829.69367970565509 -517.17513409984531 0 0 0 0 307.27022091510298 264.34648738444957 0 264.34648738444957 -2305.935824420143 0 0 0 0 3.3195710603790189 7.6307287774343706 0 7.6307287774343706 0.095417409081658633 0 0 0 0 391.08732609342405 1594.1895276635332 0 1594.1895276635332 -1199.948586847182 0 0 0 0 -86.904233655221105 1279.6418381272724 0 1279.6418381272724 -989.47392114135437 0 0 0 0 1425.1692837685114 -138.01890366952284 0 -138.01890366952284 -190.93649187223491 0 0 0 0 -230.54101219263612 628.70844212694647 0 628.70844212694647 1748.0085530286015 0 0 0 0 -46.728561155734496 415.42701742803911 0 415.42701742803911 932.48321309298626 0 0 0 0 76.388630260553327 158.05709628284967 0 158.05709628284967 419.87084754963871 0 0 0 0 26.732487242057687 287.60087887512054 0 287.60087887512054 325.21142418211093 0 0 0 0 57.624438519836986 18.472583334264527 0 18.472583334264527 26.114504880591994 0 0 0 0 -490.44614341339911 -301.01815954242193 0 -301.01815954242193 -195.94280846053152 0 0 0 0 398.8075138846616 190.01970610689023 0 190.01970610689023 -1243.4873499613459 0 0 0 0 392.34694814686691 285.59096799502049 0 285.59096799502049 -330.45281797842472 0 0 0 0 330.93750389045454 237.84408179200545 0 237.84408179200545 -367.47221316095965 0 0 0 0 315.38065017406916 259.37124805881467 0 259.37124805881467 -314.43640217719076 0 0 0 0 331.33136611921509 231.48634299318655 0 231.48634299318655 -278.12416456753272 0 0 0 0 278.36000777169102 175.24193750967243 0 175.24193750967243 -308.0283411727869 0 0 0 0 344.32765064166597 346.73235659066995 0 346.73235659066995 -309.78539053000543 0 0 0 0 237.56456569003058 334.66695682394493 0 334.66695682394493 -98.633441185229458 0 0 0 0 414.98793644751277 610.29700239279191 0 610.29700239279191 23.6854364987812 0 0 0 0 127.61798932588135 326.59121757942194 0 326.59121757942194 267.30178943034844 0 0 0 0 324.31868855774519 401.84701484157085 0 401.84701484157085 -5.2832678526465315 0 0 0 0 148.75205313193874 369.80442463200598 0 369.80442463200598 335.45773934734461 0 0 0 0 247.78090992793295 730.67322857512045 0 730.67322857512045 571.03017946238833 0 0 0 0 10.481174367814674 675.23342905382742 0 675.23342905382742 765.23157142185664 0 0 0 0 226.6371828295305 573.77341190312291 0 573.77341190312291 296.05148675944656 0 0 0 0 198.51906484813662 703.75146946200402 0 703.75146946200402 550.76947688646032 0 0 0 0 544.72120820135751 917.21137900421309 0 917.21137900421309 540.63949835696258 0 0 0 0 81.892157614456664 870.31173122028122 0 870.31173122028122 1298.2048159532715 0 0 0 0 119.14027494769107 703.45686875509273 0 703.45686875509273 958.05538683317718 0 0 0 0 76.278258426418688 815.43390979364267 0 815.43390979364267 846.19903310012887 0 0 0 0 -63.035288995452248 55.663265373920069 0 55.663265373920069 -27.48669268887565 0 0 0 0 106.61203772455337 429.12741157162236 0 429.12741157162236 376.24189872280476 0 0 0 0 655.07444034064247 898.86999403336085 0 898.86999403336085 468.22702136885346 0 0 0 0 -185.20000996393719 -45.711249601641612 0 -45.711249601641612 555.74563385453075 0 0 0 0 -47.529296488617547 44.464596930658445 0 44.464596930658445 16.688751846930245 0 0 0 0 -61.277171213174142 55.054000530740979 0 55.054000530740979 10.231821024385908 0 0 0 0 1.5623279834617279 -370.16000605644513 0 -370.16000605644513 -354.13706280884799 0 0 0 0 -56.224147880286722 35.939915199923689 0 35.939915199923689 40.023142654363852 0 0 0 0 -16.205658868415298 16.03566963152133 0 16.03566963152133 -7.7360869780657708 0 0 0 0 477.49607979306893 892.1938356959472 0 892.1938356959472 1044.7357285882172 0 0 0 0 316.27531416139391 942.34813567799574 0 942.34813567799574 1030.0361211422132 0 0 0 0 737.21387175326527 1292.8786079072233 0 1292.8786079072233 1225.3668799724546 0 0 0 0 1210.3466772678294 889.82901481961017 0 889.82901481961017 732.33757479611086 0 0 0 0 372.03519989720371 659.40933737215528 0 659.40933737215528 823.18086365862837 0 0 0 0 -6.3586733088068286 641.54370162339728 0 641.54370162339728 979.78136828896822 0 0 0 0 -11.92524630699981 16.455228415975967 0 16.455228415975967 -14.261157226131672 0 0 0 0 -263.78033650293946 214.73488332031411 0 214.73488332031411 234.66288524358242 0 0 0 0 46.743335280901817 39.522858591476052 0 39.522858591476052 3.7702027335136563 0 0 0 0 148.80508211020788 142.73796203912934 0 142.73796203912934 -29.547730706435686 0 0 0 0 73.307466295344057 66.525469165790128 0 66.525469165790128 -6.733676947922504 0 0 0 0 45.022606054786593 -13.056521957885707 0 -13.056521957885707 -96.895791486145754 0 0 0 0 11.347337138498631 9.2657429167543341 0 9.2657429167543341 4.6721668644463534 0 0 0 0 119.0376534826064 66.345231072831666 0 66.345231072831666 -108.02866925970011 0 0 0 0 -140.35820454293207 88.169432461159886 0 88.169432461159886 -250.50532021115987 0 0 0 0 -53.119726266339271 51.590484046614392 0 51.590484046614392 -46.633520523767459 0 0 0 0 1.6379824761970667 39.840248859705753 0 39.840248859705753 -181.35042240655611 0 0 0 0 30.808032581357111 345.65242370458873 0 345.65242370458873 -361.65096849124529 0 0 0 0 150.63695466674108 69.944233171321684 0 69.944233171321684 -67.430830378929386 0 0 0 0 -238.30128606547078 -40.832888109922351 0 -40.832888109922351 280.67303855497448 0 0 0 0 -366.14445046713445 114.45533779944526 0 114.45533779944526 99.507272287126398 0 0 0 0 -106.87491952341225 498.23208598786005 0 498.23208598786005 -1167.4242978732509 0 0 0 0 -7.0311820150218409 -0.74942497717950118 0 -0.74942497717950118 0.55597113942312149 0 0 0 0 237.59995539439115 371.87578893742466 0 371.87578893742466 -573.54386748881166 0 0 0 0 41.215152446307911 -20.897700602661644 0 -20.897700602661644 -568.2625422985875 0 0 0 0 -128.74354980122007 503.66224821801006 0 503.66224821801006 -165.18932895555918 0 0 0 0 700.80685333785368 632.94651753889048 0 632.94651753889048 53.815385962945584 0 0 0 0 208.888872015581 323.98625917481695 0 323.98625917481695 -73.377929656737251 0 0 0 0 695.62965757240499 669.67850621938669 0 669.67850621938669 -177.40418957680231 0 0 0 0 531.17970618991239 1301.8197976898809 0 1301.8197976898809 1578.7965287762345 0 0 0 0 10.368052391104442 7.5018895335018385 0 7.5018895335018385 6.2440990392757669 0 0 0 0 -59.023063795677444 80.137463008490158 0 80.137463008490158 1669.4529417115991 0 0 0 0 114.67152038869972 87.801900948787079 0 87.801900948787079 -205.20597931476368 0 0 0 0 -187.49305925603403 60.294451344008849 0 60.294451344008849 23.257555948082882 0 0 0 0 -194.2549591029674 171.78039105991775 0 171.78039105991775 -58.655443874100456 0 0 0 0 25.70834919092556 22.120838843816358 0 22.120838843816358 12.739184818998723 0 0 0 0 -144.9695362301718 182.87469523026084 0 182.87469523026084 -108.64928671024973 0 0 0 0 52.892810997887864 27.038899175691768 0 27.038899175691768 275.23065429479175 0 0 0 0 -66.60863185209746 -10.166453843201452 0 -10.166453843201452 710.69269423474907 0 0 0 0 50.253370091108081 -29.11636487931537 0 -29.11636487931537 85.123393966008734 0 0 0 0 52.560271114642092 129.73057860774134 0 129.73057860774134 199.38216323957022 0 0 0 0 112.09727439731068 364.453926696704 0 364.453926696704 251.16888471911079 0 0 0 0 3.0700727742236325 7.3295470954859638 0 7.3295470954859638 -1.8959816147188064 0 0 0 0 155.83858599147788 361.23504615141428 0 361.23504615141428 246.08995565879013 0 0 0 0 -15.636657826555165 354.62951783573953 0 354.62951783573953 868.33613353631517 0 0 0 0 37.622653058999276 121.40124749016832 0 121.40124749016832 454.42952346254606 0 0 0 0 24.094839564394533 254.09575618403233 0 254.09575618403233 621.22543578312616 0 0 0 0 -35.673334205108404 178.94644173774577 0 178.94644173774577 686.84438656651764 0 0 0 0 -9.0567974705645611 274.73299091946319 0 274.73299091946319 694.11492390491185 0 0 0 0 -181.26834317261819 376.26875136968738 0 376.26875136968738 725.88379571199766 0 0 0 0 -56.084181089714548 847.79323118297179 0 847.79323118297179 2176.8800611204933 0 0 0 0 493.16843638727732 1544.9339735130488 0 1544.9339735130488 2698.467127163749 0 0 0 0 1679.2470423047489 1319.5783183877647 0 1319.5783183877647 1001.2597054050602 0 0 0 0 230.42876272760623 -100.36723909774446 0 -100.36723909774446 -21.694975894497475 0 0 0 0 1332.7367744795702 1418.2843650509603 0 1418.2843650509603 2295.0409379327757 0 0 0 0 6.3729097284958129 2.7268617500712367 0 2.7268617500712367 0.61092386710542712 0 0 0 0 313.17886204292518 282.80763362658035 0 282.80763362658035 223.56643366903882 0 0 0 0 4.0478641496250987 5.1439097602544166 0 5.1439097602544166 0.050366452092674763 0 0 0 0 382.85069662886963 407.64086506290187 0 407.64086506290187 983.66860793923843 0 0 0 0 872.25414229711168 1376.4064472899481 0 1376.4064472899481 1086.6635362142915 0 0 0 0 821.96020724478876 159.4905084798811 0 159.4905084798811 1902.2968389384987 0 0 0 0 1281.2776679000526 900.79478157925769 0 900.79478157925769 1248.2006876387168 0 0 0 0 763.39359219921926 517.35881773517576 0 517.35881773517576 863.61758384975838 0 0 0 0 785.29665152612142 906.02582991574309 0 906.02582991574309 1341.6673242769903 0 0 0 0 -37.402707322857168 54.571734064869815 0 54.571734064869815 4.3310935429763049 0 0 0 0 13.929878168586242 5.1215839577107545 0 5.1215839577107545 -7.4377914920226829 0 0 0 0 -3.7640780775128349 8.574379083240558 0 8.574379083240558 -5.2093049985638515 0 0 0 0 163.4233091956994 -69.410321002913406 0 -69.410321002913406 76.364055209754952 0 0 0 0 798.45316470850958 471.92095747093845 0 471.92095747093845 442.17378858017037 0 0 0 0 -4.8779577819441329 60.917794089509698 0 60.917794089509698 -97.14545457548229 0 0 0 0 -40.301311700750375 22.18232550011453 0 22.18232550011453 -39.780200997833163 0 0 0 0 -105.21708295635472 237.48291370077641 0 237.48291370077641 -0.32879018620587885 0 0 0 0 -35.277380121027818 154.72723465649324 0 154.72723465649324 -250.09842001757352 0 0 0 0 -116.93817238236079 427.43620917067165 0 427.43620917067165 -337.41052720200969 0 0 0 0 -141.06600126743797 533.73471851279464 0 533.73471851279464 -758.13488365284866 0 0 0 0 -0.5349522033598646 3.1995289311813622 0 3.1995289311813622 -0.99480540135596129 0 0 0 0 -11.376845950771894 91.954355627749464 0 91.954355627749464 -243.95051949136541 0 0 0 0 -242.33799514347629 457.22649789095158 0 457.22649789095158 130.51629630770185 0 0 0 0 -106.48998689108703 35.584218434814829 0 35.584218434814829 -277.03667008772027 0 0 0 0 -19.15787904602567 16.900183427089246 0 16.900183427089246 -10.483359998524435 0 0 0 0 -70.205737769221741 50.173730387723481 0 50.173730387723481 -664.83437764056725 0 0 0 0 294.1022225436609 -186.28199651322211 0 -186.28199651322211 847.87418746674666 0 0 0 0 -4.8545657763155532 7.88954921205044 0 7.88954921205044 -5.5533000284118827 0 0 0 0 223.21488810699157 56.579284412888228 0 56.579284412888228 -1653.1292883058486 0 0 0 0 724.0097827376303 1320.190493399612 0 1320.190493399612 1001.4479376779691 0 0 0 0 254.98267079688958 2024.5981827488285 0 2024.5981827488285 -170.47419541733689 0 0 0 0 504.61663324784604 1266.2381909578107 0 1266.2381909578107 962.77882243677595 0 0 0 0 559.81044631225086 1629.652942004439 0 1629.652942004439 475.40483285783557 0 0 0 0 579.17208508821204 1694.3642170845123 0 1694.3642170845123 591.20912172297903 0 0 0 0 525.96261026049615 1474.696901322226 0 1474.696901322226 618.02359545161016 0 0 0 0 -240.76472199461568 703.55583039533303 0 703.55583039533303 -0.6004596785933245 0 0 0 0 357.68086772941024 1305.4567932122591 0 1305.4567932122591 -890.4003794931923 0 0 0 0 2600.5085897673271 1222.2771013002639 0 1222.2771013002639 -1391.5268960805843 0 0 0 0 775.80444976844501 605.01447627703055 0 605.01447627703055 142.06792889925418 0 0 0 0 847.85474943318695 1171.8194936075597 0 1171.8194936075597 590.82345325889764 0 0 0 0 1530.3688705310051 1878.8140536279825 0 1878.8140536279825 461.43119051456961 0 0 0 0 820.13087635779812 1133.1056284683291 0 1133.1056284683291 -1417.8384828439448 0 0 0 0 519.02933638673858 1483.7357524516992 0 1483.7357524516992 870.58805434731767 0 0 0 0 584.7416362229269 1726.5476763106999 0 1726.5476763106999 763.32182459894102 0 0 0 0 899.36644044650166 1660.7422357014148 0 1660.7422357014148 -127.57343139295699 0 0 0 0 304.7981100008401 714.49219494109275 0 714.49219494109275 -468.94602753361687 0 0 0 0 63.878602361772209 -50.568737977504497 0 -50.568737977504497 86.235749644067255 0 0 0 0 186.36132555585937 15.62308238146943 0 15.62308238146943 26.983634188523865 0 0 0 0 -41.226939824220608 124.53649407126068 0 124.53649407126068 -19.362392530500074 0 0 0 0 8.5372631188074593 170.20732989021053 0 170.20732989021053 -18.375419813761255 0 0 0 0 -33.049217669307836 6.8729595756885828 0 6.8729595756885828 71.134289204324887 0 0 0 0 -230.9311844820113 170.29367212217767 0 170.29367212217767 41.681139473890653 0 0 0 0 -524.55227996032772 122.62736212478194 0 122.62736212478194 202.11225867713802 0 0 0 0 0.52876849230594303 -2.3540787092520361 0 -2.3540787092520361 -3.7220320426969238 0 0 0 0 -434.93250901520514 24.509908995409205 0 24.509908995409205 302.69430551305413 0 0 0 0 -442.00792915721831 65.025114214211499 0 65.025114214211499 241.67569371318677 0 0 0 0 -9.5769121301386058 13.846356844644163 0 13.846356844644163 -3.8785791129761265 0 0 0 0 -241.73539201488393 463.87500435370839 0 463.87500435370839 -112.11200905346777 0 0 0 0 -76.473787550188717 77.804313663422363 0 77.804313663422363 -743.08239630027674 0 0 0 0 -390.08251788912457 -13.244118745351443 0 -13.244118745351443 258.98421464722196 0 0 0 0 -371.72460795019288 -49.970188669889467 0 -49.970188669889467 290.71642561595218 0 0 0 0 53.550516724732006 -153.98602495031082 0 -153.98602495031082 -301.57055573109392 0 0 0 0 -3.7438825419649504 4.5684477905775793 0 4.5684477905775793 -0.85471632741801784 0 0 0 0 -268.31540280695481 -26.239593742997386 0 -26.239593742997386 165.69689710531384 0 0 0 0 52.88921631899575 275.14463639474707 0 275.14463639474707 707.43167420622922 0 0 0 0 -10.52161764426674 12.872690523259394 0 12.872690523259394 -12.975070851010003 0 0 0 0 32.790297972035887 147.54431846372881 0 147.54431846372881 -118.53262366937997 0 0 0 0 -34.916185021945807 38.045086463235748 0 38.045086463235748 -28.453435284061158 0 0 0 0 -124.57101998697181 331.8524982296949 0 331.8524982296949 1548.6982193120784 0 0 0 0 369.71572946741071 542.22440591442864 0 542.22440591442864 1669.9897453429294 0 0 0 0 380.74238302951562 560.81099382281536 0 560.81099382281536 1115.4128268663917 0 0 0 0 -7.1886919349279452 14.234099931949892 0 14.234099931949892 -8.039321554546575 0 0 0 0 506.2578109523165 790.47868085565278 0 790.47868085565278 770.71895187553309 0 0 0 0 315.09421498701704 722.01466182814329 0 722.01466182814329 689.71322723018238 0 0 0 0 194.28676880380954 680.93743897572858 0 680.93743897572858 1667.202485228875 0 0 0 0 -49.365207554845256 51.482876536436379 0 51.482876536436379 -12.628407403259189 0 0 0 0 -29.66677400821419 26.682956819417143 0 26.682956819417143 -13.745287643583708 0 0 0 0 -46.124597853646264 55.639610072685173 0 55.639610072685173 16.68880848196568 0 0 0 0 -457.96759608926368 -301.97291710390709 0 -301.97291710390709 -356.24498948338442 0 0 0 0 -4.0885039792364353 32.41562251106069 0 32.41562251106069 -32.016380053423916 0 0 0 0 15.798110463540326 41.61706173335881 0 41.61706173335881 -35.741573072538358 0 0 0 0 14.863593455171213 47.304790444730315 0 47.304790444730315 -39.031034698040457 0 0 0 0 129.88759670630679 36.342181706932024 0 36.342181706932024 -26.734335846966133 0 0 0 0 -99.123217394866515 140.89992759167217 0 140.89992759167217 18.607646996882977 0 0 0 0 135.11130196357772 186.72712053548094 0 186.72712053548094 -92.74687925435137 0 0 0 0 -43.100560268343543 191.0005924608995 0 191.0005924608995 -14.539303755853325 0 0 0 0 7.3759253976874675 8.4091048798517249 0 8.4091048798517249 -9.3832339029835623 0 0 0 0 30.056226535285532 -5.8518643852730747 0 -5.8518643852730747 21.575877988594584 0 0 0 0 -37.265195866566501 46.854615810647374 0 46.854615810647374 15.357724873945699 0 0 0 0 -7.0945238274490379 4.679449289730492 0 4.679449289730492 5.6122766086762113 0 0 0 0 68.754990792662284 133.29104758474205 0 133.29104758474205 -48.004623437562259 0 0 0 0 -42.876555387818371 54.851201742749254 0 54.851201742749254 -66.011243526969338 0 0 0 0 -62.546221295298892 111.62656047599012 0 111.62656047599012 -112.43201434116054 0 0 0 0 -55.457934750091226 86.805330551484076 0 86.805330551484076 -37.82112605880684 0 0 0 0 -131.78408248196502 107.29578879709879 0 107.29578879709879 -0.10485456990136299 0 0 0 0 -2.0955754846770276 -2.6109004904493744 0 -2.6109004904493744 5.0753042563601412 0 0 0 0 608.0343103564519 4.3525212226813892 0 4.3525212226813892 -133.86318529539858 0 0 0 0 107.64784400949429 399.46327960345661 0 399.46327960345661 0.30154103807830485 0 0 0 0 -260.65370297947811 59.415797536254104 0 59.415797536254104 -71.673121804225957 0 0 0 0 -37.863665045470043 330.15543484161208 0 330.15543484161208 -32.030674025096232 0 0 0 0 9.0552181707316777 90.420176857354818 0 90.420176857354818 19.043919266732701 0 0 0 0 -401.50463826001942 116.0631238319329 0 116.0631238319329 73.917460110213142 0 0 0 0 -384.71601886568533 85.957354227313772 0 85.957354227313772 -247.37418294115923 0 0 0 0 -1053.2528606745191 131.27523288377506 0 131.27523288377506 219.91208332736278 0 0 0 0 -568.87282912536466 362.01295857473451 0 362.01295857473451 -0.37731475870609099 0 0 0 0 -0.3445255592855343 -2.4185813874006783 0 -2.4185813874006783 -1.1081397576839436 0 0 0 0 228.2375806386699 205.2810968131671 0 205.2810968131671 -0.019455717760138214 0 0 0 0 565.40811875615236 89.300295662987992 0 89.300295662987992 -113.89700746821472 0 0 0 0 -54.506423039394576 213.77341079301186 0 213.77341079301186 0.49998444653465413 0 0 0 0 68.793746832707257 60.636126169098134 0 60.636126169098134 17.822118002222851 0 0 0 0 23.817432023477949 19.014809210141806 0 19.014809210141806 9.7728941554828452 0 0 0 0 -277.23007655745459 127.52924205728777 0 127.52924205728777 93.586961239168886 0 0 0 0 50.396242766859359 268.40428302455985 0 268.40428302455985 -108.37976332352264 0 0 0 0 120.82120180195489 70.148574323975481 0 70.148574323975481 75.604159092981718 0 0 0 0 242.48563483248836 126.10218419821695 0 126.10218419821695 -42.819973776844563 0 0 0 0 -58.576282465379336 58.758380106955883 0 58.758380106955883 33.02448082283081 0 0 0 0 -81.566149468559161 141.09847122538849 0 141.09847122538849 61.227035872318083 0 0 0 0 -52.955774442996102 31.530237846932479 0 31.530237846932479 62.161296038272326 0 0 0 0 -0.05488947836420266 120.35234644795128 0 120.35234644795128 -37.695409844032838 0 0 0 0 -19.291441838675183 34.570846104828931 0 34.570846104828931 56.501458578008112 0 0 0 0 260.37510976300109 371.19000606797636 0 371.19000606797636 123.86432497459464 0 0 0 0 453.45803307550523 120.73039393906583 0 120.73039393906583 -138.19388739395072 0 0 0 0 523.83015089086257 265.30786963166611 0 265.30786963166611 56.332177060394315 0 0 0 0 -100.54681897855377 142.11061079963184 0 142.11061079963184 41.328912812484759 0 0 0 0 -188.96869927276566 57.638626323649078 0 57.638626323649078 18.298739272191597 0 0 0 0 179.87903804781831 131.54827007448944 0 131.54827007448944 62.879406343834944 0 0 0 0 345.15962268170551 187.06041704904055 0 187.06041704904055 70.381209633460458 0 0 0 0 290.57568641629769 115.39020083211653 0 115.39020083211653 128.32169529610474 0 0 0 0 167.50395929779859 -39.425400868462759 0 -39.425400868462759 -84.885442004472168 0 0 0 0 336.19412736734375 175.24355452872987 0 175.24355452872987 134.75625662805396 0 0 0 0 40.172087977231286 -16.968717349965118 0 -16.968717349965118 -23.738444074084384 0 0 0 0 138.92861669950071 138.86222375875877 0 138.86222375875877 30.591182130461675 0 0 0 0 -41.584907399330405 224.40947025943024 0 224.40947025943024 5.2197377272641461 0 0 0 0 84.011943281730055 -256.31540076731471 0 -256.31540076731471 1.3358774175511423 0 0 0 0 28.289021853545449 11.388127060363502 0 11.388127060363502 -0.9029363372253556 0 0 0 0 81.801096904979204 -85.880429649951111 0 -85.880429649951111 -189.55735659529455 0 0 0 0 84.140942828800178 -283.32795611428776 0 -283.32795611428776 -337.57841819399619 0 0 0 0 45.940799832831544 -388.79434967967973 0 -388.79434967967973 -5.1420820876373909 0 0 0 0 269.65352383402933 -166.79621172463521 0 -166.79621172463521 -737.64404825937527 0 0 0 0 199.14189490367426 -39.123396617273102 0 -39.123396617273102 -102.38897057141367 0 0 0 0 225.17646413101465 -222.53285250315093 0 -222.53285250315093 -386.51248201892304 0 0 0 0 198.99936678666563 -47.270269541986636 0 -47.270269541986636 -269.73172511480516 0 0 0 0 224.51963326573605 -251.66818651580252 0 -251.66818651580252 -58.099055886501446 0 0 0 0 2386.8711137226492 -916.62968007590098 0 -916.62968007590098 -1153.7801340232691 0 0 0 0 295.41070494597079 -333.28900837052788 0 -333.28900837052788 -552.62372041160415 0 0 0 0 717.88892663185834 -832.39242886927968 0 -832.39242886927968 17.444464927582885 0 0 0 0 -55.07642803042836 -183.09289967369114 0 -183.09289967369114 -408.9093536597502 0 0 0 0 1196.6051414255999 243.50663268644712 0 243.50663268644712 -2256.6849587613106 0 0 0 0 169.35279539476733 67.783512655075924 0 67.783512655075924 23.814734512070459 0 0 0 0 152.19945303091299 1464.9238696426332 0 1464.9238696426332 -1606.7820139878459 0 0 0 0 210.11641407138086 512.50623864778026 0 512.50623864778026 -604.36126465478446 0 0 0 0 1864.744321409773 848.81573530924652 0 848.81573530924652 -568.81778350834065 0 0 0 0 1371.0815590569146 -265.3743289198319 0 -265.3743289198319 843.7613063731842 0 0 0 0 219.52762696816262 79.414103431854357 0 79.414103431854357 13.098628946551685 0 0 0 0 -745.99860233295476 747.24639905271761 0 747.24639905271761 -340.65995871573978 0 0 0 0 -203.02376892961911 1206.6247446638699 0 1206.6247446638699 -454.43705041051726 0 0 0 0 -26.536340395134175 541.50087567364972 0 541.50087567364972 -750.42016167974361 0 0 0 0 -923.8324666149565 1226.0011362822552 0 1226.0011362822552 -266.476426019668 0 0 0 0 -1316.4523052622681 642.35064473951934 0 642.35064473951934 -212.99848111597385 0 0 0 0 87.355299179296708 808.05918237929291 0 808.05918237929291 -764.57355888420716 0 0 0 0 33.093747413417702 26.301903670275351 0 26.301903670275351 -2.7894130116957854 0 0 0 0 386.48091573474812 144.05229774304462 0 144.05229774304462 -463.31245912041049 0 0 0 0 -975.3624164948269 977.93789704290248 0 977.93789704290248 77.675548529747175 0 0 0 0 -1126.0085733988235 106.09404657739015 0 106.09404657739015 900.91645592567511 0 0 0 0 -201.48114743905899 23.963811918081774 0 23.963811918081774 374.1345307911979 0 0 0 0 -182.85033136393758 344.23526310612579 0 344.23526310612579 316.2731417807081 0 0 0 0 -226.07390663247497 465.39365449542674 0 465.39365449542674 332.29256054970028 0 0 0 0 96.777926682465477 1066.5690552678934 0 1066.5690552678934 1440.5984800683364 0 0 0 0 9.329543796101575 10.636323442104029 0 10.636323442104029 13.890914705032571 0 0 0 0 113.56482105099712 -655.40440733540163 0 -655.40440733540163 1508.3053681235097 0 0 0 0 1685.8229920092126 1186.9426517451484 0 1186.9426517451484 435.06525536994741 0 0 0 0 1879.2894666495558 447.47243679800886 0 447.47243679800886 32.506285741634201 0 0 0 0 532.229581542284 118.87810128465208 0 118.87810128465208 -115.42782488142257 0 0 0 0 1155.0415442076774 526.16846762959904 0 526.16846762959904 6.447553054895252 0 0 0 0 -101.36546346854448 466.4914348098464 0 466.4914348098464 -44.165760064526694 0 0 0 0 30.091237190770414 29.859324186784107 0 29.859324186784107 35.409117730926482 0 0 0 0 183.79504849744262 -241.6482024659781 0 -241.6482024659781 -146.7960432952641 0 0 0 0 208.88819022633834 161.09715641913135 0 161.09715641913135 43.711672259203624 0 0 0 0 163.52315134969831 50.07063245324025 0 50.07063245324025 -227.44745598360896 0 0 0 0 408.43192642240319 138.03534135704103 0 138.03534135704103 22.319638069362554 0 0 0 0 -180.59954261273379 11.236847798390954 0 11.236847798390954 380.68438622784743 0 0 0 0 -271.86400867871998 197.65634045996558 0 197.65634045996558 75.236156207203749 0 0 0 0 -379.38992020266596 152.97621960270044 0 152.97621960270044 204.37524468904303 0 0 0 0 -27.145726211929002 54.744496835119747 0 54.744496835119747 74.239003980322025 0 0 0 0 -366.53795683619683 406.37481243946968 0 406.37481243946968 171.85326046528644 0 0 0 0 559.34049215952473 178.28828677326237 0 178.28828677326237 393.64360538430628 0 0 0 0 -108.06612769529757 140.5691187789688 0 140.5691187789688 44.987539554784462 0 0 0 0 -240.70527236675844 84.869385143327236 0 84.869385143327236 107.32312107123653 0 0 0 0 -187.78264301124727 121.10072938702069 0 121.10072938702069 625.71168863454659 0 0 0 0 429.21933384280419 180.98678523182753 0 180.98678523182753 572.0709551400214 0 0 0 0 -33.988780083454913 102.75040102419734 0 102.75040102419734 661.0432612521472 0 0 0 0 -360.8518431401717 572.63653182849157 0 572.63653182849157 466.44622070243349 0 0 0 0 -103.94078935819562 611.88245239714161 0 611.88245239714161 268.95529925753362 0 0 0 0 383.45584368738855 -187.6551902068677 0 -187.6551902068677 696.22822939234902 0 0 0 0 -822.97987306414871 1381.0121711031679 0 1381.0121711031679 -1776.4941707090475 0 0 0 0 97.23209713579854 622.83406485889282 0 622.83406485889282 -972.46923332838924 0 0 0 0 -11.168260516200291 7.9930156042511271 0 7.9930156042511271 -5.5990097574463107 0 0 0 0 -128.36368420394754 135.83201681137331 0 135.83201681137331 26.758737534058127 0 0 0 0 -1848.045798471052 448.62198077261564 0 448.62198077261564 1484.6308678321366 0 0 0 0 -247.84727271299926 829.63439429002756 0 829.63439429002756 294.69193131758948 0 0 0 0 -611.88050722413027 1441.4755187454211 0 1441.4755187454211 -553.81729811691912 0 0 0 0 212.27960761194117 284.81051734628272 0 284.81051734628272 -97.605855196743505 0 0 0 0 -74.726358862535562 859.68132027139654 0 859.68132027139654 -298.80511862042476 0 0 0 0 -23.810414197228965 696.38376086280914 0 696.38376086280914 35.057603476278018 0 0 0 0 -66.8404149342241 748.53276276271208 0 748.53276276271208 31.240753111749655 0 0 0 0 16.4882530462055 323.12252070246905 0 323.12252070246905 62.910218686098233 0 0 0 0 -189.47494869557704 724.29408828932355 0 724.29408828932355 131.7369000664039 0 0 0 0 -132.48871640428843 680.89804617846676 0 680.89804617846676 -187.07352757723129 0 0 0 0 41.622890620928956 662.88750164952944 0 662.88750164952944 -193.08673520642333 0 0 0 0 -95.204230631439714 898.39462709339568 0 898.39462709339568 127.86025049505406 0 0 0 0 -5.4088055387366865 8.6119761715042387 0 8.6119761715042387 -3.9375301493097794 0 0 0 0 977.32244915500632 30.397982960086665 0 30.397982960086665 -2520.6772896794282 0 0 0 0 71.865339525000309 579.67065158316109 0 579.67065158316109 -428.07865448075609 0 0 0 0 -530.94787925870332 288.62369785743067 0 288.62369785743067 -253.1147840670601 0 0 0 0 469.43742722993557 1411.7428263496622 0 1411.7428263496622 457.30313729730551 0 0 0 0 -251.38437435600645 294.03631969736307 0 294.03631969736307 1397.7270624776866 0 0 0 0 -241.10057032653276 375.50233287142328 0 375.50233287142328 409.2023522304371 0 0 0 0 -106.07325649396807 587.49788303597961 0 587.49788303597961 512.85243708756752 0 0 0 0 -37.466934225242142 19.545786968583798 0 19.545786968583798 -10.72183637412536 0 0 0 0 -224.28360619988234 8.6717249114008155 0 8.6717249114008155 80.938492911795038 0 0 0 0 -138.71319989371113 238.94808024457598 0 238.94808024457598 587.98234782690997 0 0 0 0 40.877362449849898 -167.6934565154952 0 -167.6934565154952 335.93792870741163 0 0 0 0 -16.759974744025044 3.5210864016630552 0 3.5210864016630552 22.517270955747392 0 0 0 0 -65.58543250870207 100.85307038305109 0 100.85307038305109 46.145901202515233 0 0 0 0 -60.929802714759262 35.532382840176183 0 35.532382840176183 -4.6583437644625008 0 0 0 0 -58.822873123543104 106.2820847298135 0 106.2820847298135 83.639077598010772 0 0 0 0 -23.257027975050732 54.940763733146014 0 54.940763733146014 59.372625050178613 0 0 0 0 -69.703886522312231 57.168726569921432 0 57.168726569921432 35.903447738553609 0 0 0 0 4.040377330071351 51.62628411782498 0 51.62628411782498 40.798581786191789 0 0 0 0 -94.822171278628957 42.224572049630297 0 42.224572049630297 52.315068152121967 0 0 0 0 -250.20246127279097 125.8138278587794 0 125.8138278587794 150.31668666395126 0 0 0 0 -126.46014381952409 85.417707881322713 0 85.417707881322713 -6.5237893775774864 0 0 0 0 452.83151596307289 715.06826261290553 0 715.06826261290553 -148.57867700784846 0 0 0 0 -128.48894921194437 135.11754324643994 0 135.11754324643994 28.288783100876174 0 0 0 0 0.50078687578934478 -539.33193403355835 0 -539.33193403355835 -241.94634017342469 0 0 0 0 -280.24000638198049 37.957854023465188 0 37.957854023465188 241.40166557040357 0 0 0 0 795.0466368515772 1923.9948367478646 0 1923.9948367478646 1551.1231936096883 0 0 0 0 -1.1473645514902842 4.0450794858552399 0 4.0450794858552399 -1.8872506870196162 0 0 0 0 677.4026183707756 1598.1361239780672 0 1598.1361239780672 2504.63206734907 0 0 0 0 -264.20867645612452 478.9716074369644 0 478.9716074369644 -607.45017395250034 0 0 0 0 -483.70457181253005 480.76143473065167 0 480.76143473065167 -545.6694885945908 0 0 0 0 1084.5166436947766 1290.9696386245196 0 1290.9696386245196 989.3177347095334 0 0 0 0 2.7926345512767057 11.451615838706687 0 11.451615838706687 -13.547649378397495 0 0 0 0 1338.7114176562172 1505.3070365075546 0 1505.3070365075546 807.59059158337186 0 0 0 0 719.08192786399741 1543.8098000241298 0 1543.8098000241298 1096.4133627964766 0 0 0 0 2118.7862903549976 1662.7065616160835 0 1662.7065616160835 691.40661428171734 0 0 0 0 1.8389200534504937 15.784596363435469 0 15.784596363435469 -9.6425089829671151 0 0 0 0 2045.5356093202427 1176.8954251579999 0 1176.8954251579999 814.73495844713761 0 0 0 0 3.5023002058878774 3184.9847267883088 0 3184.9847267883088 1771.500036600919 0 0 0 0 2898.9839679228244 4924.0905606958549 0 4924.0905606958549 -1.2545603829639731 0 0 0 0 7233.2086290964507 -212.2114964644752 0 -212.2114964644752 -362.01251471461728 0 0 0 0 5951.9189468892873 3131.7977835090715 0 3131.7977835090715 -102.70580710310605 0 0 0 0 1719.1415688750567 697.95057246363649 0 697.95057246363649 -425.02263605882763 0 0 0 0 1251.9779371046534 2750.989436436048 0 2750.989436436048 151.43417937785853 0 0 0 0 10.867381899169885 46.301351044016002 0 46.301351044016002 50.41400548820684 0 0 0 0 -6.3467127185722347 121.34136303438572 0 121.34136303438572 18.928322677707456 0 0 0 0 -75.683250068639609 102.57323955149332 0 102.57323955149332 0.022057515641790815 0 0 0 0 10.882193426838768 11.395263343134161 0 11.395263343134161 21.185913890315533 0 0 0 0 20.983926211425569 64.729526769275253 0 64.729526769275253 46.065950615360634 0 0 0 0 25.735187838625279 39.799145684955874 0 39.799145684955874 17.450892924272921 0 0 0 0 7.8880557880765991 86.459971766329545 0 86.459971766329545 100.2968023288995 0 0 0 0 5.3324665792520136 43.665024526945956 0 43.665024526945956 -19.96967656412383 0 0 0 0 446.92049586758367 67.128157920109516 0 67.128157920109516 -4.8752370498696109 0 0 0 0 1454.1851497166645 799.94037467802991 0 799.94037467802991 326.40273789397907 0 0 0 0 -35.378435198159423 31.220931194024161 0 31.220931194024161 119.04886396165239 0 0 0 0 -23.002378677215347 52.043728358261376 0 52.043728358261376 -4.3325884030102486 0 0 0 0 214.31755579897435 61.855180878716055 0 61.855180878716055 -114.60967761173379 0 0 0 0 -174.13523509231891 326.30289874242226 0 326.30289874242226 -628.82229148442275 0 0 0 0 158.19600255668047 249.21303546338459 0 249.21303546338459 -165.60309816112567 0 0 0 0 -53.821567427221453 60.728236607787039 0 60.728236607787039 15.063338657782879 0 0 0 0 12.397380079596331 23.653910836412962 0 23.653910836412962 -33.771420506187042 0 0 0 0 -103.34397273694776 230.78255129429817 0 230.78255129429817 -13.643193198106019 0 0 0 0 107.89427470959345 183.59351943614456 0 183.59351943614456 191.87151933673886 0 0 0 0 1081.0514809531451 44.445872328360565 0 44.445872328360565 -166.86669494447415 0 0 0 0 14.553418105480262 43.108409741643868 0 43.108409741643868 32.085346361984136 0 0 0 0 1063.1331726814678 498.61465841240715 0 498.61465841240715 58.27699472560198 0 0 0 0 1535.3026214823185 745.90566889291222 0 745.90566889291222 -9.1830116721030208 0 0 0 0 1522.8256626849325 759.12182017054147 0 759.12182017054147 43.081113571563037 0 0 0 0 1202.4754614312551 964.7304947158118 0 964.7304947158118 476.33072338234342 0 0 0 0 773.14515152116655 1616.6534650228205 0 1616.6534650228205 -46.776356333080912 0 0 0 0 463.81887297457433 547.84812418618094 0 547.84812418618094 292.69863922055811 0 0 0 0 83.256130791502073 68.311819390000892 0 68.311819390000892 0.010767365150968544 0 0 0 0 53.779181646641518 90.424370482825907 0 90.424370482825907 82.725522498658393 0 0 0 0 74.768661617126781 76.714238906461105 0 76.714238906461105 29.464876724348869 0 0 0 0 40.345067792962539 14.791465228650793 0 14.791465228650793 -24.242253940252624 0 0 0 0 98.805021327032591 37.155584798441851 0 37.155584798441851 29.967655133230437 0 0 0 0 -270.92347028607037 690.67574555666943 0 690.67574555666943 433.80181319419353 0 0 0 0 16.678375516068627 2748.8745806627448 0 2748.8745806627448 1479.3988534256641 0 0 0 0 3552.1608214140579 4457.0755242676678 0 4457.0755242676678 2300.2434345209913 0 0 0 0 3324.2030157495756 2249.8654394717742 0 2249.8654394717742 -63.298305051634088 0 0 0 0 3364.3635613640072 2237.8120650213968 0 2237.8120650213968 -357.6231021300373 0 0 0 0 5572.4948752196506 741.57883028819924 0 741.57883028819924 -1837.332058487802 0 0 0 0 6610.3387239522053 1501.6932859102708 0 1501.6932859102708 -1528.8605286417878 0 0 0 0 6874.6769415261224 3202.0112703120976 0 3202.0112703120976 -526.27232409970748 0 0 0 0 66.276667049996945 2.3023239597522434 0 2.3023239597522434 -11.461840812023127 0 0 0 0 88.40834925872332 42.956579773817793 0 42.956579773817793 42.07032911258284 0 0 0 0 9892.4158249850152 -2837.6332869700855 0 -2837.6332869700855 6218.6827329283697 0 0 0 0 79.415444371697959 18.43522669171216 0 18.43522669171216 0.056878711698553894 0 0 0 0 3222.7943576613698 6409.9941507271915 0 6409.9941507271915 5108.6296750615584 0 0 0 0 43.940482673927534 6.7681490533137776 0 6.7681490533137776 -5.3402111644722083 0 0 0 0 4106.3599653761485 -42.634476239298237 0 -42.634476239298237 -1819.7577617312345 0 0 0 0 -3270.5173862386146 6010.4746122552024 0 6010.4746122552024 6807.2567106530187 0 0 0 0 70.622200081780079 30.515087846680643 0 30.515087846680643 12.340794659853543 0 0 0 0 2516.2466418935801 264.02485217450158 0 264.02485217450158 -697.4041308927408 0 0 0 0 435.3088285952017 -1262.4073917970136 0 -1262.4073917970136 -1043.9022366016579 0 0 0 0 2791.5518439205771 1112.7863389167833 0 1112.7863389167833 -327.87617849446542 0 0 0 0 2413.673201463127 459.62231417580915 0 459.62231417580915 -1048.362042808054 0 0 0 0 1837.364463759528 900.88584156209254 0 900.88584156209254 -368.78631588121061 0 0 0 0 2082.7516971971709 515.33934528596728 0 515.33934528596728 236.29496585929883 0 0 0 0 1816.9171314385312 -3.0541631128216977 0 -3.0541631128216977 -636.03412001465222 0 0 0 0 1211.6336597144837 808.95158193247335 0 808.95158193247335 1311.4472223890043 0 0 0 0 1609.4719534094911 915.65732506679342 0 915.65732506679342 347.54010125870263 0 0 0 0 1253.3376334874483 959.20845594638376 0 959.20845594638376 518.35761523034307 0 0 0 0 1410.3021236295463 946.83774698834168 0 946.83774698834168 504.46525616237341 0 0 0 0 978.427230860485 586.3794997924997 0 586.3794997924997 324.23639197586635 0 0 0 0 1240.1677663931914 791.47430489405451 0 791.47430489405451 158.99281157634687 0 0 0 0 1022.1350992138905 541.11963713794103 0 541.11963713794103 -39.908899941932759 0 0 0 0 879.73274712194689 500.5096185775983 0 500.5096185775983 271.13670269469731 0 0 0 0 277.65953267255099 547.1437208300631 0 547.1437208300631 -24.543746769359132 0 0 0 0 1007.5860998200078 1041.1472403419384 0 1041.1472403419384 -157.41340594805661 0 0 0 0 735.56485551549122 951.70761271331867 0 951.70761271331867 -151.31841501068811 0 0 0 0 1205.9116403401422 652.87905862690241 0 652.87905862690241 396.76981499117028 0 0 0 0 1022.6945962845202 996.49879067943402 0 996.49879067943402 556.36697792654741 0 0 0 0 1502.0806576273171 1073.238296143827 0 1073.238296143827 325.18542482255725 0 0 0 0 1593.7583008770744 935.04708634345297 0 935.04708634345297 518.08404571881692 0 0 0 0 1721.8287991021643 1144.7098865001353 0 1144.7098865001353 -575.85585415680544 0 0 0 0 2402.0118411711883 277.12240044525242 0 277.12240044525242 582.63468483867473 0 0 0 0 1374.3833813658421 1429.2167979115256 0 1429.2167979115256 -335.86251424299553 0 0 0 0 2904.045036458534 2055.8771051593176 0 2055.8771051593176 -1135.1712188156089 0 0 0 0 10.039990988242806 12.889594751069467 0 12.889594751069467 8.7605634139627 0 0 0 0 2311.1714744101337 1870.5714081086844 0 1870.5714081086844 1080.7696205987522 0 0 0 0 2066.0371844104957 288.10256339755142 0 288.10256339755142 -23.313698497659061 0 0 0 0 4827.6443314583448 571.60183162009344 0 571.60183162009344 -120.77514273120323 0 0 0 0 1468.9570270540717 1196.3829732090007 0 1196.3829732090007 733.29248663007456 0 0 0 0 2092.8463180627441 1375.3866706862318 0 1375.3866706862318 468.61170034437964 0 0 0 0 2564.0264761642175 931.61609067801328 0 931.61609067801328 -56.038140015152749 0 0 0 0 1611.0199287568557 1023.9290784682299 0 1023.9290784682299 214.57365225127432 0 0 0 0 1925.5657076298667 957.16602034473908 0 957.16602034473908 53.327322996192379 0 0 0 0 1303.6807404779538 305.9936691395269 0 305.9936691395269 133.82315589803329 0 0 0 0 1826.7116528065817 540.15449570209603 0 540.15449570209603 -25.540005555900279 0 0 0 0 1686.1938737829623 764.69185396836838 0 764.69185396836838 13.941095813846914 0 0 0 0 16.712606188407477 26.061999085348901 0 26.061999085348901 28.250412737348142 0 0 0 0 -411.36677029062412 210.10771312024735 0 210.10771312024735 128.64601907783072 0 0 0 0 1303.7008547745645 326.53235068210051 0 326.53235068210051 28.209090123651549 0 0 0 0 -1459.4259357146075 1216.7776564725464 0 1216.7776564725464 -666.96084039096604 0 0 0 0 12.94753189485894 16.34234404053052 0 16.34234404053052 -25.337585126835791 0 0 0 0 -1609.9650199715834 1451.6092206990033 0 1451.6092206990033 -920.72861249407288 0 0 0 0 -1731.8024614432652 1317.7511526333983 0 1317.7511526333983 -1044.1631635434605 0 0 0 0 706.58901519586652 174.34325794559118 0 174.34325794559118 -458.94719821799663 0 0 0 0 -4254.6497478873644 2895.7869690807202 0 2895.7869690807202 -688.422051102767 0 0 0 0 -997.2720617701998 318.63238977350557 0 318.63238977350557 497.0612620037864 0 0 0 0 2793.8625861107721 1390.0289857076714 0 1390.0289857076714 370.84904964201269 0 0 0 0 4.1867563321584385 8.9089866296336595 0 8.9089866296336595 -10.412766514846851 0 0 0 0 -1970.1568883877189 3162.5322464004639 0 3162.5322464004639 -1311.0838988403848 0 0 0 0 682.14519395277603 2625.1665889842843 0 2625.1665889842843 -1050.8332833933919 0 0 0 0 -2313.5507827600522 1843.6506580116693 0 1843.6506580116693 -993.32250871686847 0 0 0 0 -2172.8937504332571 1981.3218728747597 0 1981.3218728747597 -865.96194725335226 0 0 0 0 -1910.1060680069495 2040.9296603200055 0 2040.9296603200055 -1339.8094776571379 0 0 0 0 -3380.9609693243256 1511.4565046862081 0 1511.4565046862081 -967.84326508638333 0 0 0 0 -1283.9527273340645 2193.2204528787697 0 2193.2204528787697 -1416.7015612247342 0 0 0 0 -1910.7191039218524 2039.3495147576659 0 2039.3495147576659 -1250.9977905813721 0 0 0 0 -1207.5876540626923 2082.5430642670399 0 2082.5430642670399 -1453.6177278397809 0 0 0 0 -1479.9329130998813 2256.4823060483395 0 2256.4823060483395 -1154.2792460265919 0 0 0 0 -2163.2188055276929 2168.9175277582399 0 2168.9175277582399 -806.92564005033637 0 0 0 0 -1576.4013532249046 2598.564498790889 0 2598.564498790889 -1336.2373875611374 0 0 0 0 -1.2953755648777587 3745.0586182252373 0 3745.0586182252373 -708.95644454508147 0 0 0 0 -632.58272275960189 2701.1193443152879 0 2701.1193443152879 -1358.476307340994 0 0 0 0 -0.37015667448577005 2476.6991037781045 0 2476.6991037781045 -1734.3066773840983 0 0 0 0 -532.31679039695882 2156.8571984948067 0 2156.8571984948067 -1521.8377144259066 0 0 0 0 -531.04093967145309 2184.9426362921076 0 2184.9426362921076 -1832.6499798468722 0 0 0 0 -710.38793091775733 1484.1842515521639 0 1484.1842515521639 -1122.1374918393703 0 0 0 0 -678.0027383034967 1892.2910805485994 0 1892.2910805485994 -1910.1316875223711 0 0 0 0 -1775.5174820808643 1873.8457955372469 0 1873.8457955372469 -1257.2093269772013 0 0 0 0 99.083885297004599 926.08781879707385 0 926.08781879707385 -1454.8068085462728 0 0 0 0 -348.83911969271139 313.920268250964 0 313.920268250964 -542.72965555825795 0 0 0 0 94.121486782591091 1254.7354245042079 0 1254.7354245042079 -3814.9602121297576 0 0 0 0 -0.3369560755386965 1977.1937681192087 0 1977.1937681192087 -1925.8878596134309 0 0 0 0 -0.057318533799843863 28.185430962857936 0 28.185430962857936 -25.675073161743057 0 0 0 0 103.23691649794637 -13.975962397074909 0 -13.975962397074909 -67.289051715932146 0 0 0 0 -0.13145137794992934 18.239272124376754 0 18.239272124376754 15.47285067430056 0 0 0 0 -1.7783161878751343 77.030835661399465 0 77.030835661399465 -122.93451321410248 0 0 0 0 1.3855177131381229 28.935121291383723 0 28.935121291383723 -32.333607896305125 0 0 0 0 4.2738903211284196 32.017103189835325 0 32.017103189835325 -22.493319718458224 0 0 0 0 0.0049194956081919372 32.15008660487365 0 32.15008660487365 -20.203418234930723 0 0 0 0 3.5796858817137149 13.915799139671165 0 13.915799139671165 2.6299275990700153 0 0 0 0 -1.0942876150158654 12.545364711196783 0 12.545364711196783 -12.640373332613592 0 0 0 0 198.87047562508542 598.20646454223242 0 598.20646454223242 1445.2107048592297 0 0 0 0 -4185.6130678987229 1631.4982984942378 0 1631.4982984942378 -322.83980452409014 0 0 0 0 -2883.1445461648109 2314.5883851778053 0 2314.5883851778053 -701.99914328267914 0 0 0 0 -1769.4015526570729 1488.6027597449065 0 1488.6027597449065 -746.06075315240014 0 0 0 0 -2653.1335545584443 1374.3258887311677 0 1374.3258887311677 -760.76107875775779 0 0 0 0 -1780.8299377864751 1664.4121308055182 0 1664.4121308055182 -886.78726104644738 0 0 0 0 -1196.7922334802715 1641.7616098300205 0 1641.7616098300205 -912.08593762599048 0 0 0 0 -1843.9509630274115 1965.9300733580021 0 1965.9300733580021 -862.11827239935519 0 0 0 0 -2094.7104934439703 1596.2905003303167 0 1596.2905003303167 -943.58953909074262 0 0 0 0 -1174.7768777563979 2139.5418783715104 0 2139.5418783715104 -989.26834582665469 0 0 0 0 447.77856878371676 2218.674229727374 0 2218.674229727374 -1356.2812540532323 0 0 0 0 -1163.2133285449818 2111.2503336260415 0 2111.2503336260415 -966.39439288560243 0 0 0 0 556.35452480407548 1784.2958250514312 0 1784.2958250514312 -1415.2166936391732 0 0 0 0 -158.58729805782787 2271.1257845438158 0 2271.1257845438158 -1155.1119770913792 0 0 0 0 135.88774683514202 2126.8491840292736 0 2126.8491840292736 -1327.5989777860814 0 0 0 0 -343.55416598643205 1321.4173672280867 0 1321.4173672280867 -1375.1416125407122 0 0 0 0 369.24929238349432 1899.1996623769155 0 1899.1996623769155 -1368.2572144065909 0 0 0 0 6.0111501015621798 6.6630771470437082 0 6.6630771470437082 5.5620084269309586 0 0 0 0 -31.531565361176035 474.58071507284694 0 474.58071507284694 871.99119371745473 0 0 0 0 180.99148042450179 2273.1058584332859 0 2273.1058584332859 -558.8107895837893 0 0 0 0 287.03686251433101 1597.8788287363059 0 1597.8788287363059 153.91938926444709 0 0 0 0 619.28420662168355 1806.1377016470688 0 1806.1377016470688 -847.28092398065201 0 0 0 0 472.01383774320129 1627.0349733446856 0 1627.0349733446856 -935.92577868881926 0 0 0 0 518.85322413803078 1611.3431563416088 0 1611.3431563416088 -1196.8832362096782 0 0 0 0 627.29802089461009 1916.3305022512031 0 1916.3305022512031 -1223.1351788351021 0 0 0 0 571.83373251286685 1800.2281324791111 0 1800.2281324791111 -1137.0111374191911 0 0 0 0 937.91596468242642 1891.0770544435727 0 1891.0770544435727 -1387.0711575280729 0 0 0 0 600.70457341273141 1891.4158652937895 0 1891.4158652937895 -1220.174996824775 0 0 0 0 1482.4222605949326 1734.4669544705102 0 1734.4669544705102 -1435.3715340143244 0 0 0 0 1796.8791577084485 1210.4254747894956 0 1210.4254747894956 -927.00212065588858 0 0 0 0 1096.0278561750602 1347.2724297813984 0 1347.2724297813984 -634.54708694532019 0 0 0 0 1316.2673077199433 1049.0336317172405 0 1049.0336317172405 -707.45994170152699 0 0 0 0 1012.1883572489241 1680.3874315483681 0 1680.3874315483681 -1220.544526960337 0 0 0 0 653.69974457725766 1437.0052972130143 0 1437.0052972130143 -1040.4241102230772 0 0 0 0 937.11909551927238 1446.3970398460369 0 1446.3970398460369 -1057.9495447353183 0 0 0 0 954.34671437207726 904.58086399675085 0 904.58086399675085 -341.735523027819 0 0 0 0 327.80439499329077 1029.0110034982135 0 1029.0110034982135 -325.72025133890565 0 0 0 0 -352.58885008389188 736.00397386349505 0 736.00397386349505 152.4666340588592 0 0 0 0 -419.29185798662365 1738.2474203270322 0 1738.2474203270322 -774.4577716315398 0 0 0 0 301.95240672530781 1097.9939372272493 0 1097.9939372272493 -489.36078080988955 0 0 0 0 223.76786530656682 1177.5630594111963 0 1177.5630594111963 -1581.5864344200818 0 0 0 0 -1099.851983995206 1131.6762804779428 0 1131.6762804779428 -1063.3425514587871 0 0 0 0 537.14647704669915 1465.9039638283066 0 1465.9039638283066 -1337.1389182516941 0 0 0 0 358.22935619742566 1614.3360986064108 0 1614.3360986064108 -1124.6374324029603 0 0 0 0 -149.99793603665603 1368.6378553498616 0 1368.6378553498616 -895.57947081686143 0 0 0 0 -220.81417830567807 1189.6699516485569 0 1189.6699516485569 -1106.8023967998306 0 0 0 0 -160.44852161334711 1061.3829326788327 0 1061.3829326788327 -667.84084467474167 0 0 0 0 205.827744529146 1353.9095694577045 0 1353.9095694577045 -970.9052099437904 0 0 0 0 22.675127252732636 1269.6214542282833 0 1269.6214542282833 -437.19069375404797 0 0 0 0 -262.98684945438436 1354.3496173378226 0 1354.3496173378226 -964.48769518909103 0 0 0 0 -84.332162596972921 936.70040824952866 0 936.70040824952866 -881.79781133173674 0 0 0 0 281.62521497838316 751.05892107047839 0 751.05892107047839 -222.81166046122235 0 0 0 0 -125.78542972266223 881.93638999788982 0 881.93638999788982 -139.11593319569511 0 0 0 0 327.01785338754416 935.97119984739402 0 935.97119984739402 -544.25373988140927 0 0 0 0 290.97173315941473 922.59341465451871 0 922.59341465451871 63.895710879576654 0 0 0 0 245.7528501276247 719.97102213791732 0 719.97102213791732 432.4700952608182 0 0 0 0 638.29900505527621 815.28925048978999 0 815.28925048978999 -32.824383759458215 0 0 0 0 632.20995135798876 712.6481278242718 0 712.6481278242718 295.83580423622334 0 0 0 0 713.35443364011007 966.54600063181078 0 966.54600063181078 -269.89339152922912 0 0 0 0 314.23981581334374 1229.2465999822452 0 1229.2465999822452 -120.74055664046682 0 0 0 0 199.85464148291067 1431.8628927804184 0 1431.8628927804184 -513.63008351183089 0 0 0 0 402.39838726365997 1202.4968036240389 0 1202.4968036240389 -645.49307124118786 0 0 0 0 750.01070279430132 1002.9109200905332 0 1002.9109200905332 -110.15693599174847 0 0 0 0 1009.1114212717366 1170.4499062785726 0 1170.4499062785726 -97.802694287594932 0 0 0 0 961.44444739269966 1170.035678453105 0 1170.035678453105 505.66021518087655 0 0 0 0 1274.6077531374031 825.44634787884934 0 825.44634787884934 150.52021946922468 0 0 0 0 763.58120858417533 900.71730286773527 0 900.71730286773527 156.33961983714835 0 0 0 0 698.03645940851493 946.17281604604614 0 946.17281604604614 107.74843781608797 0 0 0 0 1039.247445225541 936.41414010536391 0 936.41414010536391 32.428711446118541 0 0 0 0 872.61061000980226 908.57388309468479 0 908.57388309468479 447.49799541587709 0 0 0 0 1509.0739337423875 934.48439412868174 0 934.48439412868174 234.638457467423 0 0 0 0 877.36305599132174 893.56854865700461 0 893.56854865700461 339.49189163227857 0 0 0 0 1389.3360774785979 888.91312585418927 0 888.91312585418927 169.21287567904801 0 0 0 0 1011.0702989935235 947.33327419630223 0 947.33327419630223 265.76889679196756 0 0 0 0 1352.042705305802 553.58294641599696 0 553.58294641599696 451.52356729087478 0 0 0 0 1165.4566487766569 803.27560739737237 0 803.27560739737237 383.55618418739505 0 0 0 0 3462.4353196797238 1903.0482336218195 0 1903.0482336218195 77.351561499788659 0 0 0 0 2016.15842474901 522.42040272856684 0 522.42040272856684 152.48577207631752 0 0 0 0 -2212.2090503837389 1298.6242700408184 0 1298.6242700408184 12.014640429661085 0 0 0 0 0.60937400365563477 11.82684393380174 0 11.82684393380174 -4.7271198626950195 0 0 0 0 -1.872149917689967 235.6021791301755 0 235.6021791301755 -389.59578295559186 0 0 0 0 -205.99561453069327 221.26960247719035 0 221.26960247719035 -200.52694052652805 0 0 0 0 0.2700655153174516 23.547024815746397 0 23.547024815746397 -12.51760889813238 0 0 0 0 1503.0481457327405 713.3181143339898 0 713.3181143339898 59.108898939637584 0 0 0 0 979.78775133165618 369.5652594972762 0 369.5652594972762 -110.27129453522502 0 0 0 0 85.259833289557719 198.16641847108622 0 198.16641847108622 444.00577351005631 0 0 0 0 0.25571245533777787 26.131056175844421 0 26.131056175844421 -16.361615047528176 0 0 0 0 -1.2240762716184399 24.869547325928693 0 24.869547325928693 -20.885615045039913 0 0 0 0 2.0367723584349733 24.773927588605147 0 24.773927588605147 -21.311531559345894 0 0 0 0 38.621267123133293 221.62401643865451 0 221.62401643865451 253.89424145592784 0 0 0 0 118.49852120358264 139.17427632134422 0 139.17427632134422 28.931754455828923 0 0 0 0 23.911113306752668 232.21940004690441 0 232.21940004690441 -15.590950519348553 0 0 0 0 69.140303582869819 236.42559747564883 0 236.42559747564883 -63.243966280811946 0 0 0 0 68.757065989397233 214.57361713543287 0 214.57361713543287 -70.54399633641151 0 0 0 0 85.204531686409609 232.28999630386534 0 232.28999630386534 -57.997245268732513 0 0 0 0 70.719589326006826 243.93512499301141 0 243.93512499301141 24.169781964333197 0 0 0 0 117.26006958403741 264.82713422406232 0 264.82713422406232 -47.565642082816339 0 0 0 0 151.41523721613339 188.62261326113367 0 188.62261326113367 195.99767395347226 0 0 0 0 -20.45834801123425 49.726383361913378 0 49.726383361913378 26.450334516063535 0 0 0 0 132.70544309955221 207.30523380753493 0 207.30523380753493 -73.064305166888516 0 0 0 0 79.124317644499513 225.7863973023382 0 225.7863973023382 91.173175537523989 0 0 0 0 -49.407603024024866 184.48770749555842 0 184.48770749555842 402.43993574887645 0 0 0 0 -134.52136188135773 177.74411072371367 0 177.74411072371367 449.26426318244194 0 0 0 0 63.237454406342295 203.26861614848167 0 203.26861614848167 286.64898775017355 0 0 0 0 -6.5468464045456933 129.9797710035316 0 129.9797710035316 253.22709513075063 0 0 0 0 132.14628664303018 276.25257021027937 0 276.25257021027937 81.718891253993206 0 0 0 0 -1662.995497369855 932.32529291693936 0 932.32529291693936 2475.8307859769557 0 0 0 0 -320.38786470559808 -181.49766232096408 0 -181.49766232096408 852.98899342023651 0 0 0 0 36.722981818220532 38.197790610239963 0 38.197790610239963 -2.6859719525390346 0 0 0 0 1401.7771452710731 992.14316755077743 0 992.14316755077743 -572.67480365524534 0 0 0 0 -10.287684219695677 30.78845878240287 0 30.78845878240287 35.468782206286605 0 0 0 0 -59.037834294824279 424.47045553254429 0 424.47045553254429 -793.21840724574758 0 0 0 0 -1086.8861820764214 708.90065021524788 0 708.90065021524788 778.10791931318818 0 0 0 0 -1223.3691543665118 -932.55246824340429 0 -932.55246824340429 40.31582855747547 0 0 0 0 14.444835042936063 25.918736293452298 0 25.918736293452298 -0.77224618738992667 0 0 0 0 1357.9093819302616 359.5926700104028 0 359.5926700104028 -1810.472336744846 0 0 0 0 -9.6364290895148486 17.660998193050034 0 17.660998193050034 -6.6356965335227329 0 0 0 0 -702.35560300061479 230.71834562990989 0 230.71834562990989 -723.43581321535748 0 0 0 0 31.479178681195208 28.885241255388223 0 28.885241255388223 -4.3306329813616209 0 0 0 0 620.25974666648835 -346.18815272506617 0 -346.18815272506617 -1626.039561501515 0 0 0 0 39.737037883140147 502.11146764137084 0 502.11146764137084 -341.97473455680301 0 0 0 0 -198.17442340204434 201.79724599836482 0 201.79724599836482 1054.2582223625795 0 0 0 0 123.77917382973538 124.5117776770193 0 124.5117776770193 3.8284253305687308 0 0 0 0 702.78342222393258 79.799474735584226 0 79.799474735584226 93.678159522766691 0 0 0 0 126.28192985166243 366.67510006110388 0 366.67510006110388 372.75036069436464 0 0 0 0 -125.75975444517098 203.30852985451929 0 203.30852985451929 920.90838713341509 0 0 0 0 71.225930371903814 457.37755350193765 0 457.37755350193765 1066.6542032525758 0 0 0 0 -3.2936037568606196 11.6632131374962 0 11.6632131374962 -4.3439766602855343 0 0 0 0 -63.778687706857454 -25.379254961168044 0 -25.379254961168044 -1762.5259661267337 0 0 0 0 54.149680390508138 70.061164331106852 0 70.061164331106852 16.743694773284467 0 0 0 0 651.29348385083722 791.43745183115243 0 791.43745183115243 136.89708721981151 0 0 0 0 324.51641443860717 288.9433879989665 0 288.9433879989665 1094.3900086181238 0 0 0 0 118.02836727851536 804.68465670372825 0 804.68465670372825 -1581.8396366650704 0 0 0 0 437.86515010364565 224.68988423672818 0 224.68988423672818 398.16677891177824 0 0 0 0 -261.56689691294741 401.58969629339117 0 401.58969629339117 -1134.569663624221 0 0 0 0 -166.8326705199577 122.83298527855081 0 122.83298527855081 141.18660266100477 0 0 0 0 -475.40534259696142 85.198561356053688 0 85.198561356053688 2611.5963490798604 0 0 0 0 -131.07328306128184 -5.8333681381853921 0 -5.8333681381853921 76.10960537099163 0 0 0 0 -97.595481356881351 42.113158535211312 0 42.113158535211312 50.715097046178606 0 0 0 0 -276.94370151829207 97.694607804529369 0 97.694607804529369 83.121559921120934 0 0 0 0 -141.47638036427088 53.459982394575491 0 53.459982394575491 207.08686725284497 0 0 0 0 -176.08024969059625 93.714078848774079 0 93.714078848774079 303.6630956431618 0 0 0 0 -290.20499183723587 180.37073693642742 0 180.37073693642742 351.24697932681011 0 0 0 0 7.3418647321232129 124.93001161484426 0 124.93001161484426 85.946518287535582 0 0 0 0 -28.354393752670148 87.7905844742927 0 87.7905844742927 70.985159402247518 0 0 0 0 -39.188775343211603 74.168121450309229 0 74.168121450309229 103.52115280586901 0 0 0 0 39.035560237731829 79.737395985532999 0 79.737395985532999 397.17864402150735 0 0 0 0 41.1977531579887 322.27404010663986 0 322.27404010663986 456.25926387915388 0 0 0 0 372.2644138509495 346.57506947786896 0 346.57506947786896 -172.07149554911302 0 0 0 0 51.591986633489682 74.36497882083448 0 74.36497882083448 -70.730652526255085 0 0 0 0 -29.505458135012304 220.90940757391218 0 220.90940757391218 497.66829572987626 0 0 0 0 -48.099118899175664 254.58754885976668 0 254.58754885976668 759.00344232574571 0 0 0 0 80.980572563348687 250.25529358847416 0 250.25529358847416 263.74353156577854 0 0 0 0 -9.3991585168405436 317.17324301193003 0 317.17324301193003 476.19174795773324 0 0 0 0 35.366838248854037 320.83485569129698 0 320.83485569129698 468.53505266510183 0 0 0 0 390.53422567452071 417.49866732928058 0 417.49866732928058 123.30771355202887 0 0 0 0 407.41234044966041 179.86622891055413 0 179.86622891055413 137.75543798675062 0 0 0 0 111.72540498909075 271.61817420270381 0 271.61817420270381 434.05885537041468 0 0 0 0 357.10362259863177 149.11305254633771 0 149.11305254633771 226.89524199577863 0 0 0 0 463.29112903022906 386.27093410596717 0 386.27093410596717 286.03992829834897 0 0 0 0 222.91569984180387 410.83089199526876 0 410.83089199526876 744.85416427013115 0 0 0 0 182.27654280827846 335.87003414946957 0 335.87003414946957 666.34207546502876 0 0 0 0 184.33732236985816 155.40305415293551 0 155.40305415293551 642.68618700205116 0 0 0 0 235.12892884667963 31.520966044452507 0 31.520966044452507 149.23903644317761 0 0 0 0 401.43787994849845 197.94553452309628 0 197.94553452309628 242.04942561150528 0 0 0 0 61.787472213327419 284.10118069479358 0 284.10118069479358 211.45223130489467 0 0 0 0 19.218335240584565 240.20639153003867 0 240.20639153003867 323.62594318995252 0 0 0 0 281.43405254045501 158.33022942612297 0 158.33022942612297 326.22856143871377 0 0 0 0 47.381018197222147 323.67980621989409 0 323.67980621989409 536.02019705210114 0 0 0 0 -2.0042351328630161 0.66027588640233148 0 0.66027588640233148 0.75286616198104639 0 0 0 0 -154.64987377717625 -135.85202539715101 0 -135.85202539715101 631.49593651414762 0 0 0 0 -99.352238806081004 113.87532139039104 0 113.87532139039104 212.82329910771659 0 0 0 0 -37.301572608354036 37.441725783246511 0 37.441725783246511 91.159664173203055 0 0 0 0 4.7483400478449767 59.680068867780562 0 59.680068867780562 40.824560259606699 0 0 0 0 2.6246548514026244 -0.73737650357855955 0 -0.73737650357855955 3.2905190619994293 0 0 0 0 1.05946929458878 112.27960077349417 0 112.27960077349417 -147.36530113613117 0 0 0 0 -23.574816333813942 172.01448156096376 0 172.01448156096376 110.88082527168444 0 0 0 0 -890.84819223158411 963.31902252427244 0 963.31902252427244 145.85439597454751 0 0 0 0 -934.08812000296894 1586.151438097877 0 1586.151438097877 -1334.1116787295687 0 0 0 0 -402.03172786999494 1031.1536114601477 0 1031.1536114601477 -1982.4156772602655 0 0 0 0 -15.887501580400226 12.397465423549022 0 12.397465423549022 10.30926240778323 0 0 0 0 -915.09947098622797 1320.8963499807869 0 1320.8963499807869 -1092.6000750147941 0 0 0 0 -296.98742572881747 240.18471485577174 0 240.18471485577174 -976.70576781562704 0 0 0 0 -558.07744797959458 1101.2703114086471 0 1101.2703114086471 -1357.404608334662 0 0 0 0 -381.4082263939199 847.8371654717339 0 847.8371654717339 -1010.5196157207247 0 0 0 0 -687.39997766877059 1106.5976179208374 0 1106.5976179208374 -1120.0717120740883 0 0 0 0 -867.86323726083356 1159.8300787440221 0 1159.8300787440221 -884.82064576548873 0 0 0 0 -778.89829808787908 1153.6497962800204 0 1153.6497962800204 -888.3394971221278 0 0 0 0 -913.34801045240602 970.88214912400872 0 970.88214912400872 -792.58032158773858 0 0 0 0 -1136.6590217345511 1231.9976568757265 0 1231.9976568757265 -787.65765246059163 0 0 0 0 -1096.4673126987764 1165.9247934104351 0 1165.9247934104351 -691.73503545470885 0 0 0 0 -1009.5878510354523 1388.1841320509411 0 1388.1841320509411 -786.51846178068081 0 0 0 0 -933.24122544143029 1290.0359939924256 0 1290.0359939924256 -981.99568808486219 0 0 0 0 -878.86665126265143 1450.3538730305299 0 1450.3538730305299 -843.90421006354882 0 0 0 0 -914.99818037252408 1382.728907335455 0 1382.728907335455 -967.07774602313293 0 0 0 0 0.88519386990969906 138.33468848262788 0 138.33468848262788 4.2742795899314707 0 0 0 0 -80.609438312196289 215.92139710917399 0 215.92139710917399 -0.94939075398724526 0 0 0 0 86.845706957272341 410.97559329556861 0 410.97559329556861 -56.224209136766149 0 0 0 0 114.32051977750075 139.55359389808666 0 139.55359389808666 -10.23412915001785 0 0 0 0 276.94304065243341 254.95984794732067 0 254.95984794732067 -168.36107500784783 0 0 0 0 168.87757022378065 186.57034087107257 0 186.57034087107257 -47.316963621260228 0 0 0 0 132.4903649588523 145.29507889162051 0 145.29507889162051 72.793764794943854 0 0 0 0 234.21598019509111 121.24806459757383 0 121.24806459757383 -24.14928218247951 0 0 0 0 2.9196553047513589 125.1305068382062 0 125.1305068382062 -4.0865638078412303 0 0 0 0 2.2175977419055926 118.36477833434748 0 118.36477833434748 63.42742779092557 0 0 0 0 -0.089636620075907558 210.78155244191294 0 210.78155244191294 299.38359291508095 0 0 0 0 77.514542908365769 108.66613314301696 0 108.66613314301696 -38.389321980268363 0 0 0 0 229.9706544119399 -93.225882041500881 0 -93.225882041500881 457.335869170769 0 0 0 0 379.02613524603657 -772.9406856073183 0 -772.9406856073183 477.44254228303907 0 0 0 0 -17.816992137133525 101.69569237196524 0 101.69569237196524 -13.769629917136967 0 0 0 0 -705.95531638740795 839.20435908179206 0 839.20435908179206 -761.99809974618256 0 0 0 0 458.906587064208 -238.27029539542855 0 -238.27029539542855 270.06444749838556 0 0 0 0 -616.06341259682085 649.30750743154204 0 649.30750743154204 -387.2324866092531 0 0 0 0 392.45665509150422 325.50060455568382 0 325.50060455568382 -330.90451387967914 0 0 0 0 531.15854073135415 -108.36934152129106 0 -108.36934152129106 167.45872537157993 0 0 0 0 199.42703490555868 145.85609655501139 0 145.85609655501139 86.725550082570408 0 0 0 0 -828.70503769436618 637.69132545582261 0 637.69132545582261 -692.62336192495422 0 0 0 0 1177.9586710487783 195.51672777551357 0 195.51672777551357 -618.79117075248359 0 0 0 0 1097.274097434507 -72.580403641688463 0 -72.580403641688463 -461.44000066847366 0 0 0 0 -715.25807443342637 738.38467987823606 0 738.38467987823606 -781.17166805983288 0 0 0 0 882.30698870608467 1124.553814912917 0 1124.553814912917 -1295.9967339015857 0 0 0 0 33.426654706084889 29.637798471449742 0 29.637798471449742 -92.880013860604748 0 0 0 0 -812.56888261856511 929.18713017621485 0 929.18713017621485 -823.54812535695964 0 0 0 0 -587.65278170933016 840.71928827851661 0 840.71928827851661 -833.01331796834711 0 0 0 0 -829.6272059030598 962.27398078536498 0 962.27398078536498 -887.69415184931131 0 0 0 0 -874.32956392306369 913.37448216525081 0 913.37448216525081 -708.35302385804243 0 0 0 0 -1138.3032161204901 593.70759608599838 0 593.70759608599838 -414.57842134442762 0 0 0 0 -1293.6692336106789 971.35261835140409 0 971.35261835140409 -640.71657234441955 0 0 0 0 452.76368783193175 257.11467450529017 0 257.11467450529017 -303.29949380466132 0 0 0 0 -354.78840468690032 189.04949466836479 0 189.04949466836479 198.81883686270157 0 0 0 0 -883.60533129853138 1084.2320914188749 0 1084.2320914188749 640.6090105827825 0 0 0 0 2007.1693521810666 -45.131143650485683 0 -45.131143650485683 -1059.7789796686338 0 0 0 0 113.007057259905 111.66212456329762 0 111.66212456329762 -8.406950485321488 0 0 0 0 -27.118509881861883 14.611934860312545 0 14.611934860312545 -14.079969854633248 0 0 0 0 -1490.3396595081285 1378.6581504989481 0 1378.6581504989481 -689.51127578134765 0 0 0 0 -1818.3473887947039 674.55768171168165 0 674.55768171168165 -300.33574774095905 0 0 0 0 -2498.6562095460249 935.58658147547249 0 935.58658147547249 -373.68956607433211 0 0 0 0 -2132.6265368699533 1494.4609894349087 0 1494.4609894349087 -710.34418114871369 0 0 0 0 -2915.5463806321641 1629.7472849325077 0 1629.7472849325077 -635.73481596700731 0 0 0 0 -2320.3334499838238 1717.8561735481417 0 1717.8561735481417 -989.42623259419634 0 0 0 0 -2307.374642330833 1519.8806685343952 0 1519.8806685343952 -1344.357246350075 0 0 0 0 15.343318758082603 15.717284509117917 0 15.717284509117917 -76.487845767098207 0 0 0 0 -801.51801071222872 1276.6346699330461 0 1276.6346699330461 -780.96996552659766 0 0 0 0 -914.3169417269819 1499.8619859153841 0 1499.8619859153841 -951.36631397681049 0 0 0 0 -1270.812748667493 1469.414161776469 0 1469.414161776469 -806.50665218572613 0 0 0 0 -1316.0973376822658 1255.2402778368269 0 1255.2402778368269 -645.65589097308475 0 0 0 0 -1382.3487169217897 1539.6133654033938 0 1539.6133654033938 -886.38087964331498 0 0 0 0 -1378.9176796221873 1507.9343210002189 0 1507.9343210002189 -1050.5535140692882 0 0 0 0 -591.23957661318127 1316.9782303644679 0 1316.9782303644679 -1268.8326774730886 0 0 0 0 -604.18605246164952 1116.3879192319946 0 1116.3879192319946 -652.52278100980766 0 0 0 0 -401.00713982764864 829.79112807562342 0 829.79112807562342 -1422.5943593600314 0 0 0 0 -1140.0344197723316 1332.9692078694789 0 1332.9692078694789 -981.25063524283178 0 0 0 0 -1065.2517829840799 1487.1027337293981 0 1487.1027337293981 -1735.7746360745659 0 0 0 0 -1002.1213000783464 560.97670682436728 0 560.97670682436728 -356.63272433817474 0 0 0 0 -527.26947926207504 703.524703746054 0 703.524703746054 -238.75317654716491 0 0 0 0 -218.46616199190612 595.56397766757073 0 595.56397766757073 -312.13265976071489 0 0 0 0 3.0712242494120403 4.4986598350906206 0 4.4986598350906206 -30.337972359657755 0 0 0 0 4180.6515222453163 -390.46628391533886 0 -390.46628391533886 -2404.3043742364971 0 0 0 0 -5702.3775598248467 3704.8171385155056 0 3704.8171385155056 -1323.1255895020731 0 0 0 0 -2492.4050515456474 2331.0449008374271 0 2331.0449008374271 -1754.0013895284646 0 0 0 0 -3834.0213751901319 1208.7265405986291 0 1208.7265405986291 -1169.5583903730439 0 0 0 0 -180.62152577779489 943.5147814257507 0 943.5147814257507 -2387.4563751444766 0 0 0 0 -2322.4019453930523 3282.3826357631297 0 3282.3826357631297 -3372.7852062490565 0 0 0 0 -905.48739497855422 1382.1063289455124 0 1382.1063289455124 -2188.0687056983224 0 0 0 0 -664.7608028917748 2441.1342473681434 0 2441.1342473681434 -2705.9917088693037 0 0 0 0 -134.16138671552471 -666.42654671062337 0 -666.42654671062337 72.327188936462335 0 0 0 0 3289.4380010463356 -533.87201310975797 0 -533.87201310975797 -1565.5670588858193 0 0 0 0 -7.4289666533109369 -7.8129903426707585 0 -7.8129903426707585 -11.301459936950238 0 0 0 0 122.29442997578553 921.03336490963102 0 921.03336490963102 -308.19353536119888 0 0 0 0 648.88469231188355 -772.25630204813206 0 -772.25630204813206 -279.12166780222469 0 0 0 0 -2264.6654936379346 2276.7572886382404 0 2276.7572886382404 -842.57385566578159 0 0 0 0 -4.1304574310819362 -10.238028803381866 0 -10.238028803381866 -50.77065462568558 0 0 0 0 -330.07789140404202 -1177.3908586025864 0 -1177.3908586025864 0.96232123714435147 0 0 0 0 26.387206840847625 -11.7053211632917 0 -11.7053211632917 -104.95257601301556 0 0 0 0 96.139591920257885 95.458914536859709 0 95.458914536859709 37.861737300865485 0 0 0 0 405.439001927356 537.37495619331094 0 537.37495619331094 -586.63316826424352 0 0 0 0 -1322.8732905627694 1245.2353865817058 0 1245.2353865817058 763.99128127861331 0 0 0 0 102.00990264835127 148.48957626091669 0 148.48957626091669 -77.747870063452865 0 0 0 0 98.633047940005781 236.06026017991098 0 236.06026017991098 -103.99606144135396 0 0 0 0 87.041697029606439 251.03753760347718 0 251.03753760347718 -86.335894319287036 0 0 0 0 89.945757748151664 228.82760294163745 0 228.82760294163745 -91.952733338810503 0 0 0 0 418.44622529688058 328.34361587730382 0 328.34361587730382 -722.89109431837733 0 0 0 0 420.38249759638711 527.63727968007515 0 527.63727968007515 -185.58975792800265 0 0 0 0 26.47576528198049 80.142056906250176 0 80.142056906250176 -95.679003155222958 0 0 0 0 -16.663027738119126 194.98548803873928 0 194.98548803873928 -125.85766852994493 0 0 0 0 65.562704179319553 199.01405500033434 0 199.01405500033434 -71.682907160740797 0 0 0 0 216.38224214216461 329.45622872366221 0 329.45622872366221 -501.86930845435018 0 0 0 0 92.521447621144034 189.49724807335315 0 189.49724807335315 -247.65130625881284 0 0 0 0 463.12896973229363 924.44730456226171 0 924.44730456226171 322.96494197614084 0 0 0 0 470.62788858416025 391.68775061480119 0 391.68775061480119 -51.332595228122955 0 0 0 0 721.02235949410533 1763.7702080707822 0 1763.7702080707822 1074.9345540183567 0 0 0 0 2588.1386080545126 1145.5948322283912 0 1145.5948322283912 36.807569962486014 0 0 0 0 670.8063187161606 1103.2010666896967 0 1103.2010666896967 632.75811601887472 0 0 0 0 1.1177497948425206 35.111136834934342 0 35.111136834934342 -9.0442905627397465 0 0 0 0 -80.701797132715001 -56.631463393818194 0 -56.631463393818194 -28.638915305216869 0 0 0 0 27.518315837230602 15.342536744044679 0 15.342536744044679 -1.325189042889491 0 0 0 0 7307.768851727953 1391.9327487376177 0 1391.9327487376177 229.48593442638958 0 0 0 0 -23.321594950764506 15.079631225062016 0 15.079631225062016 17.206829560738342 0 0 0 0 -485.63335170131177 1943.830144365973 0 1943.830144365973 2208.7103252255329 0 0 0 0 11462.788683178835 5982.7202288633125 0 5982.7202288633125 3668.4180235074891 0 0 0 0 1999.0024101716117 1038.6979349484463 0 1038.6979349484463 1254.6865826021676 0 0 0 0 -1429.766125744849 -1606.9348346535407 0 -1606.9348346535407 3388.9284145946249 0 0 0 0 -651.80703542487754 2055.6391965552539 0 2055.6391965552539 -5146.9610176052811 0 0 0 0 -1465.9098619951028 -2266.7307936893612 0 -2266.7307936893612 -1289.6525962854503 0 0 0 0 5662.5652473203882 757.9697132454603 0 757.9697132454603 -436.17225779216096 0 0 0 0 -3533.1418871596979 3036.955762393598 0 3036.955762393598 -1898.6284160500873 0 0 0 0 -4.4841584536643424 -17.751020780447391 0 -17.751020780447391 -26.555744696925672 0 0 0 0 -2121.2789001206984 1449.9797363000944 0 1449.9797363000944 -979.61330688401358 0 0 0 0 2.6427056665779958 -7.3151852622670503 0 -7.3151852622670503 -21.362282191652355 0 0 0 0 -244.29005703963048 3352.1875176800459 0 3352.1875176800459 -2561.8977365861647 0 0 0 0 8053.8071116330539 -113.76452010367211 0 -113.76452010367211 -4735.9946104713308 0 0 0 0 -3336.9062640903649 1213.6301734992048 0 1213.6301734992048 338.59253114143212 0 0 0 0 139.57996920346341 3743.0831198201413 0 3743.0831198201413 -2262.5539107889344 0 0 0 0 -571.52705634126323 1510.2235771643391 0 1510.2235771643391 1956.8035707864765 0 0 0 0 76.512769905501045 227.42706842858024 0 227.42706842858024 -189.77585458665999 0 0 0 0 206.44309109508725 90.003088116922356 0 90.003088116922356 -11.931648348203264 0 0 0 0 2126.5523590072262 735.41082742084109 0 735.41082742084109 -159.89257287751752 0 0 0 0 -539.86994255995887 788.02307343440771 0 788.02307343440771 -962.14148689933063 0 0 0 0 52.889043546892765 -9.8842398495510935 0 -9.8842398495510935 -103.05145081092127 0 0 0 0 240.68318733414344 170.17585211995902 0 170.17585211995902 -86.523845827890909 0 0 0 0 89.073118584732171 141.64924813665468 0 141.64924813665468 -1.3325126207184042 0 0 0 0 141.50986848864704 342.11569460984902 0 342.11569460984902 -266.79988376004621 0 0 0 0 137.19903937540948 355.68010042590322 0 355.68010042590322 -289.5500037877573 0 0 0 0 116.21247161901556 422.31838372631137 0 422.31838372631137 -627.57009966816986 0 0 0 0 68.432242718990892 385.96834251741529 0 385.96834251741529 -236.47225646256993 0 0 0 0 91.407757127191871 343.35686244691533 0 343.35686244691533 -157.82152407453395 0 0 0 0 -63.243905491079204 542.49056038277195 0 542.49056038277195 -200.02925125574802 0 0 0 0 -30.091847716270422 427.55402570529441 0 427.55402570529441 -104.09381622492219 0 0 0 0 -210.98411632335046 488.72634717098481 0 488.72634717098481 -91.156058237887919 0 0 0 0 -242.13045145850629 731.95857450780022 0 731.95857450780022 -591.65209441399929 0 0 0 0 -117.15415736208161 521.3535046695556 0 521.3535046695556 -257.83209117448132 0 0 0 0 -106.83122842942248 618.40056610616739 0 618.40056610616739 -254.94992284662294 0 0 0 0 112.63838849874446 261.59105819392425 0 261.59105819392425 -369.06835468778445 0 0 0 0 101.66152368814801 353.40649323021353 0 353.40649323021353 -842.21011566850211 0 0 0 0 -309.2377318519284 552.74051645995496 0 552.74051645995496 -525.1901738603774 0 0 0 0 76.86608405164327 49.746958497529391 0 49.746958497529391 12.972514442912878 0 0 0 0 -120.088780113947 505.10129380102262 0 505.10129380102262 -942.41264777938341 0 0 0 0 -1500.8527183104015 -779.48868781961937 0 -779.48868781961937 4113.6370454013895 0 0 0 0 -4681.5015077215794 3466.9033238132433 0 3466.9033238132433 -433.83181086429977 0 0 0 0 -905.06631141752587 3456.0735178052637 0 3456.0735178052637 -801.74426424195553 0 0 0 0 1927.3196929117403 -288.18802036150737 0 -288.18802036150737 310.36896104735206 0 0 0 0 703.16360844456358 -578.57300606889476 0 -578.57300606889476 -1729.0109106438504 0 0 0 0 -2381.7842479570245 2659.5876874889582 0 2659.5876874889582 -917.22954794866382 0 0 0 0 -679.72420414185035 2126.181043030927 0 2126.181043030927 2001.9065830818363 0 0 0 0 -1786.5669154504576 -989.70244478377026 0 -989.70244478377026 7083.3561756997078 0 0 0 0 -105.09747725806665 1315.4651015459676 0 1315.4651015459676 -3062.4613273987579 0 0 0 0 13.205034031882406 19.81317597113366 0 19.81317597113366 5.2437611897115559 0 0 0 0 -730.36262034976244 477.69953297117354 0 477.69953297117354 529.72162793986354 0 0 0 0 -132.06351276335408 -33.68834897810757 0 -33.68834897810757 355.26967204808898 0 0 0 0 -505.89704507391434 605.10834233431524 0 605.10834233431524 -361.52489980675091 0 0 0 0 -1022.361719813227 400.0728595909095 0 400.0728595909095 1723.3722046721741 0 0 0 0 -979.22347890451783 1661.0046420145954 0 1661.0046420145954 761.74605655447522 0 0 0 0 -1087.2681243506049 711.2490804140798 0 711.2490804140798 504.44032073725975 0 0 0 0 -4.738074849507143 2.00034936755182 0 2.00034936755182 1.0138160792562161 0 0 0 0 -285.11868735193275 805.28989298071974 0 805.28989298071974 144.89477426843223 0 0 0 0 -466.17889488749643 542.36665952962176 0 542.36665952962176 901.08832003331918 0 0 0 0 -192.3162164115638 125.6151639462696 0 125.6151639462696 1427.1900978381309 0 0 0 0 -527.00111953681335 935.739365597492 0 935.739365597492 -78.413975608084002 0 0 0 0 -605.56147052835149 882.96915734789218 0 882.96915734789218 144.34849476991803 0 0 0 0 -463.60110256436997 699.45043866451124 0 699.45043866451124 -210.43089674753719 0 0 0 0 -125.07306241447804 157.57661313730932 0 157.57661313730932 209.33389676190563 0 0 0 0 -158.39169420814142 82.165126353691448 0 82.165126353691448 284.68453258702357 0 0 0 0 -459.37969342759061 439.3813537638942 0 439.3813537638942 554.88267937737692 0 0 0 0 -157.8341228083591 69.127357775898417 0 69.127357775898417 516.46675760898506 0 0 0 0 51.351827434875304 -14.289875120928627 0 -14.289875120928627 526.08604421833297 0 0 0 0 -361.96558343686047 812.44976660045722 0 812.44976660045722 -1079.828062779794 0 0 0 0 -310.24811709778442 317.23826674004886 0 317.23826674004886 -1091.0446647372373 0 0 0 0 -1020.3247696942708 1996.1826839048226 0 1996.1826839048226 -826.8863761130342 0 0 0 0 -650.96800106088631 957.50976651995734 0 957.50976651995734 -936.79378516994439 0 0 0 0 -689.22804918157635 963.28467749671836 0 963.28467749671836 23.311396707184031 0 0 0 0 -730.38428053163807 654.60063605150208 0 654.60063605150208 30.840433176170336 0 0 0 0 -695.42841818186571 735.90763430135848 0 735.90763430135848 -303.2687580293059 0 0 0 0 -892.74358966908767 706.25390949611028 0 706.25390949611028 -276.21283894493536 0 0 0 0 -885.80812962350319 903.20219037643255 0 903.20219037643255 -538.25120819037693 0 0 0 0 -553.72221982749761 546.83816788339391 0 546.83816788339391 -236.73791696600529 0 0 0 0 -834.33131641172076 765.8769582889654 0 765.8769582889654 -248.84138081368292 0 0 0 0 -862.30931954841435 719.06025450987272 0 719.06025450987272 -84.085527293747873 0 0 0 0 -469.41107511110022 619.94189401764743 0 619.94189401764743 -548.63178011434502 0 0 0 0 -153.10111025132937 -112.93334454694559 0 -112.93334454694559 1383.5851376343198 0 0 0 0 -6.7063834138580205 2.1835462675256423 0 2.1835462675256423 1.0362539976049483 0 0 0 0 -49.457058809959562 -95.602123028678761 0 -95.602123028678761 1142.6214404184211 0 0 0 0 -259.97698116887477 -61.612908314637025 0 -61.612908314637025 1358.9773383709544 0 0 0 0 -726.49503287930565 770.81477035698481 0 770.81477035698481 507.10901523321081 0 0 0 0 40.495635006111115 -37.224235534114996 0 -37.224235534114996 409.70847698848593 0 0 0 0 89.135124853397429 -203.31496847976723 0 -203.31496847976723 1870.718929732051 0 0 0 0 -16.47657626625562 6.147175723624315 0 6.147175723624315 2.8774593886035262 0 0 0 0 -81.257332827706705 -90.008602034347859 0 -90.008602034347859 480.40247510485642 0 0 0 0 102.30051051144255 -188.5419929670752 0 -188.5419929670752 175.61046900224392 0 0 0 0 170.25551876763348 36.941497531021014 0 36.941497531021014 -72.948041427338467 0 0 0 0 -144.52321296313312 505.5366761576588 0 505.5366761576588 -306.6345073980774 0 0 0 0 4.9943099590018392 266.57617280591512 0 266.57617280591512 -317.01882109880171 0 0 0 0 -284.7961934535997 377.55760376438411 0 377.55760376438411 -37.551412809581961 0 0 0 0 12.385804953315528 -201.78895287815976 0 -201.78895287815976 1313.2095701134203 0 0 0 0 37.043015075527364 -210.05135932059784 0 -210.05135932059784 1021.6730773540548 0 0 0 0 29.635341648769099 -31.846655805733462 0 -31.846655805733462 1385.6070549102151 0 0 0 0 54.160233454385889 -98.294925239104487 0 -98.294925239104487 746.06093497930851 0 0 0 0 -25.917233208863763 -4.0003057218127651 0 -4.0003057218127651 2010.6784088089262 0 0 0 0 0.29321118994971584 -2.8905210010574933 0 -2.8905210010574933 2.8362887385169202 0 0 0 0 -54.503804904205026 -9.3493508765677689 0 -9.3493508765677689 1080.5909795471925 0 0 0 0 -41.448087492972263 -24.345727634012292 0 -24.345727634012292 991.23260719205427 0 0 0 0 -7.9547420025046449 -87.797631616431318 0 -87.797631616431318 1167.6998207776851 0 0 0 0 -101.95973923732527 -168.67428853710953 0 -168.67428853710953 -612.25887344950388 0 0 0 0 -48.511652055936338 63.092740257195366 0 63.092740257195366 2.9451558406847349 0 0 0 0 187.60706841241335 -104.2824544510222 0 -104.2824544510222 -881.12461368272454 0 0 0 0 198.75445627060253 -117.64792875682178 0 -117.64792875682178 -957.06285864637175 0 0 0 0 -15.528583747225639 76.432367073504793 0 76.432367073504793 887.35820903556305 0 0 0 0 8.400816274486715 -73.418713168794056 0 -73.418713168794056 1136.5768714178976 0 0 0 0 -361.05737488983141 -0.84595959562648204 0 -0.84595959562648204 1473.4419171301051 0 0 0 0 -56.891972282175232 69.876402630885522 0 69.876402630885522 3.2462676721418728 0 0 0 0 63.704618015472079 416.84545963989149 0 416.84545963989149 -580.55419789417647 0 0 0 0 -203.08303431408422 273.26365844345855 0 273.26365844345855 -293.69680547937605 0 0 0 0 -212.20308018782816 -92.179404428825364 0 -92.179404428825364 -75.610487585508963 0 0 0 0 330.812962429045 -38.974410109960445 0 -38.974410109960445 -1211.7973622135016 0 0 0 0 20.479756367509253 392.17714226836688 0 392.17714226836688 -650.7037980776546 0 0 0 0 -71.040436972282578 79.240106077497074 0 79.240106077497074 3.7222375587436902 0 0 0 0 -320.63325936734327 215.75140147990533 0 215.75140147990533 1208.6030674472622 0 0 0 0 -62.629951890936354 452.4361354425946 0 452.4361354425946 197.99087657166092 0 0 0 0 -86.234404876343945 74.699513041017354 0 74.699513041017354 3.9756511946551814 0 0 0 0 -80.244082892575534 32.550016906916426 0 32.550016906916426 -594.75303830285588 0 0 0 0 -231.18781879992093 372.02243589708087 0 372.02243589708087 -46.13904316406115 0 0 0 0 -191.75338429219846 261.41559315963968 0 261.41559315963968 107.00997577173985 0 0 0 0 -226.18414805499197 394.7738260736769 0 394.7738260736769 748.13082702659426 0 0 0 0 -104.57657399057643 583.19477969997388 0 583.19477969997388 -89.967031061722082 0 0 0 0 -213.88644436642062 535.69923239040509 0 535.69923239040509 155.30994164187905 0 0 0 0 -273.63717239374819 403.42630965148419 0 403.42630965148419 -135.33333773809136 0 0 0 0 -241.33782454155153 622.47509858400736 0 622.47509858400736 -178.46553147005034 0 0 0 0 -107.74469049408071 514.6746001272702 0 514.6746001272702 -92.702343798868242 0 0 0 0 -24.244924176573477 554.098761424842 0 554.098761424842 -204.96529224973347 0 0 0 0 -21.834573537722463 583.95488423882489 0 583.95488423882489 -158.69948965529329 0 0 0 0 -105.15287003819503 575.20978128811407 0 575.20978128811407 -100.46311156907177 0 0 0 0 -137.83008122714818 701.80893431541699 0 701.80893431541699 -1.1334233420093369 0 0 0 0 -104.03160604840377 739.80745679539905 0 739.80745679539905 -258.58181120537768 0 0 0 0 -331.89657154471206 376.27160602682852 0 376.27160602682852 136.75999816529657 0 0 0 0 -106.94165776900581 484.95694962114908 0 484.95694962114908 216.78402404849476 0 0 0 0 -536.92173200390243 851.1598244705674 0 851.1598244705674 5047.2170139194423 0 0 0 0 1.372957469226094 1674.2539726014402 0 1674.2539726014402 3344.3126880370655 0 0 0 0 304.36382597111515 312.1843667665089 0 312.1843667665089 3196.3355951848516 0 0 0 0 -4.6944744508364238 1404.955891752521 0 1404.955891752521 2740.8602953654445 0 0 0 0 450.54208693710098 1212.4707096998718 0 1212.4707096998718 1801.7379709679517 0 0 0 0 232.08759679840296 1131.1963359634865 0 1131.1963359634865 1801.621639337267 0 0 0 0 234.99041794990626 853.50554241914779 0 853.50554241914779 2308.1438055230101 0 0 0 0 -1.0571809497632785 1780.3100990277635 0 1780.3100990277635 1735.2241215631802 0 0 0 0 544.53003053204156 842.4113373388027 0 842.4113373388027 -249.81246211355756 0 0 0 0 -168.86343446894898 1828.477878274789 0 1828.477878274789 2515.0846433135885 0 0 0 0 2.6712589211103932 2.6874862969569904 0 2.6874862969569904 2.1223559915593171 0 0 0 0 -0.24670321726063657 2573.5919659024712 0 2573.5919659024712 357.546202861864 0 0 0 0 592.89496116057853 1248.1821774068885 0 1248.1821774068885 237.48472923190639 0 0 0 0 2.6549522663259495 2.5319184086899895 0 2.5319184086899895 0.7753239557894176 0 0 0 0 525.66567084696726 1411.1689101475095 0 1411.1689101475095 2037.6791924083263 0 0 0 0 1038.18454147179 357.8284634532165 0 357.8284634532165 -712.27849123737542 0 0 0 0 915.51233020448126 1187.9196195853438 0 1187.9196195853438 140.4780806241688 0 0 0 0 953.16162142621215 966.81719134353898 0 966.81719134353898 458.5506105448585 0 0 0 0 322.32939412187989 660.59168402537762 0 660.59168402537762 1037.1384573760224 0 0 0 0 770.8918135909189 1191.5224935167698 0 1191.5224935167698 1472.7030924025894 0 0 0 0 427.39604482382128 648.73153061947596 0 648.73153061947596 1251.9996517672917 0 0 0 0 311.7085856187914 503.8839995268354 0 503.8839995268354 2056.6415523307096 0 0 0 0 528.61227124040306 979.30200461643471 0 979.30200461643471 2270.4680528427562 0 0 0 0 -29.138751663937001 204.47092595262075 0 204.47092595262075 1930.3783603166412 0 0 0 0 -61.995891254409798 387.68476997621474 0 387.68476997621474 1124.4461923822309 0 0 0 0 70.895648835925385 254.81215796744073 0 254.81215796744073 978.96520870098175 0 0 0 0 1.6029785248392727 134.13434382317791 0 134.13434382317791 1042.6735863483191 0 0 0 0 68.760490661123185 322.88703479359538 0 322.88703479359538 800.34652020570502 0 0 0 0 165.74184759901254 594.4775350697746 0 594.4775350697746 1668.2947264289651 0 0 0 0 -3.2807772219125582 1.545522016431363 0 1.545522016431363 1.7893337426177922 0 0 0 0 436.60987772361841 679.48760198899981 0 679.48760198899981 1039.9979466002096 0 0 0 0 431.91101812510169 569.16185331326051 0 569.16185331326051 418.79788519123395 0 0 0 0 97.594212543801405 492.3389191726892 0 492.3389191726892 898.2162414445861 0 0 0 0 234.60611762473127 331.41848431382823 0 331.41848431382823 896.37262047075637 0 0 0 0 192.95746804488954 605.32855390141958 0 605.32855390141958 250.78212267689378 0 0 0 0 -266.20522020402132 576.80960343149491 0 576.80960343149491 284.63633342294634 0 0 0 0 52.302016846137121 136.9450213512464 0 136.9450213512464 700.65017705822538 0 0 0 0 161.25518359601847 427.63044248002916 0 427.63044248002916 692.61814431191306 0 0 0 0 -20.058883579200483 440.75804755348145 0 440.75804755348145 1173.3930391245522 0 0 0 0 -7.8320449934349199 3.9084098493545127 0 3.9084098493545127 1.4885672910071079 0 0 0 0 12.337732910440536 359.81784840225009 0 359.81784840225009 1152.9213692590038 0 0 0 0 71.680770165216927 219.33431491515904 0 219.33431491515904 856.09185456459818 0 0 0 0 1.5341677135729697 98.015932470712869 0 98.015932470712869 920.00942260219745 0 0 0 0 130.12891733914148 116.1019907638256 0 116.1019907638256 629.86037954602216 0 0 0 0 57.714019151273533 159.43522108679099 0 159.43522108679099 801.95669614502549 0 0 0 0 172.7719728568045 179.21814533106954 0 179.21814533106954 570.96883222683755 0 0 0 0 -40.842497909150552 -5.9346334573783679 0 -5.9346334573783679 594.29542365918769 0 0 0 0 -22.182620748512022 9.8324121274171006 0 9.8324121274171006 3.3311566066789027 0 0 0 0 95.775835695436399 118.37373428909268 0 118.37373428909268 635.08072357353376 0 0 0 0 -148.47496634756681 -69.227404002904223 0 -69.227404002904223 1632.9798219561053 0 0 0 0 -115.8259918501717 25.245041596339433 0 25.245041596339433 1263.5658778279067 0 0 0 0 80.412309158331482 -95.475876623007935 0 -95.475876623007935 1120.9874973728511 0 0 0 0 -91.765743565716548 -269.64269687241176 0 -269.64269687241176 1416.9243381765409 0 0 0 0 0.76225777824049601 -4.1284889881374909 0 -4.1284889881374909 3.5661169851494137 0 0 0 0 -26.056563376700069 61.010496279723611 0 61.010496279723611 1104.2244420226052 0 0 0 0 20.08308830059832 157.7516798218785 0 157.7516798218785 1295.126569200278 0 0 0 0 -19.402111849602079 21.527152802555065 0 21.527152802555065 958.12448339639377 0 0 0 0 -50.514065689960262 -95.442874661341193 0 -95.442874661341193 999.32670243040775 0 0 0 0 -4.5867428039055085 -42.823101051766571 0 -42.823101051766571 902.40850808120013 0 0 0 0 -1066.25840263789 377.4278128941969 0 377.4278128941969 -637.4795594289244 0 0 0 0 -40.02972414706494 58.914613328384291 0 58.914613328384291 2.6469795424819722 0 0 0 0 631.82867335301125 -56.407179011326662 0 -56.407179011326662 -2658.6038481093128 0 0 0 0 102.03084216873685 207.79996400277196 0 207.79996400277196 1113.1385075892322 0 0 0 0 -93.90730446948146 -69.12488670530729 0 -69.12488670530729 1145.8733162606222 0 0 0 0 132.3407845699985 -131.56059691003975 0 -131.56059691003975 639.20331859833095 0 0 0 0 -22.527086174854958 56.353023304435752 0 56.353023304435752 1.8678381925225369 0 0 0 0 -226.76345758175012 122.21362298374879 0 122.21362298374879 -1224.2204607075087 0 0 0 0 -49.230398286326817 169.23210980883823 0 169.23210980883823 -1364.8646569992488 0 0 0 0 111.16323539700534 250.78284066995911 0 250.78284066995911 -1603.7298873996515 0 0 0 0 -40.194312656414695 131.7722998059071 0 131.7722998059071 -1316.3533185981269 0 0 0 0 -134.120261177668 -200.87921507088686 0 -200.87921507088686 1444.1807673769799 0 0 0 0 114.253513182608 19.05990653531353 0 19.05990653531353 564.27953221001371 0 0 0 0 200.8100830806361 29.952440441935323 0 29.952440441935323 620.94282797738742 0 0 0 0 0.34871944677536248 -1.6133087268578379 0 -1.6133087268578379 2.2693208107724985 0 0 0 0 -264.00341095974727 64.643861802676838 0 64.643861802676838 1736.8321188093832 0 0 0 0 -170.93366258691822 -208.7513018948157 0 -208.7513018948157 1462.3594579617202 0 0 0 0 -24.048793394546919 12.197044434244532 0 12.197044434244532 4.0626652560202885 0 0 0 0 -132.8550101754372 253.9339066814282 0 253.9339066814282 1347.4742170957616 0 0 0 0 -198.09156906270073 -27.840311109668619 0 -27.840311109668619 1652.0588744333363 0 0 0 0 -19.008422721771012 11.941739215619862 0 11.941739215619862 5.2083051000633098 0 0 0 0 93.017107136241975 454.17414558741075 0 454.17414558741075 2311.7603271941189 0 0 0 0 -183.59158776595723 -260.36893461327054 0 -260.36893461327054 1176.8738179716074 0 0 0 0 93.188243111551856 -9.8923054548740765 0 -9.8923054548740765 1086.5068505290255 0 0 0 0 -101.69421128588147 -137.24273058578547 0 -137.24273058578547 1037.3038447921354 0 0 0 0 -2.5180725676660813 51.801859424295685 0 51.801859424295685 0.69267627105578278 0 0 0 0 -276.37626538742916 150.43398150900612 0 150.43398150900612 -889.84817773638497 0 0 0 0 -112.72396684275009 396.46282232776139 0 396.46282232776139 -1268.3962298813203 0 0 0 0 297.36527088150615 125.83445161906275 0 125.83445161906275 -1949.3839696306022 0 0 0 0 226.86262638593325 476.06850058168493 0 476.06850058168493 -2201.6945511606532 0 0 0 0 69.770575287169777 430.57929496458382 0 430.57929496458382 -983.43621889414499 0 0 0 0 -24.913650854839943 141.43937180204375 0 141.43937180204375 -701.61228053248487 0 0 0 0 22.843746029771864 -104.30370430988842 0 -104.30370430988842 -1374.8551455620909 0 0 0 0 -76.631927967540832 72.799560215722522 0 72.799560215722522 1004.5733373214243 0 0 0 0 7.6309562349612179 45.509165221301146 0 45.509165221301146 3.103908992532407 0 0 0 0 149.73424498966779 -130.81491675199868 0 -130.81491675199868 347.03247878308866 0 0 0 0 24.639019866517629 -46.935847653883684 0 -46.935847653883684 673.03524381743773 0 0 0 0 8.7786150192076775 26.95120316156229 0 26.95120316156229 39.717030786320265 0 0 0 0 -640.87140257353894 301.74467371503124 0 301.74467371503124 -1422.8455701173807 0 0 0 0 -494.79032325370645 -116.34625447570397 0 -116.34625447570397 -1596.8229198349145 0 0 0 0 -196.93512043182272 512.31765138066839 0 512.31765138066839 -1347.1987187954983 0 0 0 0 -124.63344546407097 -15.646148704668121 0 -15.646148704668121 -1685.0545112171967 0 0 0 0 57.159675968228839 262.90338091758895 0 262.90338091758895 -943.94576095430602 0 0 0 0 -268.03786747303093 393.83149236314785 0 393.83149236314785 -969.31846936227521 0 0 0 0 -44.510459829471074 176.00346247707785 0 176.00346247707785 -997.9779899387504 0 0 0 0 -103.9249350259779 348.75743106873415 0 348.75743106873415 -953.0136838749022 0 0 0 0 306.19323920895113 526.39868309356098 0 526.39868309356098 -3640.2321789617272 0 0 0 0 6.4930834656702245 3.0992739582544004 0 3.0992739582544004 0.300548121322322 0 0 0 0 -2.3467492386116646 -487.77564086036728 0 -487.77564086036728 -520.45732087438728 0 0 0 0 -79.977106134174392 606.82053388292115 0 606.82053388292115 -829.78223656799673 0 0 0 0 -1129.8987489280989 1323.4189777680294 0 1323.4189777680294 -674.87406084325221 0 0 0 0 0.58564404059143271 568.18242070612905 0 568.18242070612905 -2120.0405899009347 0 0 0 0 7.0407600146718323 -21.010561138995399 0 -21.010561138995399 -8.492661875054182 0 0 0 0 -9.313691791819565 4.82080418574931 0 4.82080418574931 13.005265063836482 0 0 0 0 -219.61966704926454 50.105146014109778 0 50.105146014109778 174.62086504255785 0 0 0 0 -466.55190547220991 289.42104797683714 0 289.42104797683714 47.275709208595799 0 0 0 0 -69.910167170804925 236.4326407075423 0 236.4326407075423 -156.69118752455688 0 0 0 0 601.64933835212287 -1380.7290863199196 0 -1380.7290863199196 2789.8123091246816 0 0 0 0 5.2616855503129045 6.4911727996901334 0 6.4911727996901334 16.629609151286871 0 0 0 0 -0.72734509533620439 10.783807728264946 0 10.783807728264946 15.117451677186182 0 0 0 0 294.55258629197488 -570.95756416290533 0 -570.95756416290533 734.08360323594661 0 0 0 0 -183.59696691422141 -256.29736820847393 0 -256.29736820847393 1861.1597617157749 0 0 0 0 -7.3298980857530296 5.1471512600569724 0 5.1471512600569724 6.3450089291133196 0 0 0 0 420.95430395114818 312.19692583469805 0 312.19692583469805 1040.0620675569335 0 0 0 0 -6.9183134192717262 2988.0194994611229 0 2988.0194994611229 4318.7058630256215 0 0 0 0 45.783156849291117 141.8439175000849 0 141.8439175000849 -168.79867791686047 0 0 0 0 -0.033961529610678554 156.32424488950164 0 156.32424488950164 10.423186118019657 0 0 0 0 38.991748412692687 120.98910097607768 0 120.98910097607768 22.687129291399287 0 0 0 0 25.703475087007973 127.8111294905284 0 127.8111294905284 20.744820838929627 0 0 0 0 110.6190553001361 70.758817471978546 0 70.758817471978546 -112.867984647095 0 0 0 0 123.15625979008473 104.63974235526803 0 104.63974235526803 -56.577059322960849 0 0 0 0 49.733317536243703 50.181111702742783 0 50.181111702742783 -29.618901926864055 0 0 0 0 28.191164231015136 -37.184801199226058 0 -37.184801199226058 -259.2024905611961 0 0 0 0 -0.0072298338774724937 123.07812063778626 0 123.07812063778626 48.85008851504972 0 0 0 0 -5.9204992159766334 -1.4312227791232033 0 -1.4312227791232033 5.2305526433971323 0 0 0 0 -1.3074251940205386 -1.4939427395009517 0 -1.4939427395009517 2.6413807192950927 0 0 0 0 72.913600934756687 13.371293325970328 0 13.371293325970328 -64.954188893747414 0 0 0 0 -23.306398660613922 39.426224954306235 0 39.426224954306235 36.753805545064097 0 0 0 0 -0.075228795890785863 42.210085648145913 0 42.210085648145913 -18.212435886183812 0 0 0 0 0.05819977683074247 42.041291638214418 0 42.041291638214418 -18.147540737576492 0 0 0 0 -29.086752753704786 199.2442341628921 0 199.2442341628921 -322.22193259209598 0 0 0 0 -119.61417829737184 261.85715603535937 0 261.85715603535937 -124.3134922007157 0 0 0 0 -102.73048173471761 145.72852675836384 0 145.72852675836384 -352.30872213028488 0 0 0 0 -73.402276319902739 274.29883620803048 0 274.29883620803048 -566.82675569423009 0 0 0 0 -172.02611630811589 384.45558268644527 0 384.45558268644527 -526.10053654268268 0 0 0 0 -463.81604583165608 464.55307329919742 0 464.55307329919742 43.239273496597889 0 0 0 0 -393.2009151809616 -6.0257216395038995 0 -6.0257216395038995 305.03431089254445 0 0 0 0 11.994880023612495 15.472958847109425 0 15.472958847109425 5.7818748975967651 0 0 0 0 4.8025546205462888 -164.83477422040596 0 -164.83477422040596 216.28650098732214 0 0 0 0 -107.61265804893628 161.87228385772141 0 161.87228385772141 230.2841908998962 0 0 0 0 22.514322652539704 29.915217544439656 0 29.915217544439656 -15.977316371718189 0 0 0 0 9.7231395615963265 124.66458544302441 0 124.66458544302441 215.08535919901624 0 0 0 0 55.989695496944478 27.794672634678136 0 27.794672634678136 -54.829751984281756 0 0 0 0 4.9817730635426187 45.960353079351179 0 45.960353079351179 -16.028720718162965 0 0 0 0 50.688670185059891 39.362859477248094 0 39.362859477248094 31.089238745931652 0 0 0 0 -6.0440538239254806 47.935531838178122 0 47.935531838178122 -11.082336817026018 0 0 0 0 -0.075741709945873481 28.13239341632277 0 28.13239341632277 -10.560015792141257 0 0 0 0 -21.449567711213604 19.498408163082786 0 19.498408163082786 9.971343552635517 0 0 0 0 3.5244787185259838 5.3243400176529292 0 5.3243400176529292 2.8443293938830578 0 0 0 0 43.307123330699369 46.449861711117393 0 46.449861711117393 -13.551106714247311 0 0 0 0 -32.171089565497823 -291.98677471727569 0 -291.98677471727569 -162.1013075357705 0 0 0 0 174.95330318904598 62.985239658246428 0 62.985239658246428 -138.64640291989053 0 0 0 0 10.977698504149828 2.8309121554658532 0 2.8309121554658532 -0.80502589066405505 0 0 0 0 -982.08456227382703 111.53183540586178 0 111.53183540586178 105.7610010403223 0 0 0 0 53.531507686537225 52.947284536487132 0 52.947284536487132 -213.14492468930257 0 0 0 0 -647.28008655610029 4.721786234236788 0 4.721786234236788 -91.770440182444872 0 0 0 0 57.1414865796105 81.070047365588835 0 81.070047365588835 -38.653127734636655 0 0 0 0 70.05128103037714 61.569836320236391 0 61.569836320236391 -180.32457813855581 0 0 0 0 54.635140014666831 -0.77676112373228534 0 -0.77676112373228534 5.0244169181823963 0 0 0 0 -47.253870478647571 29.153320498570537 0 29.153320498570537 -0.166092492651714 0 0 0 0 6.5963782305916538 155.12650200353528 0 155.12650200353528 -23.981251255754614 0 0 0 0 -6.1435828341524825 9.1016164971337474 0 9.1016164971337474 -3.468939244054706 0 0 0 0 4.1305592928582655 10.088968672192451 0 10.088968672192451 -7.7895305751340302 0 0 0 0 -129.42698875057977 224.71385930146062 0 224.71385930146062 504.7467325439211 0 0 0 0 -55.961410197545774 50.487845200244919 0 50.487845200244919 71.41389646243988 0 0 0 0 54.685876594099682 206.26625608199538 0 206.26625608199538 126.23982441924454 0 0 0 0 37.961007456935477 79.84910175789264 0 79.84910175789264 196.90762068959884 0 0 0 0 38.222118471458089 323.12295709723548 0 323.12295709723548 78.348808854992967 0 0 0 0 -9.7685346505971893 -3.6633681737373252 0 -3.6633681737373252 11.018581313205715 0 0 0 0 73.993509482359514 -0.674333156594912 0 -0.674333156594912 -203.87229241497698 0 0 0 0 142.50890450872248 258.70095864868199 0 258.70095864868199 -892.42401185096128 0 0 0 0 155.63508625049144 144.93899009856978 0 144.93899009856978 -810.37862592693273 0 0 0 0 49.242919377051294 160.37051176356908 0 160.37051176356908 -604.72314730106973 0 0 0 0 -107.44396684959065 244.50532167546044 0 244.50532167546044 -610.01393074792577 0 0 0 0 -53.405880180420354 89.486569465370849 0 89.486569465370849 -254.84208058366494 0 0 0 0 23.606221911730245 252.15042803103097 0 252.15042803103097 -153.30595212103799 0 0 0 0 -12.965618407703005 99.389226359890017 0 99.389226359890017 -193.76441347427317 0 0 0 0 -39.656569098352463 23.434749726772125 0 23.434749726772125 -8.8585895855012922 0 0 0 0 -301.84074482670985 111.22052241541678 0 111.22052241541678 1.9438048481608803 0 0 0 0 -50.795566170359962 22.964943310467788 0 22.964943310467788 -357.96572164101963 0 0 0 0 -235.36448831885355 154.53605494485601 0 154.53605494485601 -367.46685080270981 0 0 0 0 21.538157114497153 -86.647349209935783 0 -86.647349209935783 -849.39256614353872 0 0 0 0 5.3089491272160103 6.3951411819275563 0 6.3951411819275563 8.150670880491873 0 0 0 0 889.84422123646073 11.112511700914638 0 11.112511700914638 -127.72245487484179 0 0 0 0 313.01026655753776 760.6521413912501 0 760.6521413912501 231.6743222306759 0 0 0 0 88.89958488981938 225.81043254032556 0 225.81043254032556 619.15305864687264 0 0 0 0 199.23670545476489 -921.36193732568063 0 -921.36193732568063 598.7060995071588 0 0 0 0 764.98760563484393 482.67702295796335 0 482.67702295796335 -64.451256054162513 0 0 0 0 -1.5394254725902101 4.9791295076549886 0 4.9791295076549886 -2.7647192783518264 0 0 0 0 428.49509109664359 230.2785287066381 0 230.2785287066381 -78.50156381873694 0 0 0 0 297.16994678282936 -19.617458295675078 0 -19.617458295675078 -12.085353473630676 0 0 0 0 -17.627888233153072 50.892434718828355 0 50.892434718828355 -4.2609459595062731 0 0 0 0 -36.318666182334709 49.782141388532182 0 49.782141388532182 131.02898500530864 0 0 0 0 -61.374208269400697 1.1049950581309531 0 1.1049950581309531 87.262590417216416 0 0 0 0 19.652566659176955 71.910382808648137 0 71.910382808648137 -7.5475607298940304 0 0 0 0 397.80124042078387 132.31572082318598 0 132.31572082318598 -26.929424515396022 0 0 0 0 75.537238870747387 175.85849266818968 0 175.85849266818968 161.69389267408405 0 0 0 0 77.282225411123363 54.361606112011032 0 54.361606112011032 4.6585009631271532 0 0 0 0 102.08859983585717 -46.035728649982048 0 -46.035728649982048 196.26889080465844 0 0 0 0 17.390688498918848 21.570714166555916 0 21.570714166555916 18.422469542128908 0 0 0 0 -1094.3843942017884 -488.49276266255765 0 -488.49276266255765 219.4444736454243 0 0 0 0 5.6339925873374455 15.610338511688298 0 15.610338511688298 -0.23967397642357469 0 0 0 0 42.832800163247157 98.581470690542119 0 98.581470690542119 -272.64653405392573 0 0 0 0 41.572305529611185 47.411336210268928 0 47.411336210268928 -149.43612958788435 0 0 0 0 -99.569114671729039 155.77305042057196 0 155.77305042057196 -221.01910146145019 0 0 0 0 -156.32005673598906 284.06038802670264 0 284.06038802670264 218.79622011534957 0 0 0 0 -50.70831820537569 494.13204711752041 0 494.13204711752041 352.88977940368204 0 0 0 0 -166.17789989612356 296.56146421177618 0 296.56146421177618 185.1459494391529 0 0 0 0 542.93809169752058 -179.43700085461023 0 -179.43700085461023 83.735607111309946 0 0 0 0 -24.214516632843015 16.111914002846248 0 16.111914002846248 -6.092254736468945 0 0 0 0 -2.2176465651076001 1.1353796694067597 0 1.1353796694067597 -0.051874494499223545 0 0 0 0 77.521758567017969 460.69126125681942 0 460.69126125681942 76.393074446212268 0 0 0 0 1.8019959112425568 126.20590681701469 0 126.20590681701469 -1396.6406960859313 0 0 0 0 198.89109746660688 344.61201502141557 0 344.61201502141557 186.47890798174194 0 0 0 0 57.244288263580529 76.431973196133185 0 76.431973196133185 -1353.2312858573569 0 0 0 0 1300.5106603839668 -551.640972773268 0 -551.640972773268 431.1215394267274 0 0 0 0 -541.0601762029255 181.8581504331687 0 181.8581504331687 809.58153958017647 0 0 0 0 -765.58078987291083 349.73002412354981 0 349.73002412354981 49.81627493508131 0 0 0 0 -1.2030917392719971 1.1150178280694405 0 1.1150178280694405 0.36422264863382026 0 0 0 0 113.08173278055256 34.465162254337429 0 34.465162254337429 214.12873362821847 0 0 0 0 -469.89489076749305 445.10110330716816 0 445.10110330716816 -145.77837214521423 0 0 0 0 -141.47953158235941 93.024969924469815 0 93.024969924469815 208.19640699138108 0 0 0 0 -104.81397714072955 331.08949017356645 0 331.08949017356645 123.43151528607268 0 0 0 0 -241.95089960662881 167.22309215902897 0 167.22309215902897 228.16482456107951 0 0 0 0 -644.88252109877067 -250.79439164909491 0 -250.79439164909491 -74.07074533796731 0 0 0 0 -7.2468386620262777 6.3884360186875995 0 6.3884360186875995 -3.7059776449671951 0 0 0 0 -431.56323825989966 258.77183505771427 0 258.77183505771427 186.64199511684274 0 0 0 0 -1385.0404309327714 826.72438094270183 0 826.72438094270183 272.18321727421426 0 0 0 0 -148.29471277842094 393.00861460875331 0 393.00861460875331 0.62044825339398813 0 0 0 0 -275.21963443851564 441.71204060769742 0 441.71204060769742 400.38352751820639 0 0 0 0 -249.63942541412325 113.80898414455169 0 113.80898414455169 -136.07896532370069 0 0 0 0 -33.718901929855747 266.21259239865066 0 266.21259239865066 86.831031116642407 0 0 0 0 -35.477590151532354 139.17678297557489 0 139.17678297557489 -649.72845242236872 0 0 0 0 -579.79344277727068 573.37207996801408 0 573.37207996801408 -43.429312700827722 0 0 0 0 38.065075830847491 219.35085567232454 0 219.35085567232454 158.29822921507366 0 0 0 0 136.4610723208225 -265.2295076266571 0 -265.2295076266571 -241.12959540766678 0 0 0 0 -121.55496467862395 805.61527983759515 0 805.61527983759515 911.26028030412272 0 0 0 0 -109.58633745352563 473.55454299665689 0 473.55454299665689 587.63851664883259 0 0 0 0 84.134927817605785 381.06349638102347 0 381.06349638102347 -11.525348855891934 0 0 0 0 33.083401213167235 138.27563517356793 0 138.27563517356793 447.02668749114673 0 0 0 0 15.715540359259762 11.279233011479064 0 11.279233011479064 3.9001650810035571 0 0 0 0 -38.613138036133023 119.50077659734234 0 119.50077659734234 620.5665431153509 0 0 0 0 -208.23836767471948 -59.63000169159568 0 -59.63000169159568 1796.1153505503607 0 0 0 0 7.2762893641180995 1.9110530224633209 0 1.9110530224633209 0.44847997026803199 0 0 0 0 -298.31403106474318 440.6228642180904 0 440.6228642180904 -478.72112015500534 0 0 0 0 -224.57935465077753 513.54565302126525 0 513.54565302126525 -448.62313133638963 0 0 0 0 -641.61661283220747 387.86478328246903 0 387.86478328246903 -149.94738518573831 0 0 0 0 -196.7895943309486 221.06311685743776 0 221.06311685743776 -94.670980635888554 0 0 0 0 0.17163081131616309 11.112210240582101 0 11.112210240582101 3.1232754480075045 0 0 0 0 -586.53109409441095 178.15062887997442 0 178.15062887997442 344.06825541583385 0 0 0 0 3.5602212478115689 97.850092897708691 0 97.850092897708691 -1235.7033801636471 0 0 0 0 -234.76742624901817 860.64790310185754 0 860.64790310185754 -64.433678166384198 0 0 0 0 -180.26727800050867 39.405992221035831 0 39.405992221035831 93.317656644761882 0 0 0 0 38.103789857804884 41.201777005367489 0 41.201777005367489 36.506135730149289 0 0 0 0 63.746182612439952 78.286129377375858 0 78.286129377375858 292.87676289193041 0 0 0 0 120.16332200760371 162.56834983666204 0 162.56834983666204 -389.08559740533224 0 0 0 0 -237.66781617260131 121.01979593011788 0 121.01979593011788 42.203909003867921 0 0 0 0 -2.8481716423702892 -28.543283194022933 0 -28.543283194022933 -395.42440881291492 0 0 0 0 -224.57245578161383 241.15477708879735 0 241.15477708879735 104.59306885443857 0 0 0 0 -6.5419701778155286 187.84141402228079 0 187.84141402228079 5.0808442653242309 0 0 0 0 41.051000275321201 49.533037867971814 0 49.533037867971814 51.846226768397919 0 0 0 0 -7.2544440698256949 223.46039993720092 0 223.46039993720092 212.0309825282593 0 0 0 0 492.57275673994445 205.07304858931502 0 205.07304858931502 -46.149171272620151 0 0 0 0 336.09493829449639 -29.81480159874036 0 -29.81480159874036 4.0906998651325921 0 0 0 0 166.91635830045561 -2.847240485899988 0 -2.847240485899988 56.442136516072424 0 0 0 0 467.11152273256448 144.77955951704234 0 144.77955951704234 6.5182009943310959 0 0 0 0 276.04130757538951 315.42588309114785 0 315.42588309114785 119.66961452784926 0 0 0 0 222.5785610008752 200.75706144352284 0 200.75706144352284 -55.877908638376539 0 0 0 0 8.8118972383750247 -3.253159990735341 0 -3.253159990735341 -8.7105457778292692 0 0 0 0 79.519778466434218 132.40372955980911 0 132.40372955980911 271.06736603188165 0 0 0 0 452.33936910454213 -56.729602314830203 0 -56.729602314830203 -30.564399457970467 0 0 0 0 262.48470869640005 182.35827575093163 0 182.35827575093163 -48.233591521385108 0 0 0 0 26.125072632563899 -1.2956578161254981 0 -1.2956578161254981 -46.211944143531397 0 0 0 0 212.51597600890818 -30.824447656255359 0 -30.824447656255359 -21.754058713288032 0 0 0 0 89.296821309806546 53.132472456327378 0 53.132472456327378 -58.417930724550388 0 0 0 0 131.7470924002846 97.952191796366151 0 97.952191796366151 -77.422904549232271 0 0 0 0 81.336690677067963 203.49962879799168 0 203.49962879799168 -40.062219137788503 0 0 0 0 48.693075287362376 63.964148874495692 0 63.964148874495692 60.559138103199636 0 0 0 0 -349.58934324021902 928.34720783731245 0 928.34720783731245 260.65483937476529 0 0 0 0 71.472324915230274 -43.73928599813371 0 -43.73928599813371 11.878359580063261 0 0 0 0 29.647070433474624 8.9230263139398289 0 8.9230263139398289 -47.890096379359932 0 0 0 0 157.24851245212631 67.993652167030632 0 67.993652167030632 -51.414671442405961 0 0 0 0 117.96620396245271 71.444273570084988 0 71.444273570084988 -39.434134045586688 0 0 0 0 38.630219290178502 149.3269500597944 0 149.3269500597944 33.049155825160597 0 0 0 0 151.35102528551943 111.32224161031081 0 111.32224161031081 -28.938253465574235 0 0 0 0 85.166188976101694 82.92754037557188 0 82.92754037557188 -80.2859837464664 0 0 0 0 53.34143317231792 101.40895926855228 0 101.40895926855228 -28.804443031464871 0 0 0 0 56.70913398644916 109.38072353428879 0 109.38072353428879 -20.106631659571576 0 0 0 0 61.339593356963519 51.126732365656508 0 51.126732365656508 18.830667313175738 0 0 0 0 100.99618699049461 48.546055573377089 0 48.546055573377089 -56.708134410193452 0 0 0 0 97.140256989514455 65.172524559659905 0 65.172524559659905 -67.955973427765912 0 0 0 0 110.28302045658347 60.06605725366262 0 60.06605725366262 -66.048760994286567 0 0 0 0 -91.955612556906999 117.10403733154953 0 117.10403733154953 -33.759600771753867 0 0 0 0 61.082968172107542 36.712039854882619 0 36.712039854882619 16.272877475283671 0 0 0 0 32.363561979436781 105.11650711380207 0 105.11650711380207 -39.667665121566642 0 0 0 0 8.1600901230606269 6.8808741198133703 0 6.8808741198133703 3.614640708132594 0 0 0 0 17.925234163951245 4.6377354538037707 0 4.6377354538037707 66.294737629732481 0 0 0 0 33.956597487422187 111.72528510350556 0 111.72528510350556 33.480902571478509 0 0 0 0 28.165532479528338 260.99089801434911 0 260.99089801434911 82.09977554111083 0 0 0 0 96.347224517230643 156.03278164252379 0 156.03278164252379 -51.047828123753789 0 0 0 0 141.4136537577142 119.67241419582024 0 119.67241419582024 -25.407839355104443 0 0 0 0 111.91853827808518 85.681115876764125 0 85.681115876764125 -60.054000632811039 0 0 0 0 110.74378219505888 93.772025667516573 0 93.772025667516573 -70.594160918441958 0 0 0 0 27.77315990650095 87.725453232165592 0 87.725453232165592 -56.154338553898015 0 0 0 0 78.913595484744292 81.049200189454041 0 81.049200189454041 -56.831188167264372 0 0 0 0 89.533329187186609 46.902800827065676 0 46.902800827065676 -33.896736481988228 0 0 0 0 96.566183531016577 13.808993138128699 0 13.808993138128699 -69.082338852449993 0 0 0 0 175.05544590583304 61.961646258234396 0 61.961646258234396 -97.195549916441905 0 0 0 0 203.4677570588974 58.651930558108688 0 58.651930558108688 -113.55234867029139 0 0 0 0 16.648510092112701 6.039149256725068 0 6.039149256725068 -19.671808626569373 0 0 0 0 -3.8603469930889958 7.9771174901327413 0 7.9771174901327413 -25.233860049162633 0 0 0 0 61.519724410929484 -55.775340087682707 0 -55.775340087682707 -125.93633655500889 0 0 0 0 0.080390294489916414 19.456429347724224 0 19.456429347724224 -24.209550135671634 0 0 0 0 17.08317698261817 29.048960711913423 0 29.048960711913423 -18.917524544356638 0 0 0 0 20.568587176574511 34.618304781418374 0 34.618304781418374 -35.569505143274 0 0 0 0 0.090489986697155911 88.525852342795986 0 88.525852342795986 125.29688854364213 0 0 0 0 19.008229299637605 33.9871488769395 0 33.9871488769395 -28.62575838788689 0 0 0 0 18.283190406793437 29.575883524477831 0 29.575883524477831 -27.948528339489712 0 0 0 0 4.0146453037309016 21.215484989257845 0 21.215484989257845 -42.048860296124047 0 0 0 0 0.78772356535773724 103.22276344201464 0 103.22276344201464 8.7892617097932089 0 0 0 0 7.489397154233302 98.841337510695666 0 98.841337510695666 86.237917302147252 0 0 0 0 -22.013823704647621 51.476833978599643 0 51.476833978599643 5.574374201306469 0 0 0 0 -10.483801375958137 90.616979550188717 0 90.616979550188717 167.85457655834034 0 0 0 0 1.7107629060046747 142.95391891475447 0 142.95391891475447 121.88980262240875 0 0 0 0 -3.1661898651367437 5.8853842355434978 0 5.8853842355434978 -6.4967947375639312 0 0 0 0 72.448377281194553 93.023831398233597 0 93.023831398233597 65.568313302675961 0 0 0 0 -331.36739062651031 581.74782912172191 0 581.74782912172191 -634.93645248855319 0 0 0 0 -376.58180234135943 477.92861876105235 0 477.92861876105235 -113.82760647595205 0 0 0 0 47.894742416741792 337.20334511226611 0 337.20334511226611 -706.84881192391822 0 0 0 0 87.776181391818682 198.55501578360054 0 198.55501578360054 46.904696999798375 0 0 0 0 -297.62278479674569 116.92282150015399 0 116.92282150015399 43.405001860977791 0 0 0 0 -301.2026116757479 212.74905164415213 0 212.74905164415213 -186.54567027905841 0 0 0 0 -211.42596121822135 257.69972954437617 0 257.69972954437617 -305.9187448624034 0 0 0 0 -89.032321958089597 103.3547635107825 0 103.3547635107825 -34.085245417845726 0 0 0 0 4.4094862697411941 53.31203990625211 0 53.31203990625211 19.944428517858441 0 0 0 0 -257.2733687817381 403.5303722589797 0 403.5303722589797 -453.4792697732737 0 0 0 0 46.707762794045266 121.14799882062289 0 121.14799882062289 -43.438308044940641 0 0 0 0 -86.793946053969194 158.89996212187793 0 158.89996212187793 68.702882081903226 0 0 0 0 22.059147015686108 23.053156040580227 0 23.053156040580227 21.570349013620579 0 0 0 0 -93.135753274924355 99.92655218258551 0 99.92655218258551 183.93933385396667 0 0 0 0 98.102692646643845 327.4761457838631 0 327.4761457838631 169.70255506032299 0 0 0 0 209.55378327688959 522.42899286399734 0 522.42899286399734 -143.39273404734558 0 0 0 0 -224.96579086460406 288.49811712678638 0 288.49811712678638 330.40832748510002 0 0 0 0 -329.67386654500297 -50.771927724140369 0 -50.771927724140369 126.99744714776534 0 0 0 0 -274.40107792666277 31.253644091445267 0 31.253644091445267 161.98187904052611 0 0 0 0 -217.54981882961874 240.07329545397624 0 240.07329545397624 -28.117130823819025 0 0 0 0 -99.071093363065302 -119.89015403956967 0 -119.89015403956967 458.36639718807419 0 0 0 0 -78.028881171849207 98.815801545375507 0 98.815801545375507 179.13330115030294 0 0 0 0 9.3773987058792159 17.205452740802841 0 17.205452740802841 15.579617755567575 0 0 0 0 -285.47355302740471 739.36627844890245 0 739.36627844890245 -874.38893802224629 0 0 0 0 89.062854344010702 136.54210735555534 0 136.54210735555534 116.08785450932191 0 0 0 0 -178.09509446077573 -20.6952929514365 0 -20.6952929514365 41.473305080653518 0 0 0 0 -938.92043059016578 641.86509327354725 0 641.86509327354725 -1192.9285754145531 0 0 0 0 -115.58540006825206 -382.44308282822885 0 -382.44308282822885 1151.2532767095472 0 0 0 0 -56.054355953645427 494.66032864777662 0 494.66032864777662 536.98803087734268 0 0 0 0 369.72780680883443 193.48767343646978 0 193.48767343646978 -511.14748565709124 0 0 0 0 243.78062828877592 1375.3351189572568 0 1375.3351189572568 -803.11935294128853 0 0 0 0 49.431008707833826 45.110127196549001 0 45.110127196549001 -127.32547704893659 0 0 0 0 235.47303345368709 586.16564700814342 0 586.16564700814342 213.66290316990853 0 0 0 0 620.81074712242116 479.20800039596179 0 479.20800039596179 -493.27736563244343 0 0 0 0 -3.5116515728093987 3.9753569746824837 0 3.9753569746824837 -2.3149430131194606 0 0 0 0 -646.7899832225703 426.04502936849599 0 426.04502936849599 -164.88322252630678 0 0 0 0 -521.39894700457808 844.55268674272338 0 844.55268674272338 -1094.5580910898025 0 0 0 0 -338.72778453807223 349.83955353230908 0 349.83955353230908 -358.65597471050569 0 0 0 0 2.7024116466151327 5.8496442333080267 0 5.8496442333080267 5.3948655619593353 0 0 0 0 44.91491623854381 136.35694362234244 0 136.35694362234244 -267.35897445165392 0 0 0 0 60.501036405185005 291.66609175705707 0 291.66609175705707 -868.6828398108114 0 0 0 0 155.26476798235672 231.22545621344489 0 231.22545621344489 -422.99401967671292 0 0 0 0 29.716628596652299 172.56723532275282 0 172.56723532275282 -252.3491132132549 0 0 0 0 553.18634071311681 117.81127937508063 0 117.81127937508063 -22.029266288289364 0 0 0 0 239.19059815755463 334.58379001104186 0 334.58379001104186 -171.6729855468584 0 0 0 0 10.044969970200327 51.245971938751609 0 51.245971938751609 -180.05704235148914 0 0 0 0 177.8451070660376 101.67084219867093 0 101.67084219867093 -258.32669526508107 0 0 0 0 106.02519173048495 321.65051234225575 0 321.65051234225575 27.633388759753871 0 0 0 0 435.7473959913259 525.12229971935722 0 525.12229971935722 216.39129797437272 0 0 0 0 122.03174820529239 189.95443610571419 0 189.95443610571419 284.05344732627054 0 0 0 0 -7.8956747481193474 7.0690267659569486 0 7.0690267659569486 -4.2752908854995866 0 0 0 0 109.6700647076359 272.26897109521633 0 272.26897109521633 347.33727478676519 0 0 0 0 115.18200084105774 5.8477400193560243 0 5.8477400193560243 -3.5029279206792125 0 0 0 0 -26.063635780927143 -16.898593802985488 0 -16.898593802985488 13.631444692395235 0 0 0 0 -266.50781373577775 -117.83538849199249 0 -117.83538849199249 82.05979926645432 0 0 0 0 -338.0283702978777 345.44385027191674 0 345.44385027191674 -362.38336826002887 0 0 0 0 -92.641655301922583 44.680994566676418 0 44.680994566676418 89.096975797063351 0 0 0 0 58.932777589172474 73.764228617468689 0 73.764228617468689 43.612266176909543 0 0 0 0 3.7206301588012138 39.928644235994398 0 39.928644235994398 5.2850205135709984 0 0 0 0 4.5379968875859049 44.227481032058677 0 44.227481032058677 27.573641696293635 0 0 0 0 38.14213057766392 32.236113367708413 0 32.236113367708413 18.769369894678675 0 0 0 0 -4.8031934692952518 10.067115532777422 0 10.067115532777422 2.8633185345084797 0 0 0 0 97.205008527191239 278.53872405223956 0 278.53872405223956 346.61335086461463 0 0 0 0 34.565049361059209 16.092878331923202 0 16.092878331923202 27.008710063117178 0 0 0 0 18.171758299140492 21.15685937393755 0 21.15685937393755 27.077588196141704 0 0 0 0 25.941309975412878 38.206427876997168 0 38.206427876997168 16.539024797079037 0 0 0 0 42.798759232129669 61.966686191804911 0 61.966686191804911 -569.08796725884258 0 0 0 0 25.903970700359991 24.358980873857092 0 24.358980873857092 13.356558863089717 0 0 0 0 -56.568411912652664 -262.17954472444035 0 -262.17954472444035 -1164.1027125902792 0 0 0 0 267.11070694978116 533.91791155518513 0 533.91791155518513 -606.80479784547538 0 0 0 0 293.56842523199157 254.08109512850569 0 254.08109512850569 -1363.9090714795611 0 0 0 0 -136.71728193690069 315.79772928435068 0 315.79772928435068 -203.5185565243446 0 0 0 0 -116.56352046535176 284.11670164714883 0 284.11670164714883 -235.64917306951611 0 0 0 0 -85.315299158399284 238.19071818941802 0 238.19071818941802 -259.58324970204194 0 0 0 0 -152.85173774408759 161.47419853892916 0 161.47419853892916 -57.952429813638446 0 0 0 0 -366.20347659636172 302.08158628010733 0 302.08158628010733 -149.59790992442595 0 0 0 0 0.84985553687326387 2.6624095394070935 0 2.6624095394070935 2.9147348074792419 0 0 0 0 556.27429342726828 274.69152991257351 0 274.69152991257351 113.23075474950747 0 0 0 0 57.958904810231616 24.769063199993525 0 24.769063199993525 39.082489435171738 0 0 0 0 31.626487631621956 26.236231265149669 0 26.236231265149669 17.80506892284528 0 0 0 0 42.855282019983861 66.324573123574737 0 66.324573123574737 -27.850837900599799 0 0 0 0 -88.450073919259012 279.92792041490429 0 279.92792041490429 -389.46786587401857 0 0 0 0 28.770513908884254 25.444771140921773 0 25.444771140921773 17.674054250649135 0 0 0 0 -100.15724728611531 225.31493694073515 0 225.31493694073515 -238.27631484966878 0 0 0 0 -129.34272316491115 230.13460036553124 0 230.13460036553124 -204.81580857852259 0 0 0 0 -68.406797139323317 240.22181054312568 0 240.22181054312568 -250.32205278880838 0 0 0 0 -99.942281017109963 228.08194084197658 0 228.08194084197658 -220.87057642520267 0 0 0 0 26.839053313759564 33.185591735566177 0 33.185591735566177 23.280948063502862 0 0 0 0 1.4513061119727269 13.882083796300776 0 13.882083796300776 16.648747217723127 0 0 0 0 -129.43150969495764 58.542267322032785 0 58.542267322032785 46.531551072030197 0 0 0 0 32.190806178623461 42.05632945995967 0 42.05632945995967 -25.622210985909987 0 0 0 0 -124.28456310112233 54.306857535668314 0 54.306857535668314 35.875313524760713 0 0 0 0 -155.42949531940394 180.18832386651638 0 180.18832386651638 -2.0781140185226832 0 0 0 0 -90.449602493722011 37.390980351472678 0 37.390980351472678 71.173941767500253 0 0 0 0 -155.68081703645294 24.874885824960074 0 24.874885824960074 8.396820101661433 0 0 0 0 27.560957973386394 19.118690526782302 0 19.118690526782302 14.511113887681859 0 0 0 0 107.00552299535775 27.782134664637852 0 27.782134664637852 1.6157808792886499 0 0 0 0 -169.66575163185917 81.091966698699707 0 81.091966698699707 -69.598974394011748 0 0 0 0 0.83729030918500769 2.6969429140975194 0 2.6969429140975194 11.349926225785822 0 0 0 0 -188.08878275849565 76.908253299960052 0 76.908253299960052 -65.958227715964313 0 0 0 0 -348.06299714079069 262.5328594513694 0 262.5328594513694 -197.62134625289036 0 0 0 0 0.57025569897061246 1.9507191593999096 0 1.9507191593999096 3.038421008378748 0 0 0 0 53.552147881340716 37.486322865970124 0 37.486322865970124 25.11380717566135 0 0 0 0 330.47945040855848 44.836749638729088 0 44.836749638729088 -13.704208793540602 0 0 0 0 -243.6524303690021 332.54117437492368 0 332.54117437492368 -325.74027842729993 0 0 0 0 -114.8315219925862 228.08047481564063 0 228.08047481564063 -342.17433951618477 0 0 0 0 -82.85083627929211 107.27809517479787 0 107.27809517479787 -17.433973477486433 0 0 0 0 -247.68778685942743 222.21168931771763 0 222.21168931771763 -204.69177130492244 0 0 0 0 -101.16105407850409 67.761531309330167 0 67.761531309330167 -95.223216975175092 0 0 0 0 -72.379183496845229 88.202368496626576 0 88.202368496626576 8.1777092349678924 0 0 0 0 -53.564479596279853 232.10764613862739 0 232.10764613862739 -49.00583366504361 0 0 0 0 -48.628118251646811 166.30613483941852 0 166.30613483941852 -284.1690115125748 0 0 0 0 -75.584336951691512 95.614713666370335 0 95.614713666370335 80.796478358650347 0 0 0 0 -169.64852849625095 66.076951721498972 0 66.076951721498972 49.116554239233665 0 0 0 0 -123.94710286668851 70.179741451592236 0 70.179741451592236 37.333669081614062 0 0 0 0 -62.821967929563854 82.701827267188662 0 82.701827267188662 46.46855549077921 0 0 0 0 86.06457064262213 165.94933926427984 0 165.94933926427984 52.552257667353842 0 0 0 0 35.947850446362281 110.08849770693632 0 110.08849770693632 75.419946528785658 0 0 0 0 -57.594986840369529 166.80987156445917 0 166.80987156445917 80.532392682689533 0 0 0 0 -82.384965805176762 251.30503391662933 0 251.30503391662933 370.94756412074639 0 0 0 0 -90.980688315656153 199.70261631713947 0 199.70261631713947 70.353326975292475 0 0 0 0 -62.516102021454572 164.43764698046289 0 164.43764698046289 110.48314925168961 0 0 0 0 38.471603447353118 349.63451525406344 0 349.63451525406344 103.60618407143193 0 0 0 0 85.004248644228937 200.59290110487382 0 200.59290110487382 -178.0966150208842 0 0 0 0 -0.056680515573418688 62.48189367667031 0 62.48189367667031 -83.7533090147287 0 0 0 0 -43.928783637398737 133.83447004612754 0 133.83447004612754 723.14235078867023 0 0 0 0 -9.5440423242605164 19.499735796529205 0 19.499735796529205 -16.015689958525854 0 0 0 0 79.990428877714294 34.397993179464265 0 34.397993179464265 108.51382374951208 0 0 0 0 144.26160292618442 381.59290898664403 0 381.59290898664403 98.115029502703692 0 0 0 0 -215.5334715940553 177.7909638011879 0 177.7909638011879 75.530303312538308 0 0 0 0 94.747498181910487 213.03516186561683 0 213.03516186561683 -306.57346469678305 0 0 0 0 -43.777717260025383 119.92313953917437 0 119.92313953917437 -116.8335117695533 0 0 0 0 -105.98767858928477 183.9080208366322 0 183.9080208366322 15.520043931275723 0 0 0 0 -113.27890931587172 167.06034390753484 0 167.06034390753484 110.42718369859358 0 0 0 0 -53.065239642685356 206.09211224362934 0 206.09211224362934 -61.588152170115791 0 0 0 0 -60.284378272361209 196.99066716550806 0 196.99066716550806 -62.623407189152204 0 0 0 0 53.01986905472485 78.480361875289304 0 78.480361875289304 -2.1820874617081074 0 0 0 0 -45.796325589110623 53.060620609430913 0 53.060620609430913 -34.729449529742993 0 0 0 0 -53.444339706490496 543.26406767827598 0 543.26406767827598 276.16280666169041 0 0 0 0 -69.810880235949298 101.91282674218382 0 101.91282674218382 -434.37893116907799 0 0 0 0 -411.69122927603894 633.99110033540273 0 633.99110033540273 -192.00445610325914 0 0 0 0 100.68256089107308 200.17577683140189 0 200.17577683140189 143.13273023319198 0 0 0 0 -46.659938289497404 203.65429466685782 0 203.65429466685782 -65.282399381776486 0 0 0 0 157.65243467602886 618.35143284729588 0 618.35143284729588 -282.64477443900978 0 0 0 0 -14.755550097478618 71.973005032974299 0 71.973005032974299 -44.935011514463021 0 0 0 0 206.0343326196089 366.73608925347799 0 366.73608925347799 -524.9810533654927 0 0 0 0 -171.56657036522665 585.58302157124535 0 585.58302157124535 -635.40127788786049 0 0 0 0 121.5076883294866 72.572313646534397 0 72.572313646534397 4.5338902004591191 0 0 0 0 148.85139824500948 412.48409228918899 0 412.48409228918899 -218.21661569455591 0 0 0 0 211.26511559037317 -4.0172354479800561 0 -4.0172354479800561 -309.73402519289084 0 0 0 0 137.43669714209713 78.051711986100045 0 78.051711986100045 9.4503516754859902 0 0 0 0 178.28411019676241 289.15446853923731 0 289.15446853923731 -633.99562356377282 0 0 0 0 29.360076204143724 2.7080109576973967 0 2.7080109576973967 -6.8300556961213488 0 0 0 0 -629.28191562505162 651.28540737558342 0 651.28540737558342 -459.36970865141484 0 0 0 0 -152.77672239637059 462.42132337891962 0 462.42132337891962 -364.29857305730911 0 0 0 0 -303.80460729546235 276.46244791823483 0 276.46244791823483 147.7307101315273 0 0 0 0 64.818497442562915 71.292931049592283 0 71.292931049592283 -20.868984206559801 0 0 0 0 -168.89642589684399 551.69764483789913 0 551.69764483789913 264.00655446077144 0 0 0 0 -185.02720285926989 30.256528043282742 0 30.256528043282742 302.46637223986158 0 0 0 0 1.8712042979684398 2.1682447826174069 0 2.1682447826174069 4.4884982628671466 0 0 0 0 -174.25363047949213 260.79524788677008 0 260.79524788677008 -149.50542926858134 0 0 0 0 -47.108856606115296 342.01812571197297 0 342.01812571197297 -434.63118819743613 0 0 0 0 -191.77916081031435 286.18448147285017 0 286.18448147285017 -273.21607297936134 0 0 0 0 -1.8890695482405135 466.75612050952986 0 466.75612050952986 -770.11660954561012 0 0 0 0 -19.222407230576209 90.987169632186124 0 90.987169632186124 -37.00766660289446 0 0 0 0 -25.412077525252244 77.133480920841976 0 77.133480920841976 -6.1868436959412065 0 0 0 0 -253.97555805693992 365.50866234477098 0 365.50866234477098 -370.95542759332602 0 0 0 0 -228.04819275078626 424.97290185226666 0 424.97290185226666 -357.25172975729947 0 0 0 0 2.2105205033629431 45.032057937819189 0 45.032057937819189 32.989606288117287 0 0 0 0 -0.77402308052515423 48.339296988571689 0 48.339296988571689 17.334070175429567 0 0 0 0 -205.20783257613948 334.445683261878 0 334.445683261878 -567.74916446422139 0 0 0 0 -214.51951160011231 484.72175145350411 0 484.72175145350411 -523.52612213440625 0 0 0 0 -45.829752785239606 70.99555422112968 0 70.99555422112968 -23.701932309119599 0 0 0 0 -112.65046222257666 52.925921577023068 0 52.925921577023068 45.028045965945608 0 0 0 0 -55.728610200965704 81.799805827020464 0 81.799805827020464 9.7130512928415556 0 0 0 0 -57.318894612515578 71.214420130989311 0 71.214420130989311 38.907490306042746 0 0 0 0 -58.544550145685207 88.395506182325335 0 88.395506182325335 14.207445284999267 0 0 0 0 -144.47022981895134 72.255991273555992 0 72.255991273555992 -20.834759941042648 0 0 0 0 -57.668590410585793 61.491428492701033 0 61.491428492701033 -37.660361190277527 0 0 0 0 -54.977182228813035 96.913588293138673 0 96.913588293138673 -14.080909797885397 0 0 0 0 -123.97268284813617 118.29889761504091 0 118.29889761504091 -20.240872124211819 0 0 0 0 -201.70884717021181 192.38011566489695 0 192.38011566489695 -78.6553729623447 0 0 0 0 -145.82691482219906 8.0175036547067435 0 8.0175036547067435 35.572677830453131 0 0 0 0 -105.00601547886617 90.900392976531293 0 90.900392976531293 1.7387428326837835 0 0 0 0 -76.192571797318891 88.280320749062355 0 88.280320749062355 -35.491613015753401 0 0 0 0 -248.52488715780783 154.42749457373793 0 154.42749457373793 -79.094712593752774 0 0 0 0 -163.13170049340698 143.25816571182554 0 143.25816571182554 3.1483419195335927 0 0 0 0 58.508932326598611 129.5325644814159 0 129.5325644814159 -5.6475650505502486 0 0 0 0 -49.343260261833166 58.275137922269181 0 58.275137922269181 -20.720782261267885 0 0 0 0 7.6064927047191304 83.252454249775838 0 83.252454249775838 -6.7177982529901783 0 0 0 0 -10.344444391277266 85.610079033449964 0 85.610079033449964 -10.337942153581707 0 0 0 0 -81.40905249662319 111.51216127255793 0 111.51216127255793 2.369463362141687 0 0 0 0 -357.24447324526238 178.95086373177173 0 178.95086373177173 -53.582828498019808 0 0 0 0 -188.95900578926921 174.12810152334532 0 174.12810152334532 -80.449272541216487 0 0 0 0 -39.793318167589121 30.469914669011448 0 30.469914669011448 8.8427448619065459 0 0 0 0 -304.65195882963098 169.17562782638561 0 169.17562782638561 -98.504124140079512 0 0 0 0 11.310735848333934 390.2019783001615 0 390.2019783001615 -290.65810454929306 0 0 0 0 -143.24385705806708 203.26818011969044 0 203.26818011969044 -249.46835862603939 0 0 0 0 -56.94557229075599 308.52108800545739 0 308.52108800545739 -130.17582226827653 0 0 0 0 -180.48065625740401 254.44127002706227 0 254.44127002706227 -73.92304364622396 0 0 0 0 -80.358494687356142 220.28764578935807 0 220.28764578935807 -140.42079983568328 0 0 0 0 -161.04673519908101 259.3652439818361 0 259.3652439818361 -172.40037568778911 0 0 0 0 -317.93245710142219 333.29599803587553 0 333.29599803587553 -172.95491561274321 0 0 0 0 -232.04529629523313 341.72543598366974 0 341.72543598366974 81.152502058401296 0 0 0 0 -51.41302376670923 59.694270339210931 0 59.694270339210931 -27.639601174581465 0 0 0 0 -338.20596395834582 274.60315973412253 0 274.60315973412253 70.40295060488279 0 0 0 0 -50.690964829340373 236.38537411391371 0 236.38537411391371 -79.170461416885473 0 0 0 0 -73.269169071555027 46.82310549064767 0 46.82310549064767 -29.806624942228837 0 0 0 0 -14.96544720168913 270.56675344853238 0 270.56675344853238 121.14652999878308 0 0 0 0 28.937547687148253 202.48522089118615 0 202.48522089118615 -11.639646431765868 0 0 0 0 136.81196081495 196.87783817635682 0 196.87783817635682 -23.261636798092695 0 0 0 0 -47.005235297540821 408.75505245398563 0 408.75505245398563 -168.24570125921673 0 0 0 0 -317.43240852708186 239.9493427584739 0 239.9493427584739 -108.73633845600489 0 0 0 0 -565.58944607962621 545.00806354698398 0 545.00806354698398 204.08064872689283 0 0 0 0 40.326898753714431 167.73431616025343 0 167.73431616025343 -26.488619875406542 0 0 0 0 -448.71384763714013 421.75917195957118 0 421.75917195957118 -190.63334572599342 0 0 0 0 -230.25519943243125 438.41126167197945 0 438.41126167197945 -415.28894054920238 0 0 0 0 -467.55415486074344 271.04905393119407 0 271.04905393119407 398.08711906839744 0 0 0 0 183.8547322965278 137.11687462313421 0 137.11687462313421 -38.729668267769739 0 0 0 0 -47.024640335817821 -16.822068254710757 0 -16.822068254710757 143.65090949672594 0 0 0 0 -85.226547166355886 58.72731868039773 0 58.72731868039773 -12.994970845327771 0 0 0 0 -19.984034674551282 6.1349467824314274 0 6.1349467824314274 8.5552531250533832 0 0 0 0 -15.634448051750098 12.765978031791647 0 12.765978031791647 1.3969059743070176 0 0 0 0 52.855353884004771 147.7645396187967 0 147.7645396187967 -29.944479655704839 0 0 0 0 -311.01138985471698 179.00549425101781 0 179.00549425101781 -59.59333866601628 0 0 0 0 -260.72977065828854 250.52418218016464 0 250.52418218016464 40.841247793287039 0 0 0 0 -769.88257859540317 169.03449440662916 0 169.03449440662916 17.625300934851111 0 0 0 0 -529.99535219953395 -29.508023431146285 0 -29.508023431146285 132.15897241700441 0 0 0 0 -150.02052496092801 308.35368288507379 0 308.35368288507379 -97.340242439007852 0 0 0 0 -162.98077604914579 284.69619593659809 0 284.69619593659809 169.61887267121347 0 0 0 0 -30.612824594587437 244.43604572934055 0 244.43604572934055 -124.45184153612718 0 0 0 0 -32.478044835748733 -113.35589402180267 0 -113.35589402180267 396.66971266368546 0 0 0 0 -536.32716691310634 288.14735764200668 0 288.14735764200668 480.64667775025009 0 0 0 0 -175.35558987586774 164.47034376482043 0 164.47034376482043 146.66684904104113 0 0 0 0 -75.116637027073011 126.15358981445024 0 126.15358981445024 110.31536676662654 0 0 0 0 37.633076736897259 73.882711657218763 0 73.882711657218763 80.650675459790079 0 0 0 0 -36.391671964041961 124.1735886576962 0 124.1735886576962 21.415034224649844 0 0 0 0 -162.25805173011986 247.78601326541229 0 247.78601326541229 53.955036139421281 0 0 0 0 -39.789076736835341 170.96937872686613 0 170.96937872686613 22.281430987336535 0 0 0 0 28.636867617246025 185.77710069672685 0 185.77710069672685 115.57765545880466 0 0 0 0 -53.618003249393368 66.264768975534494 0 66.264768975534494 -7.7945181812088862 0 0 0 0 -54.849136985338191 143.00188515195131 0 143.00188515195131 -11.658118543378805 0 0 0 0 -70.5112697164368 170.06426641838698 0 170.06426641838698 6.330639985124435 0 0 0 0 -99.429371466476368 222.52514915321808 0 222.52514915321808 -60.246121354433853 0 0 0 0 -65.786202229375704 168.9298245425307 0 168.9298245425307 -4.3627236611355329 0 0 0 0 -188.36084784106606 264.16483185159086 0 264.16483185159086 -15.816581430835186 0 0 0 0 -108.07368107781258 329.39391169844021 0 329.39391169844021 -110.92112069154246 0 0 0 0 -20.832157812517153 487.43771436690645 0 487.43771436690645 -37.540738121777395 0 0 0 0 -90.919536180625073 176.99426152512842 0 176.99426152512842 53.459045518935454 0 0 0 0 -74.335788236925652 41.041257973455828 0 41.041257973455828 13.300757099985631 0 0 0 0 -88.682096556845863 178.63760676944548 0 178.63760676944548 52.689062964229379 0 0 0 0 -31.345320420836288 112.75619335912643 0 112.75619335912643 49.273519375345131 0 0 0 0 32.867982944388196 60.830409869277531 0 60.830409869277531 71.510995282128263 0 0 0 0 -39.646006673501233 169.41953087848015 0 169.41953087848015 -688.92001061519841 0 0 0 0 371.38896731231716 -1857.9204450100597 0 -1857.9204450100597 4751.95450474682 0 0 0 0 135.57134560568375 1769.7521531869897 0 1769.7521531869897 2145.7396945128276 0 0 0 0 -8.4674507683933911 12.692907951192197 0 12.692907951192197 9.7725605999258391 0 0 0 0 -1326.1896511472587 3410.9163628188035 0 3410.9163628188035 1372.3321321409112 0 0 0 0 -3290.674205559113 11.139173588025187 0 11.139173588025187 4898.7814144599033 0 0 0 0 -1118.0837324841559 -113.9278200846893 0 -113.9278200846893 -81.646710090617489 0 0 0 0 -1731.5581085207255 613.12662281040309 0 613.12662281040309 -800.18889858923649 0 0 0 0 -857.41171644958376 -195.7104080083991 0 -195.7104080083991 -844.11198398031411 0 0 0 0 -1757.4279938998211 321.8250932541323 0 321.8250932541323 -376.34218981274171 0 0 0 0 2118.8051343014777 1709.3243999790766 0 1709.3243999790766 -480.26291946983474 0 0 0 0 -622.40289074176508 973.91387036266542 0 973.91387036266542 -157.95912575578404 0 0 0 0 -216.26718068029004 794.16204836837915 0 794.16204836837915 -284.75200523489912 0 0 0 0 -4.284380427089701 4.7870865656934178 0 4.7870865656934178 -3.6171654013757788 0 0 0 0 529.28502172774461 890.85447725657104 0 890.85447725657104 -2237.6870606119628 0 0 0 0 508.01267089224712 478.78766689356053 0 478.78766689356053 -1274.805250690184 0 0 0 0 -1263.4586196160963 1143.1119188222492 0 1143.1119188222492 -1994.4927438220229 0 0 0 0 -1266.6191364937622 473.16436448381683 0 473.16436448381683 -1936.5841239843285 0 0 0 0 27.159377695497824 214.55595704883945 0 214.55595704883945 -2078.6667979632548 0 0 0 0 -262.51970991593589 444.25219047598148 0 444.25219047598148 98.921594857241871 0 0 0 0 -58.706611238936148 -13.044853448396225 0 -13.044853448396225 -195.09659082983489 0 0 0 0 -406.29697797352856 201.12920165783908 0 201.12920165783908 57.179148463548017 0 0 0 0 -86.614418200733084 45.837275671084882 0 45.837275671084882 -15.170276893632746 0 0 0 0 90.997177744669898 -622.41451273605708 0 -622.41451273605708 -1261.3261657546336 0 0 0 0 996.42164322495137 188.47448844099858 0 188.47448844099858 -794.16572146241742 0 0 0 0 -309.55280675228482 141.34928942796842 0 141.34928942796842 -252.02212040113227 0 0 0 0 -51.291138327405065 62.929005146609661 0 62.929005146609661 -20.438875029036637 0 0 0 0 883.35219958126254 910.97541343648481 0 910.97541343648481 -449.32187037912809 0 0 0 0 322.73284235149185 559.28930904835215 0 559.28930904835215 -370.13900706847926 0 0 0 0 124.90580728751789 78.071828043303157 0 78.071828043303157 3.0961259537447248 0 0 0 0 -35.887411821390742 217.44085217960128 0 217.44085217960128 -86.973571241218451 0 0 0 0 128.83280094907241 156.91478089861357 0 156.91478089861357 -11.186740012468363 0 0 0 0 67.366791018415825 -355.02145353750484 0 -355.02145353750484 -990.69016099418513 0 0 0 0 22.953311574804019 36.182765331842404 0 36.182765331842404 -8.2033561816943461 0 0 0 0 -11.502006122687817 97.164223144332084 0 97.164223144332084 -85.023809987628283 0 0 0 0 107.36249001581429 81.927188460208626 0 81.927188460208626 32.879782844310995 0 0 0 0 91.459079610947128 45.860552242904561 0 45.860552242904561 -74.309452665051822 0 0 0 0 -155.59321817234741 165.7068785298265 0 165.7068785298265 -77.065075225202463 0 0 0 0 23.904137554755913 79.148348359966079 0 79.148348359966079 -69.429139752712814 0 0 0 0 108.32353049597816 281.48754643441288 0 281.48754643441288 -42.377376725934027 0 0 0 0 -1.4834954286881619 70.470633332193003 0 70.470633332193003 -69.2652674773244 0 0 0 0 -2205.6129645011097 1461.3758880174119 0 1461.3758880174119 -990.13465823726438 0 0 0 0 727.51608154602036 -164.9850125246744 0 -164.9850125246744 -361.33483060499202 0 0 0 0 1.2301432001315646 2.8968103265188887 0 2.8968103265188887 -10.808654421290811 0 0 0 0 58.776410668884637 -19.776982235453488 0 -19.776982235453488 197.82643387241478 0 0 0 0 7.1760958771337755 28.99365283946463 0 28.99365283946463 64.430766786706954 0 0 0 0 47.8763242107525 41.473042444460589 0 41.473042444460589 68.255815886663186 0 0 0 0 85.378633721571532 49.068700544359672 0 49.068700544359672 -10.826231143804762 0 0 0 0 160.12473853466508 244.07202440594926 0 244.07202440594926 -55.913421584284322 0 0 0 0 72.609947995882976 53.744095638683348 0 53.744095638683348 -82.466673029260377 0 0 0 0 75.212133645452354 54.067445285848407 0 54.067445285848407 39.773236432373736 0 0 0 0 8.1334387498063734 157.64549534294383 0 157.64549534294383 117.10710538798594 0 0 0 0 59.648582431138493 210.18283260356475 0 210.18283260356475 -65.173900343954301 0 0 0 0 10.490797793023361 6.406167364911866 0 6.406167364911866 -28.764669893584951 0 0 0 0 -1552.5413970761656 704.26260167946839 0 704.26260167946839 -444.50796173834897 0 0 0 0 -1642.9958642003367 754.41830861471817 0 754.41830861471817 -348.91782930171757 0 0 0 0 -2015.3145904326011 893.38464041986117 0 893.38464041986117 -521.41593479687253 0 0 0 0 -1177.489968187685 794.36365957122962 0 794.36365957122962 -1078.2413333767963 0 0 0 0 -1073.6857446743816 407.06557036505546 0 407.06557036505546 -591.1762031761873 0 0 0 0 -1233.965123679016 567.01680159879015 0 567.01680159879015 -694.76112890863078 0 0 0 0 -1626.1164615849739 690.26847529857832 0 690.26847529857832 -338.35769070740753 0 0 0 0 -1531.3563576234064 615.56596116584615 0 615.56596116584615 -317.04044213713314 0 0 0 0 -1117.6710150137951 303.29046742780884 0 303.29046742780884 -343.64843179393984 0 0 0 0 -1390.3768939815636 496.55513089852502 0 496.55513089852502 -302.97081312192859 0 0 0 0 -917.09016993091063 128.76932637584514 0 128.76932637584514 -203.29107595135429 0 0 0 0 -1113.9964873270328 310.91632522842974 0 310.91632522842974 -161.88711288060222 0 0 0 0 -1111.7242763566683 316.60731435978869 0 316.60731435978869 -327.2308990750571 0 0 0 0 -1009.0006192856381 265.98341598057141 0 265.98341598057141 -544.43835055339696 0 0 0 0 -919.36032515362604 127.97282797823391 0 127.97282797823391 -332.18314226620237 0 0 0 0 -1158.7676393300717 314.72068288494756 0 314.72068288494756 -335.85524400993017 0 0 0 0 -922.64330487637403 293.84743821475013 0 293.84743821475013 -878.54533694926067 0 0 0 0 -916.63524132961436 94.471298930375156 0 94.471298930375156 -460.09240936722199 0 0 0 0 -923.74231530891848 14.038307801986775 0 14.038307801986775 -544.57967250725051 0 0 0 0 -1170.4529995005068 -102.61260179664714 0 -102.61260179664714 -331.94157739466937 0 0 0 0 -846.57862254281645 -173.45832930682263 0 -173.45832930682263 -417.12328885677198 0 0 0 0 -717.51279187657929 -277.19207764330076 0 -277.19207764330076 -429.23105961393958 0 0 0 0 -460.57674614643474 646.85997903401585 0 646.85997903401585 -1184.9800837721523 0 0 0 0 -687.09794357177452 -25.256928906212124 0 -25.256928906212124 -855.82151860064914 0 0 0 0 -1381.2034330124006 722.897896097802 0 722.897896097802 -957.16854073447212 0 0 0 0 -1452.8901109548533 1016.6103050689435 0 1016.6103050689435 -1539.630026605173 0 0 0 0 -1375.121998514287 667.11719837238365 0 667.11719837238365 -896.55199763818382 0 0 0 0 -1518.6632786473783 656.10348400990551 0 656.10348400990551 -795.11869522445113 0 0 0 0 -634.49143850740802 51.865529306565804 0 51.865529306565804 -773.39533497647608 0 0 0 0 179.82213862410572 579.65015702094115 0 579.65015702094115 -435.34311433572259 0 0 0 0 126.97203111003182 479.52384598108347 0 479.52384598108347 -275.91850349115521 0 0 0 0 329.31771331444907 590.29573782553871 0 590.29573782553871 -435.60277595564577 0 0 0 0 150.00169181226011 480.66952754054864 0 480.66952754054864 -365.41661554046186 0 0 0 0 -167.27484972764069 297.85131615030332 0 297.85131615030332 -201.98523143188322 0 0 0 0 -213.2124792965551 456.10705629136783 0 456.10705629136783 -335.81804857759926 0 0 0 0 -183.77971235458244 432.34732452940807 0 432.34732452940807 -350.64729324997711 0 0 0 0 -466.6276527793234 319.17774862516126 0 319.17774862516126 -283.01870584470271 0 0 0 0 -423.03404109171242 223.62737638802719 0 223.62737638802719 -330.38570771758532 0 0 0 0 -454.01662286443752 141.87209831328437 0 141.87209831328437 -240.29456568266869 0 0 0 0 -145.50382592484675 272.260426217028 0 272.260426217028 -325.61571493698648 0 0 0 0 -694.70120775921896 246.72825712619942 0 246.72825712619942 -325.53314224877613 0 0 0 0 -657.25825889523549 158.44193963600446 0 158.44193963600446 -173.23857258141106 0 0 0 0 -905.00759750944417 174.02634742592045 0 174.02634742592045 -271.12861463327135 0 0 0 0 -709.24062822325504 137.69385725810935 0 137.69385725810935 -382.32970092828327 0 0 0 0 -953.29449487944566 80.725938376964677 0 80.725938376964677 -305.60653429237209 0 0 0 0 -814.11784345682099 113.2659871891974 0 113.2659871891974 -340.21646896465427 0 0 0 0 -1199.5411289787589 71.773476296741137 0 71.773476296741137 -320.02522124123243 0 0 0 0 -923.77466220737551 300.00700182155651 0 300.00700182155651 -280.63161134858819 0 0 0 0 -553.24102744583797 385.07838892507516 0 385.07838892507516 -368.49594108276688 0 0 0 0 -480.88650058703934 310.3870598470985 0 310.3870598470985 -330.24285070612677 0 0 0 0 -715.41189717293537 285.2168611151094 0 285.2168611151094 -261.18064545605375 0 0 0 0 -523.93001624667886 374.35227288116812 0 374.35227288116812 -311.01790546228585 0 0 0 0 -223.27605682066496 526.25989161898815 0 526.25989161898815 -350.07277450148104 0 0 0 0 -354.82546149454356 678.90909591367654 0 678.90909591367654 -259.25048597795467 0 0 0 0 -600.34052832346788 424.73634891974325 0 424.73634891974325 -312.75116274878383 0 0 0 0 44.492076835646003 824.01493932484118 0 824.01493932484118 -105.1140071802356 0 0 0 0 -58.668561151309405 587.81031581022216 0 587.81031581022216 -396.67963476013392 0 0 0 0 63.381956894358154 578.96018092792656 0 578.96018092792656 -265.82838947940763 0 0 0 0 149.62065433672979 618.21208748654772 0 618.21208748654772 -408.08651382848257 0 0 0 0 -252.19588951803053 583.73277060973896 0 583.73277060973896 -342.64966173757421 0 0 0 0 -124.00337723370467 336.08280156568253 0 336.08280156568253 -286.36784015241028 0 0 0 0 101.00112489879393 87.448105506960928 0 87.448105506960928 -481.59941125523255 0 0 0 0 -28.513168699180824 315.07279874326196 0 315.07279874326196 -715.15023069381277 0 0 0 0 -344.14160256549803 207.18972765331091 0 207.18972765331091 -545.24224919400876 0 0 0 0 -136.16319406315961 403.99765418025345 0 403.99765418025345 -629.98663945574663 0 0 0 0 -272.35952193279809 403.31182913145676 0 403.31182913145676 -369.80266812573063 0 0 0 0 -239.55342940583068 564.82543376493777 0 564.82543376493777 -89.613553945970125 0 0 0 0 -573.74770184575095 357.67086041456878 0 357.67086041456878 -577.52756345726084 0 0 0 0 -580.73450276794028 556.74472390055416 0 556.74472390055416 -400.03004329162286 0 0 0 0 -630.64830909231671 294.19470228033111 0 294.19470228033111 -896.88659335675766 0 0 0 0 -632.42214463275741 388.30890967295636 0 388.30890967295636 -586.29401398349 0 0 0 0 -373.32972951939155 251.15728792329537 0 251.15728792329537 -529.50636974877489 0 0 0 0 -334.02716625247012 207.47466307922468 0 207.47466307922468 -852.51649348807405 0 0 0 0 -611.8688986277557 175.20720025940318 0 175.20720025940318 -731.3198265507308 0 0 0 0 -564.10948290373199 132.71103594196029 0 132.71103594196029 -1189.7494691756001 0 0 0 0 -862.12587245869508 276.47783392480051 0 276.47783392480051 -843.67965891093991 0 0 0 0 -1138.2167282028968 536.16163537330249 0 536.16163537330249 -1470.3819758361642 0 0 0 0 -854.58311553068779 283.82230595144574 0 283.82230595144574 -1262.2045611437534 0 0 0 0 -1567.8979812840116 612.94955491076144 0 612.94955491076144 -1086.2186520850628 0 0 0 0 -1375.7623337315454 367.44590526776847 0 367.44590526776847 -776.72210003883083 0 0 0 0 -973.2021457082592 358.53964125961829 0 358.53964125961829 -786.0200469401143 0 0 0 0 -1007.5864052749748 355.67052448820687 0 355.67052448820687 -312.92575151843721 0 0 0 0 -887.81790667288806 252.11979057774624 0 252.11979057774624 -485.37067548128834 0 0 0 0 -1021.0101275667403 427.51546711430638 0 427.51546711430638 -552.93430664795233 0 0 0 0 -1387.5720073502889 225.1367546847714 0 225.1367546847714 -456.54329379260889 0 0 0 0 -1190.2479796321859 104.71879047810853 0 104.71879047810853 -704.95558842223909 0 0 0 0 -1384.9768686017269 -17.421611435831437 0 -17.421611435831437 -451.27955621108777 0 0 0 0 -1378.1836248995824 -274.57085040785478 0 -274.57085040785478 -1041.7309106696302 0 0 0 0 -1898.6163116313837 100.51422831532182 0 100.51422831532182 -688.7100315711491 0 0 0 0 -641.45253676648463 441.96667025318311 0 441.96667025318311 780.64580727150314 0 0 0 0 104.39629020757093 1120.8590110174282 0 1120.8590110174282 -1170.6155143812503 0 0 0 0 -714.38225411197254 1036.5583837870945 0 1036.5583837870945 -515.33227269697818 0 0 0 0 -1730.2376887726787 1870.1659577583778 0 1870.1659577583778 -936.09533676282081 0 0 0 0 -555.18790641275154 1366.5615324390055 0 1366.5615324390055 -1151.083092034678 0 0 0 0 -1575.7984799230144 1708.4139479702681 0 1708.4139479702681 -722.95533494209667 0 0 0 0 -1844.9660751572155 1300.0797738190231 0 1300.0797738190231 -230.42649810293005 0 0 0 0 -12.537323281177578 3.0882359752590887 0 3.0882359752590887 -0.72025185217667342 0 0 0 0 -842.86229232788355 341.9140582840846 0 341.9140582840846 309.11246323992964 0 0 0 0 111.91585724783363 386.03623976652307 0 386.03623976652307 -450.18189164567957 0 0 0 0 -2118.4589586232032 1935.5018143581547 0 1935.5018143581547 -327.94942742694548 0 0 0 0 -753.94358196810936 -32.925599028605575 0 -32.925599028605575 -1614.026807769575 0 0 0 0 -59.099318022980995 59.288138013366058 0 59.288138013366058 -42.766224887763755 0 0 0 0 368.73545270507748 -464.31407709505584 0 -464.31407709505584 306.04535974837563 0 0 0 0 -822.00957160782127 -204.45176195345994 0 -204.45176195345994 -985.71440455642187 0 0 0 0 -387.33138361862802 10.470306834005896 0 10.470306834005896 -913.80463412645986 0 0 0 0 -763.16863073598506 52.754690639976616 0 52.754690639976616 -782.9864928256502 0 0 0 0 -396.64092240100581 59.466937881283229 0 59.466937881283229 -969.83574811656945 0 0 0 0 -186.68329733866995 -186.88665682904684 0 -186.88665682904684 59.956277634308208 0 0 0 0 141.41016645536001 -206.57004967831017 0 -206.57004967831017 -1.1240290692003327 0 0 0 0 422.33271633058575 19.335612865350413 0 19.335612865350413 -92.058651589992223 0 0 0 0 -183.3875692961301 323.90562987005978 0 323.90562987005978 -120.12786991067696 0 0 0 0 18.678430185842444 17.322256285100593 0 17.322256285100593 4.4393818396420102 0 0 0 0 -183.08762963856861 -254.54926996122595 0 -254.54926996122595 -942.95200651493724 0 0 0 0 173.05946286394465 202.95855759316692 0 202.95855759316692 40.886306855129078 0 0 0 0 -22.560201690497564 23.900554808471568 0 23.900554808471568 -8.144011382263443 0 0 0 0 -45.801180392899184 64.307259430560293 0 64.307259430560293 -37.703021154852436 0 0 0 0 -227.61898590529745 -373.85423164564054 0 -373.85423164564054 -662.75957221187127 0 0 0 0 -133.33227680658456 -113.50516759993116 0 -113.50516759993116 -452.98848426470067 0 0 0 0 -200.36356507752498 -86.426948528434878 0 -86.426948528434878 -626.96836634831561 0 0 0 0 -93.024766978556727 -164.30490364733396 0 -164.30490364733396 -814.1742227970899 0 0 0 0 -187.28555409589899 -117.54711592381864 0 -117.54711592381864 -820.35420031295507 0 0 0 0 -258.48146179496689 50.891215194274992 0 50.891215194274992 -552.96037755708676 0 0 0 0 -336.42050460297469 193.18731181213889 0 193.18731181213889 -805.20191503115348 0 0 0 0 -73.086162794948905 33.65227434339613 0 33.65227434339613 -731.46893712306701 0 0 0 0 851.5354168366016 1856.8908963195579 0 1856.8908963195579 781.57410133333178 0 0 0 0 701.76156114248442 391.93905502653797 0 391.93905502653797 884.43347509920568 0 0 0 0 -860.26231879889383 754.78588087445678 0 754.78588087445678 918.44536805571988 0 0 0 0 -88.9216860364686 533.95255962968076 0 533.95255962968076 157.62683335721522 0 0 0 0 -846.47181814264331 1378.9444233362083 0 1378.9444233362083 398.57770327955768 0 0 0 0 -3264.6258781418219 819.2916495892714 0 819.2916495892714 915.47854703558551 0 0 0 0 -2630.6926538587359 -997.74502430627035 0 -997.74502430627035 23.134739345007347 0 0 0 0 -17.247167553994529 22.927225583988431 0 22.927225583988431 9.9350954077326321 0 0 0 0 -1479.0235276874737 615.14888518008956 0 615.14888518008956 -103.3996979871963 0 0 0 0 -890.73773532551422 -35.295411893654091 0 -35.295411893654091 624.22774239676073 0 0 0 0 -1319.6368773720642 671.45750451362437 0 671.45750451362437 3093.0544458128425 0 0 0 0 -33.128984876321226 13.826620805994631 0 13.826620805994631 -3.4338713014560227 0 0 0 0 -308.03106037725956 -422.33663425759005 0 -422.33663425759005 3452.7516800729645 0 0 0 0 -192.63960063136619 685.75420644268706 0 685.75420644268706 -1018.1194594153812 0 0 0 0 -1529.3005664846132 1386.5451985571708 0 1386.5451985571708 1513.7331370956344 0 0 0 0 7.1690305557258398 -532.91220594419099 0 -532.91220594419099 -526.48874913965847 0 0 0 0 -939.64287263745791 -251.33063049116936 0 -251.33063049116936 -288.002734849224 0 0 0 0 -1101.2882368440114 55.478821735425299 0 55.478821735425299 -427.03897120391866 0 0 0 0 -949.15448586926868 -243.93845461125602 0 -243.93845461125602 153.12250818284883 0 0 0 0 -1075.5016038436079 29.894302302587676 0 29.894302302587676 -449.41362163871599 0 0 0 0 -1037.0723573569776 8.8525720743746206 0 8.8525720743746206 -917.89437070598797 0 0 0 0 -532.72194476875302 1626.5351220444063 0 1626.5351220444063 1318.9382564720836 0 0 0 0 -67.355024072481001 52.320718128890114 0 52.320718128890114 -31.446077757011551 0 0 0 0 195.22669176916315 1011.7401017442589 0 1011.7401017442589 541.45517509068304 0 0 0 0 -65.931165981600898 39.673503249212914 0 39.673503249212914 -18.22819136479297 0 0 0 0 -455.23162485308421 2242.9122120997854 0 2242.9122120997854 2604.2489896689476 0 0 0 0 -577.75065356466075 811.69944570506777 0 811.69944570506777 1836.9996738561895 0 0 0 0 -407.70458866426634 1559.6476919338347 0 1559.6476919338347 548.82865999134083 0 0 0 0 -153.5477817720639 743.55705931811735 0 743.55705931811735 -103.30714108361281 0 0 0 0 -447.01764345227821 1432.8522330561809 0 1432.8522330561809 336.34265736902307 0 0 0 0 -993.46740529056478 1051.801212929975 0 1051.801212929975 -213.04006156379182 0 0 0 0 -172.45688284739299 841.34080562597956 0 841.34080562597956 -276.56395265761239 0 0 0 0 -347.53514316316432 1378.458624191815 0 1378.458624191815 -344.89327725169278 0 0 0 0 -438.14130214725446 1259.8035210967573 0 1259.8035210967573 -582.87704120227136 0 0 0 0 -400.74222893737959 1130.7185894233744 0 1130.7185894233744 -1083.4219214780896 0 0 0 0 -346.5351913258346 975.38034348125802 0 975.38034348125802 -853.96493240231212 0 0 0 0 -362.99793209901327 1243.6168421166949 0 1243.6168421166949 -1042.5925306824938 0 0 0 0 -213.98103982909379 945.13157837362087 0 945.13157837362087 -882.1617959785508 0 0 0 0 -401.9397948432088 997.80368210677261 0 997.80368210677261 -1185.3566479802539 0 0 0 0 -905.83294473825663 941.24775481649704 0 941.24775481649704 -870.51729553351834 0 0 0 0 -934.42171523776051 1048.422260775922 0 1048.422260775922 -1077.5747399751417 0 0 0 0 -1333.4026899344608 824.80168248925474 0 824.80168248925474 -732.2370421543601 0 0 0 0 -1910.8033286623249 986.35025454087736 0 986.35025454087736 -765.21071515421499 0 0 0 0 -2164.6895132391473 1048.850202985107 0 1048.850202985107 -523.99117122971802 0 0 0 0 -2204.938365189053 929.15150519028975 0 929.15150519028975 -558.25481869653595 0 0 0 0 -860.9990445105941 703.22947344414206 0 703.22947344414206 -698.21196381528716 0 0 0 0 -2637.8617371507607 90.993224757712596 0 90.993224757712596 134.10824526139186 0 0 0 0 13.587894487234735 520.58599439001955 0 520.58599439001955 -270.73622163671098 0 0 0 0 1105.830508300045 -1213.3681842095502 0 -1213.3681842095502 26.326535631735169 0 0 0 0 -2.1940348111834851 0.50787853489300971 0 0.50787853489300971 11.134013952657938 0 0 0 0 -125.32914768245246 818.5047175543441 0 818.5047175543441 -281.19201919849729 0 0 0 0 -3462.4205355897902 1286.9569016964488 0 1286.9569016964488 -37.857104367685679 0 0 0 0 -968.60322506026569 1685.2515964606173 0 1685.2515964606173 -533.71277000039117 0 0 0 0 -3705.9034207202931 -2149.7966259014211 0 -2149.7966259014211 639.05644886144546 0 0 0 0 -18.886055501437269 19.230331222845066 0 19.230331222845066 23.805090518909822 0 0 0 0 -2569.51299395362 1118.3740249049588 0 1118.3740249049588 -519.724055629129 0 0 0 0 -2814.1086320828181 1414.8149276622607 0 1414.8149276622607 -767.1832211480214 0 0 0 0 -3043.7183172033638 356.5083154622298 0 356.5083154622298 -55.503585390863009 0 0 0 0 -2289.4109041596712 1291.6495042734196 0 1291.6495042734196 -1393.001796243916 0 0 0 0 -3230.8784361272556 1046.40264062387 0 1046.40264062387 -1213.3066429332539 0 0 0 0 -2076.5443453730986 1322.5246348228538 0 1322.5246348228538 -1374.9142236937769 0 0 0 0 -3111.4240578515273 2315.4753628617327 0 2315.4753628617327 -1670.6747137880884 0 0 0 0 -3535.6372123986512 2586.062776523424 0 2586.062776523424 -1838.7386251564603 0 0 0 0 -4.5890801194537687 10.088184947625749 0 10.088184947625749 -8.7188900984315509 0 0 0 0 -3528.74058605959 1691.1653699207382 0 1691.1653699207382 -1006.7552355880762 0 0 0 0 -4167.7286457698356 2024.9836519011442 0 2024.9836519011442 -1181.0958714646986 0 0 0 0 -2902.7495474992625 2047.7514629420571 0 2047.7514629420571 -1333.9617461007438 0 0 0 0 -2913.8090998593616 1718.3912678159395 0 1718.3912678159395 -1132.7764515583549 0 0 0 0 -2770.5957638281689 1679.5110707857093 0 1679.5110707857093 -1140.9256707396416 0 0 0 0 -1777.3070135481757 1328.7890767952922 0 1328.7890767952922 -1346.144144849226 0 0 0 0 -2605.1364978014535 1214.1629767473132 0 1214.1629767473132 -1205.9702514228411 0 0 0 0 -2248.9965388774381 1344.9448095504945 0 1344.9448095504945 -1207.2753804515232 0 0 0 0 -1561.6752645117522 1204.3463794901327 0 1204.3463794901327 -1341.3690606336459 0 0 0 0 -2233.5456203255744 1524.6751342568168 0 1524.6751342568168 -1313.2733873287798 0 0 0 0 -2267.7248811929662 1682.2828126477689 0 1682.2828126477689 -1402.7478606001823 0 0 0 0 -1167.944889513994 1165.4613174039841 0 1165.4613174039841 -1301.2431579315526 0 0 0 0 -1031.8825779314921 850.52524258568155 0 850.52524258568155 -1080.238128805111 0 0 0 0 -1142.3564346092026 866.93102375842864 0 866.93102375842864 -1189.5165883966001 0 0 0 0 -1394.4334120027052 1231.3675978942629 0 1231.3675978942629 -1354.6959614579682 0 0 0 0 -1709.1562239620471 1035.802888135413 0 1035.802888135413 -1204.8856847787392 0 0 0 0 -1272.4951450604585 966.44283222978265 0 966.44283222978265 -1186.8916936968744 0 0 0 0 -912.93186208904808 1120.2781406111899 0 1120.2781406111899 -1335.2263386666891 0 0 0 0 -1609.5242412210791 1332.8213491096103 0 1332.8213491096103 -1344.108080281967 0 0 0 0 -1951.234851851128 1090.5815398921477 0 1090.5815398921477 -1230.7669794687536 0 0 0 0 -2052.6832683231769 1291.3202314561931 0 1291.3202314561931 -1011.936112796393 0 0 0 0 -2272.8487140355337 1190.2088888636754 0 1190.2088888636754 -932.0591859369888 0 0 0 0 -1281.9723339619813 1194.045136913177 0 1194.045136913177 -1080.5498644474137 0 0 0 0 -1447.7378760552128 997.79562637059644 0 997.79562637059644 -1095.897174140453 0 0 0 0 -579.73293964396726 920.10581232266122 0 920.10581232266122 -1186.6485592107288 0 0 0 0 -353.76550524634513 917.21685881208396 0 917.21685881208396 -1227.6863078151764 0 0 0 0 -444.50656150221403 1027.4929867473256 0 1027.4929867473256 -1211.4152862589981 0 0 0 0 -923.01067122294626 1084.350011389768 0 1084.350011389768 -1090.8413884219335 0 0 0 0 -463.17731090118468 1011.0444719423322 0 1011.0444719423322 -1113.5286498239384 0 0 0 0 -648.48165534061991 875.00543722773727 0 875.00543722773727 -1094.8705871090933 0 0 0 0 -199.73013056122727 770.62032867936796 0 770.62032867936796 -1104.5750478117043 0 0 0 0 -495.80131456615891 813.61043235870238 0 813.61043235870238 -160.64201335485268 0 0 0 0 -336.98590182396583 1010.78467141082 0 1010.78467141082 -968.75916071145912 0 0 0 0 -348.5188872622457 627.71581963921199 0 627.71581963921199 -594.61648168531246 0 0 0 0 -176.41615504064976 710.27176232595957 0 710.27176232595957 -580.91383876730106 0 0 0 0 -55.485169543007942 62.556750410110453 0 62.556750410110453 74.232838091134909 0 0 0 0 -616.95491014041181 902.27611042340141 0 902.27611042340141 -1288.7212086121581 0 0 0 0 -834.93531090385659 1110.2039654845794 0 1110.2039654845794 -1233.3889980716922 0 0 0 0 -589.14386066374573 1007.3390784279873 0 1007.3390784279873 -939.09236232370313 0 0 0 0 -310.89992659253767 824.31303448729159 0 824.31303448729159 -1116.5998236581145 0 0 0 0 -586.19681327310536 855.9114310820878 0 855.9114310820878 -1205.7447515279782 0 0 0 0 -648.18556669594727 821.70659774620253 0 821.70659774620253 -735.78109967413184 0 0 0 0 -313.17717442170397 406.60748980389326 0 406.60748980389326 -825.13803941208607 0 0 0 0 -259.48215118958615 566.50864647192793 0 566.50864647192793 -483.63804148693453 0 0 0 0 -403.22284028927243 269.02109783127526 0 269.02109783127526 -756.17878959007794 0 0 0 0 -661.50128806967405 744.61800573136134 0 744.61800573136134 -769.15972857967427 0 0 0 0 33.766011540545151 146.96143980944908 0 146.96143980944908 -365.77781918469555 0 0 0 0 146.31581742174603 337.09955207371604 0 337.09955207371604 -59.025874456303427 0 0 0 0 939.14989340015745 -318.84614388139744 0 -318.84614388139744 -213.74084832857625 0 0 0 0 1.8118899033330322 2.0805007743425392 0 2.0805007743425392 1.6143594147160627 0 0 0 0 316.08600182368536 -281.740117257983 0 -281.740117257983 155.33823624030629 0 0 0 0 90.110951158530952 203.49754017202395 0 203.49754017202395 -265.72317938873312 0 0 0 0 578.99647884678416 83.429306917878421 0 83.429306917878421 -41.552443143416895 0 0 0 0 -362.07835498905115 409.12100965769423 0 409.12100965769423 -464.80086510375259 0 0 0 0 -86.782564657427429 47.87106747400685 0 47.87106747400685 -391.84271836845801 0 0 0 0 -121.97423815495495 75.959962554803496 0 75.959962554803496 -132.38910750998184 0 0 0 0 219.59502002333465 -193.61777071317192 0 -193.61777071317192 -139.92480931557293 0 0 0 0 -148.69593378715945 -49.454126249343972 0 -49.454126249343972 -428.83130451891338 0 0 0 0 -401.99190804747195 151.98383639074746 0 151.98383639074746 -643.74706636652991 0 0 0 0 -407.74108737603092 246.93342783554181 0 246.93342783554181 -382.77609256037977 0 0 0 0 -725.91607135524828 649.11827380764589 0 649.11827380764589 -828.11712576284845 0 0 0 0 -1240.7697127186839 777.7511486607109 0 777.7511486607109 -852.89041465976334 0 0 0 0 -535.53311968087291 608.4954776427021 0 608.4954776427021 -979.77213601442054 0 0 0 0 -1130.9484677698056 636.29129657533485 0 636.29129657533485 -567.08350112863855 0 0 0 0 -1403.1460728592447 1281.1360375047552 0 1281.1360375047552 -1649.5305288052186 0 0 0 0 -1139.0084486179421 464.5872614781274 0 464.5872614781274 -1045.7868879821326 0 0 0 0 -1076.4812731424609 1008.5456232034194 0 1008.5456232034194 -1623.2594215226418 0 0 0 0 -1863.0007442385831 1196.3673390738768 0 1196.3673390738768 -1228.0076577277796 0 0 0 0 -1780.2285819203062 1377.7977250207532 0 1377.7977250207532 -1964.6944345916272 0 0 0 0 -2547.682509542632 1932.5242422964075 0 1932.5242422964075 -1550.9219957171008 0 0 0 0 -2678.8429391965474 1723.8774910894572 0 1723.8774910894572 -1429.4934437556803 0 0 0 0 -2116.7693622222287 1575.7347160095451 0 1575.7347160095451 -1448.2037413972721 0 0 0 0 -1406.9869225444127 1229.1260788918007 0 1229.1260788918007 -1591.734930005332 0 0 0 0 -1537.6194060480302 1242.2372966459588 0 1242.2372966459588 -1285.7463593708817 0 0 0 0 -1339.730070096547 834.8381023914726 0 834.8381023914726 -1189.6372958126885 0 0 0 0 -709.90992924937018 592.12325941957533 0 592.12325941957533 -1081.0606624027441 0 0 0 0 -1045.4361021713339 990.68554830000357 0 990.68554830000357 -1032.0127647845657 0 0 0 0 -732.80673486906016 556.28763777230051 0 556.28763777230051 -1088.9210641508107 0 0 0 0 -1099.4018575484588 995.72693628264096 0 995.72693628264096 -1117.943523259979 0 0 0 0 31.223708912064467 92.34772639892617 0 92.34772639892617 -76.648960905542481 0 0 0 0 43.329804611585132 81.848014954173777 0 81.848014954173777 -76.345800873219559 0 0 0 0 47.978870259507858 29.859336184857057 0 29.859336184857057 -56.846605001133867 0 0 0 0 50.99643925581249 35.860995940900992 0 35.860995940900992 -6.0649463558954722 0 0 0 0 53.338864723347797 156.71956146320736 0 156.71956146320736 30.115064862564395 0 0 0 0 8.4544378371538187 1.941158490088128 0 1.941158490088128 -40.542189721181785 0 0 0 0 115.24232868695253 0.50049280151870335 0 0.50049280151870335 -43.378321528030938 0 0 0 0 67.618175282863831 -8.893988847547007 0 -8.893988847547007 -44.743077150946192 0 0 0 0 30.705296190117224 56.33622896599627 0 56.33622896599627 -24.774296225667058 0 0 0 0 32.234380002082617 96.661691714656627 0 96.661691714656627 -86.1893565401042 0 0 0 0 57.410312074662365 28.777028938715219 0 28.777028938715219 -3.1023627750524554 0 0 0 0 47.014632361608165 31.937561208345869 0 31.937561208345869 -19.132228983347886 0 0 0 0 53.74729456255227 41.608426031612908 0 41.608426031612908 -24.128110521559393 0 0 0 0 447.59458842398635 -12.549465991298348 0 -12.549465991298348 -183.61249018617673 0 0 0 0 42.196905318171048 50.855497197011573 0 50.855497197011573 26.935054447807488 0 0 0 0 -332.66065273625281 104.94846121079354 0 104.94846121079354 19.132758237436065 0 0 0 0 52.428511968168095 25.25339398153119 0 25.25339398153119 34.290458367890096 0 0 0 0 1.0947296597968261 2.89168489481591 0 2.89168489481591 -7.5145298701873742 0 0 0 0 -1135.0391501993799 1147.6508331063997 0 1147.6508331063997 -802.80485816474538 0 0 0 0 -648.46876836760657 835.00532600062888 0 835.00532600062888 -613.04349187327898 0 0 0 0 -0.65528938872053999 2.3818738755140956 0 2.3818738755140956 -0.21746932355776494 0 0 0 0 102.18806777087593 56.298004068601585 0 56.298004068601585 -9.3281256154150469 0 0 0 0 3.7914331694585393 7.0076996501250193 0 7.0076996501250193 -19.664986828897923 0 0 0 0 -178.39339863823261 444.41062082743156 0 444.41062082743156 -1040.9340021619937 0 0 0 0 8.1825232401748309 13.113908688880947 0 13.113908688880947 -28.025857293236299 0 0 0 0 39.856487925218971 34.735943529696669 0 34.735943529696669 -19.888501694100341 0 0 0 0 667.71810045649545 -13.969013804729911 0 -13.969013804729911 -333.63539157448395 0 0 0 0 -10.066968294225262 66.749911942959443 0 66.749911942959443 -29.766021856441512 0 0 0 0 -5.052456994358181 55.436502074899181 0 55.436502074899181 -52.196095649633207 0 0 0 0 4.6312290504751488 10.908979023068213 0 10.908979023068213 5.1763082602839461 0 0 0 0 43.328215003766672 16.331265935135889 0 16.331265935135889 -146.31517085900123 0 0 0 0 32.311664128789744 -15.583724416462246 0 -15.583724416462246 -10.211541776734521 0 0 0 0 -197.11962146870792 163.50148420856203 0 163.50148420856203 180.83673465790343 0 0 0 0 -91.732131815027969 56.091131923916691 0 56.091131923916691 97.049660034215776 0 0 0 0 9.1530380384938326 -29.382524792366894 0 -29.382524792366894 -86.809966430271743 0 0 0 0 -2.4071862100948422 7.1369305086247437 0 7.1369305086247437 -7.2945654017100878 0 0 0 0 -14.043534437509152 63.650956726163713 0 63.650956726163713 23.676210792742495 0 0 0 0 -91.457744372702734 38.471828945502352 0 38.471828945502352 41.651052869478008 0 0 0 0 63.705835602289881 171.02876995093538 0 171.02876995093538 -132.79824604511668 0 0 0 0 -29.491994745959474 46.886665600778997 0 46.886665600778997 -31.098545940360708 0 0 0 0 15.380638982779601 11.343009347853055 0 11.343009347853055 -16.514743089261458 0 0 0 0 -4.7193122477692668 74.66039013216141 0 74.66039013216141 -54.975256232552056 0 0 0 0 -17.212342279650329 121.28270610541949 0 121.28270610541949 -44.664987517113332 0 0 0 0 40.445615491815261 44.020327458107204 0 44.020327458107204 -23.682312453309351 0 0 0 0 46.858403040247907 35.279555579507971 0 35.279555579507971 -11.964378705247782 0 0 0 0 -15.69624342041061 82.877699111209949 0 82.877699111209949 -49.684097832941916 0 0 0 0 23.511841123196064 108.84293467689713 0 108.84293467689713 -32.844266897918715 0 0 0 0 11.365847799512267 109.26911988806023 0 109.26911988806023 36.901439971050422 0 0 0 0 -18.200863482870773 85.968094604904763 0 85.968094604904763 27.273724417740596 0 0 0 0 -21.373895280090181 26.227674583232158 0 26.227674583232158 -15.039899781510684 0 0 0 0 -25.429188383915374 21.607387866221352 0 21.607387866221352 8.4111773366881266 0 0 0 0 38.803138331633818 84.015610218360962 0 84.015610218360962 44.826545681120479 0 0 0 0 52.974998731704545 127.08118105142057 0 127.08118105142057 -2.2288977669013548 0 0 0 0 77.90610450488748 141.94634175486863 0 141.94634175486863 32.45845368366281 0 0 0 0 37.866085604793625 67.756484064586402 0 67.756484064586402 190.68551001702144 0 0 0 0 49.670761273999233 91.041386309880181 0 91.041386309880181 4.0385526331374422 0 0 0 0 53.920092812499206 100.46544445823747 0 100.46544445823747 -24.853474670104333 0 0 0 0 32.144055010963712 111.86655167657591 0 111.86655167657591 -28.56626033502107 0 0 0 0 20.326489725917781 97.441429119202439 0 97.441429119202439 -18.657624579209369 0 0 0 0 48.646372068615165 105.99789680528193 0 105.99789680528193 -67.990450096305722 0 0 0 0 39.483660819227225 109.55200127871649 0 109.55200127871649 -87.478692943608621 0 0 0 0 43.803388493914099 94.717389318178903 0 94.717389318178903 -50.830042093526572 0 0 0 0 -224.77595430664678 21.384662454765021 0 21.384662454765021 43.46684944894514 0 0 0 0 -40.558041155745741 -121.37325390134356 0 -121.37325390134356 -158.17148072790587 0 0 0 0 45.588658646662225 -121.79387999271057 0 -121.79387999271057 -175.45858224168478 0 0 0 0 1.8563359830747999 9.4904717765889757 0 9.4904717765889757 -1.1813843241770314 0 0 0 0 -279.39930981800717 311.41237027905299 0 311.41237027905299 -103.72984686620475 0 0 0 0 -122.21036176944472 169.18008351681783 0 169.18008351681783 102.9549006677189 0 0 0 0 -18.44536206444144 39.011370767111927 0 39.011370767111927 -24.079734430436332 0 0 0 0 6.3750765939748817 -17.13877818045512 0 -17.13877818045512 25.703101950814016 0 0 0 0 -113.7786936321354 220.08105972141493 0 220.08105972141493 553.12904550610256 0 0 0 0 2.8993806991340989 3.7600617246589394 0 3.7600617246589394 -14.161729449808888 0 0 0 0 -4.1705115200548875 39.273798352248988 0 39.273798352248988 -18.26391463327397 0 0 0 0 -5.3598391472914955 40.898990257330297 0 40.898990257330297 14.051346099149669 0 0 0 0 -76.851247535352741 -17.079961589508457 0 -17.079961589508457 -198.46695954211464 0 0 0 0 101.60693009399984 -16.288684058497893 0 -16.288684058497893 -153.32216922203042 0 0 0 0 -2.1734908307553269 -70.744735909713199 0 -70.744735909713199 -161.26887382403947 0 0 0 0 81.484671530792184 -14.394728569288418 0 -14.394728569288418 -212.20439498100313 0 0 0 0 -38.666344597102579 2.4293355402332963 0 2.4293355402332963 -212.79713506631379 0 0 0 0 62.401979467505953 -15.313147597466013 0 -15.313147597466013 -271.43978437196347 0 0 0 0 -7.3163759588933317 -60.653626043596887 0 -60.653626043596887 -97.73441239722888 0 0 0 0 33.627288250147103 5.8889091418823227 0 5.8889091418823227 -281.69135063247813 0 0 0 0 -51.58073251881433 106.65789666280762 0 106.65789666280762 -3.769460220268229 0 0 0 0 10.445436810664717 33.604455680205803 0 33.604455680205803 7.4974183223246271 0 0 0 0 208.76740768409945 134.48649312933412 0 134.48649312933412 -166.88345071154981 0 0 0 0 -14.859037140839149 26.747314266909683 0 26.747314266909683 9.1755693487374401 0 0 0 0 76.869299351974405 51.052746902274521 0 51.052746902274521 -106.97577428146906 0 0 0 0 -64.183615320816898 89.646324874229322 0 89.646324874229322 83.085692753076728 0 0 0 0 15.418785606310848 -75.627238922541437 0 -75.627238922541437 -369.61727672902634 0 0 0 0 56.792248401407051 96.55833248777526 0 96.55833248777526 -511.5620049732097 0 0 0 0 16.542017314516215 50.685456677960246 0 50.685456677960246 -290.48881092284864 0 0 0 0 -42.49310979601978 -10.580643063301977 0 -10.580643063301977 235.89690756672644 0 0 0 0 -7.4333611089386977 -33.168693902665837 0 -33.168693902665837 -76.090913087449735 0 0 0 0 57.435735854618542 -96.81399859864905 0 -96.81399859864905 -177.86251453126897 0 0 0 0 -36.509759338168806 -71.844856731084292 0 -71.844856731084292 22.400031557233888 0 0 0 0 115.22229639848956 -56.379184366393019 0 -56.379184366393019 22.650860691879643 0 0 0 0 824.2672051819045 -932.15769583134897 0 -932.15769583134897 630.18617986894242 0 0 0 0 -24.604317538154056 -5.0900310846938197 0 -5.0900310846938197 0.79367207607020873 0 0 0 0 -428.35657112718945 281.35383413479576 0 281.35383413479576 468.35757169386488 0 0 0 0 436.53494206544565 -1504.7743037561595 0 -1504.7743037561595 -177.29599216321731 0 0 0 0 -1715.4787735633436 -392.83212094221381 0 -392.83212094221381 743.4213430196105 0 0 0 0 -1270.8864436749263 827.00658031264174 0 827.00658031264174 847.03053849704156 0 0 0 0 194.00543449988982 361.16262640096829 0 361.16262640096829 907.44029308324389 0 0 0 0 -191.91804124695409 18.796712948063941 0 18.796712948063941 1404.9520866583298 0 0 0 0 23.29092555247189 22.369171042482776 0 22.369171042482776 13.036663396691438 0 0 0 0 -40.05570580891176 -5.6194921197617873 0 -5.6194921197617873 1.799169233708156 0 0 0 0 -21.468547503463924 -42.461382773853984 0 -42.461382773853984 124.55662224817934 0 0 0 0 -5.5681353139552812 -137.77147018966753 0 -137.77147018966753 154.70024447746255 0 0 0 0 69.118419660786458 -73.117025574887521 0 -73.117025574887521 -96.917009870879156 0 0 0 0 59.615312450818237 38.631451035160353 0 38.631451035160353 443.55179185009911 0 0 0 0 40.500500067724715 40.708264548986335 0 40.708264548986335 664.39113736170111 0 0 0 0 119.18345039572887 308.52917747423635 0 308.52917747423635 699.25194124491827 0 0 0 0 65.154409511538688 191.43605100957211 0 191.43605100957211 439.60576528948877 0 0 0 0 66.156173634815786 227.4456911656016 0 227.4456911656016 585.24443088697444 0 0 0 0 25.813161615988065 28.156723510728625 0 28.156723510728625 463.05788175507405 0 0 0 0 19.916139498243865 110.15067879674098 0 110.15067879674098 359.81749622948701 0 0 0 0 39.151872449714574 161.85342587209016 0 161.85342587209016 497.86242238276463 0 0 0 0 -19.700976683277986 88.451267588388873 0 88.451267588388873 310.22435846208828 0 0 0 0 -20.473594020877499 92.179708324561943 0 92.179708324561943 406.62528578998172 0 0 0 0 -10.146163108511246 57.761400216113543 0 57.761400216113543 326.18251838955621 0 0 0 0 25.808384598080011 30.389142157844617 0 30.389142157844617 341.05195157391427 0 0 0 0 -14.808634165317926 -25.263444615993649 0 -25.263444615993649 480.93662144579866 0 0 0 0 -22.540747815513896 -76.778257043602935 0 -76.778257043602935 377.18645508437476 0 0 0 0 -634.23214588513292 94.555893835778988 0 94.555893835778988 312.01717071449093 0 0 0 0 -39.968027799603718 -4.8895759859684063 0 -4.8895759859684063 1.2540413370660701 0 0 0 0 -80.42429030112713 21.877601180372068 0 21.877601180372068 8.3784074986106276 0 0 0 0 -151.64423214920225 155.13096170832432 0 155.13096170832432 -318.12081972090527 0 0 0 0 43.237538583387959 127.17303643570631 0 127.17303643570631 -840.50662141620887 0 0 0 0 -363.16291577624361 -194.39450072148975 0 -194.39450072148975 -532.1142656632835 0 0 0 0 -367.26197088960367 687.10245578479203 0 687.10245578479203 -987.3922932548594 0 0 0 0 -46.246029614245344 -291.38209641934736 0 -291.38209641934736 -372.90946039361711 0 0 0 0 -502.76856278302512 117.42127604616689 0 117.42127604616689 590.01110067703848 0 0 0 0 -131.41560670774561 -421.11375231949387 0 -421.11375231949387 181.49047064196202 0 0 0 0 -88.138986804071465 -315.31432042842789 0 -315.31432042842789 346.85189649954555 0 0 0 0 67.706043686113844 -290.31751110512414 0 -290.31751110512414 -195.97637828935694 0 0 0 0 144.39020581496879 -95.92644733591078 0 -95.92644733591078 274.1404004497017 0 0 0 0 37.42038902114291 -257.87937987665646 0 -257.87937987665646 216.16527024525567 0 0 0 0 -159.22840885401456 15.940697318088496 0 15.940697318088496 -312.20753505543689 0 0 0 0 -157.95258852251254 136.41025139095177 0 136.41025139095177 -353.07524217912578 0 0 0 0 -30.371318359259021 64.956488206560607 0 64.956488206560607 -391.71060928569568 0 0 0 0 31.501315220484685 -96.587111948232632 0 -96.587111948232632 -281.15282942610429 0 0 0 0 79.911463927724981 135.22236479974526 0 135.22236479974526 -760.92017122095422 0 0 0 0 -17.844528184843512 -98.62034099461016 0 -98.62034099461016 -478.21752271220612 0 0 0 0 -46.778249487567663 24.115587902570496 0 24.115587902570496 9.210273438733303 0 0 0 0 -27.78820470005121 45.43106874008663 0 45.43106874008663 -130.73104475816945 0 0 0 0 15.50758097957987 -180.57161333695694 0 -180.57161333695694 17.489691177972418 0 0 0 0 -17.822678105359842 25.662551384314156 0 25.662551384314156 138.23521373476251 0 0 0 0 21.741057443894533 -132.08897740176326 0 -132.08897740176326 -151.59874078942812 0 0 0 0 12.905207336283638 -159.54197651792492 0 -159.54197651792492 -1.7733391998335719 0 0 0 0 -59.748453217413044 -48.169200967931829 0 -48.169200967931829 68.387678532264545 0 0 0 0 1471.5493883657073 -1145.6596745600837 0 -1145.6596745600837 675.63388314877375 0 0 0 0 -63.758685649321706 -208.08634456993605 0 -208.08634456993605 353.21053069914706 0 0 0 0 137.47790689366593 -182.08404156372853 0 -182.08404156372853 94.536537061456329 0 0 0 0 -7.6305836472439381 1.7835520523894672 0 1.7835520523894672 2.3849735423930696 0 0 0 0 -38.878047439762668 -224.46633057171857 0 -224.46633057171857 533.8368328563738 0 0 0 0 58.475247482260329 35.24121628877765 0 35.24121628877765 282.00497419555904 0 0 0 0 181.41461626090285 268.48487606173148 0 268.48487606173148 581.84139218021301 0 0 0 0 251.00960048634079 -216.31714584830479 0 -216.31714584830479 162.92989899565873 0 0 0 0 -126.9896008612069 215.91092234728058 0 215.91092234728058 31.700366263248725 0 0 0 0 97.904805231039518 -120.9317644394614 0 -120.9317644394614 -226.50323665309406 0 0 0 0 -260.01778132101163 -15.21403833612203 0 -15.21403833612203 -271.96833700629941 0 0 0 0 -190.08493490267216 81.444304877757531 0 81.444304877757531 680.48202898721502 0 0 0 0 50.218729518643158 -32.212870238356118 0 -32.212870238356118 77.715549255786755 0 0 0 0 -329.91407339142279 354.02000073065574 0 354.02000073065574 363.81339470960302 0 0 0 0 -111.90382226570182 -14.463197218872665 0 -14.463197218872665 -5.3618624652008293 0 0 0 0 -387.44013107096453 132.45942757586636 0 132.45942757586636 -302.53817971708486 0 0 0 0 -21.959230258446699 28.947784805264266 0 28.947784805264266 52.929088805404547 0 0 0 0 -725.15945008861854 277.41670829570285 0 277.41670829570285 437.57070205634227 0 0 0 0 -609.59681443427871 484.53990595829237 0 484.53990595829237 -33.405673222798214 0 0 0 0 -236.7500413524877 381.58242537103843 0 381.58242537103843 -156.7285680318455 0 0 0 0 -358.14678986428225 178.93996442576099 0 178.93996442576099 -462.40855450746312 0 0 0 0 -30.713861988086951 14.810421926751985 0 14.810421926751985 16.728281789222535 0 0 0 0 -479.6823795401142 287.48766516404066 0 287.48766516404066 299.29585455438792 0 0 0 0 -111.36751263904156 23.203163273570638 0 23.203163273570638 20.881276570022308 0 0 0 0 -1105.2216211480882 2157.8072897938764 0 2157.8072897938764 -2103.7444138776846 0 0 0 0 -4215.2517019773404 448.17647746673902 0 448.17647746673902 -2765.5372506423737 0 0 0 0 -3618.4159273892074 3795.2777596259984 0 3795.2777596259984 -6240.9424464580807 0 0 0 0 -3629.3761041811103 4550.9494778059889 0 4550.9494778059889 -2237.1146531646373 0 0 0 0 -2192.6090547148051 1850.8076170175918 0 1850.8076170175918 -3831.0544135309465 0 0 0 0 -143.7191066938085 -707.44883517967082 0 -707.44883517967082 -2507.2240761149733 0 0 0 0 -2760.7409910446404 2123.423941118268 0 2123.423941118268 -570.94677186793706 0 0 0 0 4.5464012445081607 1085.3327661088697 0 1085.3327661088697 -3446.300489389243 0 0 0 0 -1336.6605265711551 770.40076565535855 0 770.40076565535855 -280.7746463407384 0 0 0 0 -29.13609601406575 21.931816375360015 0 21.931816375360015 -12.662360989097564 0 0 0 0 -345.00802835424838 2057.1205025555537 0 2057.1205025555537 -5745.5232700149791 0 0 0 0 -808.9146680504673 450.50742563810491 0 450.50742563810491 818.9500301285043 0 0 0 0 -2753.9711120905276 3220.8398120350903 0 3220.8398120350903 -3121.9392825293617 0 0 0 0 -887.15280288250506 1180.7293334540409 0 1180.7293334540409 -2374.5158644826606 0 0 0 0 -109.59260787291703 18.312622808780617 0 18.312622808780617 16.931734188471161 0 0 0 0 -2585.29288944786 1447.9987193606612 0 1447.9987193606612 -390.24328829134174 0 0 0 0 -220.10964934757067 2944.5356838412026 0 2944.5356838412026 -5695.6903772522091 0 0 0 0 -621.62956422567004 1737.6459185083258 0 1737.6459185083258 -3230.0625683583567 0 0 0 0 -742.80495809165586 -120.58324632884433 0 -120.58324632884433 954.02692894202482 0 0 0 0 -42.142003842169814 14.74544798554814 0 14.74544798554814 0.70201739189615608 0 0 0 0 -197.13319783372572 255.53340906217636 0 255.53340906217636 -136.72271203601849 0 0 0 0 3.1194304151520456 13.019845761946833 0 13.019845761946833 48.128518801193081 0 0 0 0 -665.1360818111516 314.77360271223552 0 314.77360271223552 -89.863165957060119 0 0 0 0 -2003.6147952839892 1042.9531011096115 0 1042.9531011096115 -78.081572644439575 0 0 0 0 -453.20135322525311 382.00093826251396 0 382.00093826251396 -46.610799835150829 0 0 0 0 -68.902615384409728 1054.9285297341485 0 1054.9285297341485 -2969.3116160348181 0 0 0 0 -1014.6435355407557 2278.239989720747 0 2278.239989720747 -1695.4796232871086 0 0 0 0 -271.08122980561166 1443.365289403846 0 1443.365289403846 -2302.9878944867596 0 0 0 0 -346.44657466666831 1338.0289678971312 0 1338.0289678971312 -1201.6356677351705 0 0 0 0 -337.25838865283004 1267.7105411754965 0 1267.7105411754965 -792.41319166886387 0 0 0 0 -110.67078528396087 1367.6241823501114 0 1367.6241823501114 -1564.9377275063525 0 0 0 0 115.12000944109968 1360.4848394183409 0 1360.4848394183409 -1573.2204962310134 0 0 0 0 -67.741046203962469 1247.2644134724833 0 1247.2644134724833 -998.49221660499461 0 0 0 0 -441.75827343609126 879.57011975612477 0 879.57011975612477 -1369.9421099009705 0 0 0 0 -2.537564526497988 42.283581425583748 0 42.283581425583748 -11.152186272979367 0 0 0 0 216.43819372418511 520.01010494440561 0 520.01010494440561 316.60137467174809 0 0 0 0 313.8885668114599 252.29075249934249 0 252.29075249934249 -214.90487283634866 0 0 0 0 216.99955320479421 619.74467776402889 0 619.74467776402889 -1463.0469455370039 0 0 0 0 -189.02552168176044 -20.287560479126114 0 -20.287560479126114 -524.80563419825194 0 0 0 0 189.03856961429847 170.18076561890484 0 170.18076561890484 -429.91538182347722 0 0 0 0 -10.734375055661076 -148.6084430442279 0 -148.6084430442279 81.756834878455265 0 0 0 0 193.674438331891 13.980468732384907 0 13.980468732384907 85.933840761485044 0 0 0 0 -2802.7242845605688 2429.785182855514 0 2429.785182855514 -2051.114663826258 0 0 0 0 -1345.4153516118677 -85.245134474149381 0 -85.245134474149381 -1645.6202044862148 0 0 0 0 -318.68131350271233 531.28137142160904 0 531.28137142160904 -1297.5576196187903 0 0 0 0 -52.940602189446508 308.34974845877878 0 308.34974845877878 61.284294926939765 0 0 0 0 -1166.1525932600853 611.41523491800763 0 611.41523491800763 129.79346559678379 0 0 0 0 -423.92454476047715 -281.0660752062613 0 -281.0660752062613 -468.31630667037825 0 0 0 0 -619.69234968494129 437.85431730422715 0 437.85431730422715 -610.02057003011578 0 0 0 0 676.41413578270294 497.28500225055905 0 497.28500225055905 64.175473738912842 0 0 0 0 -8.9012915486111908 13.969797655367657 0 13.969797655367657 13.287179387826257 0 0 0 0 438.72097712210234 787.66716184015968 0 787.66716184015968 -2000.991622337126 0 0 0 0 -80.684935404646254 56.388820278934446 0 56.388820278934446 -0.13545318577761378 0 0 0 0 -221.76420801195246 259.89128966238422 0 259.89128966238422 158.78147383958276 0 0 0 0 -377.83666545642336 291.91028783903312 0 291.91028783903312 543.68242634489434 0 0 0 0 32.383317570573325 68.084305816297672 0 68.084305816297672 -23.516050778134876 0 0 0 0 95.002675664851267 109.169112518357 0 109.169112518357 37.005958754656604 0 0 0 0 176.90073217451572 156.33995003642121 0 156.33995003642121 -32.063983968335378 0 0 0 0 -21.890586857465678 133.36962932626921 0 133.36962932626921 191.51693545132002 0 0 0 0 -51.704996535622257 8.4910096304077527 0 8.4910096304077527 32.847829171289163 0 0 0 0 -123.15398011670368 182.18593918762053 0 182.18593918762053 10.042375979604913 0 0 0 0 -39.244014193543393 68.337353416865867 0 68.337353416865867 69.646902730478189 0 0 0 0 -312.19396830683377 165.61394027197639 0 165.61394027197639 123.33282612334006 0 0 0 0 -129.50966026756214 345.19947049839902 0 345.19947049839902 -28.752034696168266 0 0 0 0 46.957372701569398 160.68545338278628 0 160.68545338278628 43.316700711990251 0 0 0 0 342.45327199276653 2.6832870353828184 0 2.6832870353828184 -5.215615427820012 0 0 0 0 -697.91851019047317 327.14376787978108 0 327.14376787978108 153.70056083798409 0 0 0 0 46.289342131912349 109.21257340013375 0 109.21257340013375 -26.929912768835351 0 0 0 0 104.10769226415505 99.155099601663096 0 99.155099601663096 384.96439371237648 0 0 0 0 24.815559054813008 97.20859572622328 0 97.20859572622328 -24.280857521534784 0 0 0 0 -35.937625349703012 156.36856335934863 0 156.36856335934863 -45.154271324252477 0 0 0 0 -37.626591897736944 189.37841339115403 0 189.37841339115403 -36.889292345746071 0 0 0 0 5.2566376621180098 73.953577835542092 0 73.953577835542092 115.89582373856683 0 0 0 0 -11.320165943878237 247.31535062695912 0 247.31535062695912 90.616109704687915 0 0 0 0 -337.6298746735265 511.53068470270591 0 511.53068470270591 -224.75564380453943 0 0 0 0 -427.98477096119314 501.47818121282762 0 501.47818121282762 7.8161343952015159 0 0 0 0 -139.55518834057148 192.48325371853571 0 192.48325371853571 34.514722515181347 0 0 0 0 83.16374320994764 148.73971149393964 0 148.73971149393964 -36.338943923773598 0 0 0 0 39.825521493559542 178.5009116320054 0 178.5009116320054 -23.845564611134535 0 0 0 0 -573.12526725612406 365.74631120625781 0 365.74631120625781 186.267781531933 0 0 0 0 -46.811987540240807 237.11672356033523 0 237.11672356033523 -23.747042873099417 0 0 0 0 -12.242178312160831 215.82746951776426 0 215.82746951776426 -27.270850972803601 0 0 0 0 -536.57958198243068 221.67763566879148 0 221.67763566879148 37.985338186157605 0 0 0 0 -105.89442822539169 140.26140019112603 0 140.26140019112603 1.5588509089278355 0 0 0 0 -105.05898972792318 120.2546475899578 0 120.2546475899578 -0.6477237754036258 0 0 0 0 -228.4300080271787 169.55229945170686 0 169.55229945170686 -417.89414882038545 0 0 0 0 -67.765614604900293 183.98138817727158 0 183.98138817727158 9.8324163856323139 0 0 0 0 43.029977371081046 72.195196978227841 0 72.195196978227841 39.190285388389157 0 0 0 0 -4.2503623462261686 61.036912838331681 0 61.036912838331681 74.618718106363332 0 0 0 0 -32.491838005627869 107.06242281724553 0 107.06242281724553 18.875145195917867 0 0 0 0 -33.423052763711269 77.397587320007204 0 77.397587320007204 -13.950228324627858 0 0 0 0 -55.60523842604016 182.51804085803451 0 182.51804085803451 -16.324928681293386 0 0 0 0 -679.5608149348318 283.15208140260893 0 283.15208140260893 37.863456887476787 0 0 0 0 -4.9372369834577299 24.368027468171306 0 24.368027468171306 9.1431026404940354 0 0 0 0 9.7818070376372361 87.574117900207824 0 87.574117900207824 16.093722074277615 0 0 0 0 43.670545135315479 154.06054398970991 0 154.06054398970991 53.096169178401396 0 0 0 0 -33.513791443396258 94.744802654837258 0 94.744802654837258 35.647497292156913 0 0 0 0 -7.4699770461393271 91.379026879741673 0 91.379026879741673 31.186224690299721 0 0 0 0 -1.9473472062318251 168.91498923537438 0 168.91498923537438 -9.6071526688610902 0 0 0 0 -28.9484132470443 95.282561949188675 0 95.282561949188675 72.482121118839132 0 0 0 0 10.112785779834606 109.90561269182358 0 109.90561269182358 50.112583588015667 0 0 0 0 -61.336438558702184 195.93648903973371 0 195.93648903973371 -61.856385204839171 0 0 0 0 8.7188969641856602 166.45076879664703 0 166.45076879664703 -55.481364144783583 0 0 0 0 26.136104196375527 259.66365174748353 0 259.66365174748353 -16.017321108723991 0 0 0 0 -30.953721388053964 92.17669191485038 0 92.17669191485038 -147.49760288731341 0 0 0 0 -9.7972387189915935 -2.7188142744435027 0 -2.7188142744435027 -330.56459684344009 0 0 0 0 123.68360669455433 333.2551084242441 0 333.2551084242441 -483.12015145144687 0 0 0 0 87.86616622521251 288.89436775386275 0 288.89436775386275 -193.97798565138874 0 0 0 0 -75.29769626633788 145.79943655808893 0 145.79943655808893 26.469969682839292 0 0 0 0 -58.791718391821369 85.572196665530612 0 85.572196665530612 46.21518449920714 0 0 0 0 -114.13541983942196 -114.31493603681156 0 -114.31493603681156 138.77470320326302 0 0 0 0 -138.01469573612849 152.91074380913778 0 152.91074380913778 136.42744675792346 0 0 0 0 -74.156798340554758 78.51769731446683 0 78.51769731446683 -7.4785676488572088 0 0 0 0 -94.221945317050995 177.72632939429604 0 177.72632939429604 147.1145048905455 0 0 0 0 -74.803734921002473 68.175590311281056 0 68.175590311281056 5.0945124239338559 0 0 0 0 -131.18603209829962 75.114207997277845 0 75.114207997277845 371.96961656070698 0 0 0 0 -173.6328482384888 57.746182364839115 0 57.746182364839115 218.79163103771134 0 0 0 0 -2944.7835455129361 2002.9908070027686 0 2002.9908070027686 -1438.0527876449923 0 0 0 0 11.93168981004542 14.690012135879002 0 14.690012135879002 -64.636032497175904 0 0 0 0 321.13117226957911 -51.039937950023159 0 -51.039937950023159 -354.77025906273047 0 0 0 0 420.05825537927376 140.9292249262362 0 140.9292249262362 -1195.7174583867309 0 0 0 0 -2939.4606788084529 2032.142423550431 0 2032.142423550431 -1319.3207426494628 0 0 0 0 -353.8330817815222 135.20857363672985 0 135.20857363672985 149.89812207143405 0 0 0 0 307.20024198299143 622.86866475924035 0 622.86866475924035 -2645.2014227885811 0 0 0 0 -2955.5406063111186 1880.4084674917613 0 1880.4084674917613 -1698.9132588203065 0 0 0 0 -2660.6317653527949 1799.3855297927657 0 1799.3855297927657 -1555.9405321937666 0 0 0 0 -2926.2535959893576 1992.9369460606104 0 1992.9369460606104 -1266.5492423277756 0 0 0 0 -13.924110516775201 15.423661650842035 0 15.423661650842035 9.208568071028651 0 0 0 0 -248.05931609338586 -46.71144814658328 0 -46.71144814658328 105.07049345849373 0 0 0 0 82.296993685726193 -28.291010899789399 0 -28.291010899789399 -610.95638025194057 0 0 0 0 -406.09575133371254 291.17016771875205 0 291.17016771875205 -175.85352671239525 0 0 0 0 90.651526878560617 352.89403955220769 0 352.89403955220769 -22.348147163982503 0 0 0 0 66.334911778205424 250.78848897393618 0 250.78848897393618 67.437664781347848 0 0 0 0 118.53254153659873 499.05818056302087 0 499.05818056302087 -773.1191956732182 0 0 0 0 -1077.8220074449309 757.94932320903172 0 757.94932320903172 937.33956537788617 0 0 0 0 -15.049931571968045 -213.8130641217067 0 -213.8130641217067 609.48203307281074 0 0 0 0 324.529630999662 348.1608702347803 0 348.1608702347803 86.368370614480227 0 0 0 0 -5532.3492909047382 1948.739170173234 0 1948.739170173234 -1028.7118441795174 0 0 0 0 -2664.9288019597006 1737.8036149653199 0 1737.8036149653199 -1864.3045180531917 0 0 0 0 -2961.5006274537154 1923.1011642758822 0 1923.1011642758822 -1570.0655449203332 0 0 0 0 -3038.0371439488808 1627.0917980669437 0 1627.0917980669437 -1970.1557860905014 0 0 0 0 -3631.0360266159914 1168.7227237443585 0 1168.7227237443585 -1920.8136824201338 0 0 0 0 -2389.3321019485593 1955.946394362647 0 1955.946394362647 -2098.1775854083098 0 0 0 0 -3407.9262446093962 1787.9488319555894 0 1787.9488319555894 -1586.0512962812791 0 0 0 0 -2029.2194849631996 1120.3026140388538 0 1120.3026140388538 -1454.9901425317585 0 0 0 0 -3137.8857565901963 3014.5122907522746 0 3014.5122907522746 -2349.8030352433852 0 0 0 0 -2412.0145161429318 4104.3832107090348 0 4104.3832107090348 -2227.0888450553612 0 0 0 0 -530.52884779902161 1740.2537816090626 0 1740.2537816090626 -1869.8034372284601 0 0 0 0 -1223.8559307116666 671.8857549529348 0 671.8857549529348 -848.32173048301775 0 0 0 0 1182.9413183587149 -28.640951107139699 0 -28.640951107139699 -26.671384730114369 0 0 0 0 1.1713891001414538 2.6123393432614535 0 2.6123393432614535 -19.261439982391153 0 0 0 0 -5606.3890680875375 4621.0171198349126 0 4621.0171198349126 -1473.4174528001749 0 0 0 0 -2023.9614795062334 4404.9887216513016 0 4404.9887216513016 -4275.5789313436962 0 0 0 0 572.60077935539357 1693.8134966829457 0 1693.8134966829457 -308.12952043669065 0 0 0 0 -171.62099206280436 300.99789080616756 0 300.99789080616756 490.28426948250853 0 0 0 0 -1907.5822478129858 1482.6830519886389 0 1482.6830519886389 -125.70958826286369 0 0 0 0 10.377346003359889 126.65872759625199 0 126.65872759625199 228.06589619283477 0 0 0 0 -22.956632797864586 317.65595541645598 0 317.65595541645598 444.48329592644586 0 0 0 0 -65.010849347224394 208.06040434291572 0 208.06040434291572 162.93185674931738 0 0 0 0 -41.874200050690888 321.50372240141587 0 321.50372240141587 177.5180186302423 0 0 0 0 88.355880810505823 211.59653681746568 0 211.59653681746568 69.67597392766038 0 0 0 0 -19.086931541217837 248.49837552097961 0 248.49837552097961 113.79452588057029 0 0 0 0 4.411209194242474 270.9703516978916 0 270.9703516978916 31.832863164250739 0 0 0 0 -99.347249158763361 223.80913657248311 0 223.80913657248311 11.718511637373012 0 0 0 0 24.316312694796579 251.12343798339771 0 251.12343798339771 -27.40008090363699 0 0 0 0 7.649154772690963 280.69285078023677 0 280.69285078023677 -25.013017100445722 0 0 0 0 127.93756295507774 356.10096437169705 0 356.10096437169705 -56.274788110874397 0 0 0 0 42.878256560292357 287.49580140275793 0 287.49580140275793 -59.830836390639888 0 0 0 0 4.2520273015534258 309.5015179383845 0 309.5015179383845 198.58861412890838 0 0 0 0 
</DataArray>
<DataArray type="Float64" Name="cross_section_updated" format="ascii">
1 1 1 1 1 1 0.00900155634350637 1 1 1 0.0084426232900525339 1 1 1 0.0081858827136002746 1 1 1 1 1 1 0.0089593001751437466 0.0054460937928745082 1 1 1 1 0.010472449422290905 0.010242071276432944 1 0.0076657835341971126 0.0042074847834819868 1 0.010279613305407553 1 1 1 7.6790992748626552e-09 1 1 0.010957199667351397 1 1 1 1 1 1 1 0.0094401878996406979 1 1 1 1 1 1 1 1 0.00928069807347498 1 1 0.018805109534640131 1 0.0085090983339912857 1 0.0092084289378863895 1 -9.0184881611221623e-10 1 1 1 1 1 1 1 1 1 1 1 1 1 1 1 1 0.009321392543652874 1 1 1 1 1 1 1 1 0.010145383188692146 1 1 0.010760614139649315 0.0071381730460457482 1 1 1 1 1 1 1 1 1 1 1 1 0.011069789013225653 1 1 1 1 1 0.0093393027588121388 1 1 0.010372258790514413 1 1 1 1 1 1 1 1 1 1 1 1 1 1 1 1 1 1 1 0.011032098246656782 1 1 1 1 1 0.010125276368522416 1 1 1 1 1 1 1 1 1 1 1 1 1 1 1 1 1 1 1 1 1 1 1 1 0.010156458819144711 1 -3.1994362142268029e-09 1 1 1 8.4178109448218574e-10 1 1 1 2.55996036695183e-09 1 1 1 0.010597458877289898 8.3598537641005333e-10 1 1 0.016587349086457565 1 1 1 1 0.016649282422587036 1 1 1 1 1 0.0062501058037036598 1 1 1 1 0.010183552859956042 1 0.020776278812069705 1 1 0.014747397670568423 1 1 1 0.010067451761171395 1 1 9.4159424181283757e-10 1 1 1 1 1 1 1 1 1 1 0.0068691206627365248 1 1 0.01031368473697019 1 1 1 1 1 1 1 0.0067024203264586454 1 1 1 1 1 1 1 1 1 1 1 1 1 1 1 1 1 1 1 1 1 0.030656716011214336 1 0.025978747864388342 1 1 1 1 1 0.0099815219587347792 1 1 1 1 1 1 1 1 0.016197969436165451 1 1 1 5.8723685289474581e-10 1 1 0.016592223147389146 1 1 1 1 0.0050752205648296814 1 1 0.017536006597954713 1 1 1 1 1 0.0099213547865747917 1 0.011009516288013126 1 1 1 1 1 1 1 1 1 1 1 1 1 1 1 1 1 1 0.0099307900557068299 1 1 1 1 1 0.018226186198182767 0.01117470955405362 1 1 1 1 1 1 1 1 1 1 0.013633274090023066 1 1 1 1 1 1 1 1 1 0.0081316596247282304 1 1 0.0054599924366498173 0.0099991680940556063 1 1 1 0.010009544644725601 1 1 5.6325503081100514e-09 1 1 1 1 1 1 1 1 1 1 1 1 1 1 1 0.023799555920486493 1 1 1 1 1 1 1 1 0.011632488843253033 1 1 0.0099135257044662972 1 1 1 1 -1.9884987215862404e-09 1 1 1 1 1 1 1 1 1 1 1 1 1 1 0.019622742952676658 0.0070016762923408669 1 1 0.0027659569776917001 0.016120936686284289 1 0.01017558255729295 1 0.012485914712484329 1 0.0069181365663739045 1 1 0.0055842558976452253 1 1 1 1 1 1 1 1 1 0.0088251696614341617 0.0040988385380036855 1 1 0.0096226115780532612 1 1 1 1 1 0.02068437250380703 1 1 0.020372840160011577 1 1 1 1 0.020437144055243592 1 1 1 0.0089292546542298415 1 1 1 0.0077271321330482784 1 0.019686511933079485 1 1 0.00080463507358299879 1 1 1 1 1 1 1 1 1 1 1 0.0036542037181274065 1 1 1 1 1 1 0.0076251426591782898 1 1 1 0.0095442992247213587 1 1 1 1 1 1 1 0.0017243499047113232 1 1 1 1 1 0.008389655463746315 1 0.0053093420453024162 1 1 1 1 1 0.012978265966242332 0.0034297036036366954 1 1 1 0.0099744437998428529 -7.3120134426452044e-09 1 -5.2792743093776906e-10 1 1 1 1 1 1 1 0.007156971917672398 1 1 1 1 1 1 1 1 1 1 1 1 1 1 0.0082449920655228645 1 1 0.0094324211236191009 1 0.005401963983195264 1 1 1 1 1 1 1 1 1 1 1 1 1 1 0.010263674377822773 1 1 1 1 1 1 1 1 1 1 1 1 1 1 1 1 0.010189302154716313 1 1 1 1 1 1 1 1 1 1 1 0.0077946828680242122 0.0038225247003131693 1 1 1 1 1 1 1 1 1 1 1 1 1 1 1 1 0.016519994583499224 1 1 1 1 1 1 1 0.019216097193794988 1 1 1 1 1 1 1 1 0.01451367027375542 1 1 1 0.0095533341408147315 1 1 1 1 1 1 1 1 1 1 1 1 1 1 1 1 1 1 1 1 1 1 1 1 1 1 1 1 0.0076917447711320405 1 0.0055248558954988924 1 1 1 1 1 1 1 1 1 1 1 1 1 0.0061496557693895143 1 1 1 0.0099975677148489255 1 1 1 1 1 1 1 1 1 1 1 1 1 0.010228710740436825 0.003659906673505034 1 1 1 1 1 1 1 0.0085387497391597178 1 1 1 1 1 1 1 1 1 1 1 0.0059723085970183019 1 1 1 1 1 1 1 0.0087014991180274365 1 1 1 1 1 1 1 1 1 1 1 1 1 1 1 1 1 0.010682652377368526 1 1 1 1 1 1 1 1 1 1 0.011327005357828775 1 1 1 1 1 0.012456853188719488 1 1 1 0.011678244398091571 1 1 1 1 -9.9936831032820805e-09 1 1 1 1 1 1 1 0.012307129730637573 1 0.0065749361623499009 1 1 0.013617516264509605 1 0.013932804567601008 1 1 1 1 1 1 1 1 1 1 1 1 1 1 1 1 1 1 1 1 1 1 1 1 1 1 1 1 1 1 1 1 1 1 1 0.0099930844265626456 1 0.026914955700514033 0.01007973288756772 1 1 1 1 1 1 1 1 1 1 1 0.00097127329060756572 1 1 1 1 1 1 1 -5.25636618953218e-09 1 0.0090866854939253248 1 1.6420138530121031e-09 1 1 1 1 1 1 0.0075632841841788423 1 0.010548396567200857 0.0033713096872089038 1 1 1 1 1 1 1 1 1 1 1 1 1 1 1 1 1 0.0099959953223408109 1 1 1 1 1 1 1 1 1 1 1 1 1 1 0.0094072362779233781 1 1 1 1 1 1 1 1 1 1 1 1 1 0.007844177537664216 1 1 1 1 1 1 1 1 1 0.0074743219577151979 1 1 1 1 1 0.0040159328783574552 0.0099557037189888752 1 1 1 1 0.0092844006183610099 0.0038740090667355566 1 1 1 1 1 1 1 1 1 1 1 0.02580428062855937 1 1 1 1 0.024423756784451748 1 1 1 1 1 1 3.4771817716827691e-10 1 1 0.019100425508478625 1 -7.0307500325134109e-09 1 1 1 0.016849628032383664 1 1 1 1 1 1 1 0.0099612502940512812 1 1 1 1 0.0071926366337583189 0.011327071582034727 1 1 0.010331593336038315 1 1 1 0.0061531882271518845 1.2025424406258978e-10 0.024999596682388176 0.0099959830888133455 1 1 0.015004555180635022 1 1 1 1 1 1 1 1 0.0032359031289386497 0.0047350367958489022 1 1 1 1 1 1 0.0062616639657773528 1 0.0022798725835926782 1 1 1 0.010635724514022997 1 1 1 1 1 1 1 1 1 1 1 1 1 1 1 1 1 1 1 1 1 1 1 1 1 1 1 1 0.011318376891391528 1 1 1 1 1 1 1 1 1 1 1 1 1 1 1 1 1 1 1 1 1 0.01752379827641036 1 1 1 1 1 1 1 1 1 0.010831716888231459 1 1 1 1 1 1 0.01002484782146499 1 1 1 1 1 0.015971909360238054 1 1 1 1 1 0.0080037695476959589 1 1 1 1 1 1 1 1 1 1 0.0070564931870522249 1 1 1 1 0.011803758612669427 0.0016067562940025783 1 1 0.0092010934134486994 1 1 1 1 0.010653623933253316 1 1 0.007510972608200178 1 1 1 1 1 0.018455115339753858 0.0097170279524502537 1 1 1 1 1 1 0.0092412998269433902 1 1 1 1 1 1 1 2.9010619496949719e-09 0.0074138719878093532 1 1 1 0.0045552849408025883 1 1 1 -1.0127177083041339e-09 1 1 0.0034314322065973832 1 -2.6853642573487768e-10 1 1 1 0.012269522268693711 1 1 0.00433011511453988 0.0098061511270189604 1 1 1 1 1 1 -4.5035579016028393e-09 1 0.026408868170488924 1 0.0093834119600030158 1 1 1 0.0095975310187568774 0.0097480071644670818 1 0.012787675025548706 1 1 1 1 1 1 1 1 1 1 1 1 1 1 1 1 0.010531645820898203 1 1 1 1 1 1 1 0.01659902625508523 1 1 1 1 1 0.0098462234529388612 1 1 1 0.018446859735060488 1 1 1 1 0.025209437313166307 1 0.0099614866762411953 1 0.024495148464610896 1 1 1 1 0.0015702316574931208 1 1 0.012336385873701779 1 1 1 1 1 1 1 1 1 1 1 0.011476329593680369 1 1 1 1 0.01230481077438271 1 1 1 1 0.013458723136513522 1 1 1 1 1 1 0.011103802864813597 1 1 1 0.014861563306838875 1 0.010007149594922174 0.0093805655226548851 1 1 1 1 1 1 1 1 1 1 1 1 1 1 1 1 1 1 1 1 1 1 1 1 1 1 1 1 0.010672297543763497 1 1 0.010232971220859401 0.014699737168084391 1 0.017960276870895041 1 1 1 1 0.012709280834437821 1 1 0.010925586909243591 1 1 1 1 1 1 1 1 1 1 1 1 1 1 1 1 1 1 1 1 1 1 1 1 1 1 1 1 0.0091660189111166281 1 1 1 1 1 1 1 1 0.011280556284238463 1 1 1 1 1 1 1 0.013724767847443455 1 0.0097756176662109201 1 1 1 0.0094106061144782135 1 1 1 1 1 1 1 0.0096027644865448528 1 0.0096174275287816344 1 1 1 1 1 0.0094099499116918756 1 1 1 1 1 1 1 1 1 1 1 1 1 1 1 1 1 1 1 1 1 1 1 1 1 1 1 1 1 1 1 1 1 1 1 1 1 1 1 0.011544359628935491 0.016338867134318175 1 1 0.014938848507237402 1 1 1 0.0068179966332549968 1 1 1 0.0095229447792465269 0.0099512510794009593 1 1 0.010848285628707377 1 1 1 1 1 1 1 1 1 1 1 1 1 1 1 1 1 1 1 1 1 0.0039453766184164712 1 0.0079271794739800387 1 1 1 1 1 1 1 1 1 1 1 1 1 1 1 1 1 1 1 1 1 1 1 1 1 1 1 1 1 1 1 1 1 1 1 1 1 1 1 1 1 1 1 1 1 0.0078985141188384483 1 -3.8637687355125294e-09 1 0.0062533535250233682 1 1 0.00080711744431623614 1 1 1 1 1 1 1 1 1 1 1 1 1 1 1 1 1 1 1 1 1 1 1 1 1 1 1 0.011214593420932393 1 1 1 1 1 1 1 1 1 1 1 1 1 1 1 1 1 1 1 1 1 1 1 1 1 1 1 1 1 1 1 1 1 1 1 1 1 1 1 1 1 1 1 1 1 1 1 1 1 0.0096594270031361302 1 1 1 1 0.0089777468836895746 1 1 1 1 1 1 1 1 0.013775325711433717 1 1 1 1 1 0.0051673914407135823 0.0099715834218507167 0.0061152075191794764 1 1 1 1 0.0017748246972901279 0.011042795507555707 1 1 0.0079092761440418824 1 1 1 1 1 1 1 1 1 1 1 1 1 1 0.016478342611239701 0.0099529095472490978 1 0.010267259433389039 1 1 1 1 1 1 1 1 1 1 1 1 1 1 1 1 1 1 0.011456743515491381 1 1 1 1 1 1 0.014307785530780971 1 1 1 1 1 1 1 1 1 1 1 1 1 1 1 1 1 1 0.0084744015690498189 1 1 1 1 1 1 1 1 1 0.0054888786489677216 1 1 0.010157306378069011 1 1 1 1 1 1 1 1 1 1 1 1 1 1 1 1 0.001857750881502758 1 0.013518499251486252 1 1 1 1 0.01127007143731666 1 0.017981720873675451 1 1 0.0070821860342139501 -1.7788871833901432e-09 1 1 -1.3195762139234235e-09 1 1 1 0.0095235505788539912 1 1 1 1 1 1 0.0099831508963773834 1 1 1 -1.9648636676028453e-09 1 1 1 1 0.017977172773979633 1 1 1 1 1 1 1 0.0076330089034834566 1 1 1 1 1 0.0033650890141913026 1 1 0.0092549920754865737 1 1 1 1 1 1 1 0.010331518938238349 1 1 1 0.014238139699046448 0.0070502527184874778 1 1 1 0.026207572624312725 1 1 1 1 1 0.010021278316741777 0.015025966230150555 0.01622877316286199 1 1 1 1 1 1 1 1 1 0.01333555579551024 0.010777586471197784 1 0.005465236483099007 1 1 1 1 1 0.0097386924756607957 1 1 0.01064674815359795 1 0.010134884738388221 1 1 1 0.006140006072900649 1 1 0.0062150556608053364 1 1 1 1 1 1 1 0.013642536628068129 1 1 0.018896771510331478 0.012498482795407783 1 1 0.010419037217405809 1 0.013087033751917335 1 1 0.0098899290619034533 1 1 0.013917498021695148 1 0.01030639981884888 1 1 1 0.010498261257000848 1 1 0.0071259053324469641 1 0.0031267654319592376 1 1 0.0089340619353317496 1 0.0092473212458438724 1 1 1 1 0.0019305469568873072 0.0088468779671770983 1 1 1 1 1 1 1 1 1 0.0092624809316236931 1 1 1 1 1 1 1 1 1 1 1 1 1 1 1 1 1 1 0.0099710630022862012 2.1981824381567261e-09 1 1 1 0.020152256324652357 1 1 1 1 0.022673105408678312 1 1 1.6665496222617593e-09 1 1 1 0.0034262792473967532 1 1 0.0052068836136579368 1 1 1 1 0.010024191475800193 1 1 1 1 1 0.012780903838780312 1 1 1 0.01147509375953318 0.010007813394231284 1 1 0.010151718907916369 1 1 1 1 1 0.017208490861242591 0.0190522224728208 1 1 1 1 0.015988660240733393 1 1 1 1 0.018261262463667077 1 1 1 1 1 1 1 1 1 1 1 1 1 1 1 1 1 1 1 1 1 1 1 1 1 1 1 1 0.018855435663348873 1 1 1 1 1 1 1 1 1 1 1 -2.3618485500698227e-09 1 1 1 1 0.0082008550872212614 1 1 1 0.0021299172782945175 1 1 0.010025152213114612 1 1 1 1 1 0.010861702306402446 1 1 1 1 1 1 1 1 1 1 1 1 1 1 1 1 1 1 1 1 0.0048286744872613734 1 1 1 1 1 0.0020964034172988675 1 1 1 1 1 1 1 0.0092307039054581007 1 1 1 1 1 1 1 1 1 1 1 1 1 0.010542005921119138 1 1 1 1 1 0.0080131319510439673 0.01018036142791176 1 1 1 1 2.2538545474404259e-09 1 0.010011084888864135 1 1 1 0.0135553336277833 0.022786261193319869 1 1 0.042061039235106047 1 1 1 0.036920798968708257 1 1 1 1 0.019032939539800099 1 1 0.011800527921987785 0.010612303538628548 1 1 1 1 1 1 0.0013619065699967438 1 1 0.010251615101918948 1 1 1 1 0.007911887204074132 1 1 1 1 1 1 1 1 1 1 1 1 1 1 1 1 1 1 1 0.02275537855113683 1 0.0095768877357740451 1 1 1 0.010340350848788683 1 0.011575590186542993 1 0.012868219788384996 1 1 0.01925644298843681 1 1 0.021085454485585083 0.018485460434117411 0.0054371698757636755 1 1 1 0.018632236009774365 1 1 1 1 1 1 0.006556145720525864 1 1 1 1 1 1 1 0.0090118898321723886 1 0.01056152577551487 1 1 1 1 1 1 1 0.0098065402839834902 1 1 1 1 1 1 1 1 1 1 1 0.008921830954661791 1 1 0.0087906541104660584 1 1 1 1 1 1 1 1 1 1 1 1 1 1 1 1 0.011994011189309376 1 1 1 1 1 1 1 1 1 1 1 1 1 1 1 1 1 1 1 1 1 0.0079577320174907713 1 1 1 0.0088424413468124671 1 1 1 1 1 1 1 1 1 1 0.0089167490408319609 1 1 1 1 1 1 1 1 1 1 0.0070136388668823324 1 1 1 1 1 1 0.013757319857329777 1 1 1 0.021492059027114291 1 1 1 1 1 1 1 1 1 1 1 1 1 1 1 1 1 1 1 1 1 0.010213440294204637 1 1 1 1 1 0.032042191189165646 1 1 0.00577797215869056 1 1 1 1 1 1 0.0095217523078344763 1 1 1 1 0.01060181597088046 1 1 1 1 1 1 1 1 1 1 1 1 1 1 1 1 1 1 0.010870246233542059 1 1 1 1 1 0.023933585549466643 1 1 1 0.03045706344514228 1 0.021543468201819252 1 1 1 1 1 1 1 0.029696380327984575 1 1 1 0.02877322312738884 0.033112122332352473 1 1 1 1 1 0.0086998492542255217 1 1 1 0.006591219955766843 1 1 1 1 1 1 1 1 1 1 1 1 1 1 1 0.012933801078631877 1 1 1 1 1 1 0.010962105503183491 1 1 1 1 1 1 1 1 1 1 1 0.010068927829410447 1 1 1 1 1 1 1 1 1 0.00065112101628147373 1 1 1 1 0.02096542554397772 6.9996656110182798e-09 1 1 1 1 1 1 1 1 0.050143565924025857 0.00068784530123252446 1 0.053280274629533393 1 1 1 1 1 0.0087231774645146684 1 1 1 1 1 1 0.017450137211226145 1 0.0098338475054009847 1 1 1 1 1 1 1 1 1 1 0.011902291974909142 1 1 1 1 1 1 0.0062461989980445373 1 1 1 1 1 1 1 1 0.006794351168504742 1 1 1 1 1 -1.6230924399646129e-09 1 1 -3.2438112577970468e-09 1 1 1 1 1 1 0.012149215766361536 1 1 1 1 1 1 1 1 0.01511489264019669 1 1 1 1 0.016386538872524337 1 1 1 1 1 1 1 1 1 1 0.014979481851160957 1 1 1 1 1 1 1 1 1 0.01735593549492951 1 1 1 1 0.018839033571599866 1 1 1 1 1 1 1 1 0.010448321031246616 1 0.014586658697592699 1 1 1 0.0093091005725127185 1 1 1 1 1 1 1 1 0.0031415928229442738 1 1 1 0.0029604900050871456 1 1 1 0.0092164901545919511 1 1 0.010078961221031957 1 1 1 1 1 1 1 1 1 1 1 1 1 1 1 1 1 1 1 1 1 1 1 1 1 1 1 1 1 1 1 1 1 1 1 1 1 1 1 1 1 1 1 1 1 1 1 1 1 1 1 1 1 0.010774968230477638 1 1 1 0.011877148706640903 1 1 1 1 1 1 0.010201803873272868 1 0.0084581858124698275 1 1 1 1 0.012852997839477347 0.010032562814332386 1 1 1 1 1 1 1 1 1 1 1 1 1 1 1 1 1 1 1 1 1 1 0.016186901017609515 1 1 0.01557486966874151 1 1 1 0.010088214132492022 1 1 1 1 1 1 1 1 1 1 1 1 1 1 0.0113893857786301 1 0.0095918001743363658 1 0.0035514273141630595 1 1 1 1 1 1 1 1 1 1 1 1 1 1 1 1 1 0.010015869306435044 1 1 1 1 1 1 1 1 1 1 1 1 1 1 1 1 1 1 1 1 1 1 1 1 1 1 1 1 1 1 1 1 1 0.010273139810800525 1 1 1 1 1 1 0.0049580255412572834 1 1 0.015088040144941403 1 0.0098571317362445374 1 1 0.0074918452592694397 1 1 1 0.013316153871981339 1 1 1 1 1 1 1 1 1 1 1 1 1 1 1 1 1 1 1 1 1 1 1 1 1 0.0095769486842428465 1 1 1 1 0.0092475837721002659 1 1 0.0096692930263370062 1 1 1 1 1 1 1 1 1 1 1 1 1 1 1 1 1 1 1 1 1 1 1 1 1 1 1 1 1 1 0.01081633726547844 1 1 1 0.010263751956840719 1 1 1 1 0.01242242655763523 1 1 1 1 1 0.014256997130805082 1 1 1 1 0.0040695032589885896 1 1 1 1 1 1 1 1 1 1 1 1 1 1 0.0091737651032292519 0.0073884134498292675 1 1.7011903552521801e-09 1 0.0018891620092530322 1 1 1 1 1 1 1 1 1 1 1 1 1 1 1 1 1 1 1 1 1 1 1 1 1 0.0093175626589790464 0.0064440216140433659 1 1 0.021303740630920318 1 1 0.0032632788990548181 1 1 1 1 1 1 1 1 1 1 1 0.0059994110025909236 1 1 0.0086929227014970537 1 1 1 1 1 1 1 1 1 1 1 1 1 1 0.020365801734451829 0.0099311035290214102 1 0.0056917479633710744 0.010661676009229418 1 1 1 1 0.010045272442359025 1 1 1 0.019768226649557467 -3.7622207224585758e-09 1 1 1 1 1 1 1 0.010230495373229363 1 1 1 1 1 1 1 1 1 1 1 1 1 1 1 1 0.016003671493272292 1 1 1 1 0.018412714360120326 1 1 1 1 1 1 1 0.00038697476147266791 1 1 1 1 1 1 1 0.0029571537123890337 1 1 0.0074427971672036339 1 1 1 1 1 1 1 1 1 1 1 1 1 1 1 0.0093830224672559262 1 1 1 1 1 1 1 1 0.008855099796100753 1 1 1 1 1 1 1 0.0095784398669417278 1 1 1 1 1 0.0098846096914336212 1 1 1 1 0.01084854795235299 1 1 1 1 1 1 1 1 1 1 1 1 0.012264690238666852 1 1 1 1 1 1 1 1 1 1 1 1 1 1 0.0078551478810221214 1 1 1 1 1 1 1 1 1 1 1 1 1 0.010755776251311917 0.0099888055573425921 1 1 0.0041911225600911768 1 1 1 1 0.0038880609528787052 1 1 1 0.0023782317526545652 1 1 0.011143755126382264 1 1 1 1 -1.2433571949799216e-09 1 1 1 1 1 1 1 1 1 1 1 1 1 1 1 1 1 1 1 1 1 1 1 1 1 1 1 1 1 1 1 1 1 1 0.010189617565473156 1 1 1 0.011358703429222359 1 0.010510155476869417 1 1 1 1 1 1 1 1 1 1 1 1 1 1 0.0088187401977724914 1 1 1 1 1 1 1 1 0.012039333254106874 1 1 1 0.0094357177305165948 1 1 1 1 1 1 1 0.011454891026949576 1 0.011672761426766749 1 1 1 1 1 1 1 1 1 1 1 1 1 1 0.0085040614824291628 1 1 0.0093533979578771347 1 1 1 1 1 1 1 0.011407313367436688 1 1 1 1 1 1 1 1 1 1 1 1 1 1 1 1 1 1 1 1 1 1 1 1 1 1 1 0.010441565862036003 1 1 0.013725449716425864 1 1 1 0.011341929073303132 1 1 0.011388485506043683 1 1 1 1 1 1 1 1 1 1 1 1 1 1 1 1 1 1 1 0.0089861926382418227 1 1 1 1 1 1 1 1 1 1 1 1 1 0.0098355291136897893 1 1 1 1 1 1 1 1 1 1 1 1 1 1 1 1 1 1 1 0.0097317597322340264 1 1 1 1 1 1 1 1 1 1 1 1 1 1 1 1 0.0090758251463416151 1 1 0.010944675275061551 1 1 1 0.0025590892586159972 1 1 0.010333457860269702 1 1 1 1 1 1 1 1 1 1 1 1 1 1 0.0098183872418262548 1 1 0.01075274396160388 1 1 1 1 1 1 1 1 1 1 1 1 1 1 1 1 1 1 1 1 1 1 1 1 1 1 1 1 1 1 1 1 1 1 1 1 -6.5464163361006467e-09 1 1 1 1 3.2010324419878833e-05 1 1 1 1 1 1 1 1 1 1 1 1 1 1 1 0.0071281480156751009 1 0.0039683251432460417 0.00689567318850378 1 1 0.0056475412583301618 1 0.007368638809549459 1 1 1 1 1 1 1 1 0.027207696687932277 1 1 0.010021533847214197 1 1 1 1 0.026816075735484085 0.00302703976910184 1 0.0017534583740788159 1 1 1 1 1 1 1 1 1 1 1 1 1 1 1 1 1 1 1 1 1 0.0091612696205926533 1 1 1 1 1 1 1 1 1 1 1 1 1 1 1 1 1 1 1 1 1 1 1 1 1 0.012043921699770949 1 1 1 1 1 0.010988940821766 1 1 1 1 1 1 1 1 1 0.013364156295609705 1 1 1 1 1 1 1 1 1 1 1 1 1 1 1 1 1 0.021897245275976251 0.010130971879652201 1 1 0.017081346901095008 1 1 1 0.010534636262828342 1 1 1 1 1 1 1 1 1 1 0.013566499173773151 1 1 0.010177077030948709 1 0.0041463691874835812 1 1 1 1 0.0081118652523941154 1 1 1 0.012692656155731258 1 1 1 1 1 1 0.010262889254903519 1 1 1 1 1 1 0.010260796101123765 1 1 1 1 1 1 1 1 1 1 1 1 1 1 0.011038880422245816 1 1 0.0121462280200288 1 1 1 0.0096356227992815124 0.0098268681035559927 1 1 1 1 1 1 1 1 1 1 0.014184471623084553 1 1 1 0.014458326202410769 1 1 1 1 0.01111147311967977 1 1 1 1 1 1 1 1 0.0036150687521338959 1 1 1 1 1 0.0055653748668748962 0.014077511658099527 1 1 1 0.00017822177522097346 1 0.010340076468537365 0.010136382127310224 1 1 1 1 1 0.01391987987922208 1 1 1 1 1 1 0.0097572733178249577 1 1 1 1 1 1 1 0.011977706647918356 1 1 0.011460109805607105 1 1 0.0099485186220994379 1 1 1 1 1 1 1 1 1 1 1 1 1 1 0.011008374322372672 1 1 1 0.0099986078361411091 1 1 0.013625272162531383 1 1 1 1 0.0099904061178744258 1 1 1 1 1 1 1 1 0.012823210303549999 1 1 1 1 1.4390009704656759e-09 1 1 1 1 1 1 1 1 0.00064707036870873501 1 1 1 1 1 1 1 1 1 0.012379397653178643 1 1 1 0.016510039449807445 1 1 0.014017026206304732 1 1 0.015014149649349634 1 1 1 1 1 1 1 1 1 0.011979353479721578 1 1 1 1 1 1 1 1 1 1 1 1 1 1 1 1 0.010100418751665258 1 1 1 1 1 1 1 1 1 1 1 1 1 1 1 1 1 1 1 1 1 1 1 1 1 1 0.036390053612036968 1 0.035117323272728686 1 1 1 1 1 1 1 1 1 1 0.039297914826595282 1 1 0.010018045915818178 1 1 1 1 1 1 1 1 1 1 1 1 1 1 1 1 1 1 1 1 1 0.010534258787820494 1 1 1 1 1 1 1 1 1 -8.0406318686554457e-09 1 0.010724182992265749 1 1 1 1 1 1 1 0.015074643902268982 1 0.013174227223991452 1 1 1 1 1 1 1 1 1 1 1 0.014460122291731053 1 1 1 1 0.0097111459473061407 1 0.0072450543663586039 1 1 1 1 1 1 0.012550969110169577 1 1 -7.4844750258540316e-09 1 1 -7.503019990029447e-09 1 1 1 0.012003457292845368 0.030341878096439186 0.028129058215817487 1 1 1 1 1 1 1 1 1 1 1 1 1 0.0088768746770842618 1 1 1 1 1 1 1 0.0032988140009046901 1 0.0070550429697555234 1 0.013385334523968208 1 1 0.012754291678268144 0.010026806616230385 1 1 1 1 1 1 0.01108269365789679 1 1 1 1 0.010249025901217245 1 0.0091490807579674982 1 0.010753015487057142 1 0.006835851815868807 1 1 1 1 -7.1430467617206173e-10 1 1 1 1 1 0.0063811152707049235 1 1 1 1 1 1 1 1 1 1 1 1 1 1 0.0095939146654649282 1 1 1 1 1 0.0094550549211119203 1 1 1 0.008302151250064442 1 1 1 1 1 1 1 1 1 1 1 1 1 1 1 1 1 0.020125319168610344 1 1 1 1 0.017114990839233721 1 1 1 1 1 1 0.010145291721198567 1 1 1 1 1 1 1 1 1 1 0.0070070972558678099 1 1 0.011611533936650605 1 0.0099183049882884122 1 1 1 1 1 1 1 1 1 1 1 0.012400145566163104 1 1 1 1 1 1 0.0098333694420286444 1 0.015469604735803786 0.0086941123070915782 1 0.010886824773405399 1 1 1 1 1 1 1 0.011951773576203384 1 1 1 1 1 1 1 1 1 1 1 1 1 1 1 1 0.010614706112749197 1 1 1 1 1 1 1 1 1 1 0.010486716707674065 1 1 1 1 1 1 1 1 1 1 0.011425810188563298 1 1 1 1 0.010939630475620986 1 1 1 1 1 0.017180341469489581 1 1 1 1 0.012423079679113656 1 1 1 1 1 1 1 1 1 1 1 1 1 1 1 1 1 1 0.021921168135747501 1 1 1 1 1 1 1 1 0.013817448963370267 1 0.013012325220596553 0.0099916869344040191 1 1 1 1 1 0.0087570558544499549 1 1 1 1 1 1 1 1 1 1 1 1 1 1 0.0079920814777671365 1 1 0.0088516913591154614 1 0.011701822611442361 0.014008111702932034 1 1 1 1 1 1 0.0083541503369728154 1 1 1 1 0.0090905293851328076 1 0.0092916144928971434 1 1 0.014658462716655508 1 1 1 1 1 1 0.010074393383428946 0.0057675796103428753 1 1 1 1 1 1 1 1 1 1 1 1 1 1 1 0.0088662409462147915 1 1 1 1 1 1 1 0.01037901471338841 1 0.013016739159219241 1 1 1 0.011193059284013353 1 0.013593112888391559 1 1 1 1 1 1 1 1 0.0097652683286198715 1 1 1 1 1 0.012736801812126906 1 -2.3625892249523606e-09 1 1 1 1 0.003166150310719245 1 1 1 1 1 0.0074576870352965896 1 1 1 1 1 1 1 1 1 1 1 1 1 1 1 1 1 1 1 1 1 1 1 1 0.0350031737488391 1 1 1 3.3935294782572178e-09 1 0.035482849473585917 1 1 1 0.0084638516148400414 1 1 1 1 1 1 1 1 1 1 1 1 1 1 1 1 1 0.011399051899918841 0.0094924716554610489 0.012302132271592492 0.0085641445040428449 1 1 1 1 1 1 0.01001199695429969 1 1 1 0.0097620134676765433 1 1 1 1 1 1 1 1 1 1 0.017793326166001822 0.0055278953034119394 0.0095782334268091768 1 1 0.022850308240570598 0.010198357025526508 1 1 1 1 1 1 1 1 1 0.00545766451638003 1 1 1 1 1 1 1 1 0.00020640090375638465 0.01193020140504273 1 1 1 0.0098487690256195623 1 1 1 1 1 1 1 1 1 1 1 0.0020659012573805632 1 0.0094445939991541841 1 1 1 1 1 0.010056788293412028 0.022785958880001712 1 1 0.021195674937508728 0.0029201668871796649 1 1 1 1 1 1 1 1 1 1 1 1 1 1 1 1 1 1 1 1 1 1 1 1 1 1 1 1 1 1 1 1 1 1 1 1 1 1 1 1 1 1 1.8141264532256507e-10 0.008204088613514085 1 1 1 1 1 1 1 1 1 1 1 1 1 1 1 1 1 1 1 1 0.0072493111591014018 1 1 1 1 1 1 1 1 1 1 1 1 1 1 1 1 0.0099588391780808284 1 0.0068146458437011864 1 1 1 1 1 1 1 1 0.0022492302063137591 1 1 1 1 1 1 1 1 1 1 1 0.010029119139592285 1 1 0.013963654093047263 1 1 0.0047259165208004203 1 1 1 1 0.015793201388519099 1 1 1 1 0.0099569634749023389 1 1 0.011992468548782352 1 0.0047515922384931547 1 1 1 1 1 0.0063023703127542685 1 1 1 1 1 1 1 0.0087026552543532296 1 1 1 1 1 1 1 1 1 1 1 1 1 1 1 1 1 1 1 1 1 1 1 1 0.015762674207361618 1 1 1 0.010509245393436199 1 1 0.017880502469547511 1 1 1 0.016648820408890687 1 1 1 1 0.017919603553429184 1 0.019729794017516851 1 1 1 1 1 1 1 1 0.010250870926374771 1 1 1 1 1 1 1 1 1 1 -6.1052506453163069e-09 1 1 0.009693581031556181 1 1 0.0055956841129755075 1 1 0.0030612745747836817 0.016534408812225947 1 1 1 1 1 1 1 0.020014769225852505 0.019243783743442794 1 1 1 0.0083562861765849872 1 1 0.0090007346537709643 0.0099315422257994501 1 1 1 0.013608298544385916 0.013581934166366178 1 0.0076804356166470869 1 1 0.01001640663669269 1 1 1 1 0.011219518236980124 1 0.0074339097363123816 0.0052783490915900427 1 1 1 0.0090944656699026918 1 0.011584012847907561 0.0080707939488085731 1 0.015557736933469058 0.010579462928848538 0.013865946482334407 0.013424702963566255 1 0.012191414854647609 1 0.0083507201623161074 1 0.01145227747775621 1 1 1 0.013227893853745386 1 1 0.007466040852227681 1 0.011218420228830336 0.0085265868323269461 1 1 1 1 0.0085999977374048436 1 0.016712221170445823 0.0080408262548135878 1 1 1 0.014353341520919452 0.008733999077727754 1 1 0.010594660067225196 0.0089536139924437375 1 1 1 1 0.010053529789852918 1 1 1 1 0.010101989867957815 1 1 1 1 0.010269398422144879 1 0.0098074143445057438 1 0.012954676531970896 1 0.012490671863413641 1 0.010051413516450815 1 0.01000265272881181 1 1 1 1 1 0.010323787920974398 1 1 0.013132283514367377 0.0098138688103310175 0.0086686913808287427 1 1 0.0096513178440216091 0.011886040449567174 1 0.010826059643168372 1 1 0.0088850300295108958 1 1 1 1 1 1 0.010310325600567515 1 1 0.01143523334302635 1 0.010102110621224084 1 1 1 1 0.010349393305721787 1 0.0098919976600294335 1 0.0099601794653840781 1 1 1 0.011689467850525829 1 1 0.0099449568591198287 1 0.014164105148872756 1 0.0094115129048212287 1 1 1 1 1 0.012486482763386831 1 1 1 1 1 1 1 1 1 1 0.014803423371458672 1 1 1 1 0.010803823961820853 1 1 0.010151920097907633 1 1 1 1 1 0.010718233034676256 1 1 0.010338403435928352 1 1 1 0.010237513241462323 1 0.0091069169315395153 1 1 1 0.0085678834631251581 1 1 1 1 3.2265030924794047e-11 1 1 1 1 0.0028169395832975952 0.010806998470553017 1 1 1 1 1 1 0.012398662505416762 1 1 0.016316132146173376 1 1 1 1 1 1 1 1 1 1 1 1 1 1 1 1 1 1 1 1 1 1 1 1 1 1 1 1 1 1 1 1 1 1 1 1 1 1 1 1 1 1 1 1 1 1 1 1 1 1 1 1 1 1 1 1 1 1 2.2698189855452355e-09 1 1 1 1 1 1 1 1 1 1 1 1 0.0074750129250994064 1 1 0.00030028570455025577 1 1 1 0.0091661247899133269 1 1 1 1 1 1 1 1 1 1 1 1 1 1 1 0.011779148145459134 1 1 1 1 1 1 1 1 1 1 1 1 1 1 1 1 0.011319288416887091 1 1 1 1 1 1 1 1 1 1 1 1 1 0.0064164469761364314 1 1 0.009892918793214061 1 1 0.013533552082354607 1 0.010126804559008449 1 1 1 1 1 1 1 0.035736196527006762 1 1 1 1 1 1 1 1 1 1 1 1 0.010280050836568305 1 1 1 0.010479275836855021 1 1 1 1 1 1 1 1 1 0.010693650904021482 1 1 1 1 1 1 0.030705205584597023 1 1 1 1 1 1 0.032773926876291166 1 1 1 0.008586604527016024 1 1 1 1 1 1 1 0.0053102572797948605 1 1 1 1 1 1 1 1 1 1 0.028431091908582444 1 1 1 1 1 1 1 1 1 1 1 1 1 1 1 1 0.012103705652196905 1 0.010022255870705502 1 1 1 1 1 1 1 1 1 1 0.0013864738880693932 1 0.0013396748162767327 1 1 1 1 1 1 1 1 1 1 1 0.027540687408928774 1 1 1 1 1 1 1 1 1 1 1 0.026576544812324025 1 1 1 1 1 1 1 0.013154690105929854 1 1 1 1 1 1 1 0.010986138797337544 1 1 1 1 1 1 1 1 1 1 1 0.00671097152119908 1 1 1 1 1 1 1 1 0.027958035192066039 1 0.00044088976949759745 1 1 1 1 1 1 1 1 1 1 0.0091827773368787988 1 1 1 0.0081402119482541155 1 1 1 1 1 1 1 1 1 -4.2254577475864252e-09 1 1 1 1 1 1 1 1 1 1 1 1 1 1 1 1 0.01061853593605973 1 1 1 1 1 1 1 1 1 1 1 1 1 1 1 1 1 1 0.013297420523081048 1 1 0.018268880522941511 1 1 0.0094470733976726 1 1 1 1 1 0.0081220805310110999 1 1 1 1 1 1 1 1 1 1 1 1 1 1 1 1 1 1 1 1 1 1 1 1 1 1 1 1 1 1 1 1 1 1 1 1 1 1 1 1 1 1 1 1 1 1 1 1 1 1 1 1 1 1 1 1 1 1 1 0.010282427478036822 1 1 0.011920242305696712 1 1 1 1 1 1 1 1 1 1 1 1 1 1 1 1 1 1 1 1 1 1 1 1 0.0094487732110082791 0.0077286154833053171 1 1 1 1 1 1 1 1 1 1 1 1 1 1 1 1 0.010279045642419006 0.0016925884035311131 1 1 1 1 1 1 1 0.0081460837323338101 1 0.016253357286919266 1 1 0.015809990036209694 0.010065595720800666 1 1 1 1 1 1 1 1 1 1 1 0.0099667210789875539 1 0.024445708539126219 1 1 1 0.019685381223462355 1 1 1 0.0040232088303598611 1 -1.4593137323548611e-09 1 1 1 1 1 0.0047135517801925181 0.0063593111600192091 1 1 1 1 1 1 1 1 1 1 1 1 1 1 1 1 1 1 1 1 1 1 1 1 1 1 1 1 1 1 1 1 1 1 1 1 1 1 1 1 1 1 1 1 1 1 1 1 1 1 1 1 1 1 1 1 1 1 1 1 1 1 1 1 1 1 1 1 1 1 1 1 1 1 1 1 1 1 1 1 1 1 1 1 1 1 1 1 1 1 1 1 1 1 1 1 1 1 1 1 1 1 1 1 0.0036659747514943171 0.01342377428055048 1 0.0018074009844426114 1 0.010330633900705221 1 1 0.0053146843683096086 1 1 1 1 0.0095983594365611127 1 1 1 1 1 1 1 0.00048829911859792768 0.0087278753232841819 0.0077363160221156375 1 1 1 1 1 -7.8465595132470867e-11 0.0059896189898657262 1 1 1 1 1 1 1 1 1 1 1 1 1 1 1 1 1 1 1 1 1 1 1 1 1 1 1 1 1 1 1 1 1 1 0.014485231338238567 1 1 0.011721605527936666 1 1 1 1 1 1 1 1 1 1 1 0.010052309521762838 1 1 1 1 1 1 1 0.010082367430924319 1 1 1 1 1 1 1 1 1 1 1 1 1 1 1 1 0.0034541928228978358 1 1 0.013939599893714839 1 1 1 1 1 1 1 1 1 1 1 1 1 1 1 1 1 1 1 1 1 1 1 0.0099533896303611903 1 1 0.010810273091215013 1 1 0.010181394501240842 1 1 1 1 1 1 1 0.010211452410402323 1 1 1 1 1 1 0.010076931629157499 1 1 0.010252200789044241 1 1 1 1 0.0095625741551936313 1 0.0096914394265703412 1 1 0.0025584813523994343 1 1 1 1 0.0091321621429587829 1 0.00058500415575193617 1 1 -1.505746334909408e-09 1 1 1 1 1 1 1 1 1 1 1 1 0.016055325266147863 1 1 1 4.1916238622402568e-09 1 1 0.00061414970937974638 1 1 1 1 0.010273253685283557 1 1 1 1 1 1 1 1 1 1 0.010106413695974467 1 1 1 1 1 1 1 1 1 1 0.0068546140784730425 1 1 1 1 1 1 1 1 1 1 1 1 0.0047374692393360104 1 1 0.0083919912235490383 1 1 1 1 1 1 1 1 1 1 0.0065835774004250891 1 1 1 1 1 0.0072955924850895302 1 0.0091495048969753214 0.0056786903980934316 1 1 0.0068000609177320294 1 1 1 1 1 1 1 1 1 0.0101482771968914 0.0059986464509469662 1 1 1 1 1 1 0.0095248228367175516 1 1 1 1 1 1 1 1 1 1 1 1 1 1 1 1 1 1 1 1 1 1 1 1 1 0.0096721739466648568 1 1 1 1 1 1 1 1 1 1 1 1 1 1 1 1 1 1 1 1 1 1 1 1 1 1 1 1 1 1 1 1 1 1 1 1 1 1 1 1 0.0068057936964285512 1 1 1 1 1 1 1 1 1 1 0.009253779396152767 1 1 1 0.0063603157185428381 1 0.0060590064408668053 1 1 1 0.011414408982766799 1 1 1 0.0099939582470035572 1 0.003496286662473886 1 0.005071736795778263 1 0.004681145124336197 0.01206696907473169 1 1 0.014529557949487612 1 1 1 0.010737853918014812 1 1 1 1 1 0.010246802983891197 1 1 1 1 0.013676099690875063 1 1 1 0.014408418931353419 1 1 1 1 0.018090839828519251 1 0.009899401332012633 1 1 1 1 1 1 1 1 1 1 1 1 1 1 0.0099253663701793851 1 1 1 1 0.0019359914620051969 1 1 0.0046087933793896672 1 1 0.014158669789116148 0.0099416511959200676 1 1 0.0079007053906709306 1 0.0065684409129021185 1 1 1 0.015068744911155098 0.012960627461346397 0.0052600939964669614 0.014826786280584363 1 1 0.010339290288110009 1 1 1 1 0.006436632226516463 1 0.0071579593356502075 1 1 0.01215547503987289 0.0050015777217321186 0.0098028999245425262 1 0.0030367990692968449 1 1 0.01281385895771936 0.0011639280247593958 0.0018499804815733292 1 1 1 1 1 1 1 1 1 0.019117211811342454 0.014939850821351991 1 1 1 1 0.015714471501046434 0.015258796389212625 1 1 1 5.0451205400869892e-09 1 -6.4241765379557947e-09 1 1 1 1 1 1 1 1 1 1 1 0.00022359473252316076 1 1 1 1 1 1 1 1 1 1 1 1 1 1 1 1 1 1 1 1 1 1 1 0.011380762508740245 1 1 1 1 1 1 1 1 1 1 1 1 1 1 1 1 9.4681957884753393e-05 1 1 0.013859926474037974 1 1 1 1 1 1 1 1 1 0.006550102056522014 1 1 1 0.0093221678218481895 0.0027819720371897762 1 1 0.0099811800362591373 1 1 1 1 1 0.0053959000364612068 1 0.009283916579260804 1 1 1 0.0078256295078440643 1 1 1 1 1 1 1 0.0035299928322435579 1 1 0.009278047601791975 1 1 1 1 -1.4806865039629358e-09 1 1 1 0.0081037618604749943 0.010080507039270296 1 1 0.011558043734573276 1 1 1 0.00025309171411655104 1 1 1 1 1 1 1 -3.9444023117174432e-09 1 1 -3.1217899966462515e-09 1 0.010880774035563189 0.015409886112415297 0.0029041105724898764 1 0.014835343092746082 1 -6.5344595290284246e-09 2.484314566564283e-09 1 1 1 1 1 1 -1.18404403365302e-08 1 1 5.7621308835464902e-09 1 1 1 1 1 1 1 1 1 1 1 1 1 1 1 1 1 1 1 1 1 1 1 1 1 1 1 1 1 1 1 1 1 1 1 0.010212950729877102 0.017755188137517974 1 1 1 1 1 1 1 1 0.014831554091776319 0.0068787158855784999 0.008060192860523771 0.016987337627579861 1 1 0.012017266726814003 1 1 1 1 1 1 1 1 0.011075957108357619 1 1 0.0096621885961644238 1 1 1 0.0090577760240871767 1 1 1 1 0.0085235397250488232 1 1 1 1 1 1 1 1 1 1 1 1 1 1 0.027872524070289437 1 1 1 1 1 0.0069587536412009827 1 1 1 1 1 1 1 1 0.0069263617056398476 1 1 1 0.0090402378585395116 0.01324187208570579 1 1 0.008456497734536203 0.0085688017308712498 1 1 1 1 1 0.0093997568404503642 1 1 1 1 1 1 0.010389143118381711 1 0.013788885361696902 1 1 1 1 1 1 1 1 0.019530540203969576 0.020453306199867911 1 0.016787995549828447 0.007842142952040991 0.013722562470176003 1 0.017431690853730829 1 1 1 1 1 1 0.014486880013963893 1 1 1 1 1 1 1 0.011502872482251238 1 1 1 1 1 1 1 1 1 1 1 1 1 1 1 1 1 1 1 1 1 1 1 1 1 1 1 1 1 1 1 1 1 1 1 1 1 1 1 1 1 1 1 1 1 1 1 1 1 1 1 1 1 1 1 1 1 0.0098095349846561951 1 1 1 1 1 1 1 0.0094495390890249071 1 1 0.0042845205752826323 1 1 1 0.0017186471099878281 1 0.010005387543502629 1 1 0.0099677460480122222 1 1 1 1 1 1 1 0.00092589522261564243 1 1 1 0.012841525596006138 1 1 1 1 1 1 1 0.0096744266435947138 1 0.0096912863095876961 1 1 1 1 1 1 1 1 1 1 1 1 1 1 1 1 1 1 1 1 1 1 1 1 1 0.010025689428381203 0.024149112653231178 1 0.0051785187156576686 1 1 1 1 1 1 1 0.010728138347237461 1 0.010598480251361194 1 0.014683261333139764 0.0041213831924007613 0.0094796850801152251 1 1 0.0090812347021044237 1 1 0.0069121354864980743 1 1 1 0.0089615422933878881 1 1 1 1 1 1 1 0.018616998956553658 0.0048977809326604983 1 1 0.019256058368931857 1 1 1 0.0086305750573050788 1 1 1 1 0.015267848067137865 1 0.0065099485840238239 1 1 1 1 1 1 0.010095730381386267 1 0.0099702994972514156 1 1 1 1 1 0.0098911893358329186 1 1 0.0099462212636343972 1 1 1 1 1 1 1 1 1 1 1 1 1 1 1 1 0.010039548994892608 1 1 0.01266387766710661 0.010001519729814577 1 0.0098961034865248723 1 1 1 1 1 1 1 1 0.0094678172046390261 1 1 1 1 1 1 1 1 1 1 1 1 1 1 1 1 0.0022087742488255194 1 1 1 0.0099449650600293704 1 1 -1.7044417405243095e-09 1 1 1 1 1 1 -1.5472868125643302e-09 1 1 1 1 1 1 1 1 1 1 1 1 1 1 1 1 1 1 1 0.017031188828290203 0.0099542570900490665 1 1 1 1 1 1 1 0.010690270153627553 1 1 1 0.010052529102474094 1 1 0.016193696010123014 1 0.015301601831328435 1 1 0.014637880061636206 1 0.011564674586893102 0.0070234616279503878 1 0.012850724475978403 1 0.0091876088684062079 1 0.009412465139182917 1 1 1 1 1 1 1 1 1 1 1 1 1 1 1 0.0094309896890138606 0.010805899032351695 1 1 1 1 1 1 1 0.01858354578247378 1 1 1 1 1 1 1 1 1 1 1 1 1 1 1 0.013990581505653618 1 0.010419373211270386 1 1 1 1 1 1 0.014658846964725835 1 1 1 0.020116171842381982 1 1 1 0.01105377439294665 1 1 1 1 1 1 1 1 1 1 1 1 1 1 1 1 1 1 1 1 1 0.0099328300712569068 1 1 1 1 0.010128536637823968 1 1 1 1 1 0.0082614974098680488 1 1 1 0.0092297992737290432 1 1 1 1 1 1 1 1 1 1 1 1 0.010742685601744699 1 1 1 1 0.010346894957510282 1 1 1 1 1 1 1 1 0.0104331104950924 1 1 1 1 1 1 1 0.013214544768166504 1 1 1 1 0.010311186492640304 1 1 1 1 1 1 1 1 0.010496684776043805 1 1 1 1 1 1 1 1 1 0.013300918266195352 1 1 1 1 1 1 1 1 1 1 1 1 1 1 1 1 1 1 1 1 1 1 1 1 1 1 1 1 0.01169168517808835 1 1 1 1 1 1 1 0.016245118676167077 1 1 1 1 1 1 1 1 1 1 1 1 1 1 1 1 1 1 1 1 1 1 1 1 1 1 1 1 1 0.010634401181676266 1 1 1 1 1 1 1 1 1 1 1 1 1 1 1 1 1 1 1 1 1 1 1 1 1 1 1 1 1 1 1 1 0.0085253675298017986 1 1 0.0092473199280098568 1 1 1 1 0.0001015333864553547 1 1 0.00099348067191558018 1 1 1 1 0.0022893745146373781 1 1 1 0.00098918454717143028 1 1 1 0.0088816396244023738 1 1 1 1 1 1 1 1 1 1 0.0066769101834350669 1 1 0.020555942607270741 1 1 1 1 1 1 0.00081191431595210167 1 1 1 1 1 0.021057213418784734 1 1 1 1 0.021337383880267513 1 1 1 1 1 1 1 1 1 1 0.021146884719086344 1 1 1 1 1 1 1 1 1 0.0088377268591449953 1 1 1 1 1 1 1 1 1 1 1 1 1 0.0011448176020754444 1 1 1 1 1 1 1 0.0081923152714378777 1 1 1 1 1 0.011747456541236897 1 1 1 1 1 1 1 1 1 1 1 1 1 1 0.009482866562525654 1 1 1 1 1 1 1 1 0.0075471755680572294 1 1 1 1 1 1 1 1 1 1 1 1 1 1 1 1 1 1 1 1 1 1 1 1 1 1 1 1 1 1 1 1 1 0.0059659294815755104 1 1 1 1 0.0099046023152547236 1.6113812638385294e-08 1 1 0.0099037475533424388 1 1 0.014683611015749644 1 1 0.0040569767515453367 1 1 1 1 1 1 1 1 1 1 1 1 1 1 1 1 1 1 1 0.0026228904959305077 1 1 1 1 0.001665749054348159 1 1 1 1 1 1 1 1 1 1 1 1 1 1 1 1 1 1 1 1 1 1 1 1 1 1 1 1 1 1 1 1 1 1 1 1 1 1 1 1 1 1 1 1 1 1 1 1 1 1 1 1 1 1 1 1 1 1 1 1 1 1 1 1 1 1 1 1 1 1 1 0.0058594831131670612 1 1 1 1 0.0042558752939135872 1 0.0069980328555891078 1 1 0.0065613459653852679 1 1 1 1 0.0018210669617888219 1 1 0.010184694566173914 1 1 1 1 1 1 1 1 1 1 1 1 1 1 1 1 1 1 1 1 1 1 1 1 1 1 1 1 1 1 1 1 1 1 1 1 1 1 1 1 1 1 1 1 1 1 1 1 1 1 1 1 1 1 1 1 1 1 1 1 0.008561113637854903 1 1 1 1 1 1 1 1 1 0.0094952191210920522 1 1 1 1 1 1 1 0.008190012837843999 1 1 1 1 1 1 1 1 1 1 1 1 1 1 1 1 1 1 1 -3.038941563671127e-09 0.034583473884176263 1 1 0.010243617198404838 1 0.0060708899235489729 1 1 1 1 1 1 1 1 1 1 1 1 1 1 1 1 1 1 1 1 1 1 1 1 1 1 1 1 1 1 1 1 1 1 1 1 1 1 1 1 1 1 1 1 1 1 1 1 1 1 1 1 1 1 1 0.0035565535614472989 0.0042057126654029831 1 1 1 1 1 1 1 1 1 1 1 1 1 1 1 1 1 1 1 1 0.0074485629521495907 1 1 1 1 1 1 1 1 1 1 0.0088565381604453867 1 1 1 2.727503826960298e-09 1 1 1 1 1 1 0.0070013182838998544 1 1 1 1 1 1 1 1 1 1 1 1 1 0.00044000577990772893 1 1 1 1 1 1 0.00298571113959957 0.0098436169453480719 1 2.476237832838013e-09 1 1 0.010183750769160463 1 1 1 0.0020577897103342523 1 1 1 0.0042793474572313805 1 1 1 1 1 0.009604424145976044 1 0.0014345103896638844 1 1 1 1 0.021790230787673313 1 1 1 1 0.0041015772945762197 1 0.0053705315785725904 1 1 0.0096835943255078136 0.0099195829765231537 1 1 1 1 1 0.010794618974956028 1 1 1 1 1 0.011910897148984714 0.0087908721943856932 0.0096248716105129008 1 0.004558563188368607 1 0.0099956851396260579 1 1 1 1 1 0.009345527352991375 1 1 1 1 1 1 1 1 0.010094469379390333 0.0069523899666095873 1 1 0.0078657352251637475 1 1 1 1 0.0073679245755803521 1 1 0.010829089492518269 1 1 0.009941518675138844 1 1 1 1 1 1 1 1 1 0.0098516369201399681 1 1 1 1 1 1 1 1 0.0090218707636619613 1 1 1 1 1 1 1 1 1 0.010450288231416992 0.0048466183890208542 1 1 1 1 1 1 1 1 1 1 1 1 1 1 1 1 1 1 1 1 1 1 1 1 1 1 1 1 1 1 1 1 1 1 1 0.0054003795802520238 1 1 1 1 0.0099112952062432383 1 1 1 1 1 1 1 1 1 1 1 1 1 1 1 1 0.0050970420556980395 0.0043138092331780134 1 1 1 1 1 1 1 1 1 0.0047402887741825536 1 1 1 1 0.007563979922225933 1 1 0.0079367266030957416 1 1 1 1 1 1 1 1 1 1 1 1 1 0.00860849184483891 1 1 1 1 1 1 1 1 1 1 1 1 1 1 1 1 1 1 1 1 1 1 1 1 1 0.010449197932528256 1 1 1 1 1 0.0099205412397133999 1 1 1 0.012055310715624948 1 1 1 0.007444655481289246 0.0071280188321184157 1 1 1 1 1 1 1 1 1 1 1 1 1 1 0.010206848017860634 1 1 1 0.0051881386570467869 1 1 1 1 0.0087180102818962962 0.010206629473523104 1 1 1 1 1 1 1 1 1 1 1 1 1 1 1 1 1 1 1 1 1 1 1 0.005954085112290947 1 1 1 1 1 1 1 1 1 0.0075364784523889103 1 1 1 1 0.0085986663105888476 1 0.0073756525365635817 1 1 1 1 0.01001339564969897 1 1 1 1 1 1 1 1 1 1 1 1 1 1 1 0.011456922062535804 1 1 0.01412646317802544 1 1 1 1 1 1 1 1 1 1 0.018849417617828906 0.019001084697456774 1 1 1 1 0.0032978731184768306 1 1 1 6.48422968443918e-09 1 1 1 1 0.010351155638022587 0.010164308799345365 1 0.019251438646613508 1 0.028225897623322872 1 0.025835146544407731 1 1 0.0033400569740065188 1 1 0.018326334036587615 1 1 0.0049134638644935148 1 1 1 0.027454007750635709 1 1 0.0099988526376971545 1 0.038571107463449723 1 0.00036246512116345272 1 1 0.033432019793965179 1 1 1 1 1 1 1 1 1 1 1 1 1 0.0096613302582614947 1 1 1 1 1 1 1 1 1 1 1 1 1 1 1 1 0.0084661209175716859 0.0098448985686106633 1 1 1 1 1 0.0070003662237785418 1 1 1 1 0.0062431855042065412 1 1 0.011696083680489126 1 1 1 1 0.0086974365999739935 1 1 1 1 1 1 1 1 1 1 1 1 1 1 1 1 1 1 1 1 1 1 1 1 1 1 1 1 1 1 1 1 1 1 1 1 1 1 0.0092449281863713831 1 1 1 1 1 1 1 1 1 1 1 1 1 0.0088688804400431573 1 0.0067777043065346231 1 1 1 1 0.0038771937035119233 1 1 1 1 1 1 1 1 1 1 1 1 1 1 1 1 1 1 0.0068484286878002232 1 0.0090542071314965722 1 1 0.0030284044299418306 1 1 1 4.5348974111188156e-05 1 1 1 1 1 1 1 1 1 1 1 1 1 1 1 1 1 1 1 1 1 1 1 1 1 1 1 0.0096814791432860495 1 1 0.0081291574335353861 1 1 1 1 1 1 1 1 1 1 1 1 1 1 1 1 1 1 1 1 1 1 1 1 1 1 1 1 1 1 1 1 1 1 1 0.0088842292471640119 1 0.0080979187169465464 1 1 1 1 1 1 1 1 1 1 1 1 1 1 1 1 1 0.0088989046283375686 0.0089902055365255768 1 1 1 1 1 0.011451600070681266 1 1 1 1 0.012776507978606161 1 1 1 1 0.010167159914559593 1 1 1 1 1 1 1 1 1 1 1 1 1 1 1 1 1 1 0.010091300908187972 1 1 1 1 1 1 0.012583624818272608 1 1 0.017454911338093852 1 1 1 1 1 1 1 1 1 1 1 1 0.010300048729435921 1 1 0.010329367927437987 1 1 1 1 1 1 1 1 0.01013784071655746 1 1 1 1 1 1 0.010749027437068133 1 1 0.012073935344993007 1 1 1 1 1 1 1 1 1 1 1 1 1 1 1 1 1 1 1 1 1 1 1 1 1 1 1 1 1 1 1 1 1 1 1 1 0.0082915952620224373 1 1 1 0.0063468056345383841 1 1 0.0087946439991119819 1 1 1 1 1 1 0.0090102444124304931 1 1 1 1 1 0.0096214098582816515 1 1 1 1 1 1 0.011387042738564959 1 1 1 1 0.00026136188891603615 1 0.001977109967546329 1 1 0.0057379096334310674 1 1 1 0.0080552103725159731 1 1 1 1 1 1 1 1 1 1 1 1 1 0.011107040423977581 1 1 1 1 1 1 1 1 1 1 1 1 1 1 1 1 1 1 1 1 1 1 1 1 0.0099908846599355838 1 0.0099749725038419321 1 0.014719878684255089 1 0.017005728747607356 1 1 1 1 0.010405778628623859 1 1 1 1 0.011493168344590892 1 1 1 1 1 1 1 1 1 1 1 1 1 1 0.01407864727252506 1 1 1 0.016299827662612905 1 1 1 0.0094797378248743305 1 1 0.0088205973126209425 1 1 1 0.0098022556531506023 1 1 1 1 0.0077107688335402852 1 1 1 1 0.0084025040032588982 1 1 1 1 1 1 1 1 1 1 0.0031480687999409212 1 1 1 1 1 0.00388606534108785 1 0.0099777256159369124 1 1 1 1 1 0.0043181073825410352 0.0052225561968706584 1 1 0.012433223153956592 1 0.0099863142968894675 1 1 0.0095954738576484854 1 1 1 1 1 1 1 1 1 1 1 1 1 0.01913295545290012 1 1 1 1 1 0.0026637492758547331 1 1 1 1 1 1 1 1 1 1 0.019870941663926729 1 0.028796138445862977 1 1 5.5816946516185073e-09 1 1 0.010550620944551989 1 0.0098699978346384887 1 0.016853774807337449 1 1 1 1 1 0.019570168751406748 0.018165110795046041 1 1 1 1 1 1 1 1 1 1 1 0.010586169649581735 1 1 1 1 1 0.010096080586086091 1 1 1 0.011124667889637636 1 0.0090033420005666553 1 1 1 1 1 1 1 1 1 1 1 1 1 1 1 0.0098222621176376618 1 1 1 1 0.0096424599914946355 1 1 1 1 1 1 1 1 1 1 1 1 1 1 1 1 1 1 1 1 1 1 1 0.0098201978738569756 1 1 -4.4799742604864634e-09 1 1 1 1 1 1 1 0.010614960284489963 1 1 0.0033423113457552219 1 4.4493910465737141e-09 1 1 1 1 1 1 1 1 1 0.0073161132152532371 1 1 0.0065048923921688659 1 1 1 0.0096483320451037947 1 1 1 1 1 1 1 0.012579225541262782 1 1 1 1 0.0089669397643761597 0.011625467778656987 1 1 1 1 1 1 1 1 1 0.011064613040694581 1 1 1 1 1 1 1 1 1 1 1 1 1 1 1 1 0.0082875843401491248 1 0.0086504040571882268 1 1 1 0.0045581157226947562 1 1 1 1 1 1 1 1 1 1 1 1 1 0.0055211823007166698 1 1 1 1 1 0.0096995317471110475 1 1 1 0.0019275198672167818 0.0098525770348140522 1 1 1 4.4711803010022422e-10 1 1 0.0070047312591920499 1 1 1 1 0.0016779320898820415 0.0098160188902021179 1 1 1 0.01203126539834908 1 1 0.010685076790747983 1 1 1 1 0.020457830954856742 1 0.017855607547307941 1 1 1 0.022274890628394547 1 1 1 1 1 1 1 1 1 1 1 1 1 1 1 1 1 1 1 1 1 0.01205160713054034 1 1 1 1 1 1 1 1 1 0.0067716313700559392 1 1 1 0.010798451845844378 1 0.0092291114417550613 1 1 1 1 1 1 1 1 1 1 1 0.012332658564925844 1 1 1 1 1 0.017701497472234828 1 1 1 1 1 0.00023245481165865695 1 1 1 1 1 1 1 1 1 1 1 1 1 1 1 1 9.0018749399067843e-11 1 1 1 1 1 1 1 1 1 0.00059078571655075962 1 1 1 1 1 1 1 1 1 1 1 1 1 1 1 0.01028564980440623 1 1 1 1 1 1 1 1 1 1 1 1 1 1 1 1 1 1 1 1 1 1 1 1 1 1 1 1 1 6.3206238160029571e-10 1 1 1 1 0.011857753171630618 1 0.0033898750562321375 0.010245204760635465 1 1 1 1 1 1 0.0081846755459105275 1 0.01701256378659384 1 1 1 0.0098884412643858721 1 1 -4.4992369552243616e-10 1 1 1 1 1 1 0.0093522925108890306 1 1 1 1 1 1 1 0.011573441548494059 1 1 1 1 0.014134600313061393 1 1 1 1 1 1 0.0099632087161479685 1 1 1 1 1 1 1 1 1 1 1 1 0.010515278449657769 1 0.010160953062997344 1 1 1 1 1 1 1 0.011126039037336184 0.0089220833855402429 1 1 1 1 1 1 1 1 0.0096862529603374686 1 1 1 0.0070339548040170355 1 1 0.0089579762952204448 1 1 1 1 1 1 1 1 1 1 1 1 1 1 1 1 1 1 1 1 1 1 1 1 1 0.009642859509985495 1 1 0.0095254164098238781 1 1 1 1 1 0.0094661385827667227 1 1 0.0084605243736400257 1 0.0035139400938570473 1 1 1 0.010217464181180892 1 1 1 1 0.0054061819022514154 1 1 0.0095071998292968543 0.0098480894875958049 1 1 1 1 1 0.0099208551875382689 1 1 0.010705747241812655 1 1 1 1 1 0.010216865655867061 1 1 1 1 1 1 1 1 1 0.0099043121776670739 1 1 1 1 0.0097957857566473017 1 1 1 1 1 1 0.012039176836704843 1 0.014235407643126212 1 1 1 0.0012096503598537645 1 0.036350384116866391 1 1 0.014071484763428052 1 0.0099969526397209706 1 1 1 0.0098423266942389703 1 1 1 1 1 1 1 1 1 1 1 1 1 0.029514006368277015 1 1 1 1 0.034643944494085553 1 1 1 1 1 1 0.0084655278147258983 1 1 1 1 1 1 1 0.012238498779005713 1 1 1 1 1 1 0.016171736778124439 1 1 1 1 1 1 1 0.019233047375300405 1 1 0.0015048239996487273 1 1 1 1 1 1 1 1 1 0.0083612442001327891 2.2153313836148492e-09 1 1 1 1 1 1 1 1 1 1 1 1 0.0091792968479984804 1 1 1 1 1 1 1 0.0052275428718908043 1 1 1 0.012226006519702459 1 0.0021883214198800405 1 1 0.013224316867841049 1 1 1 1 1 0.00017870373258156713 1 1 1 0.0095541461180099693 1 1 1 1 0.0090718372909824457 1 1 1 0.010144064196606784 1 1 1 1 1 1 1 0.017515748437279956 1 1 0.012705725607418956 1 1 1 0.0066307450883314814 1 1 1 0.0039739644338298574 1 1 1 1 0.0085990478898076705 1 1 1 0.015727467799409922 1 1 1 1 1 1 1 1 1 0.011650726382814496 1 1 1 1 1 1 1 1 1 0.014973619602375719 1 1 1 1 0.012929357249314107 1 1 0.018289620043017846 1 1 1 1 1 1 1 1 1 1 1 1 1 1 1 1 1 1 1 1 1 1 1 1 1 1 0.011701997248262239 1 1 1 1 1 1 1 1 1 1 1 0.014337437028406655 1 1 1 0.0089011199971444199 1 1 1 1 1 1 0.0096726642537571499 1 1 1 1 1 1 1 1 1 1 1 1 1 1 1 1 1 1 1 1 1 1 1 1 1 1 0.012674256483488713 1 0.0066406554988561392 1 1 0.011685194710330044 0.0086811905108714893 1 1 1 1 1 1 1 1 1 1 1 1 1 1 1 1 1 0.011236925143243868 1 1 1 1 1 1 1 1 1 1 1 1 1 1 1 1 1 1 1 1 1 1 1 1 1 1 1 1 1 1 1 1 1 1 1 1 1 1 1 1 1 1 1 1 1 1 1 1 1 1 1 1 1 1 1 1 1 1 1 1 1 0.009475382889335221 1 1 0.0086450022211852703 1 1 1 1 0.007802702820900051 1 1 1 1 1 1 1 1 1 1 0.010003784301286039 1 0.026476241040109996 1 1 1 0.034587154536543513 1 1 1 0.0095240252917637991 1 0.008721607039580543 1 1 1 0.011286806753981325 1 0.0084624652033898143 1 0.0129704791573834 1 1 1 0.021314918850000183 1 1 1 1 0.0092831683553913011 1 0.014989089777571712 1 1 1 1 1 0.0098743929928195723 1 0.01024773443595451 3.5996122055292901e-10 1 1 1 1 1 1 0.012468840875212044 1 1 1 0.010089494470425786 1 1 1 1 1 1 1 1 1 1 1 1 1 1 1 1 1 1 1 0.010087823072957027 1 1 1 0.017238393246224233 0.01026697251356827 1 1 1 1 1 0.008312097629915971 1 1 1 1 1 1 1 1 1 1 1 1 1 1 0.0089314771128096021 1 1 0.020836262737919126 1 0.0252885496962569 1 1 1 0.0092419739230082606 1 2.7729811502563706e-11 1 1 0.014545840716454921 1 1 1 1 1 1 1 1 1 1 1 0.0036480925627829473 1 1 1 1 1 1 1 1 1 1 0.018976358481005411 0.0093437186495986344 1 1 1 1 1 1 1 0.0041441061474745081 1 1 1 1 1 1 1 1 1 1 1 1 1 1 0.0075469936100557942 1 1 1 1 1 1 1 1 1 1 0.0083692577474339478 1 1 1 0.0048930844388157717 1 0.00064579349461113197 0.026450459409395107 1 1 1 1 1 1 1 1 1.5421370430646064e-10 1 1 1 1 1 1 1 1 1 0.0089029732823237562 1 0.012955588085940536 1 0.011033287471267868 1 1 1 1 1 1 1 1 0.0067013009756678264 1 0.0079058805636419115 1 1 1 1 1 1 0.03174367549341852 1 1 3.1413807666247351e-10 1 0.016229357218227759 1 1 1 1 1 1 1 1 1 1 1 1 1 1 0.018319455512745511 1 1 1 1 1 1 1 1 1 1 0.011580310069819251 1 1 1 1 1 1 0.0094726684060856964 1 1 1 1 1 1 1 1 1 1 1 1 1 1 1 1 1 1 1 1 1 1 1 1 1 0.0093522678169949275 1 1 1 1 1 0.0084162569443054849 1 1 1 1 1 1 1 1 1 1 1 0.010105697606553596 1 1 1 1 0.0054141151099810908 1 1 1 1 1 0.0046047426281515744 1 1 1 1 1 0.0032295706498745372 1 1 0.0016919149826041258 1 1 1 1 1 1 1 1 1 1 1 1 1 1 1 1 1 1 1 1 1 1 1 1 1 1 0.010185414439709689 1 1 0.010185389512453472 1 1 1 1 1 1 1 1 1 1 1 1 1 1 1 0.0096327781991549302 1 1 1 1 1 1 1 1 1 0.0091054466052406108 1 1 1 1 1 1 1 0.0078826962886402729 1 1 1 1 1 0.010183995453744654 1 1 1 1 1 1 0.0062445069472264608 1 1 1 1 0.0079832963099695509 1 1 1 1 1 1 1 0.010078297847191074 1 1 0.0077195313290984585 1 1 0.0082201909698640732 1 1 1 1 0.0099643022204269141 1 1 1 1 1 1 1 1 0.010952633504636218 1 1 0.015529546177916737 1 1 1 1 1 1 1 1 1 0.010647794063473114 1 1 1 1 1 0.009089699775771419 1 1 1 1 0.011932595828035821 1 1 1 0.0093199352487257706 1 1 1 1 1 1 1 1 1 1 1 0.0099298249378023742 0.00994586374486333 1 1 1 1 1 1 1 1 1 1 1 0.012434291603853346 1 1 1 1 1 0.0085642274241801361 1 0.0046610958551896384 0.012278339643332782 1 0.0098224039532352689 0.016116092229180579 1 1 0.0098595753239426112 1 1 1 1 1 1 0.0041299717699831914 1 0.009031422149280717 0.01002528177833114 1 1 1 1 1 0.010090685940032131 1 1 1 1 1 1 1 1 0.0053158951575893384 1 1 1 1 0.011307099966185286 1 1 1 1 1 0.010282339146786952 1 1 0.0067396575141052597 1 1 1 1 1 1 1 0.013734915999886993 1 0.008803199802079005 1 1 1 1 1 1 1 0.0070750873661022048 0.0097417580986350477 1 1 1 1 1 1 1 0.0098415128215424766 1 1 1 1 1 1 0.0090643329060140568 1 1 1 1 1 1 1 1 1 1 1 1 1 1 0.012234651326911372 1 1 0.010746107479756489 1 1 1 1 0.0091600391266748599 1 1 1 1 0.017362990039674162 1 1 1 1 1 1 0.01930119744397199 1 1 1 1 1 1 1 0.010288821202294171 1 1 1 0.0071210199095376771 1 1 1 1 0.021428341748313338 1 1 0.0062160658842453261 1 1 1 1 1 1 1 0.01934473159474516 1 1 1 1 0.018139736264411711 1 0.0098886803045691776 1 1 1 1 1 1 1 1 1 1 1 1 1 1 0.0072154714454990346 1 1 1 1 1 1 1 0.0050164829750579051 1 1 0.007580882419799425 1 1 0.010082966813595072 1 1 1 1 1 1 1 1 1 0.015522638385598822 1 1 1 0.014215882689682137 1 1 1 1 1 1 1 1 1 0.012608677236783307 1 1 1 1 1 1 1 1 1 1 1 0.0093515037084686212 1 1 1 0.010853524642061609 1 1 1 1 1 1 1 1 1 1 1 0.0087803341930429088 1 1 1 1 1 1 1 1 1 1 0.0090730800278548684 1 1 1 1 1 0.014274716044461774 1 1 1 1 1 1 1 1 0.010360721086527851 1 1 0.014970799436176234 1 1 0.014675550193445103 1 1 1 1 0.015241839144862865 0.012149003933065059 1 1 1 1 0.0070589057233061483 1 1 1 1 0.011198676769584793 1 1 0.010370536100538905 1 1 1 1 -8.4047293430478121e-11 1 1 0.0036641058316436576 1 1 1 1 1 0.0074788073763688845 1 1 1 1 1 1 1 1 -1.9923282364164852e-09 1 0.010213778104311209 1 1 1 1 1 1 1 1 1 0.019669388193289606 0.00063897259239707391 1 1 1 1 1 1 1.4875315111628762e-09 1 1 0.025475540625471395 1 1 0.027262745559767886 1 0.0095977478828007702 1 1 1 0.011300984608732162 1 1 0.010535592924964841 1 1 1 1 1 1 1 1 0.014972786859338087 0.014674055102526637 1 1 0.0024543874709661018 0.0072961848470946 1 1 1 1 0.0017398793470637178 1 1 1 0.0053435862307870813 1 0.0099681502306810891 1 0.016376403917450648 1.2322296308320269e-10 0.00057077526008924087 1 0.01255933599223738 1 1 1 0.011514036651628468 1 1 1 1 1 1 1 1 1 1.2973625836826264e-09 1 1 8.6004247647208931e-10 1 1 1 1 1 1 0.01469965000387187 1 1 1 1 1 1 0.010045063797561912 0.010569820370689539 0.013589709781358306 1 1 1 1 1 1 1 1 1 1 1 0.023382945891940232 1 1 1 1 0.00013590078173412665 1 1 1 1 1 1 1 1 0.0024357049263140345 1 1 0.021374739710074461 1 1 1 0.011370179908614551 1 1 1 1 1 1 1 1 1 0.0091265945275653196 1 1 1 1 1 1 1 1 3.0486874218714488e-09 1 1 1 3.4632497555517339e-09 1 1 0.026172088753394111 1 1 1 0.0073921347141686477 1 0.025987093923483032 1 1 0.00059373136721829149 1 -2.6243997652136697e-09 1 1 0.0092775585200438708 1 1 1 1 1 1 0.02134325240407977 1 1 0.0080852654811233229 1 1 1 1 1 1 1 1 1 1 1 1 1 1 1 1 1 1 1 1 1 1 1 1 1 1 1 1 1 1 1 1 1 1 1 1 1 1 1 1 1 1 1 1 1 1 1 1 1 1 1 1 1 1 1 1 1 1 1 1 1 1 1 1 1 1 1 1 1 1 1 1 1 1 1 1 1 1 1 1 1 1 1 1 1 1 1 1 1 1 1 1 1 1 1 1 0.0087070632009308251 1 1 1 1 -1.1707913197961384e-09 1 1 1 1 1 1 1 1 1 1 1 1 0.0062314695110792986 0.00082923535643079915 1 1 1 1 1 1 1 1 1 1 1 1 1 1 1 0.0072198719747789217 1 1 1 0.0061486273453188987 1 1 1 1 1 1 1 1 1 1 2.6501248717204773e-09 1 0.0012600297585398921 1 1 1 1 1 1 1 1 1 1 1 1 1 1 1 1 1 1 1 1 1 1 1 1 0.010917228987958537 1 1 1 1 0.013093579426663624 1 1 1 1 1 1 1 1 0.0095829716406349089 1 1 1 1 1 1 1 1 1 1 1 1 1 1 1 1 1 1 1 1 1 1 1 1 1 1 1 1 1 1 1 1 1 1 1 1 1 1 1 1 1 1 1 1 1 1 1 1 1 0.010278488310933724 1 1 1 1 1 1 1 1 1 1 1 1 1 1 1 1 1 1 1 1 1 1 1 1 1 1 1 1 1 1 1 1 0.015560275443389907 1 1 1 1 1 1 0.015308009114936539 1 1 1 1 1 1 0.0094812132640107582 1 1 0.0097276639726198242 1 0.0086191119268578739 1 0.0073543793755911531 1 1 1 1 0.011118115792626311 1 1 1 1 1 0.010203611955175022 1 1 1 0.0023642019307755944 0.0099424879683933029 1 1 1 0.014992539794037776 1 1 1 1 0.0058579444107173468 0.0073794098435295274 1 1 1 1 1 1 1 1 1 1 1 1 1 1 0.0090736826997746718 1 1 0.004856980717609199 1 1 0.010366243313793693 0.010840010366942484 1 1 1 1 1 1 1 1 1 1 0.012145683939216638 1 0.0094644988219817726 1 1 1 1 1 1 1 1 1 1 1 0.0074690309289647261 1 1 1 1 1 1 1 0.0060305400540250562 1 1 1 1 1 1 1 1 1 1 1 1 1 1 1 1 1 1 0.0060742521413972433 0.0029287732437945913 1 1 1 1 1 1 1 1 1 1 1 1 1 1 1 1 1 0.0062752722762014369 1 1 1 1 1 1 1 1 1 0.0094177226380995523 1 1 1 1 1 1 1 1 1 1 1 1 0.016123635532168841 1 1 1 1 0.011919031890882698 1 6.4939346920700469e-09 1 1 1 1 1 1 1 1 1 0.0062721195440553542 1 1 1 1 -4.9810038888625785e-09 1 1 1 1 0.0063927062325075147 1 0.014964585705426546 1 1 1 1 1 1 1 1 1 1 1 1 0.01030441608797047 1 1 1 1 1 1 1 1 1 1 1 1 1 1 1 0.010564995549692452 1 2.4502896951023034e-09 1 1 0.010256346781676416 1 1 1 0.010075493895339493 1 0.013226774814200532 1 1 0.021092645519588386 1 1 0.0099153873833646988 1 0.0083543031211009318 1 1 1 1 1 1 1 0.01316065472888501 0.015401324488994211 1 1 1 1 -1.6895102157576947e-10 2.1461052379656564e-10 1 1 0.021316980734272545 0.019775690110333709 1 0.0049490890942309566 1 1 0.009719070275831812 0.011343565030042885 1 1 0.0096356559898913528 1 1 0.024073340127855544 1 1 1 1 1 1 1 1 0.0004085017338662086 1 1 0.0029145712210920261 1 0.0028073344535668506 1 1 1 0.0060051271794119773 1 1 1 1 1 1 1 1 0.0081313593264643637 1 1 1 1 1 1 1 1 1 1 1 1 1 1 1 1 1 1 1 1 1 1 0.0086330005446615815 1 1 1 1 1 1 1 1 1 1 1 1 1 1 1 1 1 1 
</DataArray>
</CellData>
</Piece>
</UnstructuredGrid>
</VTKFile>
