<?xml version="1.0"?>
<VTKFile type="UnstructuredGrid" version="0.1" byte_order="LittleEndian">
<UnstructuredGrid>
<Piece NumberOfPoints="30578" NumberOfCells="10723">
<Points>
<DataArray type="Float64" NumberOfComponents="3" format="ascii">
-0.5 -0.5 0 -0.47439485679867832 -0.48072581506667478 0 -0.5 -0.44765434486020428 0 -0.5 -0.5 0 -0.47439485679867832 -0.48072581506667478 0 -0.43702443379937372 -0.49999999999999922 0 -0.47439485679867832 -0.48072581506667478 0 -0.45530669598391149 -0.47718009944797551 0 -0.43702443379937372 -0.49999999999999922 0 -0.47439485679867832 -0.48072581506667478 0 -0.45530669598391149 -0.47718009944797551 0 -0.4597353119515426 -0.45943449384344293 0 -0.45530669598391149 -0.47718009944797551 0 -0.44381084376742141 -0.47114793899167112 0 -0.4597353119515426 -0.45943449384344293 0 -0.45530669598391149 -0.47718009944797551 0 -0.44381084376742141 -0.47114793899167112 0 -0.43702443379937372 -0.49999999999999922 0 -0.44381084376742141 -0.47114793899167112 0 -0.43702443379937372 -0.49999999999999922 0 -0.45059725373546922 -0.44229587798334291 0 -0.4339166039271336 -0.43498117536117131 0 -0.43309128002320102 -0.45351235807576151 0 -0.44381084376742141 -0.47114793899167112 0 -0.45059725373546922 -0.44229587798334291 0 -0.4597353119515426 -0.45943449384344293 0 -0.44381084376742141 -0.47114793899167112 0 -0.45059725373546922 -0.44229587798334291 0 -0.43309128002320102 -0.45351235807576151 0 -0.44381084376742141 -0.47114793899167112 0 -0.45059725373546922 -0.44229587798334291 0 -0.4597353119515426 -0.45943449384344293 0 -0.47505511338101108 -0.44868394208069429 0 -0.46517432262153441 -0.43649963461163338 0 -0.45059725373546922 -0.44229587798334291 0 -0.4597353119515426 -0.45943449384344293 0 -0.46517432262153441 -0.43649963461163338 0 -0.47505511338101108 -0.44868394208069429 0 -0.47820614292347569 -0.42776699273468149 0 -0.46517432262153441 -0.43649963461163338 0 -0.47505511338101108 -0.44868394208069429 0 -0.47820614292347569 -0.42776699273468149 0 -0.47439485679867832 -0.48072581506667478 0 -0.47505511338101108 -0.44868394208069429 0 -0.5 -0.44765434486020428 0 -0.47439485679867832 -0.48072581506667478 0 -0.4597353119515426 -0.45943449384344293 0 -0.47505511338101108 -0.44868394208069429 0 -0.47505511338101108 -0.44868394208069429 0 -0.5 -0.44765434486020428 0 -0.47820614292347569 -0.42776699273468149 0 -0.5 -0.44765434486020428 0 -0.49656450065014057 -0.42151023988558672 0 -0.47820614292347569 -0.42776699273468149 0 -0.5 -0.44765434486020428 0 -0.49656450065014057 -0.42151023988558672 0 -0.50000000000000089 -0.37904661106745707 0 -0.49656450065014057 -0.42151023988558672 0 -0.48135717246594062 -0.40685004338866881 0 -0.47820614292347569 -0.42776699273468149 0 -0.49656450065014057 -0.42151023988558672 0 -0.48135717246594062 -0.40685004338866881 0 -0.48135717246594062 -0.40685004338866881 0 -0.47820614292347569 -0.42776699273468149 0 -0.48135717246594062 -0.40685004338866881 0 -0.47820614292347569 -0.42776699273468149 0 -0.45738366370351707 -0.41344381697501481 0 -0.49656450065014057 -0.42151023988558672 0 -0.48135717246594062 -0.40685004338866881 0 -0.50000000000000089 -0.37904661106745707 0 -0.50000000000000089 -0.37904661106745707 0 -0.48466894952205442 -0.38486603086372417 0 -0.48717439863114548 -0.36823452950912272 0 -0.48135717246594062 -0.40685004338866881 0 -0.50000000000000089 -0.37904661106745707 0 -0.48466894952205442 -0.38486603086372417 0 -0.48466894952205442 -0.38486603086372417 0 -0.48717439863114548 -0.36823452950912272 0 -0.50000000000000089 -0.37904661106745707 0 -0.48466894952205442 -0.38486603086372417 0 -0.48135717246594062 -0.40685004338866881 0 -0.48466894952205442 -0.38486603086372417 0 -0.46593083509403682 -0.39197871725165279 0 -0.48135717246594062 -0.40685004338866881 0 -0.48466894952205442 -0.38486603086372417 0 -0.48135717246594062 -0.40685004338866881 0 -0.46593083509403682 -0.39197871725165279 0 -0.48466894952205442 -0.38486603086372417 0 -0.47195833844942919 -0.37959069520904498 0 -0.46593083509403682 -0.39197871725165279 0 -0.48466894952205442 -0.38486603086372417 0 -0.46593083509403682 -0.39197871725165279 0 -0.48466894952205442 -0.38486603086372417 0 -0.47195833844942919 -0.37959069520904498 0 -0.48717439863114548 -0.36823452950912272 0 -0.46593083509403682 -0.39197871725165279 0 -0.44890944387521442 -0.39029302340116001 0 -0.45132291774153199 -0.37789636588759368 0 -0.47195833844942919 -0.37959069520904498 0 -0.46593083509403682 -0.39197871725165279 0 -0.45132291774153199 -0.37789636588759368 0 -0.46593083509403682 -0.39197871725165279 0 -0.45132291774153199 -0.37789636588759368 0 -0.48135717246594062 -0.40685004338866881 0 -0.46593083509403682 -0.39197871725165279 0 -0.45738366370351707 -0.41344381697501481 0 -0.46593083509403682 -0.39197871725165279 0 -0.44275815558040038 -0.40077469311046232 0 -0.45738366370351707 -0.41344381697501481 0 -0.46593083509403682 -0.39197871725165279 0 -0.44275815558040038 -0.40077469311046232 0 -0.46593083509403682 -0.39197871725165279 0 -0.44275815558040038 -0.40077469311046232 0 -0.44890944387521442 -0.39029302340116001 0 -0.44275815558040038 -0.40077469311046232 0 -0.44064580868350911 -0.39542861624611658 0 -0.44890944387521442 -0.39029302340116001 0 -0.44225344557501872 -0.38376649822575309 0 -0.45132291774153199 -0.37789636588759368 0 -0.43671500038902772 -0.36381401452353412 0 -0.44890944387521442 -0.39029302340116001 0 -0.44225344557501872 -0.38376649822575309 0 -0.45132291774153199 -0.37789636588759368 0 -0.44064580868350911 -0.39542861624611658 0 -0.44225344557501872 -0.38376649822575309 0 -0.43040194378266172 -0.3881600185019185 0 -0.44064580868350911 -0.39542861624611658 0 -0.44890944387521442 -0.39029302340116001 0 -0.44225344557501872 -0.38376649822575309 0 -0.47820614292347569 -0.42776699273468149 0 -0.46517432262153441 -0.43649963461163338 0 -0.45738366370351707 -0.41344381697501481 0 -0.45059725373546922 -0.44229587798334291 0 -0.45738366370351707 -0.41344381697501481 0 -0.45059725373546922 -0.44229587798334291 0 -0.46517432262153441 -0.43649963461163338 0 -0.45738366370351707 -0.41344381697501481 0 -0.44275815558040038 -0.40077469311046232 0 -0.45738366370351707 -0.41344381697501481 0 -0.44164244492799948 -0.42121090558557039 0 -0.45059725373546922 -0.44229587798334291 0 -0.45738366370351707 -0.41344381697501481 0 -0.44164244492799948 -0.42121090558557039 0 -0.45059725373546922 -0.44229587798334291 0 -0.44164244492799948 -0.42121090558557039 0 -0.4339166039271336 -0.43498117536117131 0 -0.4339166039271336 -0.43498117536117131 0 -0.42355654769347711 -0.414558964497861 0 -0.41671115160429401 -0.44095791049380378 0 -0.44164244492799948 -0.42121090558557039 0 -0.4339166039271336 -0.43498117536117131 0 -0.42355654769347711 -0.414558964497861 0 -0.44275815558040038 -0.40077469311046232 0 -0.44164244492799948 -0.42121090558557039 0 -0.42355654769347711 -0.414558964497861 0 -0.42355654769347711 -0.414558964497861 0 -0.41056920252370888 -0.3963363404412637 0 -0.40050668374064252 -0.41734442193795029 0 -0.42355654769347711 -0.414558964497861 0 -0.41671115160429401 -0.44095791049380378 0 -0.42355654769347711 -0.414558964497861 0 -0.40050668374064252 -0.41734442193795029 0 -0.41671115160429401 -0.44095791049380378 0 -0.44225344557501872 -0.38376649822575309 0 -0.43040194378266172 -0.3881600185019185 0 -0.43671500038902772 -0.36381401452353412 0 -0.43040194378266172 -0.3881600185019185 0 -0.43671500038902772 -0.36381401452353412 0 -0.44064580868350911 -0.39542861624611658 0 -0.42355654769347711 -0.414558964497861 0 -0.43040194378266172 -0.3881600185019185 0 -0.42355654769347711 -0.414558964497861 0 -0.43040194378266172 -0.3881600185019185 0 -0.44275815558040038 -0.40077469311046232 0 -0.44064580868350911 -0.39542861624611658 0 -0.42355654769347711 -0.414558964497861 0 -0.44064580868350911 -0.39542861624611658 0 -0.43040194378266172 -0.3881600185019185 0 -0.42355654769347711 -0.414558964497861 0 -0.43040194378266172 -0.3881600185019185 0 -0.41056920252370888 -0.3963363404412637 0 -0.43040194378266172 -0.3881600185019185 0 -0.4079689369259607 -0.37224253963894771 0 -0.43040194378266172 -0.3881600185019185 0 -0.41056920252370888 -0.3963363404412637 0 -0.4079689369259607 -0.37224253963894771 0 -0.41056920252370888 -0.3963363404412637 0 -0.39195929229331972 -0.37982250283040359 0 -0.4079689369259607 -0.37224253963894771 0 -0.41056920252370888 -0.3963363404412637 0 -0.39195929229331972 -0.37982250283040359 0 -0.39357845321732049 -0.39746174547711199 0 -0.41056920252370888 -0.3963363404412637 0 -0.39357845321732049 -0.39746174547711199 0 -0.40050668374064252 -0.41734442193795029 0 -0.39357845321732049 -0.39746174547711199 0 -0.38114412328536468 -0.40833987260765031 0 -0.36544727141479139 -0.39026932065168712 0 -0.39195929229331972 -0.37982250283040359 0 -0.37549160074202448 -0.3732971907138336 0 -0.36544727141479139 -0.39026932065168712 0 -0.39195929229331972 -0.37982250283040359 0 -0.39357845321732049 -0.39746174547711199 0 -0.36544727141479139 -0.39026932065168712 0 -0.40050668374064252 -0.41734442193795029 0 -0.3944977858259317 -0.43926335073686201 0 -0.41671115160429401 -0.44095791049380378 0 -0.40050668374064252 -0.41734442193795029 0 -0.38028594703985957 -0.42392304976487449 0 -0.3944977858259317 -0.43926335073686201 0 -0.39357845321732049 -0.39746174547711199 0 -0.40050668374064252 -0.41734442193795029 0 -0.38114412328536468 -0.40833987260765031 0 -0.40050668374064252 -0.41734442193795029 0 -0.38114412328536468 -0.40833987260765031 0 -0.38028594703985957 -0.42392304976487449 0 -0.38114412328536468 -0.40833987260765031 0 -0.38028594703985957 -0.42392304976487449 0 -0.36590226101420908 -0.41270082520662749 0 -0.38028594703985957 -0.42392304976487449 0 -0.3944977858259317 -0.43926335073686201 0 -0.3723601590800425 -0.44005613486137668 0 -0.3944977858259317 -0.43926335073686201 0 -0.38265619596279349 -0.45813348326120767 0 -0.3723601590800425 -0.44005613486137668 0 -0.40093272222703252 -0.45142790024540502 0 -0.3944977858259317 -0.43926335073686201 0 -0.38265619596279349 -0.45813348326120767 0 -0.40093272222703252 -0.45142790024540502 0 -0.3944977858259317 -0.43926335073686201 0 -0.41671115160429401 -0.44095791049380378 0 -0.38265619596279349 -0.45813348326120767 0 -0.40986575551511062 -0.46735685648974662 0 -0.38265619596279349 -0.45813348326120767 0 -0.39389470715733632 -0.47355095168427308 0 -0.40986575551511062 -0.46735685648974662 0 -0.40093272222703252 -0.45142790024540502 0 -0.38265619596279349 -0.45813348326120767 0 -0.40986575551511062 -0.46735685648974662 0 -0.38265619596279349 -0.45813348326120767 0 -0.38272382101637098 -0.47243968377412587 0 -0.39389470715733632 -0.47355095168427308 0 -0.38272382101637098 -0.47243968377412587 0 -0.38859428369766791 -0.48614630665141417 0 -0.36652141413456929 -0.48474993749143802 0 -0.38272382101637098 -0.47243968377412587 0 -0.38859428369766791 -0.48614630665141417 0 -0.39389470715733632 -0.47355095168427308 0 -0.37500484199342449 -0.5 0 -0.38859428369766791 -0.48614630665141417 0 -0.40140120367436599 -0.49999999999999611 0 -0.37500484199342449 -0.5 0 -0.38859428369766791 -0.48614630665141417 0 -0.36652141413456929 -0.48474993749143802 0 -0.38859428369766791 -0.48614630665141417 0 -0.40140120367436599 -0.49999999999999611 0 -0.40563347959473789 -0.48367842824487117 0 -0.40140120367436599 -0.49999999999999611 0 -0.40563347959473789 -0.48367842824487117 0 -0.40563347959473789 -0.48367842824487117 0 -0.39389470715733632 -0.47355095168427308 0 -0.40986575551511062 -0.46735685648974662 0 -0.38859428369766791 -0.48614630665141417 0 -0.40563347959473789 -0.48367842824487117 0 -0.39389470715733632 -0.47355095168427308 0 -0.40563347959473789 -0.48367842824487117 0 -0.40986575551511062 -0.46735685648974662 0 -0.42809744812538553 -0.47353695305504512 0 -0.40986575551511062 -0.46735685648974662 0 -0.4199949121527507 -0.4855396040697898 0 -0.42809744812538553 -0.47353695305504512 0 -0.40986575551511062 -0.46735685648974662 0 -0.40563347959473789 -0.48367842824487117 0 -0.4199949121527507 -0.4855396040697898 0 -0.40986575551511062 -0.46735685648974662 0 -0.40563347959473789 -0.48367842824487117 0 -0.4199949121527507 -0.4855396040697898 0 -0.41921281873686977 -0.5 0 -0.40140120367436599 -0.49999999999999611 0 -0.40563347959473789 -0.48367842824487117 0 -0.41921281873686977 -0.5 0 -0.4199949121527507 -0.4855396040697898 0 -0.41921281873686977 -0.5 0 -0.43702443379937372 -0.49999999999999922 0 -0.4199949121527507 -0.4855396040697898 0 -0.43702443379937372 -0.49999999999999922 0 -0.42809744812538553 -0.47353695305504512 0 -0.44381084376742141 -0.47114793899167112 0 -0.43702443379937372 -0.49999999999999922 0 -0.42809744812538553 -0.47353695305504512 0 -0.42809744812538553 -0.47353695305504512 0 -0.42194140881699782 -0.45884101952858919 0 -0.43309128002320102 -0.45351235807576151 0 -0.44381084376742141 -0.47114793899167112 0 -0.42809744812538553 -0.47353695305504512 0 -0.43309128002320102 -0.45351235807576151 0 -0.4339166039271336 -0.43498117536117131 0 -0.43309128002320102 -0.45351235807576151 0 -0.41671115160429401 -0.44095791049380378 0 -0.42194140881699782 -0.45884101952858919 0 -0.43309128002320102 -0.45351235807576151 0 -0.41671115160429401 -0.44095791049380378 0 -0.42194140881699782 -0.45884101952858919 0 -0.41671115160429401 -0.44095791049380378 0 -0.40986575551511062 -0.46735685648974662 0 -0.41671115160429401 -0.44095791049380378 0 -0.40986575551511062 -0.46735685648974662 0 -0.40093272222703252 -0.45142790024540502 0 -0.41671115160429401 -0.44095791049380378 0 -0.40986575551511062 -0.46735685648974662 0 -0.42809744812538553 -0.47353695305504512 0 -0.42194140881699782 -0.45884101952858919 0 -0.40986575551511062 -0.46735685648974662 0 -0.45828666285701658 -0.26028432573271792 0 -0.43487007995442373 -0.25384069753834382 0 -0.45658005330295048 -0.2439827770756183 0 -0.43864273500925549 -0.2751587481676856 0 -0.45828666285701658 -0.26028432573271792 0 -0.43487007995442373 -0.25384069753834382 0 -0.43864273500925549 -0.2751587481676856 0 -0.45645423860141388 -0.27827293425430932 0 -0.45828666285701658 -0.26028432573271792 0 -0.43864273500925549 -0.2751587481676856 0 -0.45828666285701658 -0.26028432573271792 0 -0.45645423860141388 -0.27827293425430932 0 -0.47869064668718631 -0.2683854874950159 0 -0.47091363495918082 -0.28947603344621109 0 -0.45645423860141388 -0.27827293425430932 0 -0.45828666285701658 -0.26028432573271792 0 -0.47869064668718631 -0.2683854874950159 0 -0.45828666285701658 -0.26028432573271792 0 -0.47793059070477772 -0.24540990329775009 0 -0.45828666285701658 -0.26028432573271792 0 -0.47869064668718631 -0.2683854874950159 0 -0.47793059070477772 -0.24540990329775009 0 -0.4872249908214738 -0.25598993182963242 0 -0.47869064668718631 -0.2683854874950159 0 -0.47793059070477772 -0.24540990329775009 0 -0.4872249908214738 -0.25598993182963242 0 -0.5 -0.25006354863638108 0 -0.5 -0.27586016112259643 0 -0.4872249908214738 -0.25598993182963242 0 -0.5 -0.25006354863638108 0 -0.49068252501969761 -0.24549971615663649 0 -0.4872249908214738 -0.25598993182963242 0 -0.5 -0.27586016112259643 0 -0.47869064668718631 -0.2683854874950159 0 -0.5 -0.27586016112259643 0 -0.47869064668718631 -0.2683854874950159 0 -0.48721788021035761 -0.2882082846164955 0 -0.47869064668718631 -0.2683854874950159 0 -0.47091363495918082 -0.28947603344621109 0 -0.48721788021035761 -0.2882082846164955 0 -0.47091363495918082 -0.28947603344621109 0 -0.48721788021035761 -0.2882082846164955 0 -0.48161809245015419 -0.30465866835107641 0 -0.5 -0.27586016112259643 0 -0.48721788021035761 -0.2882082846164955 0 -0.5 -0.3016567736088116 0 -0.48721788021035761 -0.2882082846164955 0 -0.5 -0.3016567736088116 0 -0.48161809245015419 -0.30465866835107641 0 -0.5 -0.3016567736088116 0 -0.48161809245015419 -0.30465866835107641 0 -0.5 -0.32745338609502678 0 -0.47091363495918082 -0.28947603344621109 0 -0.48161809245015419 -0.30465866835107641 0 -0.45879166701778518 -0.3036258058313378 0 -0.48161809245015419 -0.30465866835107641 0 -0.45879166701778518 -0.3036258058313378 0 -0.47638885418803739 -0.32253493654140952 0 -0.45645423860141388 -0.27827293425430932 0 -0.47091363495918082 -0.28947603344621109 0 -0.45879166701778518 -0.3036258058313378 0 -0.45645423860141388 -0.27827293425430932 0 -0.45879166701778518 -0.3036258058313378 0 -0.43905227881958647 -0.29505920944709452 0 -0.43864273500925549 -0.2751587481676856 0 -0.45645423860141388 -0.27827293425430932 0 -0.43905227881958647 -0.29505920944709452 0 -0.45879166701778518 -0.3036258058313378 0 -0.43905227881958647 -0.29505920944709452 0 -0.4399695753826649 -0.31139282438396382 0 -0.4399695753826649 -0.31139282438396382 0 -0.45223868162566522 -0.32343332413938758 0 -0.42808850906329299 -0.32433171173736591 0 -0.45879166701778518 -0.3036258058313378 0 -0.4399695753826649 -0.31139282438396382 0 -0.45223868162566522 -0.32343332413938758 0 -0.45223868162566522 -0.32343332413938758 0 -0.42808850906329299 -0.32433171173736591 0 -0.45223868162566522 -0.32343332413938758 0 -0.44207286924452832 -0.33783824796895978 0 -0.46140244920768408 -0.33754740415941759 0 -0.44207286924452832 -0.33783824796895978 0 -0.46140244920768408 -0.33754740415941759 0 -0.45117994904742642 -0.3486532256997657 0 -0.45223868162566522 -0.32343332413938758 0 -0.44207286924452832 -0.33783824796895978 0 -0.42808850906329299 -0.32433171173736591 0 -0.45879166701778518 -0.3036258058313378 0 -0.45223868162566522 -0.32343332413938758 0 -0.47638885418803739 -0.32253493654140952 0 -0.45223868162566522 -0.32343332413938758 0 -0.46140244920768408 -0.33754740415941759 0 -0.47638885418803739 -0.32253493654140952 0 -0.45223868162566522 -0.32343332413938758 0 -0.47638885418803739 -0.32253493654140952 0 -0.48161809245015419 -0.30465866835107641 0 -0.47638885418803739 -0.32253493654140952 0 -0.5 -0.32745338609502678 0 -0.47638885418803739 -0.32253493654140952 0 -0.5 -0.32745338609502678 0 -0.48104103145021149 -0.34129537751375599 0 -0.5 -0.32745338609502678 0 -0.48104103145021149 -0.34129537751375599 0 -0.5 -0.35324999858124201 0 -0.46140244920768408 -0.33754740415941759 0 -0.48104103145021149 -0.34129537751375599 0 -0.46549330969023639 -0.35152931309322771 0 -0.46140244920768408 -0.33754740415941759 0 -0.47638885418803739 -0.32253493654140952 0 -0.48104103145021149 -0.34129537751375599 0 -0.48104103145021149 -0.34129537751375599 0 -0.48025743214923627 -0.35616585996071459 0 -0.46549330969023639 -0.35152931309322771 0 -0.48025743214923627 -0.35616585996071459 0 -0.46757842097458802 -0.36652008110622503 0 -0.46549330969023639 -0.35152931309322771 0 -0.48025743214923627 -0.35616585996071459 0 -0.5 -0.35324999858124201 0 -0.48717439863114548 -0.36823452950912272 0 -0.48104103145021149 -0.34129537751375599 0 -0.48025743214923627 -0.35616585996071459 0 -0.5 -0.35324999858124201 0 -0.50000000000000089 -0.37904661106745707 0 -0.5 -0.35324999858124201 0 -0.48717439863114548 -0.36823452950912272 0 -0.47195833844942919 -0.37959069520904498 0 -0.48717439863114548 -0.36823452950912272 0 -0.46757842097458802 -0.36652008110622503 0 -0.48025743214923627 -0.35616585996071459 0 -0.48717439863114548 -0.36823452950912272 0 -0.46757842097458802 -0.36652008110622503 0 -0.45132291774153199 -0.37789636588759368 0 -0.46757842097458802 -0.36652008110622503 0 -0.45216690816074923 -0.36231126303824313 0 -0.47195833844942919 -0.37959069520904498 0 -0.45132291774153199 -0.37789636588759368 0 -0.46757842097458802 -0.36652008110622503 0 -0.46757842097458802 -0.36652008110622503 0 -0.46549330969023639 -0.35152931309322771 0 -0.45216690816074923 -0.36231126303824313 0 -0.46140244920768408 -0.33754740415941759 0 -0.46549330969023639 -0.35152931309322771 0 -0.45117994904742642 -0.3486532256997657 0 -0.46549330969023639 -0.35152931309322771 0 -0.45117994904742642 -0.3486532256997657 0 -0.45216690816074923 -0.36231126303824313 0 -0.44599028472907742 -0.35554349803526408 0 -0.45117994904742642 -0.3486532256997657 0 -0.45216690816074923 -0.36231126303824313 0 -0.44599028472907742 -0.35554349803526408 0 -0.45117994904742642 -0.3486532256997657 0 -0.44228407783080631 -0.34851364977492799 0 -0.44207286924452832 -0.33783824796895978 0 -0.44228407783080631 -0.34851364977492799 0 -0.43394442261003058 -0.34546672586134508 0 -0.44228407783080631 -0.34851364977492799 0 -0.43858436747801349 -0.35660488883003821 0 -0.43394442261003058 -0.34546672586134508 0 -0.44207286924452832 -0.33783824796895978 0 -0.45117994904742642 -0.3486532256997657 0 -0.44228407783080631 -0.34851364977492799 0 -0.44599028472907742 -0.35554349803526408 0 -0.44228407783080631 -0.34851364977492799 0 -0.43858436747801349 -0.35660488883003821 0 -0.44599028472907742 -0.35554349803526408 0 -0.43858436747801349 -0.35660488883003821 0 -0.43671500038902772 -0.36381401452353412 0 -0.43858436747801349 -0.35660488883003821 0 -0.43671500038902772 -0.36381401452353412 0 -0.44599028472907742 -0.35554349803526408 0 -0.45216690816074923 -0.36231126303824313 0 -0.43671500038902772 -0.36381401452353412 0 -0.45132291774153199 -0.37789636588759368 0 -0.43671500038902772 -0.36381401452353412 0 -0.45132291774153199 -0.37789636588759368 0 -0.45216690816074923 -0.36231126303824313 0 -0.43671500038902772 -0.36381401452353412 0 -0.43040194378266172 -0.3881600185019185 0 -0.43671500038902772 -0.36381401452353412 0 -0.4079689369259607 -0.37224253963894771 0 -0.43858436747801349 -0.35660488883003821 0 -0.43671500038902772 -0.36381401452353412 0 -0.41901032175007979 -0.34674631764622038 0 -0.43671500038902772 -0.36381401452353412 0 -0.41901032175007979 -0.34674631764622038 0 -0.43858436747801349 -0.35660488883003821 0 -0.43394442261003058 -0.34546672586134508 0 -0.41901032175007979 -0.34674631764622038 0 -0.41901032175007979 -0.34674631764622038 0 -0.4079689369259607 -0.37224253963894771 0 -0.40160491304204049 -0.35527610236370899 0 -0.43671500038902772 -0.36381401452353412 0 -0.41901032175007979 -0.34674631764622038 0 -0.4079689369259607 -0.37224253963894771 0 -0.4079689369259607 -0.37224253963894771 0 -0.38553593006925752 -0.3563250607759802 0 -0.4079689369259607 -0.37224253963894771 0 -0.38553593006925752 -0.3563250607759802 0 -0.40160491304204049 -0.35527610236370899 0 -0.39195929229331972 -0.37982250283040359 0 -0.4079689369259607 -0.37224253963894771 0 -0.38553593006925752 -0.3563250607759802 0 -0.39195929229331972 -0.37982250283040359 0 -0.37549160074202448 -0.3732971907138336 0 -0.38553593006925752 -0.3563250607759802 0 -0.37549160074202448 -0.3732971907138336 0 -0.38553593006925752 -0.3563250607759802 0 -0.38553593006925752 -0.3563250607759802 0 -0.36666079927166728 -0.34293209489202431 0 -0.38553593006925752 -0.3563250607759802 0 -0.39342078659019603 -0.34300184077244372 0 -0.38006824781918919 -0.33243312042550199 0 -0.38553593006925752 -0.3563250607759802 0 -0.38006824781918919 -0.33243312042550199 0 -0.36666079927166728 -0.34293209489202431 0 -0.38553593006925752 -0.3563250607759802 0 -0.39342078659019603 -0.34300184077244372 0 -0.41901032175007979 -0.34674631764622038 0 -0.40160491304204049 -0.35527610236370899 0 -0.39342078659019603 -0.34300184077244372 0 -0.38553593006925752 -0.3563250607759802 0 -0.40160491304204049 -0.35527610236370899 0 -0.39342078659019603 -0.34300184077244372 0 -0.41901032175007979 -0.34674631764622038 0 -0.40130564311113259 -0.32967862076890581 0 -0.39342078659019603 -0.34300184077244372 0 -0.40130564311113259 -0.32967862076890581 0 -0.39064670272592411 -0.32967160323888278 0 -0.39342078659019603 -0.34300184077244372 0 -0.40130564311113259 -0.32967862076890581 0 -0.39342078659019603 -0.34300184077244372 0 -0.39064670272592411 -0.32967160323888278 0 -0.39342078659019603 -0.34300184077244372 0 -0.38006824781918919 -0.33243312042550199 0 -0.38006824781918919 -0.33243312042550199 0 -0.38935907146989862 -0.31816186479418052 0 -0.37140736883531977 -0.32183989730859341 0 -0.38935907146989862 -0.31816186479418052 0 -0.38351210912712752 -0.30253866195360818 0 -0.37140736883531977 -0.32183989730859341 0 -0.39064670272592411 -0.32967160323888278 0 -0.38006824781918919 -0.33243312042550199 0 -0.38935907146989862 -0.31816186479418052 0 -0.38935907146989862 -0.31816186479418052 0 -0.401514660155255 -0.31819685637317691 0 -0.39554973675391708 -0.30949047449279188 0 -0.40130564311113259 -0.32967862076890581 0 -0.38935907146989862 -0.31816186479418052 0 -0.40130564311113259 -0.32967862076890581 0 -0.38935907146989862 -0.31816186479418052 0 -0.39962023335203928 -0.32539073298322901 0 -0.38935907146989862 -0.31816186479418052 0 -0.39962023335203928 -0.32539073298322901 0 -0.401514660155255 -0.31819685637317691 0 -0.40130564311113259 -0.32967862076890581 0 -0.39064670272592411 -0.32967160323888278 0 -0.38935907146989862 -0.31816186479418052 0 -0.40130564311113259 -0.32967862076890581 0 -0.39962023335203928 -0.32539073298322901 0 -0.4039383365009207 -0.3252300993353433 0 -0.39962023335203928 -0.32539073298322901 0 -0.4039383365009207 -0.3252300993353433 0 -0.39962023335203928 -0.32539073298322901 0 -0.4039383365009207 -0.3252300993353433 0 -0.401514660155255 -0.31819685637317691 0 -0.40130564311113259 -0.32967862076890581 0 -0.4039383365009207 -0.3252300993353433 0 -0.401514660155255 -0.31819685637317691 0 -0.4088463285069534 -0.31693695448250642 0 -0.4053668684804122 -0.3086126184714344 0 -0.4039383365009207 -0.3252300993353433 0 -0.401514660155255 -0.31819685637317691 0 -0.4088463285069534 -0.31693695448250642 0 -0.4039383365009207 -0.3252300993353433 0 -0.42808850906329299 -0.32433171173736591 0 -0.4088463285069534 -0.31693695448250642 0 -0.42808850906329299 -0.32433171173736591 0 -0.41503252140001728 -0.31110728079830707 0 -0.4039383365009207 -0.3252300993353433 0 -0.4088463285069534 -0.31693695448250642 0 -0.42808850906329299 -0.32433171173736591 0 -0.4039383365009207 -0.3252300993353433 0 -0.41609663568284688 -0.33258428014908531 0 -0.42808850906329299 -0.32433171173736591 0 -0.4039383365009207 -0.3252300993353433 0 -0.4088463285069534 -0.31693695448250642 0 -0.40130564311113259 -0.32967862076890581 0 -0.4039383365009207 -0.3252300993353433 0 -0.41609663568284688 -0.33258428014908531 0 -0.41901032175007979 -0.34674631764622038 0 -0.40130564311113259 -0.32967862076890581 0 -0.41609663568284688 -0.33258428014908531 0 -0.41901032175007979 -0.34674631764622038 0 -0.40130564311113259 -0.32967862076890581 0 -0.41901032175007979 -0.34674631764622038 0 -0.41609663568284688 -0.33258428014908531 0 -0.42777047674672519 -0.33763052508657909 0 -0.41609663568284688 -0.33258428014908531 0 -0.42777047674672519 -0.33763052508657909 0 -0.42808850906329299 -0.32433171173736591 0 -0.43394442261003058 -0.34546672586134508 0 -0.41901032175007979 -0.34674631764622038 0 -0.42777047674672519 -0.33763052508657909 0 -0.44207286924452832 -0.33783824796895978 0 -0.43394442261003058 -0.34546672586134508 0 -0.42777047674672519 -0.33763052508657909 0 -0.44207286924452832 -0.33783824796895978 0 -0.42777047674672519 -0.33763052508657909 0 -0.42808850906329299 -0.32433171173736591 0 -0.4399695753826649 -0.31139282438396382 0 -0.42808850906329299 -0.32433171173736591 0 -0.42349591428063971 -0.31031667424466408 0 -0.42808850906329299 -0.32433171173736591 0 -0.42349591428063971 -0.31031667424466408 0 -0.41503252140001728 -0.31110728079830707 0 -0.43905227881958647 -0.29505920944709452 0 -0.42349591428063971 -0.31031667424466408 0 -0.41899880716149451 -0.29003317060265321 0 -0.43905227881958647 -0.29505920944709452 0 -0.4399695753826649 -0.31139282438396382 0 -0.42349591428063971 -0.31031667424466408 0 -0.43864273500925549 -0.2751587481676856 0 -0.43905227881958647 -0.29505920944709452 0 -0.41899880716149451 -0.29003317060265321 0 -0.43864273500925549 -0.2751587481676856 0 -0.41899880716149451 -0.29003317060265321 0 -0.41649742047364408 -0.2919272257303569 0 -0.41502826726935188 -0.28951283527362931 0 -0.41151645216318689 -0.29124877083691719 0 -0.41899880716149451 -0.29003317060265321 0 -0.41649742047364408 -0.2919272257303569 0 -0.41502826726935188 -0.28951283527362931 0 -0.41899880716149451 -0.29003317060265321 0 -0.41649742047364408 -0.2919272257303569 0 -0.41899880716149451 -0.29003317060265321 0 -0.41502826726935188 -0.28951283527362931 0 -0.41310038927908221 -0.28484217392458988 0 -0.41310038927908221 -0.28484217392458988 0 -0.40629814920556201 -0.2872410904076857 0 -0.40433064532645308 -0.27892106023783952 0 -0.41502826726935188 -0.28951283527362931 0 -0.41310038927908221 -0.28484217392458988 0 -0.41151645216318689 -0.29124877083691719 0 -0.41310038927908221 -0.28484217392458988 0 -0.40629814920556201 -0.2872410904076857 0 -0.41151645216318689 -0.29124877083691719 0 -0.41649742047364408 -0.2919272257303569 0 -0.41151645216318689 -0.29124877083691719 0 -0.41283916949633909 -0.29890888486812428 0 -0.40629814920556201 -0.2872410904076857 0 -0.41151645216318689 -0.29124877083691719 0 -0.4052488046064433 -0.29379102377099447 0 -0.41151645216318689 -0.29124877083691719 0 -0.41283916949633909 -0.29890888486812428 0 -0.4052488046064433 -0.29379102377099447 0 -0.42349591428063971 -0.31031667424466408 0 -0.41899880716149451 -0.29003317060265321 0 -0.42349591428063971 -0.31031667424466408 0 -0.41649742047364408 -0.2919272257303569 0 -0.41283916949633909 -0.29890888486812428 0 -0.42349591428063971 -0.31031667424466408 0 -0.41899880716149451 -0.29003317060265321 0 -0.41649742047364408 -0.2919272257303569 0 -0.40711072979061191 -0.30081998795009107 0 -0.41283916949633909 -0.29890888486812428 0 -0.4052488046064433 -0.29379102377099447 0 -0.40711072979061191 -0.30081998795009107 0 -0.41283916949633909 -0.29890888486812428 0 -0.41256685577174013 -0.30556786269479153 0 -0.42349591428063971 -0.31031667424466408 0 -0.41283916949633909 -0.29890888486812428 0 -0.41256685577174013 -0.30556786269479153 0 -0.42349591428063971 -0.31031667424466408 0 -0.41503252140001728 -0.31110728079830707 0 -0.41256685577174013 -0.30556786269479153 0 -0.4088463285069534 -0.31693695448250642 0 -0.41503252140001728 -0.31110728079830707 0 -0.4053668684804122 -0.3086126184714344 0 -0.41503252140001728 -0.31110728079830707 0 -0.41256685577174013 -0.30556786269479153 0 -0.4053668684804122 -0.3086126184714344 0 -0.40711072979061191 -0.30081998795009107 0 -0.41256685577174013 -0.30556786269479153 0 -0.4053668684804122 -0.3086126184714344 0 -0.401514660155255 -0.31819685637317691 0 -0.4053668684804122 -0.3086126184714344 0 -0.39554973675391708 -0.30949047449279188 0 -0.4053668684804122 -0.3086126184714344 0 -0.39799597453689262 -0.29994237087155962 0 -0.39554973675391708 -0.30949047449279188 0 -0.40711072979061191 -0.30081998795009107 0 -0.4053668684804122 -0.3086126184714344 0 -0.39799597453689262 -0.29994237087155962 0 -0.40711072979061191 -0.30081998795009107 0 -0.39799597453689262 -0.29994237087155962 0 -0.4052488046064433 -0.29379102377099447 0 -0.39799597453689262 -0.29994237087155962 0 -0.39554973675391708 -0.30949047449279188 0 -0.38351210912712752 -0.30253866195360818 0 -0.38935907146989862 -0.31816186479418052 0 -0.39554973675391708 -0.30949047449279188 0 -0.38351210912712752 -0.30253866195360818 0 -0.38351210912712752 -0.30253866195360818 0 -0.3950660262777419 -0.28803976586637831 0 -0.37433096522584453 -0.28132989654828328 0 -0.39799597453689262 -0.29994237087155962 0 -0.38351210912712752 -0.30253866195360818 0 -0.3950660262777419 -0.28803976586637831 0 -0.39799597453689262 -0.29994237087155962 0 -0.3950660262777419 -0.28803976586637831 0 -0.4052488046064433 -0.29379102377099447 0 -0.40629814920556201 -0.2872410904076857 0 -0.3950660262777419 -0.28803976586637831 0 -0.4052488046064433 -0.29379102377099447 0 -0.40629814920556201 -0.2872410904076857 0 -0.3950660262777419 -0.28803976586637831 0 -0.40433064532645308 -0.27892106023783952 0 -0.40433064532645308 -0.27892106023783952 0 -0.39374553591587069 -0.27251425727467649 0 -0.41316010660589619 -0.2636986180010682 0 -0.39374553591587069 -0.27251425727467649 0 -0.41316010660589619 -0.2636986180010682 0 -0.3950660262777419 -0.28803976586637831 0 -0.40433064532645308 -0.27892106023783952 0 -0.39374553591587069 -0.27251425727467649 0 -0.39374553591587069 -0.27251425727467649 0 -0.37433096522584453 -0.28132989654828328 0 -0.3950660262777419 -0.28803976586637831 0 -0.39374553591587069 -0.27251425727467649 0 -0.37433096522584453 -0.28132989654828328 0 -0.39374553591587069 -0.27251425727467649 0 -0.37648826808451968 -0.27741199289956509 0 -0.37433096522584453 -0.28132989654828328 0 -0.39374553591587069 -0.27251425727467649 0 -0.37598097480723441 -0.26745556380373348 0 -0.38363075469537122 -0.26088114511686322 0 -0.39374553591587069 -0.27251425727467649 0 -0.37598097480723441 -0.26745556380373348 0 -0.37648826808451968 -0.27741199289956509 0 -0.37598097480723441 -0.26745556380373348 0 -0.37648826808451968 -0.27741199289956509 0 -0.37277902062147272 -0.27405557492128901 0 -0.37648826808451968 -0.27741199289956509 0 -0.37433096522584453 -0.28132989654828328 0 -0.38363075469537122 -0.26088114511686322 0 -0.37393540655460039 -0.25504906339868932 0 -0.38258347849844832 -0.24967798674395081 0 -0.37598097480723441 -0.26745556380373348 0 -0.38363075469537122 -0.26088114511686322 0 -0.37393540655460039 -0.25504906339868932 0 -0.38363075469537122 -0.26088114511686322 0 -0.3945867816951415 -0.25828321704239809 0 -0.38258347849844832 -0.24967798674395081 0 -0.3945867816951415 -0.25828321704239809 0 -0.3933004523496676 -0.24484402304582939 0 -0.38258347849844832 -0.24967798674395081 0 -0.39374553591587069 -0.27251425727467649 0 -0.3945867816951415 -0.25828321704239809 0 -0.41316010660589619 -0.2636986180010682 0 -0.3945867816951415 -0.25828321704239809 0 -0.41316010660589619 -0.2636986180010682 0 -0.40847937369743209 -0.24258689873782929 0 -0.39374553591587069 -0.27251425727467649 0 -0.38363075469537122 -0.26088114511686322 0 -0.3945867816951415 -0.25828321704239809 0 -0.41316010660589619 -0.2636986180010682 0 -0.42931567121415071 -0.25028064732030619 0 -0.40847937369743209 -0.24258689873782929 0 -0.41316010660589619 -0.2636986180010682 0 -0.40847937369743209 -0.24258689873782929 0 -0.41899880716149451 -0.29003317060265321 0 -0.41310038927908221 -0.28484217392458988 0 -0.41316010660589619 -0.2636986180010682 0 -0.41310038927908221 -0.28484217392458988 0 -0.40433064532645308 -0.27892106023783952 0 -0.41316010660589619 -0.2636986180010682 0 -0.41899880716149451 -0.29003317060265321 0 -0.41316010660589619 -0.2636986180010682 0 -0.42551969657153998 -0.27199364899169498 0 -0.41899880716149451 -0.29003317060265321 0 -0.41316010660589619 -0.2636986180010682 0 -0.43864273500925549 -0.2751587481676856 0 -0.42551969657153998 -0.27199364899169498 0 -0.43487007995442373 -0.25384069753834382 0 -0.43864273500925549 -0.2751587481676856 0 -0.41899880716149451 -0.29003317060265321 0 -0.42551969657153998 -0.27199364899169498 0 -0.41316010660589619 -0.2636986180010682 0 -0.43487007995442373 -0.25384069753834382 0 -0.41316010660589619 -0.2636986180010682 0 -0.42551969657153998 -0.27199364899169498 0 -0.43487007995442373 -0.25384069753834382 0 -0.41316010660589619 -0.2636986180010682 0 -0.43487007995442373 -0.25384069753834382 0 -0.42931567121415071 -0.25028064732030619 0 -0.32316489217708799 -0.25890650528201359 0 -0.32888695585781391 -0.26910619260742191 0 -0.31032083431566337 -0.26180085087236171 0 -0.32316489217708799 -0.25890650528201359 0 -0.32888695585781391 -0.26910619260742191 0 -0.33131030172746923 -0.25321851497678438 0 -0.32888695585781391 -0.26910619260742191 0 -0.31032083431566337 -0.26180085087236171 0 -0.32316489217708799 -0.25890650528201359 0 -0.33131030172746923 -0.25321851497678438 0 -0.32202724095639168 -0.2495658441092535 0 -0.32316489217708799 -0.25890650528201359 0 -0.31032083431566337 -0.26180085087236171 0 -0.32202724095639168 -0.2495658441092535 0 -0.31032083431566337 -0.26180085087236171 0 -0.32202724095639168 -0.2495658441092535 0 -0.31283906540333922 -0.25031215033235238 0 -0.31032083431566337 -0.26180085087236171 0 -0.32202724095639168 -0.2495658441092535 0 -0.31480478096024378 -0.27564718726691712 0 -0.32888695585781391 -0.26910619260742191 0 -0.31032083431566337 -0.26180085087236171 0 -0.31480478096024378 -0.27564718726691712 0 -0.32888695585781391 -0.26910619260742191 0 -0.32507396769595592 -0.29410449247197662 0 -0.32888695585781391 -0.26910619260742191 0 -0.3381311227387106 -0.26238754928509761 0 -0.34453036853746388 -0.27526151563856671 0 -0.32888695585781391 -0.26910619260742191 0 -0.34453036853746388 -0.27526151563856671 0 -0.33279411355556121 -0.28213246275860349 0 -0.32888695585781391 -0.26910619260742191 0 -0.34453036853746388 -0.27526151563856671 0 -0.34453036853746388 -0.27526151563856671 0 -0.34450588037081892 -0.28462367662190302 0 -0.33279411355556121 -0.28213246275860349 0 -0.32888695585781391 -0.26910619260742191 0 -0.33131030172746923 -0.25321851497678438 0 -0.32888695585781391 -0.26910619260742191 0 -0.3381311227387106 -0.26238754928509761 0 -0.33131030172746923 -0.25321851497678438 0 -0.3381311227387106 -0.26238754928509761 0 -0.34897267059429732 -0.25990550268967838 0 -0.3420777495351906 -0.24844208584564559 0 -0.3381311227387106 -0.26238754928509761 0 -0.33131030172746923 -0.25321851497678438 0 -0.3420777495351906 -0.24844208584564559 0 -0.34897267059429732 -0.25990550268967838 0 -0.35255150303394622 -0.24812522560144931 0 -0.3420777495351906 -0.24844208584564559 0 -0.34897267059429732 -0.25990550268967838 0 -0.35751050643918753 -0.2560897164936603 0 -0.35722060467742811 -0.26762499714769428 0 -0.34897267059429732 -0.25990550268967838 0 -0.35751050643918753 -0.2560897164936603 0 -0.35255150303394622 -0.24812522560144931 0 -0.35751050643918753 -0.2560897164936603 0 -0.363557814049559 -0.2486896754833777 0 -0.35255150303394622 -0.24812522560144931 0 -0.35751050643918753 -0.2560897164936603 0 -0.36561260290989678 -0.26128521942254013 0 -0.363557814049559 -0.2486896754833777 0 -0.35751050643918753 -0.2560897164936603 0 -0.36561260290989678 -0.26128521942254013 0 -0.35722060467742811 -0.26762499714769428 0 -0.37598097480723441 -0.26745556380373348 0 -0.36561260290989678 -0.26128521942254013 0 -0.37393540655460039 -0.25504906339868932 0 -0.36561260290989678 -0.26128521942254013 0 -0.37393540655460039 -0.25504906339868932 0 -0.363557814049559 -0.2486896754833777 0 -0.37277902062147272 -0.27405557492128901 0 -0.36654922363893422 -0.27215591673696138 0 -0.37433096522584453 -0.28132989654828328 0 -0.37648826808451968 -0.27741199289956509 0 -0.37277902062147272 -0.27405557492128901 0 -0.37433096522584453 -0.28132989654828328 0 -0.37598097480723441 -0.26745556380373348 0 -0.37277902062147272 -0.27405557492128901 0 -0.36654922363893422 -0.27215591673696138 0 -0.37598097480723441 -0.26745556380373348 0 -0.36561260290989678 -0.26128521942254013 0 -0.36654922363893422 -0.27215591673696138 0 -0.36561260290989678 -0.26128521942254013 0 -0.36654922363893422 -0.27215591673696138 0 -0.35722060467742811 -0.26762499714769428 0 -0.36654922363893422 -0.27215591673696138 0 -0.35722060467742811 -0.26762499714769428 0 -0.36017378121711419 -0.28141683866971062 0 -0.36654922363893422 -0.27215591673696138 0 -0.36017378121711419 -0.28141683866971062 0 -0.37433096522584453 -0.28132989654828328 0 -0.34453036853746388 -0.27526151563856671 0 -0.36017378121711419 -0.28141683866971062 0 -0.35722060467742811 -0.26762499714769428 0 -0.34453036853746388 -0.27526151563856671 0 -0.36017378121711419 -0.28141683866971062 0 -0.34453036853746388 -0.27526151563856671 0 -0.34450588037081892 -0.28462367662190302 0 -0.36017378121711419 -0.28141683866971062 0 -0.34897267059429732 -0.25990550268967838 0 -0.35722060467742811 -0.26762499714769428 0 -0.34453036853746388 -0.27526151563856671 0 -0.3381311227387106 -0.26238754928509761 0 -0.34897267059429732 -0.25990550268967838 0 -0.34453036853746388 -0.27526151563856671 0 -0.34450588037081892 -0.28462367662190302 0 -0.34891652205724832 -0.29286991805537971 0 -0.36017378121711419 -0.28141683866971062 0 -0.37433096522584453 -0.28132989654828328 0 -0.36105831684996031 -0.30543451277817618 0 -0.34891652205724832 -0.29286991805537971 0 -0.37433096522584453 -0.28132989654828328 0 -0.34891652205724832 -0.29286991805537971 0 -0.36017378121711419 -0.28141683866971062 0 -0.37433096522584453 -0.28132989654828328 0 -0.38351210912712752 -0.30253866195360818 0 -0.37433096522584453 -0.28132989654828328 0 -0.36105831684996031 -0.30543451277817618 0 -0.34891652205724832 -0.29286991805537971 0 -0.37433096522584453 -0.28132989654828328 0 -0.36105831684996031 -0.30543451277817618 0 -0.38351210912712752 -0.30253866195360818 0 -0.36105831684996031 -0.30543451277817618 0 -0.37140736883531977 -0.32183989730859341 0 -0.36105831684996031 -0.30543451277817618 0 -0.3496688877197569 -0.30429177800002122 0 -0.34586440994984541 -0.3145735322147622 0 -0.34891652205724832 -0.29286991805537971 0 -0.36105831684996031 -0.30543451277817618 0 -0.3496688877197569 -0.30429177800002122 0 -0.34891652205724832 -0.29286991805537971 0 -0.3496688877197569 -0.30429177800002122 0 -0.33956299038192078 -0.30735077663143923 0 -0.3496688877197569 -0.30429177800002122 0 -0.33956299038192078 -0.30735077663143923 0 -0.34586440994984541 -0.3145735322147622 0 -0.34891652205724832 -0.29286991805537971 0 -0.33956299038192078 -0.30735077663143923 0 -0.32350207888865212 -0.30440993956247547 0 -0.33956299038192078 -0.30735077663143923 0 -0.3301339810941622 -0.31110503031331638 0 -0.32350207888865212 -0.30440993956247547 0 -0.34891652205724832 -0.29286991805537971 0 -0.32350207888865212 -0.30440993956247547 0 -0.33956299038192078 -0.30735077663143923 0 -0.3301339810941622 -0.31110503031331638 0 -0.33675509785737662 -0.31655799101612769 0 -0.34891652205724832 -0.29286991805537971 0 -0.33611461648670682 -0.29143764798725502 0 -0.32350207888865212 -0.30440993956247547 0 -0.32888695585781391 -0.26910619260742191 0 -0.33279411355556121 -0.28213246275860349 0 -0.32507396769595592 -0.29410449247197662 0 -0.34450588037081892 -0.28462367662190302 0 -0.34891652205724832 -0.29286991805537971 0 -0.33611461648670682 -0.29143764798725502 0 -0.34450588037081892 -0.28462367662190302 0 -0.33611461648670682 -0.29143764798725502 0 -0.33279411355556121 -0.28213246275860349 0 -0.33279411355556121 -0.28213246275860349 0 -0.33070524953878982 -0.29012978506972142 0 -0.32507396769595592 -0.29410449247197662 0 -0.33611461648670682 -0.29143764798725502 0 -0.33279411355556121 -0.28213246275860349 0 -0.33070524953878982 -0.29012978506972142 0 -0.33611461648670682 -0.29143764798725502 0 -0.32742439802278828 -0.29462709162158601 0 -0.32350207888865212 -0.30440993956247547 0 -0.33611461648670682 -0.29143764798725502 0 -0.33070524953878982 -0.29012978506972142 0 -0.32742439802278828 -0.29462709162158601 0 -0.32507396769595592 -0.29410449247197662 0 -0.30234930147786221 -0.28905184696057518 0 -0.32507396769595592 -0.29410449247197662 0 -0.32350207888865212 -0.30440993956247547 0 -0.30234930147786221 -0.28905184696057518 0 -0.31480478096024378 -0.27564718726691712 0 -0.32507396769595592 -0.29410449247197662 0 -0.30234930147786221 -0.28905184696057518 0 -0.32888695585781391 -0.26910619260742191 0 -0.32507396769595592 -0.29410449247197662 0 -0.32507396769595592 -0.29410449247197662 0 -0.32742439802278828 -0.29462709162158601 0 -0.33070524953878982 -0.29012978506972142 0 -0.32507396769595592 -0.29410449247197662 0 -0.32742439802278828 -0.29462709162158601 0 -0.32302725724223008 -0.30752291379569302 0 -0.32350207888865212 -0.30440993956247547 0 -0.2999756881373381 -0.31509264677165549 0 -0.3301339810941622 -0.31110503031331638 0 -0.32302725724223008 -0.30752291379569302 0 -0.32422013968378288 -0.31561436227230438 0 -0.32302725724223008 -0.30752291379569302 0 -0.32350207888865212 -0.30440993956247547 0 -0.3301339810941622 -0.31110503031331638 0 -0.32302725724223008 -0.30752291379569302 0 -0.32350207888865212 -0.30440993956247547 0 -0.32507396769595592 -0.29410449247197662 0 -0.32742439802278828 -0.29462709162158601 0 -0.32350207888865212 -0.30440993956247547 0 -0.32507396769595592 -0.29410449247197662 0 -0.32350207888865212 -0.30440993956247547 0 -0.32302725724223008 -0.30752291379569302 0 -0.31656029902357641 -0.31849097864348519 0 -0.2999756881373381 -0.31509264677165549 0 -0.32265466046617669 -0.32198754646013139 0 -0.33127214989488979 -0.33008610863815152 0 -0.32872450059276898 -0.31896534214889599 0 -0.32265466046617669 -0.32198754646013139 0 -0.31892782856615448 -0.32825501756413727 0 -0.33127214989488979 -0.33008610863815152 0 -0.32265466046617669 -0.32198754646013139 0 -0.32422013968378288 -0.31561436227230438 0 -0.32872450059276898 -0.31896534214889599 0 -0.32302725724223008 -0.30752291379569302 0 -0.32422013968378288 -0.31561436227230438 0 -0.31656029902357641 -0.31849097864348519 0 -0.3301339810941622 -0.31110503031331638 0 -0.32422013968378288 -0.31561436227230438 0 -0.32872450059276898 -0.31896534214889599 0 -0.32265466046617669 -0.32198754646013139 0 -0.32422013968378288 -0.31561436227230438 0 -0.31656029902357641 -0.31849097864348519 0 -0.32265466046617669 -0.32198754646013139 0 -0.31656029902357641 -0.31849097864348519 0 -0.31892782856615448 -0.32825501756413727 0 -0.31656029902357641 -0.31849097864348519 0 -0.31892782856615448 -0.32825501756413727 0 -0.30936258926988919 -0.3261434941065412 0 -0.31892782856615448 -0.32825501756413727 0 -0.31208723605418232 -0.33616024018399832 0 -0.30936258926988919 -0.3261434941065412 0 -0.31892782856615448 -0.32825501756413727 0 -0.32183099473442811 -0.33958013728355868 0 -0.31208723605418232 -0.33616024018399832 0 -0.32183099473442811 -0.33958013728355868 0 -0.31234840654553953 -0.34764506024843322 0 -0.31208723605418232 -0.33616024018399832 0 -0.31892782856615448 -0.32825501756413727 0 -0.32183099473442811 -0.33958013728355868 0 -0.33127214989488979 -0.33008610863815152 0 -0.33127214989488979 -0.33008610863815152 0 -0.34778566847407638 -0.32953912900806931 0 -0.33412452318830171 -0.35434929914508079 0 -0.32183099473442811 -0.33958013728355868 0 -0.33127214989488979 -0.33008610863815152 0 -0.33412452318830171 -0.35434929914508079 0 -0.34778566847407638 -0.32953912900806931 0 -0.33412452318830171 -0.35434929914508079 0 -0.33127214989488979 -0.33008610863815152 0 -0.34035549841598117 -0.32426700585474 0 -0.34778566847407638 -0.32953912900806931 0 -0.34035549841598117 -0.32426700585474 0 -0.33427681169025408 -0.32246911191447869 0 -0.33675509785737662 -0.31655799101612769 0 -0.33127214989488979 -0.33008610863815152 0 -0.34035549841598117 -0.32426700585474 0 -0.33427681169025408 -0.32246911191447869 0 -0.33127214989488979 -0.33008610863815152 0 -0.33427681169025408 -0.32246911191447869 0 -0.32872450059276898 -0.31896534214889599 0 -0.33427681169025408 -0.32246911191447869 0 -0.32872450059276898 -0.31896534214889599 0 -0.33675509785737662 -0.31655799101612769 0 -0.3301339810941622 -0.31110503031331638 0 -0.32872450059276898 -0.31896534214889599 0 -0.33675509785737662 -0.31655799101612769 0 -0.33956299038192078 -0.30735077663143923 0 -0.33675509785737662 -0.31655799101612769 0 -0.34586440994984541 -0.3145735322147622 0 -0.34035549841598117 -0.32426700585474 0 -0.33675509785737662 -0.31655799101612769 0 -0.34586440994984541 -0.3145735322147622 0 -0.36105831684996031 -0.30543451277817618 0 -0.34778566847407638 -0.32953912900806931 0 -0.36105831684996031 -0.30543451277817618 0 -0.34586440994984541 -0.3145735322147622 0 -0.34778566847407638 -0.32953912900806931 0 -0.34035549841598117 -0.32426700585474 0 -0.34586440994984541 -0.3145735322147622 0 -0.34778566847407638 -0.32953912900806931 0 -0.34035549841598117 -0.32426700585474 0 -0.34778566847407638 -0.32953912900806931 0 -0.36105831684996031 -0.30543451277817618 0 -0.37140736883531977 -0.32183989730859341 0 -0.34778566847407638 -0.32953912900806931 0 -0.38006824781918919 -0.33243312042550199 0 -0.37140736883531977 -0.32183989730859341 0 -0.36666079927166728 -0.34293209489202431 0 -0.37140736883531977 -0.32183989730859341 0 -0.36666079927166728 -0.34293209489202431 0 -0.34778566847407638 -0.32953912900806931 0 -0.34778566847407638 -0.32953912900806931 0 -0.35170181166344461 -0.34709871950800919 0 -0.33412452318830171 -0.35434929914508079 0 -0.36666079927166728 -0.34293209489202431 0 -0.34778566847407638 -0.32953912900806931 0 -0.36666079927166728 -0.34293209489202431 0 -0.34778566847407638 -0.32953912900806931 0 -0.35170181166344461 -0.34709871950800919 0 -0.36666079927166728 -0.34293209489202431 0 -0.35170181166344461 -0.34709871950800919 0 -0.35823625571973289 -0.36157435498686258 0 -0.35170181166344461 -0.34709871950800919 0 -0.35823625571973289 -0.36157435498686258 0 -0.33412452318830171 -0.35434929914508079 0 -0.38553593006925752 -0.3563250607759802 0 -0.36666079927166728 -0.34293209489202431 0 -0.35823625571973289 -0.36157435498686258 0 -0.37549160074202448 -0.3732971907138336 0 -0.38553593006925752 -0.3563250607759802 0 -0.35823625571973289 -0.36157435498686258 0 -0.37549160074202448 -0.3732971907138336 0 -0.35823625571973289 -0.36157435498686258 0 -0.35302350150803719 -0.38208755235937009 0 -0.35823625571973289 -0.36157435498686258 0 -0.34413293857164062 -0.37054757780120701 0 -0.35302350150803719 -0.38208755235937009 0 -0.35823625571973289 -0.36157435498686258 0 -0.34413293857164062 -0.37054757780120701 0 -0.33412452318830171 -0.35434929914508079 0 -0.34413293857164062 -0.37054757780120701 0 -0.33412452318830171 -0.35434929914508079 0 -0.33519042443293379 -0.3802220457599616 0 -0.33412452318830171 -0.35434929914508079 0 -0.33519042443293379 -0.3802220457599616 0 -0.32046337790252549 -0.37915946928209171 0 -0.32183099473442811 -0.33958013728355868 0 -0.33412452318830171 -0.35434929914508079 0 -0.31234840654553953 -0.34764506024843322 0 -0.33412452318830171 -0.35434929914508079 0 -0.316806384823896 -0.36257585725837499 0 -0.31234840654553953 -0.34764506024843322 0 -0.316806384823896 -0.36257585725837499 0 -0.3002892316592175 -0.36914960035789463 0 -0.32046337790252549 -0.37915946928209171 0 -0.33412452318830171 -0.35434929914508079 0 -0.316806384823896 -0.36257585725837499 0 -0.32046337790252549 -0.37915946928209171 0 -0.33412452318830171 -0.35434929914508079 0 -0.32046337790252549 -0.37915946928209171 0 -0.3002892316592175 -0.36914960035789463 0 -0.32046337790252549 -0.37915946928209171 0 -0.3002892316592175 -0.36914960035789463 0 -0.31234840654553953 -0.34764506024843322 0 -0.29527517448125451 -0.36666176000398298 0 -0.316806384823896 -0.36257585725837499 0 -0.3002892316592175 -0.36914960035789463 0 -0.31234840654553953 -0.34764506024843322 0 -0.3002892316592175 -0.36914960035789463 0 -0.29527517448125451 -0.36666176000398298 0 -0.3002892316592175 -0.36914960035789463 0 -0.29403121103535113 -0.38030922419454549 0 -0.31234840654553953 -0.34764506024843322 0 -0.29527517448125451 -0.36666176000398298 0 -0.2976254313092957 -0.34087720338781918 0 -0.3002892316592175 -0.36914960035789463 0 -0.31234840654553953 -0.34764506024843322 0 -0.29527517448125451 -0.36666176000398298 0 -0.26926364122666091 -0.35375553660024128 0 -0.28048823453243299 -0.34080574413418752 0 -0.29527517448125451 -0.36666176000398298 0 -0.2976254313092957 -0.34087720338781918 0 -0.29527517448125451 -0.36666176000398298 0 -0.28048823453243299 -0.34080574413418752 0 -0.2976254313092957 -0.34087720338781918 0 -0.29527517448125451 -0.36666176000398298 0 -0.26926364122666091 -0.35375553660024128 0 -0.29527517448125451 -0.36666176000398298 0 -0.27994264201103719 -0.36323993691456841 0 -0.26926364122666091 -0.35375553660024128 0 -0.29527517448125451 -0.36666176000398298 0 -0.28588261091775702 -0.37268605543787447 0 -0.29403121103535113 -0.38030922419454549 0 -0.29527517448125451 -0.36666176000398298 0 -0.29403121103535113 -0.38030922419454549 0 -0.3002892316592175 -0.36914960035789463 0 -0.29527517448125451 -0.36666176000398298 0 -0.29403121103535113 -0.38030922419454549 0 -0.29527517448125451 -0.36666176000398298 0 -0.28588261091775702 -0.37268605543787447 0 -0.27994264201103719 -0.36323993691456841 0 -0.28588261091775702 -0.37268605543787447 0 -0.27994264201103719 -0.36323993691456841 0 -0.2742629371717063 -0.37916463673385931 0 -0.27994264201103719 -0.36323993691456841 0 -0.26568404082974961 -0.36651666061706623 0 -0.2742629371717063 -0.37916463673385931 0 -0.27994264201103719 -0.36323993691456841 0 -0.26568404082974961 -0.36651666061706623 0 -0.26017799311385281 -0.35268912854855933 0 -0.26568404082974961 -0.36651666061706623 0 -0.25909124390184018 -0.37475905286733341 0 -0.2742629371717063 -0.37916463673385931 0 -0.26568404082974961 -0.36651666061706623 0 -0.25909124390184018 -0.37475905286733341 0 -0.25494538795031141 -0.36273054802101118 0 -0.26568404082974961 -0.36651666061706623 0 -0.25494538795031141 -0.36273054802101118 0 -0.26017799311385281 -0.35268912854855933 0 -0.25909124390184018 -0.37475905286733341 0 -0.25494538795031141 -0.36273054802101118 0 -0.24748772700216881 -0.3717564301773445 0 -0.26017799311385281 -0.35268912854855933 0 -0.2404133442166683 -0.34213832018255058 0 -0.26926364122666091 -0.35375553660024128 0 -0.24325210797206609 -0.34084931319650169 0 -0.26017799311385281 -0.35268912854855933 0 -0.26926364122666091 -0.35375553660024128 0 -0.24325210797206609 -0.34084931319650169 0 -0.25494538795031141 -0.36273054802101118 0 -0.26017799311385281 -0.35268912854855933 0 -0.24808760514302669 -0.3536558827211943 0 -0.27994264201103719 -0.36323993691456841 0 -0.26017799311385281 -0.35268912854855933 0 -0.27994264201103719 -0.36323993691456841 0 -0.26017799311385281 -0.35268912854855933 0 -0.26926364122666091 -0.35375553660024128 0 -0.28048823453243299 -0.34080574413418752 0 -0.2621599680271573 -0.33226375772155409 0 -0.28106782808224812 -0.3236782022466056 0 -0.26926364122666091 -0.35375553660024128 0 -0.28048823453243299 -0.34080574413418752 0 -0.2621599680271573 -0.33226375772155409 0 -0.2621599680271573 -0.33226375772155409 0 -0.24518994726652291 -0.33234415230164399 0 -0.24308922262768951 -0.32099342612622928 0 -0.2621599680271573 -0.33226375772155409 0 -0.24325210797206609 -0.34084931319650169 0 -0.24518994726652291 -0.33234415230164399 0 -0.2621599680271573 -0.33226375772155409 0 -0.24325210797206609 -0.34084931319650169 0 -0.26926364122666091 -0.35375553660024128 0 -0.2621599680271573 -0.33226375772155409 0 -0.24325210797206609 -0.34084931319650169 0 -0.2621599680271573 -0.33226375772155409 0 -0.25915672867891859 -0.31415112243359272 0 -0.24308922262768951 -0.32099342612622928 0 -0.2621599680271573 -0.33226375772155409 0 -0.28106782808224812 -0.3236782022466056 0 -0.25915672867891859 -0.31415112243359272 0 -0.28106782808224812 -0.3236782022466056 0 -0.2709678639136075 -0.30238435136382452 0 -0.2621599680271573 -0.33226375772155409 0 -0.25915672867891859 -0.31415112243359272 0 -0.28106782808224812 -0.3236782022466056 0 -0.28106782808224812 -0.3236782022466056 0 -0.2999756881373381 -0.31509264677165549 0 -0.28453315598845252 -0.30841843357299598 0 -0.28106782808224812 -0.3236782022466056 0 -0.2976254313092957 -0.34087720338781918 0 -0.2999756881373381 -0.31509264677165549 0 -0.28106782808224812 -0.3236782022466056 0 -0.2999756881373381 -0.31509264677165549 0 -0.28048823453243299 -0.34080574413418752 0 -0.28106782808224812 -0.3236782022466056 0 -0.2976254313092957 -0.34087720338781918 0 -0.31234840654553953 -0.34764506024843322 0 -0.2976254313092957 -0.34087720338781918 0 -0.31208723605418232 -0.33616024018399832 0 -0.2976254313092957 -0.34087720338781918 0 -0.31208723605418232 -0.33616024018399832 0 -0.30936258926988919 -0.3261434941065412 0 -0.2976254313092957 -0.34087720338781918 0 -0.2999756881373381 -0.31509264677165549 0 -0.2976254313092957 -0.34087720338781918 0 -0.30936258926988919 -0.3261434941065412 0 -0.2999756881373381 -0.31509264677165549 0 -0.31656029902357641 -0.31849097864348519 0 -0.30936258926988919 -0.3261434941065412 0 -0.2999756881373381 -0.31509264677165549 0 -0.32350207888865212 -0.30440993956247547 0 -0.2999756881373381 -0.31509264677165549 0 -0.30234930147786221 -0.28905184696057518 0 -0.2999756881373381 -0.31509264677165549 0 -0.30234930147786221 -0.28905184696057518 0 -0.2999756881373381 -0.31509264677165549 0 -0.30234930147786221 -0.28905184696057518 0 -0.29239547880504652 -0.30127313523009702 0 -0.32350207888865212 -0.30440993956247547 0 -0.2999756881373381 -0.31509264677165549 0 -0.30234930147786221 -0.28905184696057518 0 -0.29006270545698909 -0.29189763306700739 0 -0.29239547880504652 -0.30127313523009702 0 -0.30234930147786221 -0.28905184696057518 0 -0.29006270545698909 -0.29189763306700739 0 -0.28742262680475061 -0.28573302172180548 0 -0.30234930147786221 -0.28905184696057518 0 -0.28742262680475061 -0.28573302172180548 0 -0.29006270545698909 -0.29189763306700739 0 -0.28742262680475061 -0.28573302172180548 0 -0.28158089536532038 -0.29680102193740848 0 -0.29006270545698909 -0.29189763306700739 0 -0.28158089536532038 -0.29680102193740848 0 -0.29239547880504652 -0.30127313523009702 0 -0.28158089536532038 -0.29680102193740848 0 -0.29239547880504652 -0.30127313523009702 0 -0.28453315598845252 -0.30841843357299598 0 -0.2999756881373381 -0.31509264677165549 0 -0.29239547880504652 -0.30127313523009702 0 -0.28453315598845252 -0.30841843357299598 0 -0.28106782808224812 -0.3236782022466056 0 -0.28453315598845252 -0.30841843357299598 0 -0.2709678639136075 -0.30238435136382452 0 -0.28158089536532038 -0.29680102193740848 0 -0.28453315598845252 -0.30841843357299598 0 -0.2709678639136075 -0.30238435136382452 0 -0.25915672867891859 -0.31415112243359272 0 -0.25718459078837252 -0.29759752524363881 0 -0.24047089863443691 -0.30798947189970438 0 -0.25915672867891859 -0.31415112243359272 0 -0.2709678639136075 -0.30238435136382452 0 -0.25718459078837252 -0.29759752524363881 0 -0.25718459078837252 -0.29759752524363881 0 -0.25108388684634803 -0.28956965662021522 0 -0.26792751193251091 -0.28139844079955562 0 -0.25108388684634803 -0.28956965662021522 0 -0.26792751193251091 -0.28139844079955562 0 -0.2484323970602714 -0.27706385987730509 0 -0.2709678639136075 -0.30238435136382452 0 -0.25718459078837252 -0.29759752524363881 0 -0.26792751193251091 -0.28139844079955562 0 -0.28742262680475061 -0.28573302172180548 0 -0.26792751193251091 -0.28139844079955562 0 -0.28158089536532038 -0.29680102193740848 0 -0.2709678639136075 -0.30238435136382452 0 -0.26792751193251091 -0.28139844079955562 0 -0.28742262680475061 -0.28573302172180548 0 -0.28158089536532038 -0.29680102193740848 0 -0.26792751193251091 -0.28139844079955562 0 -0.26792751193251091 -0.28139844079955562 0 -0.27965676560653041 -0.27550351800418249 0 -0.27506057922854799 -0.26523935036500679 0 -0.28742262680475061 -0.28573302172180548 0 -0.26792751193251091 -0.28139844079955562 0 -0.27965676560653041 -0.27550351800418249 0 -0.26792751193251091 -0.28139844079955562 0 -0.26170023695288303 -0.26848976391570201 0 -0.27506057922854799 -0.26523935036500679 0 -0.27965676560653041 -0.27550351800418249 0 -0.27506057922854799 -0.26523935036500679 0 -0.28821634446031208 -0.2696432591303618 0 -0.26792751193251091 -0.28139844079955562 0 -0.2484323970602714 -0.27706385987730509 0 -0.26792751193251091 -0.28139844079955562 0 -0.26170023695288303 -0.26848976391570201 0 -0.2484323970602714 -0.27706385987730509 0 -0.26170023695288303 -0.26848976391570201 0 -0.25309751137434572 -0.26289123234143091 0 -0.2484323970602714 -0.27706385987730509 0 -0.2565674865322034 -0.25340195958415102 0 -0.26524553468775469 -0.25886506807255583 0 -0.27383001930629169 -0.24744255459442921 0 -0.2565674865322034 -0.25340195958415102 0 -0.27383001930629169 -0.24744255459442921 0 -0.2565674865322034 -0.25340195958415102 0 -0.25309751137434572 -0.26289123234143091 0 -0.24233717299785959 -0.25960849866204011 0 -0.2565674865322034 -0.25340195958415102 0 -0.25309751137434572 -0.26289123234143091 0 -0.26524553468775469 -0.25886506807255583 0 -0.26170023695288303 -0.26848976391570201 0 -0.25309751137434572 -0.26289123234143091 0 -0.26524553468775469 -0.25886506807255583 0 -0.27506057922854799 -0.26523935036500679 0 -0.28942662192718172 -0.25357945894426132 0 -0.27383001930629169 -0.24744255459442921 0 -0.26524553468775469 -0.25886506807255583 0 -0.27506057922854799 -0.26523935036500679 0 -0.27383001930629169 -0.24744255459442921 0 -0.26170023695288303 -0.26848976391570201 0 -0.26524553468775469 -0.25886506807255583 0 -0.27506057922854799 -0.26523935036500679 0 -0.28942662192718172 -0.25357945894426132 0 -0.29569431645386429 -0.26311293363000732 0 -0.28821634446031208 -0.2696432591303618 0 -0.28942662192718172 -0.25357945894426132 0 -0.27383001930629169 -0.24744255459442921 0 -0.27506057922854799 -0.26523935036500679 0 -0.28942662192718172 -0.25357945894426132 0 -0.28821634446031208 -0.2696432591303618 0 -0.28942662192718172 -0.25357945894426132 0 -0.29569431645386429 -0.26311293363000732 0 -0.30502322454807101 -0.25971636329409542 0 -0.29569431645386429 -0.26311293363000732 0 -0.28821634446031208 -0.2696432591303618 0 -0.30425539613548452 -0.26814017253042433 0 -0.28742262680475061 -0.28573302172180548 0 -0.27965676560653041 -0.27550351800418249 0 -0.28821634446031208 -0.2696432591303618 0 -0.28742262680475061 -0.28573302172180548 0 -0.28821634446031208 -0.2696432591303618 0 -0.30425539613548452 -0.26814017253042433 0 -0.28742262680475061 -0.28573302172180548 0 -0.30425539613548452 -0.26814017253042433 0 -0.31480478096024378 -0.27564718726691712 0 -0.30234930147786221 -0.28905184696057518 0 -0.30425539613548452 -0.26814017253042433 0 -0.30234930147786221 -0.28905184696057518 0 -0.30425539613548452 -0.26814017253042433 0 -0.30234930147786221 -0.28905184696057518 0 -0.28742262680475061 -0.28573302172180548 0 -0.30425539613548452 -0.26814017253042433 0 -0.31480478096024378 -0.27564718726691712 0 -0.30425539613548452 -0.26814017253042433 0 -0.31032083431566337 -0.26180085087236171 0 -0.30425539613548452 -0.26814017253042433 0 -0.31032083431566337 -0.26180085087236171 0 -0.30502322454807101 -0.25971636329409542 0 -0.28942662192718172 -0.25357945894426132 0 -0.30538593138510828 -0.25573712372202267 0 -0.29948497002523827 -0.2483657822867901 0 -0.28942662192718172 -0.25357945894426132 0 -0.30502322454807101 -0.25971636329409542 0 -0.30538593138510828 -0.25573712372202267 0 -0.30425539613548452 -0.26814017253042433 0 -0.31032083431566337 -0.26180085087236171 0 -0.31032083431566337 -0.26180085087236171 0 -0.30502322454807101 -0.25971636329409542 0 -0.31032083431566337 -0.26180085087236171 0 -0.30502322454807101 -0.25971636329409542 0 -0.30538593138510828 -0.25573712372202267 0 -0.31283906540333922 -0.25031215033235238 0 -0.31032083431566337 -0.26180085087236171 0 -0.30538593138510828 -0.25573712372202267 0 -0.31283906540333922 -0.25031215033235238 0 -0.30538593138510828 -0.25573712372202267 0 -0.30623861516307299 -0.24935013043731349 0 -0.30502322454807101 -0.25971636329409542 0 -0.30538593138510828 -0.25573712372202267 0 -0.28942662192718172 -0.25357945894426132 0 -0.30502322454807101 -0.25971636329409542 0 -0.30538593138510828 -0.25573712372202267 0 -0.29948497002523827 -0.2483657822867901 0 -0.30623861516307299 -0.24935013043731349 0 -0.30425539613548452 -0.26814017253042433 0 -0.30502322454807101 -0.25971636329409542 0 -0.29569431645386429 -0.26311293363000732 0 -0.30425539613548452 -0.26814017253042433 0 -0.30502322454807101 -0.25971636329409542 0 -0.33143192801526428 -0.45396038638140679 0 -0.33152258580119082 -0.46633970128806979 0 -0.34296165509457921 -0.45730971557378147 0 -0.34069406563311189 -0.44566521365826578 0 -0.32492704317595772 -0.44077768091168912 0 -0.33812272201467081 -0.43047089330918592 0 -0.33143192801526428 -0.45396038638140679 0 -0.34069406563311189 -0.44566521365826578 0 -0.32492704317595772 -0.44077768091168912 0 -0.33143192801526428 -0.45396038638140679 0 -0.34296165509457921 -0.45730971557378147 0 -0.34069406563311189 -0.44566521365826578 0 -0.33143192801526428 -0.45396038638140679 0 -0.32492704317595772 -0.44077768091168912 0 -0.31987457796333868 -0.4551426725204325 0 -0.32492704317595772 -0.44077768091168912 0 -0.31987457796333868 -0.4551426725204325 0 -0.31015853372433788 -0.44544301337781073 0 -0.33152258580119082 -0.46633970128806979 0 -0.30592196819360068 -0.46328971004504182 0 -0.33152258580119082 -0.46633970128806979 0 -0.31987457796333868 -0.4551426725204325 0 -0.30592196819360068 -0.46328971004504182 0 -0.33152258580119082 -0.46633970128806979 0 -0.32094261384274558 -0.46854088973335889 0 -0.30592196819360068 -0.46328971004504182 0 -0.33143192801526428 -0.45396038638140679 0 -0.33152258580119082 -0.46633970128806979 0 -0.31987457796333868 -0.4551426725204325 0 -0.33152258580119082 -0.46633970128806979 0 -0.32094261384274558 -0.46854088973335889 0 -0.32966732857214198 -0.4835879285261328 0 -0.32094261384274558 -0.46854088973335889 0 -0.32966732857214198 -0.4835879285261328 0 -0.31208929727375578 -0.48491526738579699 0 -0.32221211863154181 -0.5 0 -0.32966732857214198 -0.4835879285261328 0 -0.31208929727375578 -0.48491526738579699 0 -0.32221211863154181 -0.5 0 -0.32966732857214198 -0.4835879285261328 0 -0.34860848031248309 -0.5 0 -0.32966732857214198 -0.4835879285261328 0 -0.34707385437868848 -0.48052394199199022 0 -0.34860848031248309 -0.5 0 -0.33152258580119082 -0.46633970128806979 0 -0.32966732857214198 -0.4835879285261328 0 -0.34707385437868848 -0.48052394199199022 0 -0.33152258580119082 -0.46633970128806979 0 -0.3571232034087809 -0.46938969253109791 0 -0.34707385437868848 -0.48052394199199022 0 -0.3571232034087809 -0.46938969253109791 0 -0.34707385437868848 -0.48052394199199022 0 -0.36652141413456929 -0.48474993749143802 0 -0.34707385437868848 -0.48052394199199022 0 -0.34860848031248309 -0.5 0 -0.36652141413456929 -0.48474993749143802 0 -0.37500484199342449 -0.5 0 -0.34860848031248309 -0.5 0 -0.36652141413456929 -0.48474993749143802 0 -0.38272382101637098 -0.47243968377412587 0 -0.3571232034087809 -0.46938969253109791 0 -0.36652141413456929 -0.48474993749143802 0 -0.38272382101637098 -0.47243968377412587 0 -0.3571232034087809 -0.46938969253109791 0 -0.38265619596279349 -0.45813348326120767 0 -0.38272382101637098 -0.47243968377412587 0 -0.3571232034087809 -0.46938969253109791 0 -0.38265619596279349 -0.45813348326120767 0 -0.3571232034087809 -0.46938969253109791 0 -0.35544663641047641 -0.4489101100326689 0 -0.38265619596279349 -0.45813348326120767 0 -0.35544663641047641 -0.4489101100326689 0 -0.34296165509457921 -0.45730971557378147 0 -0.3571232034087809 -0.46938969253109791 0 -0.35544663641047641 -0.4489101100326689 0 -0.33152258580119082 -0.46633970128806979 0 -0.3571232034087809 -0.46938969253109791 0 -0.33152258580119082 -0.46633970128806979 0 -0.34296165509457921 -0.45730971557378147 0 -0.3571232034087809 -0.46938969253109791 0 -0.34069406563311189 -0.44566521365826578 0 -0.35544663641047641 -0.4489101100326689 0 -0.35372302635176472 -0.43532257313283612 0 -0.34296165509457921 -0.45730971557378147 0 -0.34069406563311189 -0.44566521365826578 0 -0.35544663641047641 -0.4489101100326689 0 -0.35544663641047641 -0.4489101100326689 0 -0.3723601590800425 -0.44005613486137668 0 -0.35372302635176472 -0.43532257313283612 0 -0.38265619596279349 -0.45813348326120767 0 -0.35544663641047641 -0.4489101100326689 0 -0.3723601590800425 -0.44005613486137668 0 -0.38028594703985957 -0.42392304976487449 0 -0.3723601590800425 -0.44005613486137668 0 -0.36423780173753523 -0.4264797532188066 0 -0.3723601590800425 -0.44005613486137668 0 -0.36423780173753523 -0.4264797532188066 0 -0.35372302635176472 -0.43532257313283612 0 -0.38028594703985957 -0.42392304976487449 0 -0.36423780173753523 -0.4264797532188066 0 -0.36590226101420908 -0.41270082520662749 0 -0.36423780173753523 -0.4264797532188066 0 -0.36590226101420908 -0.41270082520662749 0 -0.35147677323475168 -0.42035333371671318 0 -0.36590226101420908 -0.41270082520662749 0 -0.35147677323475168 -0.42035333371671318 0 -0.35184044830027089 -0.40346733636007898 0 -0.35147677323475168 -0.42035333371671318 0 -0.35184044830027089 -0.40346733636007898 0 -0.33675831632547681 -0.41105613646481343 0 -0.35147677323475168 -0.42035333371671318 0 -0.35372302635176472 -0.43532257313283612 0 -0.33812272201467081 -0.43047089330918592 0 -0.34069406563311189 -0.44566521365826578 0 -0.35372302635176472 -0.43532257313283612 0 -0.33812272201467081 -0.43047089330918592 0 -0.36423780173753523 -0.4264797532188066 0 -0.35147677323475168 -0.42035333371671318 0 -0.35372302635176472 -0.43532257313283612 0 -0.37549160074202448 -0.3732971907138336 0 -0.36544727141479139 -0.39026932065168712 0 -0.37549160074202448 -0.3732971907138336 0 -0.36544727141479139 -0.39026932065168712 0 -0.35302350150803719 -0.38208755235937009 0 -0.36590226101420908 -0.41270082520662749 0 -0.36544727141479139 -0.39026932065168712 0 -0.35184044830027089 -0.40346733636007898 0 -0.38114412328536468 -0.40833987260765031 0 -0.36590226101420908 -0.41270082520662749 0 -0.36544727141479139 -0.39026932065168712 0 -0.35184044830027089 -0.40346733636007898 0 -0.35302350150803719 -0.38208755235937009 0 -0.34082557137486691 -0.39523504024196021 0 -0.36544727141479139 -0.39026932065168712 0 -0.35184044830027089 -0.40346733636007898 0 -0.35302350150803719 -0.38208755235937009 0 -0.34413293857164062 -0.37054757780120701 0 -0.35302350150803719 -0.38208755235937009 0 -0.33519042443293379 -0.3802220457599616 0 -0.35302350150803719 -0.38208755235937009 0 -0.33519042443293379 -0.3802220457599616 0 -0.34082557137486691 -0.39523504024196021 0 -0.33519042443293379 -0.3802220457599616 0 -0.32808226850220168 -0.39240284671641351 0 -0.3247168406287716 -0.38559411673624039 0 -0.33519042443293379 -0.3802220457599616 0 -0.34082557137486691 -0.39523504024196021 0 -0.32808226850220168 -0.39240284671641351 0 -0.34082557137486691 -0.39523504024196021 0 -0.32808226850220168 -0.39240284671641351 0 -0.33675831632547681 -0.41105613646481343 0 -0.32808226850220168 -0.39240284671641351 0 -0.33675831632547681 -0.41105613646481343 0 -0.3206477944579052 -0.41019310838576051 0 -0.35184044830027089 -0.40346733636007898 0 -0.34082557137486691 -0.39523504024196021 0 -0.33675831632547681 -0.41105613646481343 0 -0.32808226850220168 -0.39240284671641351 0 -0.31437491003333667 -0.39021680895226152 0 -0.3206477944579052 -0.41019310838576051 0 -0.32808226850220168 -0.39240284671641351 0 -0.3247168406287716 -0.38559411673624039 0 -0.31437491003333667 -0.39021680895226152 0 -0.31437491003333667 -0.39021680895226152 0 -0.32046337790252549 -0.37915946928209171 0 -0.30588070030683939 -0.38181824174751872 0 -0.3247168406287716 -0.38559411673624039 0 -0.31437491003333667 -0.39021680895226152 0 -0.32046337790252549 -0.37915946928209171 0 -0.31437491003333667 -0.39021680895226152 0 -0.32046337790252549 -0.37915946928209171 0 -0.33519042443293379 -0.3802220457599616 0 -0.3247168406287716 -0.38559411673624039 0 -0.32046337790252549 -0.37915946928209171 0 -0.32492704317595772 -0.44077768091168912 0 -0.33812272201467081 -0.43047089330918592 0 -0.32670905357880831 -0.42305010768611329 0 -0.35147677323475168 -0.42035333371671318 0 -0.33812272201467081 -0.43047089330918592 0 -0.33675831632547681 -0.41105613646481343 0 -0.33812272201467081 -0.43047089330918592 0 -0.33675831632547681 -0.41105613646481343 0 -0.32670905357880831 -0.42305010768611329 0 -0.33675831632547681 -0.41105613646481343 0 -0.3206477944579052 -0.41019310838576051 0 -0.32670905357880831 -0.42305010768611329 0 -0.3206477944579052 -0.41019310838576051 0 -0.31307232924124478 -0.42559811140412351 0 -0.32670905357880831 -0.42305010768611329 0 -0.32492704317595772 -0.44077768091168912 0 -0.31307232924124478 -0.42559811140412351 0 -0.31015853372433788 -0.44544301337781073 0 -0.32492704317595772 -0.44077768091168912 0 -0.31307232924124478 -0.42559811140412351 0 -0.32670905357880831 -0.42305010768611329 0 -0.31307232924124478 -0.42559811140412351 0 -0.29907098912325059 -0.43374406761790368 0 -0.29851577765410048 -0.41098608612968202 0 -0.31307232924124478 -0.42559811140412351 0 -0.29907098912325059 -0.43374406761790368 0 -0.31015853372433788 -0.44544301337781073 0 -0.3206477944579052 -0.41019310838576051 0 -0.31307232924124478 -0.42559811140412351 0 -0.29851577765410048 -0.41098608612968202 0 -0.3206477944579052 -0.41019310838576051 0 -0.29851577765410048 -0.41098608612968202 0 -0.29851577765410048 -0.41098608612968202 0 -0.27638376085029581 -0.41177906387360241 0 -0.29851577765410048 -0.41098608612968202 0 -0.28520748594282241 -0.3960441440340734 0 -0.27638376085029581 -0.41177906387360241 0 -0.29851577765410048 -0.41098608612968202 0 -0.28540276919059199 -0.42535658303670731 0 -0.27638376085029581 -0.41177906387360241 0 -0.29907098912325059 -0.43374406761790368 0 -0.29851577765410048 -0.41098608612968202 0 -0.28540276919059199 -0.42535658303670731 0 -0.28540276919059199 -0.42535658303670731 0 -0.27848929033898201 -0.43669604725877897 0 -0.28902284908971709 -0.44016681433255572 0 -0.29907098912325059 -0.43374406761790368 0 -0.28540276919059199 -0.42535658303670731 0 -0.28902284908971709 -0.44016681433255572 0 -0.3002892316592175 -0.36914960035789463 0 -0.32046337790252549 -0.37915946928209171 0 -0.30588070030683939 -0.38181824174751872 0 -0.3002892316592175 -0.36914960035789463 0 -0.29819443980788141 -0.38001079285233907 0 -0.30588070030683939 -0.38181824174751872 0 -0.3002892316592175 -0.36914960035789463 0 -0.29819443980788141 -0.38001079285233907 0 -0.29403121103535113 -0.38030922419454549 0 -0.31437491003333667 -0.39021680895226152 0 -0.30588070030683939 -0.38181824174751872 0 -0.30232780815510779 -0.39560758766926629 0 -0.29819443980788141 -0.38001079285233907 0 -0.30588070030683939 -0.38181824174751872 0 -0.29681739610749358 -0.387616864260033 0 -0.30588070030683939 -0.38181824174751872 0 -0.30232780815510779 -0.39560758766926629 0 -0.29681739610749358 -0.387616864260033 0 -0.31437491003333667 -0.39021680895226152 0 -0.3206477944579052 -0.41019310838576051 0 -0.30232780815510779 -0.39560758766926629 0 -0.3206477944579052 -0.41019310838576051 0 -0.29851577765410048 -0.41098608612968202 0 -0.30232780815510779 -0.39560758766926629 0 -0.30232780815510779 -0.39560758766926629 0 -0.28520748594282241 -0.3960441440340734 0 -0.29681739610749358 -0.387616864260033 0 -0.29851577765410048 -0.41098608612968202 0 -0.30232780815510779 -0.39560758766926629 0 -0.28520748594282241 -0.3960441440340734 0 -0.28520748594282241 -0.3960441440340734 0 -0.28484606126690931 -0.38205101510008821 0 -0.29403121103535113 -0.38030922419454549 0 -0.28520748594282241 -0.3960441440340734 0 -0.29403121103535113 -0.38030922419454549 0 -0.28520748594282241 -0.3960441440340734 0 -0.29681739610749358 -0.387616864260033 0 -0.29403121103535113 -0.38030922419454549 0 -0.28520748594282241 -0.3960441440340734 0 -0.28484606126690931 -0.38205101510008821 0 -0.2742629371717063 -0.37916463673385931 0 -0.28588261091775702 -0.37268605543787447 0 -0.28484606126690931 -0.38205101510008821 0 -0.2742629371717063 -0.37916463673385931 0 -0.28588261091775702 -0.37268605543787447 0 -0.28484606126690931 -0.38205101510008821 0 -0.29403121103535113 -0.38030922419454549 0 -0.29819443980788141 -0.38001079285233907 0 -0.29681739610749358 -0.387616864260033 0 -0.29403121103535113 -0.38030922419454549 0 -0.28520748594282241 -0.3960441440340734 0 -0.2742629371717063 -0.37916463673385931 0 -0.26755910350718881 -0.39582792531461569 0 -0.2742629371717063 -0.37916463673385931 0 -0.26755910350718881 -0.39582792531461569 0 -0.26281209396899169 -0.38517470131063508 0 -0.28520748594282241 -0.3960441440340734 0 -0.27638376085029581 -0.41177906387360241 0 -0.28520748594282241 -0.3960441440340734 0 -0.26755910350718881 -0.39582792531461569 0 -0.27638376085029581 -0.41177906387360241 0 -0.26755910350718881 -0.39582792531461569 0 -0.25033509129523179 -0.39094719032673231 0 -0.25487024651921952 -0.41254988102096568 0 -0.26755910350718881 -0.39582792531461569 0 -0.25033509129523179 -0.39094719032673231 0 -0.26281209396899169 -0.38517470131063508 0 -0.25909124390184018 -0.37475905286733341 0 -0.25033509129523179 -0.39094719032673231 0 -0.26281209396899169 -0.38517470131063508 0 -0.25909124390184018 -0.37475905286733341 0 -0.25033509129523179 -0.39094719032673231 0 -0.24748772700216881 -0.3717564301773445 0 -0.25909124390184018 -0.37475905286733341 0 -0.2742629371717063 -0.37916463673385931 0 -0.26281209396899169 -0.38517470131063508 0 -0.26911429951178012 -0.42474234074800371 0 -0.27848929033898201 -0.43669604725877897 0 -0.26690007516498948 -0.44242471351124879 0 -0.28540276919059199 -0.42535658303670731 0 -0.26911429951178012 -0.42474234074800371 0 -0.27848929033898201 -0.43669604725877897 0 -0.27638376085029581 -0.41177906387360241 0 -0.25487024651921952 -0.41254988102096568 0 -0.28540276919059199 -0.42535658303670731 0 -0.26911429951178012 -0.42474234074800371 0 -0.27638376085029581 -0.41177906387360241 0 -0.26911429951178012 -0.42474234074800371 0 -0.27638376085029581 -0.41177906387360241 0 -0.25487024651921952 -0.41254988102096568 0 -0.26755910350718881 -0.39582792531461569 0 -0.27638376085029581 -0.41177906387360241 0 -0.25487024651921952 -0.41254988102096568 0 -0.26911429951178012 -0.42474234074800371 0 -0.27638376085029581 -0.41177906387360241 0 -0.26911429951178012 -0.42474234074800371 0 -0.25908880606166329 -0.43064529781943001 0 -0.26690007516498948 -0.44242471351124879 0 -0.25487024651921952 -0.41254988102096568 0 -0.25908880606166329 -0.43064529781943001 0 -0.2468605885266735 -0.43014712497011809 0 -0.26911429951178012 -0.42474234074800371 0 -0.25487024651921952 -0.41254988102096568 0 -0.25908880606166329 -0.43064529781943001 0 -0.25908880606166329 -0.43064529781943001 0 -0.25479397652280911 -0.44050862113911837 0 -0.2468605885266735 -0.43014712497011809 0 -0.25479397652280911 -0.44050862113911837 0 -0.2546108597688766 -0.45375703833677078 0 -0.2450571310604201 -0.44414202720417628 0 -0.25479397652280911 -0.44050862113911837 0 -0.2546108597688766 -0.45375703833677078 0 -0.26690007516498948 -0.44242471351124879 0 -0.2546108597688766 -0.45375703833677078 0 -0.26838297633475061 -0.45652413347846638 0 -0.26690007516498948 -0.44242471351124879 0 -0.25908880606166329 -0.43064529781943001 0 -0.25479397652280911 -0.44050862113911837 0 -0.26690007516498948 -0.44242471351124879 0 -0.25109629719050858 -0.46406488014867903 0 -0.2546108597688766 -0.45375703833677078 0 -0.26079873433517492 -0.46936342421069649 0 -0.2546108597688766 -0.45375703833677078 0 -0.26838297633475061 -0.45652413347846638 0 -0.26079873433517492 -0.46936342421069649 0 -0.27799569035848881 -0.46687050799545499 0 -0.26838297633475061 -0.45652413347846638 0 -0.26079873433517492 -0.46936342421069649 0 -0.27799569035848881 -0.46687050799545499 0 -0.26838297633475061 -0.45652413347846638 0 -0.28160952204622303 -0.450204983338161 0 -0.26838297633475061 -0.45652413347846638 0 -0.26690007516498948 -0.44242471351124879 0 -0.28160952204622303 -0.450204983338161 0 -0.27848929033898201 -0.43669604725877897 0 -0.26690007516498948 -0.44242471351124879 0 -0.28160952204622303 -0.450204983338161 0 -0.29907098912325059 -0.43374406761790368 0 -0.28902284908971709 -0.44016681433255572 0 -0.29708038679871529 -0.44973292283788502 0 -0.27848929033898201 -0.43669604725877897 0 -0.28902284908971709 -0.44016681433255572 0 -0.28160952204622303 -0.450204983338161 0 -0.28902284908971709 -0.44016681433255572 0 -0.28160952204622303 -0.450204983338161 0 -0.29708038679871529 -0.44973292283788502 0 -0.27799569035848881 -0.46687050799545499 0 -0.29150619976335518 -0.46129715127825488 0 -0.29492343141974797 -0.47638763217473168 0 -0.27799569035848881 -0.46687050799545499 0 -0.28160952204622303 -0.450204983338161 0 -0.29150619976335518 -0.46129715127825488 0 -0.28160952204622303 -0.450204983338161 0 -0.29150619976335518 -0.46129715127825488 0 -0.29708038679871529 -0.44973292283788502 0 -0.29150619976335518 -0.46129715127825488 0 -0.30592196819360068 -0.46328971004504182 0 -0.29708038679871529 -0.44973292283788502 0 -0.31987457796333868 -0.4551426725204325 0 -0.30592196819360068 -0.46328971004504182 0 -0.31015853372433788 -0.44544301337781073 0 -0.29150619976335518 -0.46129715127825488 0 -0.30592196819360068 -0.46328971004504182 0 -0.29492343141974797 -0.47638763217473168 0 -0.29907098912325059 -0.43374406761790368 0 -0.31015853372433788 -0.44544301337781073 0 -0.29708038679871529 -0.44973292283788502 0 -0.30592196819360068 -0.46328971004504182 0 -0.31015853372433788 -0.44544301337781073 0 -0.29708038679871529 -0.44973292283788502 0 -0.31208929727375578 -0.48491526738579699 0 -0.29492343141974797 -0.47638763217473168 0 -0.29581575695060047 -0.5 0 -0.32221211863154181 -0.5 0 -0.31208929727375578 -0.48491526738579699 0 -0.29581575695060047 -0.5 0 -0.32094261384274558 -0.46854088973335889 0 -0.30592196819360068 -0.46328971004504182 0 -0.29492343141974797 -0.47638763217473168 0 -0.32094261384274558 -0.46854088973335889 0 -0.29492343141974797 -0.47638763217473168 0 -0.32094261384274558 -0.46854088973335889 0 -0.31208929727375578 -0.48491526738579699 0 -0.29492343141974797 -0.47638763217473168 0 -0.29492343141974797 -0.47638763217473168 0 -0.26890424899675031 -0.48423437461610452 0 -0.29492343141974797 -0.47638763217473168 0 -0.28441593737837417 -0.48860776134254891 0 -0.26890424899675031 -0.48423437461610452 0 -0.29492343141974797 -0.47638763217473168 0 -0.28441593737837417 -0.48860776134254891 0 -0.29581575695060047 -0.5 0 -0.28441593737837417 -0.48860776134254891 0 -0.29581575695060047 -0.5 0 -0.26941939526965919 -0.5 0 -0.28441593737837417 -0.48860776134254891 0 -0.26941939526965919 -0.5 0 -0.26890424899675031 -0.48423437461610452 0 -0.27799569035848881 -0.46687050799545499 0 -0.29492343141974797 -0.47638763217473168 0 -0.26890424899675031 -0.48423437461610452 0 -0.27799569035848881 -0.46687050799545499 0 -0.26890424899675031 -0.48423437461610452 0 -0.26079873433517492 -0.46936342421069649 0 -0.26890424899675031 -0.48423437461610452 0 -0.26079873433517492 -0.46936342421069649 0 -0.25379328426056558 -0.48205965705463422 0 -0.26079873433517492 -0.46936342421069649 0 -0.25379328426056558 -0.48205965705463422 0 -0.250874604213362 -0.47391739130808008 0 -0.25109629719050858 -0.46406488014867903 0 -0.26079873433517492 -0.46936342421069649 0 -0.250874604213362 -0.47391739130808008 0 -0.26941939526965919 -0.5 0 -0.26890424899675031 -0.48423437461610452 0 -0.2544134183364497 -0.49413622749019132 0 -0.26941939526965919 -0.5 0 -0.2544134183364497 -0.49413622749019132 0 -0.2430230335887178 -0.5 0 -0.26890424899675031 -0.48423437461610452 0 -0.2544134183364497 -0.49413622749019132 0 -0.24288506657375261 -0.49208111705747781 0 -0.26890424899675031 -0.48423437461610452 0 -0.25379328426056558 -0.48205965705463422 0 -0.24288506657375261 -0.49208111705747781 0 -0.26890424899675031 -0.48423437461610452 0 -0.24288506657375261 -0.49208111705747781 0 -0.2544134183364497 -0.49413622749019132 0 -0.2430230335887178 -0.5 0 -0.24783534725336881 -0.49436564577737419 0 -0.2544134183364497 -0.49413622749019132 0 -0.24783534725336881 -0.49436564577737419 0 -0.24288506657375261 -0.49208111705747781 0 -0.2430230335887178 -0.5 0 -0.24783534725336881 -0.49436564577737419 0 -0.24288506657375261 -0.49208111705747781 0 -0.24783534725336881 -0.49436564577737419 0 -0.24288506657375261 -0.49208111705747781 0 -0.24288506657375261 -0.49208111705747781 0 -0.24429345028001889 -0.4821559175287794 0 -0.23457410743521059 -0.47899140825596259 0 -0.25379328426056558 -0.48205965705463422 0 -0.24288506657375261 -0.49208111705747781 0 -0.24429345028001889 -0.4821559175287794 0 -0.25379328426056558 -0.48205965705463422 0 -0.250874604213362 -0.47391739130808008 0 -0.24429345028001889 -0.4821559175287794 0 -0.24429345028001889 -0.4821559175287794 0 -0.2443912550005416 -0.47194307759761112 0 -0.2395637252682277 -0.47605318874815389 0 -0.25109629719050858 -0.46406488014867903 0 -0.250874604213362 -0.47391739130808008 0 -0.2443912550005416 -0.47194307759761112 0 -0.250874604213362 -0.47391739130808008 0 -0.24429345028001889 -0.4821559175287794 0 -0.2443912550005416 -0.47194307759761112 0 -0.2443912550005416 -0.47194307759761112 0 -0.2395637252682277 -0.47605318874815389 0 -0.23499608835713959 -0.47112235161026261 0 -0.2395637252682277 -0.47605318874815389 0 -0.23499608835713959 -0.47112235161026261 0 -0.23457410743521059 -0.47899140825596259 0 -0.24429345028001889 -0.4821559175287794 0 -0.2395637252682277 -0.47605318874815389 0 -0.23457410743521059 -0.47899140825596259 0 -0.23457410743521059 -0.47899140825596259 0 -0.2250369990674011 -0.47003999804886298 0 -0.2204246459600448 -0.48171575006642248 0 -0.24288506657375261 -0.49208111705747781 0 -0.23457410743521059 -0.47899140825596259 0 -0.2204246459600448 -0.48171575006642248 0 -0.23499608835713959 -0.47112235161026261 0 -0.23457410743521059 -0.47899140825596259 0 -0.2250369990674011 -0.47003999804886298 0 -0.2430230335887178 -0.5 0 -0.24288506657375261 -0.49208111705747781 0 -0.21662667190777651 -0.49999999999999939 0 -0.24288506657375261 -0.49208111705747781 0 -0.21662667190777651 -0.49999999999999939 0 -0.24288506657375261 -0.49208111705747781 0 -0.2204246459600448 -0.48171575006642248 0 -0.24288506657375261 -0.49208111705747781 0 -0.2204246459600448 -0.48171575006642248 0 -0.21662667190777651 -0.49999999999999939 0 -0.2450571310604201 -0.44414202720417628 0 -0.23716380350122879 -0.45645441389937441 0 -0.23280677558438309 -0.43386548686292281 0 -0.2546108597688766 -0.45375703833677078 0 -0.2450571310604201 -0.44414202720417628 0 -0.23716380350122879 -0.45645441389937441 0 -0.25479397652280911 -0.44050862113911837 0 -0.2450571310604201 -0.44414202720417628 0 -0.2468605885266735 -0.43014712497011809 0 -0.25109629719050858 -0.46406488014867903 0 -0.2546108597688766 -0.45375703833677078 0 -0.23716380350122879 -0.45645441389937441 0 -0.25109629719050858 -0.46406488014867903 0 -0.2443912550005416 -0.47194307759761112 0 -0.23716380350122879 -0.45645441389937441 0 -0.2443912550005416 -0.47194307759761112 0 -0.23499608835713959 -0.47112235161026261 0 -0.23716380350122879 -0.45645441389937441 0 -0.2250369990674011 -0.47003999804886298 0 -0.21844010846223411 -0.44206575668227449 0 -0.2250369990674011 -0.47003999804886298 0 -0.23716380350122879 -0.45645441389937441 0 -0.21844010846223411 -0.44206575668227449 0 -0.23499608835713959 -0.47112235161026261 0 -0.2250369990674011 -0.47003999804886298 0 -0.23716380350122879 -0.45645441389937441 0 -0.23716380350122879 -0.45645441389937441 0 -0.21844010846223411 -0.44206575668227449 0 -0.23280677558438309 -0.43386548686292281 0 -0.21844010846223411 -0.44206575668227449 0 -0.21054881561508179 -0.46151962797655111 0 -0.19087809923939161 -0.44242625200982799 0 -0.2250369990674011 -0.47003999804886298 0 -0.21844010846223411 -0.44206575668227449 0 -0.21054881561508179 -0.46151962797655111 0 -0.21054881561508179 -0.46151962797655111 0 -0.19087809923939161 -0.44242625200982799 0 -0.1979642253463372 -0.47135038307536692 0 -0.19087809923939161 -0.44242625200982799 0 -0.1979642253463372 -0.47135038307536692 0 -0.17550380473262961 -0.46098501608431119 0 -0.2039060436575347 -0.48788306012054039 0 -0.21662667190777651 -0.49999999999999939 0 -0.191185415407293 -0.5 0 -0.2204246459600448 -0.48171575006642248 0 -0.2039060436575347 -0.48788306012054039 0 -0.21662667190777651 -0.49999999999999939 0 -0.2250369990674011 -0.47003999804886298 0 -0.2204246459600448 -0.48171575006642248 0 -0.21054881561508179 -0.46151962797655111 0 -0.2204246459600448 -0.48171575006642248 0 -0.2039060436575347 -0.48788306012054039 0 -0.1979642253463372 -0.47135038307536692 0 -0.2204246459600448 -0.48171575006642248 0 -0.1979642253463372 -0.47135038307536692 0 -0.2204246459600448 -0.48171575006642248 0 -0.21054881561508179 -0.46151962797655111 0 -0.1979642253463372 -0.47135038307536692 0 -0.2039060436575347 -0.48788306012054039 0 -0.1979642253463372 -0.47135038307536692 0 -0.18170511770794731 -0.48283447360099019 0 -0.2039060436575347 -0.48788306012054039 0 -0.191185415407293 -0.5 0 -0.18170511770794731 -0.48283447360099019 0 -0.191185415407293 -0.5 0 -0.16574415890680941 -0.5 0 -0.18170511770794731 -0.48283447360099019 0 -0.16574415890680941 -0.5 0 -0.18170511770794731 -0.48283447360099019 0 -0.1559270581970803 -0.47678838232572268 0 -0.18170511770794731 -0.48283447360099019 0 -0.17550380473262961 -0.46098501608431119 0 -0.1559270581970803 -0.47678838232572268 0 -0.1979642253463372 -0.47135038307536692 0 -0.18170511770794731 -0.48283447360099019 0 -0.17550380473262961 -0.46098501608431119 0 -0.1979642253463372 -0.47135038307536692 0 -0.17550380473262961 -0.46098501608431119 0 -0.19087809923939161 -0.44242625200982799 0 -0.17550380473262961 -0.46098501608431119 0 -0.16487953686040341 -0.43668708651363358 0 -0.17550380473262961 -0.46098501608431119 0 -0.15866236735209521 -0.45377864165300308 0 -0.16487953686040341 -0.43668708651363358 0 -0.17550380473262961 -0.46098501608431119 0 -0.15866236735209521 -0.45377864165300308 0 -0.1559270581970803 -0.47678838232572268 0 -0.15866236735209521 -0.45377864165300308 0 -0.14280129841846509 -0.46103953978105727 0 -0.1559270581970803 -0.47678838232572268 0 -0.15866236735209521 -0.45377864165300308 0 -0.14280129841846509 -0.46103953978105727 0 -0.1438484805828521 -0.43705968193712769 0 -0.15866236735209521 -0.45377864165300308 0 -0.1438484805828521 -0.43705968193712769 0 -0.16487953686040341 -0.43668708651363358 0 -0.14280129841846509 -0.46103953978105727 0 -0.13093011984253891 -0.44972195681556543 0 -0.1438484805828521 -0.43705968193712769 0 -0.13093011984253891 -0.44972195681556543 0 -0.1438484805828521 -0.43705968193712769 0 -0.123519809913229 -0.43733662075251151 0 -0.14280129841846509 -0.46103953978105727 0 -0.13093011984253891 -0.44972195681556543 0 -0.12704973474613379 -0.46277216333596533 0 -0.14280129841846509 -0.46103953978105727 0 -0.12704973474613379 -0.46277216333596533 0 -0.13010403334985379 -0.48000251283874379 0 -0.13010403334985379 -0.48000251283874379 0 -0.1403029024063259 -0.5 0 -0.1148616459058424 -0.5 0 -0.16574415890680941 -0.5 0 -0.1403029024063259 -0.5 0 -0.1559270581970803 -0.47678838232572268 0 -0.13010403334985379 -0.48000251283874379 0 -0.1403029024063259 -0.5 0 -0.1559270581970803 -0.47678838232572268 0 -0.14280129841846509 -0.46103953978105727 0 -0.13010403334985379 -0.48000251283874379 0 -0.1559270581970803 -0.47678838232572268 0 -0.13724659116883831 -0.38156720383825199 0 -0.13696324729183901 -0.40051159333262831 0 -0.1562511533772393 -0.40085091578326698 0 -0.13696324729183901 -0.40051159333262831 0 -0.14428023194946249 -0.41611080081516499 0 -0.1562511533772393 -0.40085091578326698 0 -0.13724659116883831 -0.38156720383825199 0 -0.1562511533772393 -0.40085091578326698 0 -0.1663441030446621 -0.37717300760659073 0 -0.13724659116883831 -0.38156720383825199 0 -0.11827115974421661 -0.40327967795429231 0 -0.13724659116883831 -0.38156720383825199 0 -0.13696324729183901 -0.40051159333262831 0 -0.11827115974421661 -0.40327967795429231 0 -0.13696324729183901 -0.40051159333262831 0 -0.12597911368703019 -0.41952469120143437 0 -0.14428023194946249 -0.41611080081516499 0 -0.13696324729183901 -0.40051159333262831 0 -0.12597911368703019 -0.41952469120143437 0 -0.11827115974421661 -0.40327967795429231 0 -0.12597911368703019 -0.41952469120143437 0 -0.1438484805828521 -0.43705968193712769 0 -0.123519809913229 -0.43733662075251151 0 -0.12597911368703019 -0.41952469120143437 0 -0.1438484805828521 -0.43705968193712769 0 -0.14428023194946249 -0.41611080081516499 0 -0.1438484805828521 -0.43705968193712769 0 -0.16487953686040341 -0.43668708651363358 0 -0.1579375607246061 -0.42228606781690858 0 -0.1438484805828521 -0.43705968193712769 0 -0.14428023194946249 -0.41611080081516499 0 -0.1579375607246061 -0.42228606781690858 0 -0.14428023194946249 -0.41611080081516499 0 -0.1579375607246061 -0.42228606781690858 0 -0.1562511533772393 -0.40085091578326698 0 -0.1717517290487513 -0.41486076781395709 0 -0.1579375607246061 -0.42228606781690858 0 -0.1562511533772393 -0.40085091578326698 0 -0.1717517290487513 -0.41486076781395709 0 -0.16487953686040341 -0.43668708651363358 0 -0.1579375607246061 -0.42228606781690858 0 -0.1717517290487513 -0.41486076781395709 0 -0.16487953686040341 -0.43668708651363358 0 -0.19087809923939161 -0.44242625200982799 0 -0.16487953686040341 -0.43668708651363358 0 -0.18049207608238291 -0.42812424827546058 0 -0.1717517290487513 -0.41486076781395709 0 -0.16487953686040341 -0.43668708651363358 0 -0.18049207608238291 -0.42812424827546058 0 -0.1717517290487513 -0.41486076781395709 0 -0.18680736564207029 -0.41498853585306777 0 -0.17862392123709919 -0.39303444911428059 0 -0.1717517290487513 -0.41486076781395709 0 -0.18049207608238291 -0.42812424827546058 0 -0.18680736564207029 -0.41498853585306777 0 -0.18680736564207029 -0.41498853585306777 0 -0.17862392123709919 -0.39303444911428059 0 -0.19656737959219739 -0.40219111980173922 0 -0.1717517290487513 -0.41486076781395709 0 -0.17862392123709919 -0.39303444911428059 0 -0.1717517290487513 -0.41486076781395709 0 -0.17862392123709919 -0.39303444911428059 0 -0.1562511533772393 -0.40085091578326698 0 -0.17862392123709919 -0.39303444911428059 0 -0.1562511533772393 -0.40085091578326698 0 -0.1663441030446621 -0.37717300760659073 0 -0.17862392123709919 -0.39303444911428059 0 -0.1663441030446621 -0.37717300760659073 0 -0.1854961134254472 -0.37120813041460421 0 -0.17862392123709919 -0.39303444911428059 0 -0.1854961134254472 -0.37120813041460421 0 -0.17862392123709919 -0.39303444911428059 0 -0.20527564977482679 -0.38624161667098289 0 -0.1854961134254472 -0.37120813041460421 0 -0.17862392123709919 -0.39303444911428059 0 -0.19656737959219739 -0.40219111980173922 0 -0.20527564977482679 -0.38624161667098289 0 -0.20527564977482679 -0.38624161667098289 0 -0.2118432178570665 -0.41409151531568628 0 -0.2281799985799623 -0.39436158075255778 0 -0.19656737959219739 -0.40219111980173922 0 -0.20527564977482679 -0.38624161667098289 0 -0.2118432178570665 -0.41409151531568628 0 -0.20527564977482679 -0.38624161667098289 0 -0.2118432178570665 -0.41409151531568628 0 -0.20527564977482679 -0.38624161667098289 0 -0.22195794658956111 -0.37463091785279867 0 -0.21168543115216709 -0.36681117402183649 0 -0.20527564977482679 -0.38624161667098289 0 -0.2281799985799623 -0.39436158075255778 0 -0.22195794658956111 -0.37463091785279867 0 -0.18049207608238291 -0.42812424827546058 0 -0.18680736564207029 -0.41498853585306777 0 -0.19899408631087909 -0.4269358685541359 0 -0.19087809923939161 -0.44242625200982799 0 -0.18049207608238291 -0.42812424827546058 0 -0.19899408631087909 -0.4269358685541359 0 -0.21844010846223411 -0.44206575668227449 0 -0.19087809923939161 -0.44242625200982799 0 -0.19899408631087909 -0.4269358685541359 0 -0.18680736564207029 -0.41498853585306777 0 -0.19656737959219739 -0.40219111980173922 0 -0.2118432178570665 -0.41409151531568628 0 -0.18680736564207029 -0.41498853585306777 0 -0.19899408631087909 -0.4269358685541359 0 -0.2118432178570665 -0.41409151531568628 0 -0.18680736564207029 -0.41498853585306777 0 -0.2118432178570665 -0.41409151531568628 0 -0.21844010846223411 -0.44206575668227449 0 -0.19899408631087909 -0.4269358685541359 0 -0.2118432178570665 -0.41409151531568628 0 -0.21844010846223411 -0.44206575668227449 0 -0.2118432178570665 -0.41409151531568628 0 -0.21844010846223411 -0.44206575668227449 0 -0.2118432178570665 -0.41409151531568628 0 -0.23280677558438309 -0.43386548686292281 0 -0.2118432178570665 -0.41409151531568628 0 -0.23335673218814301 -0.41332069816832789 0 -0.2281799985799623 -0.39436158075255778 0 -0.2118432178570665 -0.41409151531568628 0 -0.23335673218814301 -0.41332069816832789 0 -0.2118432178570665 -0.41409151531568628 0 -0.23280677558438309 -0.43386548686292281 0 -0.23335673218814301 -0.41332069816832789 0 -0.25487024651921952 -0.41254988102096568 0 -0.23335673218814301 -0.41332069816832789 0 -0.25487024651921952 -0.41254988102096568 0 -0.23335673218814301 -0.41332069816832789 0 -0.24168551714563921 -0.4027948375671459 0 -0.25487024651921952 -0.41254988102096568 0 -0.23335673218814301 -0.41332069816832789 0 -0.2468605885266735 -0.43014712497011809 0 -0.23280677558438309 -0.43386548686292281 0 -0.23335673218814301 -0.41332069816832789 0 -0.2468605885266735 -0.43014712497011809 0 -0.2450571310604201 -0.44414202720417628 0 -0.23280677558438309 -0.43386548686292281 0 -0.2468605885266735 -0.43014712497011809 0 -0.2281799985799623 -0.39436158075255778 0 -0.2359431282162788 -0.37698905115118858 0 -0.22195794658956111 -0.37463091785279867 0 -0.25033509129523179 -0.39094719032673231 0 -0.2281799985799623 -0.39436158075255778 0 -0.24168551714563921 -0.4027948375671459 0 -0.25033509129523179 -0.39094719032673231 0 -0.25487024651921952 -0.41254988102096568 0 -0.24168551714563921 -0.4027948375671459 0 -0.23335673218814301 -0.41332069816832789 0 -0.2281799985799623 -0.39436158075255778 0 -0.24168551714563921 -0.4027948375671459 0 -0.25033509129523179 -0.39094719032673231 0 -0.2359431282162788 -0.37698905115118858 0 -0.24748772700216881 -0.3717564301773445 0 -0.25033509129523179 -0.39094719032673231 0 -0.2281799985799623 -0.39436158075255778 0 -0.2359431282162788 -0.37698905115118858 0 -0.25494538795031141 -0.36273054802101118 0 -0.24748772700216881 -0.3717564301773445 0 -0.24521251836493849 -0.35951647641646678 0 -0.24748772700216881 -0.3717564301773445 0 -0.24521251836493849 -0.35951647641646678 0 -0.23939899228441261 -0.3655962622813349 0 -0.23939899228441261 -0.3655962622813349 0 -0.23024759562621139 -0.36380396142485888 0 -0.23761117654761921 -0.35850429625613017 0 -0.24521251836493849 -0.35951647641646678 0 -0.23939899228441261 -0.3655962622813349 0 -0.23761117654761921 -0.35850429625613017 0 -0.2359431282162788 -0.37698905115118858 0 -0.23939899228441261 -0.3655962622813349 0 -0.23024759562621139 -0.36380396142485888 0 -0.2359431282162788 -0.37698905115118858 0 -0.24748772700216881 -0.3717564301773445 0 -0.23939899228441261 -0.3655962622813349 0 -0.2359431282162788 -0.37698905115118858 0 -0.23024759562621139 -0.36380396142485888 0 -0.22195794658956111 -0.37463091785279867 0 -0.23024759562621139 -0.36380396142485888 0 -0.22135664398937441 -0.36020929429952131 0 -0.2310785660723691 -0.35440187846705151 0 -0.23024759562621139 -0.36380396142485888 0 -0.22135664398937441 -0.36020929429952131 0 -0.22195794658956111 -0.37463091785279867 0 -0.22135664398937441 -0.36020929429952131 0 -0.22331676928072861 -0.34527245129667988 0 -0.2310785660723691 -0.35440187846705151 0 -0.23024759562621139 -0.36380396142485888 0 -0.2310785660723691 -0.35440187846705151 0 -0.23761117654761921 -0.35850429625613017 0 -0.22331676928072861 -0.34527245129667988 0 -0.2337118992122327 -0.34903918396608452 0 -0.23708401688859529 -0.34365007901650441 0 -0.22331676928072861 -0.34527245129667988 0 -0.2310785660723691 -0.35440187846705151 0 -0.2337118992122327 -0.34903918396608452 0 -0.26017799311385281 -0.35268912854855933 0 -0.24808760514302669 -0.3536558827211943 0 -0.2404133442166683 -0.34213832018255058 0 -0.2310785660723691 -0.35440187846705151 0 -0.2337118992122327 -0.34903918396608452 0 -0.2396887820693627 -0.35120494043738398 0 -0.26017799311385281 -0.35268912854855933 0 -0.24325210797206609 -0.34084931319650169 0 -0.2404133442166683 -0.34213832018255058 0 -0.2396887820693627 -0.35120494043738398 0 -0.23708401688859529 -0.34365007901650441 0 -0.2404133442166683 -0.34213832018255058 0 -0.2337118992122327 -0.34903918396608452 0 -0.2396887820693627 -0.35120494043738398 0 -0.23708401688859529 -0.34365007901650441 0 -0.2310785660723691 -0.35440187846705151 0 -0.2396887820693627 -0.35120494043738398 0 -0.23761117654761921 -0.35850429625613017 0 -0.24521251836493849 -0.35951647641646678 0 -0.2396887820693627 -0.35120494043738398 0 -0.23761117654761921 -0.35850429625613017 0 -0.24521251836493849 -0.35951647641646678 0 -0.2396887820693627 -0.35120494043738398 0 -0.24808760514302669 -0.3536558827211943 0 -0.25494538795031141 -0.36273054802101118 0 -0.24521251836493849 -0.35951647641646678 0 -0.24808760514302669 -0.3536558827211943 0 -0.2396887820693627 -0.35120494043738398 0 -0.24808760514302669 -0.3536558827211943 0 -0.2404133442166683 -0.34213832018255058 0 -0.24325210797206609 -0.34084931319650169 0 -0.24518994726652291 -0.33234415230164399 0 -0.23958942898634211 -0.33903199036576709 0 -0.24518994726652291 -0.33234415230164399 0 -0.23560348244150561 -0.32909319502054812 0 -0.23958942898634211 -0.33903199036576709 0 -0.23708401688859529 -0.34365007901650441 0 -0.2404133442166683 -0.34213832018255058 0 -0.24325210797206609 -0.34084931319650169 0 -0.2404133442166683 -0.34213832018255058 0 -0.23958942898634211 -0.33903199036576709 0 -0.24325210797206609 -0.34084931319650169 0 -0.2404133442166683 -0.34213832018255058 0 -0.24325210797206609 -0.34084931319650169 0 -0.23958942898634211 -0.33903199036576709 0 -0.25915672867891859 -0.31415112243359272 0 -0.24308922262768951 -0.32099342612622928 0 -0.24047089863443691 -0.30798947189970438 0 -0.24518994726652291 -0.33234415230164399 0 -0.23560348244150561 -0.32909319502054812 0 -0.24308922262768951 -0.32099342612622928 0 -0.23560348244150561 -0.32909319502054812 0 -0.24308922262768951 -0.32099342612622928 0 -0.22938765682563561 -0.32144886021699343 0 -0.24308922262768951 -0.32099342612622928 0 -0.22938765682563561 -0.32144886021699343 0 -0.23158309368585001 -0.31181085789310747 0 -0.24308922262768951 -0.32099342612622928 0 -0.24047089863443691 -0.30798947189970438 0 -0.23158309368585001 -0.31181085789310747 0 -0.22938765682563561 -0.32144886021699343 0 -0.23158309368585001 -0.31181085789310747 0 -0.22249387381410951 -0.31123320620709588 0 -0.23560348244150561 -0.32909319502054812 0 -0.22938765682563561 -0.32144886021699343 0 -0.22076115650133771 -0.33164754609210678 0 -0.22938765682563561 -0.32144886021699343 0 -0.22076115650133771 -0.33164754609210678 0 -0.2180259411870723 -0.31620608063285149 0 -0.22938765682563561 -0.32144886021699343 0 -0.2180259411870723 -0.31620608063285149 0 -0.22249387381410951 -0.31123320620709588 0 -0.22331676928072861 -0.34527245129667988 0 -0.23708401688859529 -0.34365007901650441 0 -0.22076115650133771 -0.33164754609210678 0 -0.23560348244150561 -0.32909319502054812 0 -0.23958942898634211 -0.33903199036576709 0 -0.22076115650133771 -0.33164754609210678 0 -0.2404133442166683 -0.34213832018255058 0 -0.22076115650133771 -0.33164754609210678 0 -0.2404133442166683 -0.34213832018255058 0 -0.23958942898634211 -0.33903199036576709 0 -0.22076115650133771 -0.33164754609210678 0 -0.23708401688859529 -0.34365007901650441 0 -0.2404133442166683 -0.34213832018255058 0 -0.22076115650133771 -0.33164754609210678 0 -0.22331676928072861 -0.34527245129667988 0 -0.22076115650133771 -0.33164754609210678 0 -0.20784983644103361 -0.34097302903627591 0 -0.22076115650133771 -0.33164754609210678 0 -0.20348412114368319 -0.33156666209817831 0 -0.20784983644103361 -0.34097302903627591 0 -0.2180259411870723 -0.31620608063285149 0 -0.19974136112887431 -0.31343603927203523 0 -0.20110896878600679 -0.32115677200166343 0 -0.22076115650133771 -0.33164754609210678 0 -0.2180259411870723 -0.31620608063285149 0 -0.20110896878600679 -0.32115677200166343 0 -0.22076115650133771 -0.33164754609210678 0 -0.20348412114368319 -0.33156666209817831 0 -0.20110896878600679 -0.32115677200166343 0 -0.22076115650133771 -0.33164754609210678 0 -0.20110896878600679 -0.32115677200166343 0 -0.2180259411870723 -0.31620608063285149 0 -0.19974136112887431 -0.31343603927203523 0 -0.20904493575850211 -0.30938578927939081 0 -0.2180259411870723 -0.31620608063285149 0 -0.19974136112887431 -0.31343603927203523 0 -0.19974136112887431 -0.31343603927203523 0 -0.20110896878600679 -0.32115677200166343 0 -0.1814567810706762 -0.3106659979112194 0 -0.20110896878600679 -0.32115677200166343 0 -0.1814567810706762 -0.3106659979112194 0 -0.20110896878600679 -0.32115677200166343 0 -0.19214051361034601 -0.33054181938157612 0 -0.1814567810706762 -0.3106659979112194 0 -0.20348412114368319 -0.33156666209817831 0 -0.20110896878600679 -0.32115677200166343 0 -0.19214051361034601 -0.33054181938157612 0 -0.20348412114368319 -0.33156666209817831 0 -0.20784983644103361 -0.34097302903627591 0 -0.19214051361034601 -0.33054181938157612 0 -0.20784983644103361 -0.34097302903627591 0 -0.19214051361034601 -0.33054181938157612 0 -0.20232946575910341 -0.34593351830387509 0 -0.19214051361034601 -0.33054181938157612 0 -0.19236830561379509 -0.34938181171492771 0 -0.18622265824693729 -0.34003474470360739 0 -0.19214051361034601 -0.33054181938157612 0 -0.19236830561379509 -0.34938181171492771 0 -0.19870808169258641 -0.35839171802627962 0 -0.19214051361034601 -0.33054181938157612 0 -0.19870808169258641 -0.35839171802627962 0 -0.19214051361034601 -0.33054181938157612 0 -0.20232946575910341 -0.34593351830387509 0 -0.19870808169258641 -0.35839171802627962 0 -0.19236830561379509 -0.34938181171492771 0 -0.1854961134254472 -0.37120813041460421 0 -0.20527564977482679 -0.38624161667098289 0 -0.19870808169258641 -0.35839171802627962 0 -0.20527564977482679 -0.38624161667098289 0 -0.19870808169258641 -0.35839171802627962 0 -0.1854961134254472 -0.37120813041460421 0 -0.19236830561379509 -0.34938181171492771 0 -0.19870808169258641 -0.35839171802627962 0 -0.1854961134254472 -0.37120813041460421 0 -0.20527564977482679 -0.38624161667098289 0 -0.19870808169258641 -0.35839171802627962 0 -0.21168543115216709 -0.36681117402183649 0 -0.19870808169258641 -0.35839171802627962 0 -0.21168543115216709 -0.36681117402183649 0 -0.21061943129244759 -0.3538275067713687 0 -0.22135664398937441 -0.36020929429952131 0 -0.22195794658956111 -0.37463091785279867 0 -0.21168543115216709 -0.36681117402183649 0 -0.22135664398937441 -0.36020929429952131 0 -0.21168543115216709 -0.36681117402183649 0 -0.21061943129244759 -0.3538275067713687 0 -0.22135664398937441 -0.36020929429952131 0 -0.22331676928072861 -0.34527245129667988 0 -0.21061943129244759 -0.3538275067713687 0 -0.22331676928072861 -0.34527245129667988 0 -0.20784983644103361 -0.34097302903627591 0 -0.21061943129244759 -0.3538275067713687 0 -0.20784983644103361 -0.34097302903627591 0 -0.20232946575910341 -0.34593351830387509 0 -0.21061943129244759 -0.3538275067713687 0 -0.20232946575910341 -0.34593351830387509 0 -0.19870808169258641 -0.35839171802627962 0 -0.21061943129244759 -0.3538275067713687 0 -0.22866545068461799 -0.25948943059043711 0 -0.21759888839251429 -0.26212753750200368 0 -0.22025275826160279 -0.2471257797298928 0 -0.22866545068461799 -0.25948943059043711 0 -0.22398633244919169 -0.27132847136955079 0 -0.21759888839251429 -0.26212753750200368 0 -0.22866545068461799 -0.25948943059043711 0 -0.23442911476228809 -0.24683612341654529 0 -0.22025275826160279 -0.2471257797298928 0 -0.22866545068461799 -0.25948943059043711 0 -0.24233717299785959 -0.25960849866204011 0 -0.23442911476228809 -0.24683612341654529 0 -0.2565674865322034 -0.25340195958415102 0 -0.24233717299785959 -0.25960849866204011 0 -0.25018128361314113 -0.24746468840205441 0 -0.22866545068461799 -0.25948943059043711 0 -0.24233717299785959 -0.25960849866204011 0 -0.2333815926018066 -0.27110706845475141 0 -0.24233717299785959 -0.25960849866204011 0 -0.2333815926018066 -0.27110706845475141 0 -0.24140403581614819 -0.28379898528087227 0 -0.24233717299785959 -0.25960849866204011 0 -0.24140403581614819 -0.28379898528087227 0 -0.24233717299785959 -0.25960849866204011 0 -0.2484323970602714 -0.27706385987730509 0 -0.24140403581614819 -0.28379898528087227 0 -0.25309751137434572 -0.26289123234143091 0 -0.24233717299785959 -0.25960849866204011 0 -0.2484323970602714 -0.27706385987730509 0 -0.2333815926018066 -0.27110706845475141 0 -0.2300547693907766 -0.28178467995593781 0 -0.24140403581614819 -0.28379898528087227 0 -0.2333815926018066 -0.27110706845475141 0 -0.22398633244919169 -0.27132847136955079 0 -0.2300547693907766 -0.28178467995593781 0 -0.22866545068461799 -0.25948943059043711 0 -0.2333815926018066 -0.27110706845475141 0 -0.22398633244919169 -0.27132847136955079 0 -0.22398633244919169 -0.27132847136955079 0 -0.21947311754018139 -0.28174823216008099 0 -0.2300547693907766 -0.28178467995593781 0 -0.21947311754018139 -0.28174823216008099 0 -0.22569627159534009 -0.29064390563822362 0 -0.2300547693907766 -0.28178467995593781 0 -0.21947311754018139 -0.28174823216008099 0 -0.22569627159534009 -0.29064390563822362 0 -0.21595054291829549 -0.29285447433738648 0 -0.22569627159534009 -0.29064390563822362 0 -0.22453607640027501 -0.29842387346705762 0 -0.21595054291829549 -0.29285447433738648 0 -0.22569627159534009 -0.29064390563822362 0 -0.2341156104824163 -0.28973116501788848 0 -0.23104294706112549 -0.29817392722980551 0 -0.22569627159534009 -0.29064390563822362 0 -0.23104294706112549 -0.29817392722980551 0 -0.22453607640027501 -0.29842387346705762 0 -0.22569627159534009 -0.29064390563822362 0 -0.2341156104824163 -0.28973116501788848 0 -0.2300547693907766 -0.28178467995593781 0 -0.25108388684634803 -0.28956965662021522 0 -0.24140403581614819 -0.28379898528087227 0 -0.24047089863443691 -0.30798947189970438 0 -0.2341156104824163 -0.28973116501788848 0 -0.24140403581614819 -0.28379898528087227 0 -0.24047089863443691 -0.30798947189970438 0 -0.24140403581614819 -0.28379898528087227 0 -0.24047089863443691 -0.30798947189970438 0 -0.2341156104824163 -0.28973116501788848 0 -0.2300547693907766 -0.28178467995593781 0 -0.24140403581614819 -0.28379898528087227 0 -0.25108388684634803 -0.28956965662021522 0 -0.2484323970602714 -0.27706385987730509 0 -0.24140403581614819 -0.28379898528087227 0 -0.25718459078837252 -0.29759752524363881 0 -0.25108388684634803 -0.28956965662021522 0 -0.24047089863443691 -0.30798947189970438 0 -0.2341156104824163 -0.28973116501788848 0 -0.24047089863443691 -0.30798947189970438 0 -0.23104294706112549 -0.29817392722980551 0 -0.24047089863443691 -0.30798947189970438 0 -0.23158309368585001 -0.31181085789310747 0 -0.2303958781931594 -0.30408122012615352 0 -0.23158309368585001 -0.31181085789310747 0 -0.2303958781931594 -0.30408122012615352 0 -0.2249978911063876 -0.30539226771637512 0 -0.24047089863443691 -0.30798947189970438 0 -0.23104294706112549 -0.29817392722980551 0 -0.2303958781931594 -0.30408122012615352 0 -0.23104294706112549 -0.29817392722980551 0 -0.2303958781931594 -0.30408122012615352 0 -0.22453607640027501 -0.29842387346705762 0 -0.2303958781931594 -0.30408122012615352 0 -0.22453607640027501 -0.29842387346705762 0 -0.2249978911063876 -0.30539226771637512 0 -0.22453607640027501 -0.29842387346705762 0 -0.2249978911063876 -0.30539226771637512 0 -0.21872282414136721 -0.30136563651957121 0 -0.22453607640027501 -0.29842387346705762 0 -0.21872282414136721 -0.30136563651957121 0 -0.21595054291829549 -0.29285447433738648 0 -0.22249387381410951 -0.31123320620709588 0 -0.2249978911063876 -0.30539226771637512 0 -0.21872282414136721 -0.30136563651957121 0 -0.23158309368585001 -0.31181085789310747 0 -0.22249387381410951 -0.31123320620709588 0 -0.2249978911063876 -0.30539226771637512 0 -0.22249387381410951 -0.31123320620709588 0 -0.20819654573008861 -0.30010144335043992 0 -0.2180259411870723 -0.31620608063285149 0 -0.2144403241224431 -0.30923162986744451 0 -0.20904493575850211 -0.30938578927939081 0 -0.22249387381410951 -0.31123320620709588 0 -0.2144403241224431 -0.30923162986744451 0 -0.20819654573008861 -0.30010144335043992 0 -0.2180259411870723 -0.31620608063285149 0 -0.22249387381410951 -0.31123320620709588 0 -0.2144403241224431 -0.30923162986744451 0 -0.21872282414136721 -0.30136563651957121 0 -0.20819654573008861 -0.30010144335043992 0 -0.21595054291829549 -0.29285447433738648 0 -0.22249387381410951 -0.31123320620709588 0 -0.21872282414136721 -0.30136563651957121 0 -0.20819654573008861 -0.30010144335043992 0 -0.20819654573008861 -0.30010144335043992 0 -0.20288915614788011 -0.30684576889979082 0 -0.200327377448308 -0.30070497350852549 0 -0.19974136112887431 -0.31343603927203523 0 -0.20904493575850211 -0.30938578927939081 0 -0.20288915614788011 -0.30684576889979082 0 -0.2144403241224431 -0.30923162986744451 0 -0.20819654573008861 -0.30010144335043992 0 -0.20904493575850211 -0.30938578927939081 0 -0.20819654573008861 -0.30010144335043992 0 -0.20904493575850211 -0.30938578927939081 0 -0.20288915614788011 -0.30684576889979082 0 -0.19974136112887431 -0.31343603927203523 0 -0.1814567810706762 -0.3106659979112194 0 -0.19974136112887431 -0.31343603927203523 0 -0.20288915614788011 -0.30684576889979082 0 -0.19308950921137841 -0.30535425612401718 0 -0.19974136112887431 -0.31343603927203523 0 -0.19308950921137841 -0.30535425612401718 0 -0.1814567810706762 -0.3106659979112194 0 -0.19308950921137841 -0.30535425612401718 0 -0.1899902243989981 -0.29832565749187118 0 -0.1817779539512053 -0.30255714357571323 0 -0.19308950921137841 -0.30535425612401718 0 -0.1899902243989981 -0.29832565749187118 0 -0.200327377448308 -0.30070497350852549 0 -0.20288915614788011 -0.30684576889979082 0 -0.19308950921137841 -0.30535425612401718 0 -0.200327377448308 -0.30070497350852549 0 -0.20819654573008861 -0.30010144335043992 0 -0.19389921764606771 -0.28896968049378402 0 -0.200327377448308 -0.30070497350852549 0 -0.19389921764606771 -0.28896968049378402 0 -0.20819654573008861 -0.30010144335043992 0 -0.200327377448308 -0.30070497350852549 0 -0.19389921764606771 -0.28896968049378402 0 -0.20819654573008861 -0.30010144335043992 0 -0.19389921764606771 -0.28896968049378402 0 -0.2049502680629153 -0.28953974020436019 0 -0.1899902243989981 -0.29832565749187118 0 -0.19389921764606771 -0.28896968049378402 0 -0.18066470514172869 -0.29420676669921531 0 -0.1899902243989981 -0.29832565749187118 0 -0.200327377448308 -0.30070497350852549 0 -0.19389921764606771 -0.28896968049378402 0 -0.19389921764606771 -0.28896968049378402 0 -0.18643891475010321 -0.2753500999052107 0 -0.19389921764606771 -0.28896968049378402 0 -0.1815972113741586 -0.27939145610981342 0 -0.19389921764606771 -0.28896968049378402 0 -0.2049502680629153 -0.28953974020436019 0 -0.20163083764207049 -0.27816255368004889 0 -0.2099333729274668 -0.28317129254800538 0 -0.2049502680629153 -0.28953974020436019 0 -0.20163083764207049 -0.27816255368004889 0 -0.2099333729274668 -0.28317129254800538 0 -0.2049502680629153 -0.28953974020436019 0 -0.21595054291829549 -0.29285447433738648 0 -0.20819654573008861 -0.30010144335043992 0 -0.2049502680629153 -0.28953974020436019 0 -0.21595054291829549 -0.29285447433738648 0 -0.21947311754018139 -0.28174823216008099 0 -0.2099333729274668 -0.28317129254800538 0 -0.21595054291829549 -0.29285447433738648 0 -0.2117440640613063 -0.2714560660025862 0 -0.20163083764207049 -0.27816255368004889 0 -0.20334583650585281 -0.26123793981755161 0 -0.22398633244919169 -0.27132847136955079 0 -0.21947311754018139 -0.28174823216008099 0 -0.2117440640613063 -0.2714560660025862 0 -0.21947311754018139 -0.28174823216008099 0 -0.2099333729274668 -0.28317129254800538 0 -0.2117440640613063 -0.2714560660025862 0 -0.22398633244919169 -0.27132847136955079 0 -0.2117440640613063 -0.2714560660025862 0 -0.21759888839251429 -0.26212753750200368 0 -0.2099333729274668 -0.28317129254800538 0 -0.2117440640613063 -0.2714560660025862 0 -0.20163083764207049 -0.27816255368004889 0 -0.20163083764207049 -0.27816255368004889 0 -0.20334583650585281 -0.26123793981755161 0 -0.18643891475010321 -0.2753500999052107 0 -0.20334583650585281 -0.26123793981755161 0 -0.18643891475010321 -0.2753500999052107 0 -0.1892261620383611 -0.26071341320317981 0 -0.20334583650585281 -0.26123793981755161 0 -0.18643891475010321 -0.2753500999052107 0 -0.19389921764606771 -0.28896968049378402 0 -0.20163083764207049 -0.27816255368004889 0 -0.18643891475010321 -0.2753500999052107 0 -0.1892261620383611 -0.26071341320317981 0 -0.20334583650585281 -0.26123793981755161 0 -0.1971211098569064 -0.2485562144643311 0 -0.20334583650585281 -0.26123793981755161 0 -0.21759888839251429 -0.26212753750200368 0 -0.22025275826160279 -0.2471257797298928 0 -0.20334583650585281 -0.26123793981755161 0 -0.22025275826160279 -0.2471257797298928 0 -0.20334583650585281 -0.26123793981755161 0 -0.1971211098569064 -0.2485562144643311 0 -0.22025275826160279 -0.2471257797298928 0 -0.2117440640613063 -0.2714560660025862 0 -0.20334583650585281 -0.26123793981755161 0 -0.21759888839251429 -0.26212753750200368 0 -0.15821309250511281 -0.26118480488572993 0 -0.17536452169406261 -0.25513261131262932 0 -0.1815972113741586 -0.27939145610981342 0 -0.15821309250511281 -0.26118480488572993 0 -0.17536452169406261 -0.25513261131262932 0 -0.15566934165753701 -0.24482136105764621 0 -0.1892261620383611 -0.26071341320317981 0 -0.17536452169406261 -0.25513261131262932 0 -0.1971211098569064 -0.2485562144643311 0 -0.1892261620383611 -0.26071341320317981 0 -0.17536452169406261 -0.25513261131262932 0 -0.18643891475010321 -0.2753500999052107 0 -0.17536452169406261 -0.25513261131262932 0 -0.18643891475010321 -0.2753500999052107 0 -0.17536452169406261 -0.25513261131262932 0 -0.18643891475010321 -0.2753500999052107 0 -0.1815972113741586 -0.27939145610981342 0 -0.19389921764606771 -0.28896968049378402 0 -0.18643891475010321 -0.2753500999052107 0 -0.1815972113741586 -0.27939145610981342 0 -0.18643891475010321 -0.2753500999052107 0 -0.1815972113741586 -0.27939145610981342 0 -0.15821309250511281 -0.26118480488572993 0 -0.1815972113741586 -0.27939145610981342 0 -0.1605334253196628 -0.27705414769848019 0 -0.15821309250511281 -0.26118480488572993 0 -0.1815972113741586 -0.27939145610981342 0 -0.1605334253196628 -0.27705414769848019 0 -0.16662117086531369 -0.29189191504570172 0 -0.1460397447830028 -0.28392096720827609 0 -0.1815972113741586 -0.27939145610981342 0 -0.1605334253196628 -0.27705414769848019 0 -0.16662117086531369 -0.29189191504570172 0 -0.16662117086531369 -0.29189191504570172 0 -0.18066470514172869 -0.29420676669921531 0 -0.16807172941449361 -0.30108874618849107 0 -0.1815972113741586 -0.27939145610981342 0 -0.16662117086531369 -0.29189191504570172 0 -0.1815972113741586 -0.27939145610981342 0 -0.16662117086531369 -0.29189191504570172 0 -0.18066470514172869 -0.29420676669921531 0 -0.19389921764606771 -0.28896968049378402 0 -0.1815972113741586 -0.27939145610981342 0 -0.18066470514172869 -0.29420676669921531 0 -0.18066470514172869 -0.29420676669921531 0 -0.1817779539512053 -0.30255714357571323 0 -0.16807172941449361 -0.30108874618849107 0 -0.1817779539512053 -0.30255714357571323 0 -0.17538193411824851 -0.30742310974349601 0 -0.16807172941449361 -0.30108874618849107 0 -0.1899902243989981 -0.29832565749187118 0 -0.18066470514172869 -0.29420676669921531 0 -0.1817779539512053 -0.30255714357571323 0 -0.19308950921137841 -0.30535425612401718 0 -0.1817779539512053 -0.30255714357571323 0 -0.1814567810706762 -0.3106659979112194 0 -0.1817779539512053 -0.30255714357571323 0 -0.1814567810706762 -0.3106659979112194 0 -0.17538193411824851 -0.30742310974349601 0 -0.1814567810706762 -0.3106659979112194 0 -0.17538193411824851 -0.30742310974349601 0 -0.1814567810706762 -0.3106659979112194 0 -0.17538193411824851 -0.30742310974349601 0 -0.1521471234576928 -0.30622570102712859 0 -0.16662117086531369 -0.29189191504570172 0 -0.16807172941449361 -0.30108874618849107 0 -0.15164513035647001 -0.30439237398159158 0 -0.17538193411824851 -0.30742310974349601 0 -0.16807172941449361 -0.30108874618849107 0 -0.1521471234576928 -0.30622570102712859 0 -0.16807172941449361 -0.30108874618849107 0 -0.1521471234576928 -0.30622570102712859 0 -0.15164513035647001 -0.30439237398159158 0 -0.1814567810706762 -0.3106659979112194 0 -0.1521471234576928 -0.30622570102712859 0 -0.16662117086531369 -0.29189191504570172 0 -0.15164513035647001 -0.30439237398159158 0 -0.14986325126998301 -0.30587970344869631 0 -0.1472482395654931 -0.30806244637126978 0 -0.13137693926794269 -0.30307910049847142 0 -0.14986325126998301 -0.30587970344869631 0 -0.13137693926794269 -0.30307910049847142 0 -0.14191197011226919 -0.29595195204747682 0 -0.1521471234576928 -0.30622570102712859 0 -0.15536928910057479 -0.31799335959440589 0 -0.1521471234576928 -0.30622570102712859 0 -0.1472482395654931 -0.30806244637126978 0 -0.1481744133336001 -0.31559103279323952 0 -0.1521471234576928 -0.30622570102712859 0 -0.14986325126998301 -0.30587970344869631 0 -0.1472482395654931 -0.30806244637126978 0 -0.1521471234576928 -0.30622570102712859 0 -0.14986325126998301 -0.30587970344869631 0 -0.15164513035647001 -0.30439237398159158 0 -0.1521471234576928 -0.30622570102712859 0 -0.14986325126998301 -0.30587970344869631 0 -0.1521471234576928 -0.30622570102712859 0 -0.15164513035647001 -0.30439237398159158 0 -0.14986325126998301 -0.30587970344869631 0 -0.15164513035647001 -0.30439237398159158 0 -0.14986325126998301 -0.30587970344869631 0 -0.1472482395654931 -0.30806244637126978 0 -0.14986325126998301 -0.30587970344869631 0 -0.15164513035647001 -0.30439237398159158 0 -0.14191197011226919 -0.29595195204747682 0 -0.1472482395654931 -0.30806244637126978 0 -0.13676428411235661 -0.311985534419285 0 -0.1481744133336001 -0.31559103279323952 0 -0.14986325126998301 -0.30587970344869631 0 -0.13137693926794269 -0.30307910049847142 0 -0.1472482395654931 -0.30806244637126978 0 -0.13676428411235661 -0.311985534419285 0 -0.13137693926794269 -0.30307910049847142 0 -0.13137693926794269 -0.30307910049847142 0 -0.14191197011226919 -0.29595195204747682 0 -0.12354370332633501 -0.29237215235494779 0 -0.13676428411235661 -0.311985534419285 0 -0.13137693926794269 -0.30307910049847142 0 -0.12202825811921469 -0.30947938976295097 0 -0.1460397447830028 -0.28392096720827609 0 -0.14191197011226919 -0.29595195204747682 0 -0.13317406737037779 -0.2802173890703723 0 -0.14191197011226919 -0.29595195204747682 0 -0.13317406737037779 -0.2802173890703723 0 -0.12354370332633501 -0.29237215235494779 0 -0.13317406737037779 -0.2802173890703723 0 -0.121176560474238 -0.27855216134530347 0 -0.12354370332633501 -0.29237215235494779 0 -0.16662117086531369 -0.29189191504570172 0 -0.15164513035647001 -0.30439237398159158 0 -0.1460397447830028 -0.28392096720827609 0 -0.15164513035647001 -0.30439237398159158 0 -0.1460397447830028 -0.28392096720827609 0 -0.14191197011226919 -0.29595195204747682 0 -0.15164513035647001 -0.30439237398159158 0 -0.1460397447830028 -0.28392096720827609 0 -0.1460397447830028 -0.28392096720827609 0 -0.14043435920953651 -0.26344956043496021 0 -0.1605334253196628 -0.27705414769848019 0 -0.1460397447830028 -0.28392096720827609 0 -0.14043435920953651 -0.26344956043496021 0 -0.15821309250511281 -0.26118480488572993 0 -0.1605334253196628 -0.27705414769848019 0 -0.14043435920953651 -0.26344956043496021 0 -0.13317406737037779 -0.2802173890703723 0 -0.1259380663168852 -0.26705754103126977 0 -0.14043435920953651 -0.26344956043496021 0 -0.1460397447830028 -0.28392096720827609 0 -0.13317406737037779 -0.2802173890703723 0 -0.14043435920953651 -0.26344956043496021 0 -0.13317406737037779 -0.2802173890703723 0 -0.1259380663168852 -0.26705754103126977 0 -0.121176560474238 -0.27855216134530347 0 -0.14043435920953651 -0.26344956043496021 0 -0.1283361407779757 -0.25159171728621699 0 -0.13482897363606841 -0.24297815366164491 0 -0.14043435920953651 -0.26344956043496021 0 -0.13482897363606841 -0.24297815366164491 0 -0.1259380663168852 -0.26705754103126977 0 -0.14043435920953651 -0.26344956043496021 0 -0.1283361407779757 -0.25159171728621699 0 -0.15821309250511281 -0.26118480488572993 0 -0.13482897363606841 -0.24297815366164491 0 -0.15821309250511281 -0.26118480488572993 0 -0.14043435920953651 -0.26344956043496021 0 -0.13482897363606841 -0.24297815366164491 0 -0.17697510949039719 -0.35596577996135209 0 -0.17519745401808179 -0.33814225560617162 0 -0.1562220225934601 -0.35985472972221177 0 -0.17519745401808179 -0.33814225560617162 0 -0.1532624182972378 -0.33871633494107939 0 -0.1562220225934601 -0.35985472972221177 0 -0.17519745401808179 -0.33814225560617162 0 -0.1562220225934601 -0.35985472972221177 0 -0.1663441030446621 -0.37717300760659073 0 -0.17697510949039719 -0.35596577996135209 0 -0.1562220225934601 -0.35985472972221177 0 -0.1663441030446621 -0.37717300760659073 0 -0.1854961134254472 -0.37120813041460421 0 -0.17697510949039719 -0.35596577996135209 0 -0.19236830561379509 -0.34938181171492771 0 -0.1854961134254472 -0.37120813041460421 0 -0.17697510949039719 -0.35596577996135209 0 -0.17697510949039719 -0.35596577996135209 0 -0.17519745401808179 -0.33814225560617162 0 -0.18622265824693729 -0.34003474470360739 0 -0.19236830561379509 -0.34938181171492771 0 -0.17697510949039719 -0.35596577996135209 0 -0.18622265824693729 -0.34003474470360739 0 -0.19214051361034601 -0.33054181938157612 0 -0.17519745401808179 -0.33814225560617162 0 -0.18622265824693729 -0.34003474470360739 0 -0.19214051361034601 -0.33054181938157612 0 -0.17519745401808179 -0.33814225560617162 0 -0.17075841890319021 -0.32267991232295651 0 -0.19214051361034601 -0.33054181938157612 0 -0.1814567810706762 -0.3106659979112194 0 -0.17075841890319021 -0.32267991232295651 0 -0.1814567810706762 -0.3106659979112194 0 -0.1521471234576928 -0.30622570102712859 0 -0.17075841890319021 -0.32267991232295651 0 -0.1521471234576928 -0.30622570102712859 0 -0.17075841890319021 -0.32267991232295651 0 -0.15536928910057479 -0.31799335959440589 0 -0.17075841890319021 -0.32267991232295651 0 -0.15536928910057479 -0.31799335959440589 0 -0.15041885550205389 -0.32708722206771829 0 -0.17519745401808179 -0.33814225560617162 0 -0.17075841890319021 -0.32267991232295651 0 -0.1532624182972378 -0.33871633494107939 0 -0.17075841890319021 -0.32267991232295651 0 -0.1532624182972378 -0.33871633494107939 0 -0.15041885550205389 -0.32708722206771829 0 -0.1532624182972378 -0.33871633494107939 0 -0.15041885550205389 -0.32708722206771829 0 -0.13403844172661231 -0.33095488736429202 0 -0.15041885550205389 -0.32708722206771829 0 -0.14028103823900179 -0.32077908792264309 0 -0.13403844172661231 -0.33095488736429202 0 -0.15536928910057479 -0.31799335959440589 0 -0.15041885550205389 -0.32708722206771829 0 -0.1481744133336001 -0.31559103279323952 0 -0.1521471234576928 -0.30622570102712859 0 -0.15536928910057479 -0.31799335959440589 0 -0.1481744133336001 -0.31559103279323952 0 -0.15041885550205389 -0.32708722206771829 0 -0.1481744133336001 -0.31559103279323952 0 -0.14028103823900179 -0.32077908792264309 0 -0.13676428411235661 -0.311985534419285 0 -0.1481744133336001 -0.31559103279323952 0 -0.14028103823900179 -0.32077908792264309 0 -0.13676428411235661 -0.311985534419285 0 -0.14028103823900179 -0.32077908792264309 0 -0.12839564496088529 -0.32005881249807028 0 -0.14028103823900179 -0.32077908792264309 0 -0.12839564496088529 -0.32005881249807028 0 -0.13403844172661231 -0.33095488736429202 0 -0.12839564496088529 -0.32005881249807028 0 -0.13403844172661231 -0.33095488736429202 0 -0.1231279148664025 -0.32697127933959502 0 -0.13676428411235661 -0.311985534419285 0 -0.12839564496088529 -0.32005881249807028 0 -0.12202825811921469 -0.30947938976295097 0 -0.13403844172661231 -0.33095488736429202 0 -0.13290241802702499 -0.35265178330474523 0 -0.1166361947753133 -0.33638206822001748 0 -0.1532624182972378 -0.33871633494107939 0 -0.13403844172661231 -0.33095488736429202 0 -0.13290241802702499 -0.35265178330474523 0 -0.1532624182972378 -0.33871633494107939 0 -0.13290241802702499 -0.35265178330474523 0 -0.1562220225934601 -0.35985472972221177 0 -0.13724659116883831 -0.38156720383825199 0 -0.13290241802702499 -0.35265178330474523 0 -0.1562220225934601 -0.35985472972221177 0 -0.13724659116883831 -0.38156720383825199 0 -0.1663441030446621 -0.37717300760659073 0 -0.1562220225934601 -0.35985472972221177 0 -0.13724659116883831 -0.38156720383825199 0 -0.1562220225934601 -0.35985472972221177 0 -0.13724659116883831 -0.38156720383825199 0 -0.13290241802702499 -0.35265178330474523 0 -0.1192781490478088 -0.36668410834504778 0 -0.1192781490478088 -0.36668410834504778 0 -0.1016352808315869 -0.36700177770792092 0 -0.11220573075163159 -0.38220411347121069 0 -0.1192781490478088 -0.36668410834504778 0 -0.1016352808315869 -0.36700177770792092 0 -0.1099844304083452 -0.35257743562026572 0 -0.1016352808315869 -0.36700177770792092 0 -0.091783481537845241 -0.36974840743822202 0 -0.093334558199797538 -0.36412034719781128 0 -0.1016352808315869 -0.36700177770792092 0 -0.094364811557621053 -0.35389299716276579 0 -0.093334558199797538 -0.36412034719781128 0 -0.1016352808315869 -0.36700177770792092 0 -0.091783481537845241 -0.36974840743822202 0 -0.093814789784828018 -0.38091150164421111 0 -0.094364811557621053 -0.35389299716276579 0 -0.1099844304083452 -0.35257743562026572 0 -0.096042697554356071 -0.3397062417384924 0 -0.1016352808315869 -0.36700177770792092 0 -0.094364811557621053 -0.35389299716276579 0 -0.1099844304083452 -0.35257743562026572 0 -0.13290241802702499 -0.35265178330474523 0 -0.1099844304083452 -0.35257743562026572 0 -0.1166361947753133 -0.33638206822001748 0 -0.13290241802702499 -0.35265178330474523 0 -0.1192781490478088 -0.36668410834504778 0 -0.1099844304083452 -0.35257743562026572 0 -0.13403844172661231 -0.33095488736429202 0 -0.1166361947753133 -0.33638206822001748 0 -0.1231279148664025 -0.32697127933959502 0 -0.1166361947753133 -0.33638206822001748 0 -0.1152881905332649 -0.31967160768574748 0 -0.098893476597157901 -0.32632392269665411 0 -0.1166361947753133 -0.33638206822001748 0 -0.1231279148664025 -0.32697127933959502 0 -0.1152881905332649 -0.31967160768574748 0 -0.12839564496088529 -0.32005881249807028 0 -0.1152881905332649 -0.31967160768574748 0 -0.12202825811921469 -0.30947938976295097 0 -0.12839564496088529 -0.32005881249807028 0 -0.1231279148664025 -0.32697127933959502 0 -0.1152881905332649 -0.31967160768574748 0 -0.1152881905332649 -0.31967160768574748 0 -0.11397155121489801 -0.30848478901155318 0 -0.10823649018657309 -0.3106210867482716 0 -0.1152881905332649 -0.31967160768574748 0 -0.12202825811921469 -0.30947938976295097 0 -0.11397155121489801 -0.30848478901155318 0 -0.1152881905332649 -0.31967160768574748 0 -0.098893476597157901 -0.32632392269665411 0 -0.10823649018657309 -0.3106210867482716 0 -0.1166361947753133 -0.33638206822001748 0 -0.098893476597157901 -0.32632392269665411 0 -0.096042697554356071 -0.3397062417384924 0 -0.1099844304083452 -0.35257743562026572 0 -0.1166361947753133 -0.33638206822001748 0 -0.096042697554356071 -0.3397062417384924 0 -0.081273045807338212 -0.32012122354728773 0 -0.072383893537199012 -0.33396092306611819 0 -0.082523744249277803 -0.34494336359321798 0 -0.081273045807338212 -0.32012122354728773 0 -0.082523744249277803 -0.34494336359321798 0 -0.096042697554356071 -0.3397062417384924 0 -0.081273045807338212 -0.32012122354728773 0 -0.082523744249277803 -0.34494336359321798 0 -0.098893476597157901 -0.32632392269665411 0 -0.096042697554356071 -0.3397062417384924 0 -0.081273045807338212 -0.32012122354728773 0 -0.098893476597157901 -0.32632392269665411 0 -0.081273045807338212 -0.32012122354728773 0 -0.088490963390462057 -0.3073149594937738 0 -0.081273045807338212 -0.32012122354728773 0 -0.06349485352407537 -0.31994243130957151 0 -0.072383893537199012 -0.33396092306611819 0 -0.081273045807338212 -0.32012122354728773 0 -0.06349485352407537 -0.31994243130957151 0 -0.071882199735688629 -0.30989172464331072 0 -0.06349485352407537 -0.31994243130957151 0 -0.072383893537199012 -0.33396092306611819 0 -0.062587044379988993 -0.33886333000968721 0 -0.072383893537199012 -0.33396092306611819 0 -0.072040779725314613 -0.34593426687082662 0 -0.082523744249277803 -0.34494336359321798 0 -0.072383893537199012 -0.33396092306611819 0 -0.062587044379988993 -0.33886333000968721 0 -0.072040779725314613 -0.34593426687082662 0 -0.062587044379988993 -0.33886333000968721 0 -0.072040779725314613 -0.34593426687082662 0 -0.05778126825204781 -0.35817517109810632 0 -0.081484465201393491 -0.35485127927681481 0 -0.05778126825204781 -0.35817517109810632 0 -0.072289445743601369 -0.36429171085611578 0 -0.081484465201393491 -0.35485127927681481 0 -0.05778126825204781 -0.35817517109810632 0 -0.072040779725314613 -0.34593426687082662 0 -0.081484465201393491 -0.35485127927681481 0 -0.05778126825204781 -0.35817517109810632 0 -0.066117606829746781 -0.37437488941039382 0 -0.072289445743601369 -0.36429171085611578 0 -0.05778126825204781 -0.35817517109810632 0 -0.066117606829746781 -0.37437488941039382 0 -0.072289445743601369 -0.36429171085611578 0 -0.083774442691217046 -0.36976550363914829 0 -0.072289445743601369 -0.36429171085611578 0 -0.083774442691217046 -0.36976550363914829 0 -0.081484465201393491 -0.35485127927681481 0 -0.085554658872136979 -0.36583820648233678 0 -0.083774442691217046 -0.36976550363914829 0 -0.082523744249277803 -0.34494336359321798 0 -0.085554658872136979 -0.36583820648233678 0 -0.083774442691217046 -0.36976550363914829 0 -0.083774442691217046 -0.36976550363914829 0 -0.091783481537845241 -0.36974840743822202 0 -0.093814789784828018 -0.38091150164421111 0 -0.085554658872136979 -0.36583820648233678 0 -0.083774442691217046 -0.36976550363914829 0 -0.091783481537845241 -0.36974840743822202 0 -0.094364811557621053 -0.35389299716276579 0 -0.085554658872136979 -0.36583820648233678 0 -0.093334558199797538 -0.36412034719781128 0 -0.085554658872136979 -0.36583820648233678 0 -0.091783481537845241 -0.36974840743822202 0 -0.093334558199797538 -0.36412034719781128 0 -0.094364811557621053 -0.35389299716276579 0 -0.085554658872136979 -0.36583820648233678 0 -0.082523744249277803 -0.34494336359321798 0 -0.083774442691217046 -0.36976550363914829 0 -0.082523744249277803 -0.34494336359321798 0 -0.083774442691217046 -0.36976550363914829 0 -0.082523744249277803 -0.34494336359321798 0 -0.081484465201393491 -0.35485127927681481 0 -0.094364811557621053 -0.35389299716276579 0 -0.096042697554356071 -0.3397062417384924 0 -0.082523744249277803 -0.34494336359321798 0 -0.072040779725314613 -0.34593426687082662 0 -0.082523744249277803 -0.34494336359321798 0 -0.081484465201393491 -0.35485127927681481 0 -0.101475907254733 -0.26829823342826459 0 -0.093680051977193257 -0.25300014610948141 0 -0.1025516661405015 -0.24412656761791199 0 -0.1097432552782682 -0.2572086698476283 0 -0.101475907254733 -0.26829823342826459 0 -0.1025516661405015 -0.24412656761791199 0 -0.101475907254733 -0.26829823342826459 0 -0.1025516661405015 -0.24412656761791199 0 -0.101475907254733 -0.26829823342826459 0 -0.092490388530258719 -0.26367462890309928 0 -0.093680051977193257 -0.25300014610948141 0 -0.1097432552782682 -0.2572086698476283 0 -0.11415052326640381 -0.26847741843797612 0 -0.101475907254733 -0.26829823342826459 0 -0.1097432552782682 -0.2572086698476283 0 -0.1183855941197941 -0.25651062511641259 0 -0.1121525856099083 -0.24863050463757599 0 -0.1283361407779757 -0.25159171728621699 0 -0.1183855941197941 -0.25651062511641259 0 -0.11992695639240671 -0.24305274461581289 0 -0.1259380663168852 -0.26705754103126977 0 -0.1183855941197941 -0.25651062511641259 0 -0.11415052326640381 -0.26847741843797612 0 -0.1259380663168852 -0.26705754103126977 0 -0.1283361407779757 -0.25159171728621699 0 -0.1183855941197941 -0.25651062511641259 0 -0.1097432552782682 -0.2572086698476283 0 -0.1183855941197941 -0.25651062511641259 0 -0.11415052326640381 -0.26847741843797612 0 -0.1259380663168852 -0.26705754103126977 0 -0.11415052326640381 -0.26847741843797612 0 -0.121176560474238 -0.27855216134530347 0 -0.11415052326640381 -0.26847741843797612 0 -0.121176560474238 -0.27855216134530347 0 -0.112272911659429 -0.28340806039222649 0 -0.101475907254733 -0.26829823342826459 0 -0.1004001483689636 -0.29246989923861699 0 -0.089806853404465051 -0.2713401455271785 0 -0.101475907254733 -0.26829823342826459 0 -0.1004001483689636 -0.29246989923861699 0 -0.11415052326640381 -0.26847741843797612 0 -0.101475907254733 -0.26829823342826459 0 -0.112272911659429 -0.28340806039222649 0 -0.101475907254733 -0.26829823342826459 0 -0.089806853404465051 -0.2713401455271785 0 -0.092490388530258719 -0.26367462890309928 0 -0.1004001483689636 -0.29246989923861699 0 -0.112272911659429 -0.28340806039222649 0 -0.11289062726590229 -0.30027849754824781 0 -0.101475907254733 -0.26829823342826459 0 -0.1004001483689636 -0.29246989923861699 0 -0.112272911659429 -0.28340806039222649 0 -0.1004001483689636 -0.29246989923861699 0 -0.10013860532164209 -0.29834661679915908 0 -0.1004001483689636 -0.29246989923861699 0 -0.11289062726590229 -0.30027849754824781 0 -0.112272911659429 -0.28340806039222649 0 -0.12354370332633501 -0.29237215235494779 0 -0.11289062726590229 -0.30027849754824781 0 -0.121176560474238 -0.27855216134530347 0 -0.112272911659429 -0.28340806039222649 0 -0.12354370332633501 -0.29237215235494779 0 -0.13137693926794269 -0.30307910049847142 0 -0.11289062726590229 -0.30027849754824781 0 -0.13137693926794269 -0.30307910049847142 0 -0.11289062726590229 -0.30027849754824781 0 -0.12202825811921469 -0.30947938976295097 0 -0.13137693926794269 -0.30307910049847142 0 -0.12354370332633501 -0.29237215235494779 0 -0.11289062726590229 -0.30027849754824781 0 -0.11289062726590229 -0.30027849754824781 0 -0.11397155121489801 -0.30848478901155318 0 -0.10823649018657309 -0.3106210867482716 0 -0.11289062726590229 -0.30027849754824781 0 -0.12202825811921469 -0.30947938976295097 0 -0.11397155121489801 -0.30848478901155318 0 -0.098893476597157901 -0.32632392269665411 0 -0.10013860532164209 -0.29834661679915908 0 -0.098893476597157901 -0.32632392269665411 0 -0.10013860532164209 -0.29834661679915908 0 -0.088490963390462057 -0.3073149594937738 0 -0.098893476597157901 -0.32632392269665411 0 -0.10823649018657309 -0.3106210867482716 0 -0.10013860532164209 -0.29834661679915908 0 -0.11289062726590229 -0.30027849754824781 0 -0.10013860532164209 -0.29834661679915908 0 -0.1004001483689636 -0.29246989923861699 0 -0.11289062726590229 -0.30027849754824781 0 -0.10013860532164209 -0.29834661679915908 0 -0.11289062726590229 -0.30027849754824781 0 -0.10823649018657309 -0.3106210867482716 0 -0.10013860532164209 -0.29834661679915908 0 -0.081273045807338212 -0.32012122354728773 0 -0.075730545320634307 -0.30237183499028841 0 -0.080022347365398816 -0.29529908350135742 0 -0.081273045807338212 -0.32012122354728773 0 -0.088490963390462057 -0.3073149594937738 0 -0.080022347365398816 -0.29529908350135742 0 -0.10013860532164209 -0.29834661679915908 0 -0.088490963390462057 -0.3073149594937738 0 -0.080022347365398816 -0.29529908350135742 0 -0.081273045807338212 -0.32012122354728773 0 -0.080022347365398816 -0.29529908350135742 0 -0.06349485352407537 -0.31994243130957151 0 -0.067929239438661637 -0.29744245220773302 0 -0.06349485352407537 -0.31994243130957151 0 -0.067929239438661637 -0.29744245220773302 0 -0.05709164511789562 -0.30596989755068921 0 -0.081273045807338212 -0.32012122354728773 0 -0.071882199735688629 -0.30989172464331072 0 -0.075730545320634307 -0.30237183499028841 0 -0.06349485352407537 -0.31994243130957151 0 -0.071882199735688629 -0.30989172464331072 0 -0.067929239438661637 -0.29744245220773302 0 -0.067929239438661637 -0.29744245220773302 0 -0.075730545320634307 -0.30237183499028841 0 -0.074800211398343183 -0.29676828128919502 0 -0.071882199735688629 -0.30989172464331072 0 -0.067929239438661637 -0.29744245220773302 0 -0.075730545320634307 -0.30237183499028841 0 -0.075730545320634307 -0.30237183499028841 0 -0.074800211398343183 -0.29676828128919502 0 -0.080022347365398816 -0.29529908350135742 0 -0.067929239438661637 -0.29744245220773302 0 -0.072363625353247057 -0.27494247310589431 0 -0.074800211398343183 -0.29676828128919502 0 -0.075988861669628593 -0.29203098004520328 0 -0.080022347365398816 -0.29529908350135742 0 -0.067929239438661637 -0.29744245220773302 0 -0.063481929201992804 -0.28659419931659808 0 -0.072363625353247057 -0.27494247310589431 0 -0.067929239438661637 -0.29744245220773302 0 -0.075162920182542767 -0.28731555611229459 0 -0.072363625353247057 -0.27494247310589431 0 -0.075988861669628593 -0.29203098004520328 0 -0.075162920182542767 -0.28731555611229459 0 -0.080022347365398816 -0.29529908350135742 0 -0.067929239438661637 -0.29744245220773302 0 -0.075988861669628593 -0.29203098004520328 0 -0.075162920182542767 -0.28731555611229459 0 -0.067929239438661637 -0.29744245220773302 0 -0.074800211398343183 -0.29676828128919502 0 -0.075988861669628593 -0.29203098004520328 0 -0.067929239438661637 -0.29744245220773302 0 -0.063481929201992804 -0.28659419931659808 0 -0.057157199652218327 -0.29433345841048941 0 -0.1004001483689636 -0.29246989923861699 0 -0.079212385277153408 -0.27922407156230239 0 -0.10013860532164209 -0.29834661679915908 0 -0.080022347365398816 -0.29529908350135742 0 -0.075162920182542767 -0.28731555611229459 0 -0.080022347365398816 -0.29529908350135742 0 -0.079212385277153408 -0.27922407156230239 0 -0.1004001483689636 -0.29246989923861699 0 -0.080022347365398816 -0.29529908350135742 0 -0.079212385277153408 -0.27922407156230239 0 -0.1004001483689636 -0.29246989923861699 0 -0.10013860532164209 -0.29834661679915908 0 -0.080022347365398816 -0.29529908350135742 0 -0.080022347365398816 -0.29529908350135742 0 -0.079212385277153408 -0.27922407156230239 0 -0.1004001483689636 -0.29246989923861699 0 -0.089806853404465051 -0.2713401455271785 0 -0.079212385277153408 -0.27922407156230239 0 -0.089806853404465051 -0.2713401455271785 0 -0.084998741484643592 -0.26205999054747281 0 -0.092490388530258719 -0.26367462890309928 0 -0.089806853404465051 -0.2713401455271785 0 -0.078429256909339093 -0.26368161834739218 0 -0.084998741484643592 -0.26205999054747281 0 -0.079212385277153408 -0.27922407156230239 0 -0.078429256909339093 -0.26368161834739218 0 -0.089806853404465051 -0.2713401455271785 0 -0.079212385277153408 -0.27922407156230239 0 -0.078429256909339093 -0.26368161834739218 0 -0.075162920182542767 -0.28731555611229459 0 -0.079212385277153408 -0.27922407156230239 0 -0.072363625353247057 -0.27494247310589431 0 -0.072363625353247057 -0.27494247310589431 0 -0.052651973256824323 -0.26261945695013877 0 -0.072363625353247057 -0.27494247310589431 0 -0.065594040539757301 -0.27326720108960889 0 -0.052651973256824323 -0.26261945695013877 0 -0.079212385277153408 -0.27922407156230239 0 -0.072363625353247057 -0.27494247310589431 0 -0.072363625353247057 -0.27494247310589431 0 -0.065594040539757301 -0.27326720108960889 0 -0.061663959528748452 -0.27997783588547598 0 -0.063481929201992804 -0.28659419931659808 0 -0.072363625353247057 -0.27494247310589431 0 -0.061663959528748452 -0.27997783588547598 0 -0.079212385277153408 -0.27922407156230239 0 -0.072363625353247057 -0.27494247310589431 0 -0.078429256909339093 -0.26368161834739218 0 -0.072363625353247057 -0.27494247310589431 0 -0.077646128541525 -0.24813916513248199 0 -0.072363625353247057 -0.27494247310589431 0 -0.078429256909339093 -0.26368161834739218 0 -0.077646128541525 -0.24813916513248199 0 -0.072363625353247057 -0.27494247310589431 0 -0.052651973256824323 -0.26261945695013877 0 -0.077646128541525 -0.24813916513248199 0 -0.078429256909339093 -0.26368161834739218 0 -0.077646128541525 -0.24813916513248199 0 -0.084998741484643592 -0.26205999054747281 0 -0.088104632666654803 -0.24175912157342011 0 -0.084998741484643592 -0.26205999054747281 0 -0.093680051977193257 -0.25300014610948141 0 -0.088104632666654803 -0.24175912157342011 0 -0.084998741484643592 -0.26205999054747281 0 -0.088104632666654803 -0.24175912157342011 0 -0.077646128541525 -0.24813916513248199 0 -0.078429256909339093 -0.26368161834739218 0 -0.084998741484643592 -0.26205999054747281 0 -0.077646128541525 -0.24813916513248199 0 -0.084998741484643592 -0.26205999054747281 0 -0.092490388530258719 -0.26367462890309928 0 -0.093680051977193257 -0.25300014610948141 0 -0.032940321160402269 -0.25029644079438251 0 -0.052651973256824323 -0.26261945695013877 0 -0.050902643065861071 -0.24349095896983161 0 -0.032940321160402269 -0.25029644079438251 0 -0.052651973256824323 -0.26261945695013877 0 -0.030801127425925001 -0.25680016795848581 0 -0.032940321160402269 -0.25029644079438251 0 -0.052651973256824323 -0.26261945695013877 0 -0.052651973256824323 -0.26261945695013877 0 -0.048838748996681343 -0.27669498093657302 0 -0.030801127425925001 -0.25680016795848581 0 -0.032940321160402269 -0.25029644079438251 0 -0.030801127425925001 -0.25680016795848581 0 -0.052651973256824323 -0.26261945695013877 0 -0.050902643065861071 -0.24349095896983161 0 -0.077646128541525 -0.24813916513248199 0 -0.065594040539757301 -0.27326720108960889 0 -0.048838748996681343 -0.27669498093657302 0 -0.065594040539757301 -0.27326720108960889 0 -0.052651973256824323 -0.26261945695013877 0 -0.048838748996681343 -0.27669498093657302 0 -0.065594040539757301 -0.27326720108960889 0 -0.061663959528748452 -0.27997783588547598 0 -0.048838748996681343 -0.27669498093657302 0 -0.061663959528748452 -0.27997783588547598 0 -0.048838748996681343 -0.27669498093657302 0 -0.054451087829631463 -0.28288517796522222 0 -0.048838748996681343 -0.27669498093657302 0 -0.054451087829631463 -0.28288517796522222 0 -0.048838748996681343 -0.27669498093657302 0 -0.030801127425925001 -0.25680016795848581 0 -0.048838748996681343 -0.27669498093657302 0 -0.02248395618448398 -0.28208661661419232 0 -0.030801127425925001 -0.25680016795848581 0 -0.048838748996681343 -0.27669498093657302 0 -0.02248395618448398 -0.28208661661419232 0 -0.048838748996681343 -0.27669498093657302 0 -0.041077846387481028 -0.28937070966441081 0 -0.02248395618448398 -0.28208661661419232 0 -0.041077846387481028 -0.28937070966441081 0 -0.037109865356421391 -0.29952186761000271 0 -0.029468436869721851 -0.29252598106650862 0 -0.041077846387481028 -0.28937070966441081 0 -0.04975385330497957 -0.2890306135367654 0 -0.047244383658885593 -0.30186874070713182 0 -0.048838748996681343 -0.27669498093657302 0 -0.041077846387481028 -0.28937070966441081 0 -0.04975385330497957 -0.2890306135367654 0 -0.048838748996681343 -0.27669498093657302 0 -0.04975385330497957 -0.2890306135367654 0 -0.054451087829631463 -0.28288517796522222 0 -0.04975385330497957 -0.2890306135367654 0 -0.054451087829631463 -0.28288517796522222 0 -0.057157199652218327 -0.29433345841048941 0 -0.063481929201992804 -0.28659419931659808 0 -0.054451087829631463 -0.28288517796522222 0 -0.057157199652218327 -0.29433345841048941 0 -0.063481929201992804 -0.28659419931659808 0 -0.061663959528748452 -0.27997783588547598 0 -0.054451087829631463 -0.28288517796522222 0 -0.04975385330497957 -0.2890306135367654 0 -0.057157199652218327 -0.29433345841048941 0 -0.047244383658885593 -0.30186874070713182 0 -0.057157199652218327 -0.29433345841048941 0 -0.047244383658885593 -0.30186874070713182 0 -0.05709164511789562 -0.30596989755068921 0 -0.067929239438661637 -0.29744245220773302 0 -0.057157199652218327 -0.29433345841048941 0 -0.05709164511789562 -0.30596989755068921 0 -0.047244383658885593 -0.30186874070713182 0 -0.05709164511789562 -0.30596989755068921 0 -0.049632549315637188 -0.31626240511852 0 -0.047244383658885593 -0.30186874070713182 0 -0.049632549315637188 -0.31626240511852 0 -0.036505516356473318 -0.31400569198040618 0 -0.047244383658885593 -0.30186874070713182 0 -0.037109865356421391 -0.29952186761000271 0 -0.036505516356473318 -0.31400569198040618 0 -0.041077846387481028 -0.28937070966441081 0 -0.047244383658885593 -0.30186874070713182 0 -0.037109865356421391 -0.29952186761000271 0 -0.037109865356421391 -0.29952186761000271 0 -0.02678144107749017 -0.30078470409936309 0 -0.036505516356473318 -0.31400569198040618 0 -0.02678144107749017 -0.30078470409936309 0 -0.021312585502779081 -0.32213078764647213 0 -0.02678144107749017 -0.30078470409936309 0 -0.036505516356473318 -0.31400569198040618 0 -0.021312585502779081 -0.32213078764647213 0 -0.02678144107749017 -0.30078470409936309 0 -0.01630762940426286 -0.3038502133106713 0 -0.021312585502779081 -0.32213078764647213 0 -0.037109865356421391 -0.29952186761000271 0 -0.02678144107749017 -0.30078470409936309 0 -0.029468436869721851 -0.29252598106650862 0 -0.02678144107749017 -0.30078470409936309 0 -0.01630762940426286 -0.3038502133106713 0 -0.01957434403417008 -0.29093262400193609 0 -0.0063780240591087903 -0.31078717533589839 0 -0.0074917523477661804 -0.29461577546968681 0 0.013051880611257029 -0.30817184754300292 0 -0.01630762940426286 -0.3038502133106713 0 -0.0063780240591087903 -0.31078717533589839 0 -0.021312585502779081 -0.32213078764647213 0 -0.01630762940426286 -0.3038502133106713 0 -0.0063780240591087903 -0.31078717533589839 0 -0.0074917523477661804 -0.29461577546968681 0 -0.02248395618448398 -0.28208661661419232 0 0.0027723556212477219 -0.28725352620772771 0 -0.01075429771457371 -0.28163518560512563 0 -0.02248395618448398 -0.28208661661419232 0 0.0027723556212477219 -0.28725352620772771 0 -0.0074917523477661804 -0.29461577546968681 0 -0.02248395618448398 -0.28208661661419232 0 0.0027723556212477219 -0.28725352620772771 0 -0.01630762940426286 -0.3038502133106713 0 -0.0074917523477661804 -0.29461577546968681 0 -0.01957434403417008 -0.29093262400193609 0 -0.01075429771457371 -0.28163518560512563 0 -0.0017476628817073611 -0.27805551369469472 0 0.0027723556212477219 -0.28725352620772771 0 -0.041077846387481028 -0.28937070966441081 0 -0.02248395618448398 -0.28208661661419232 0 -0.029468436869721851 -0.29252598106650862 0 -0.02248395618448398 -0.28208661661419232 0 -0.01957434403417008 -0.29093262400193609 0 -0.0074917523477661804 -0.29461577546968681 0 -0.02248395618448398 -0.28208661661419232 0 -0.01957434403417008 -0.29093262400193609 0 -0.02678144107749017 -0.30078470409936309 0 -0.01957434403417008 -0.29093262400193609 0 -0.029468436869721851 -0.29252598106650862 0 -0.02248395618448398 -0.28208661661419232 0 -0.01957434403417008 -0.29093262400193609 0 -0.029468436869721851 -0.29252598106650862 0 -0.02248395618448398 -0.28208661661419232 0 -0.030801127425925001 -0.25680016795848581 0 -0.02248395618448398 -0.28208661661419232 0 -0.01520552987642871 -0.27187005660595642 0 -0.030801127425925001 -0.25680016795848581 0 -0.01075429771457371 -0.28163518560512563 0 -0.02248395618448398 -0.28208661661419232 0 -0.01520552987642871 -0.27187005660595642 0 -0.0017476628817073611 -0.27805551369469472 0 -0.01024060517545407 -0.26077279915728391 0 0.0057386521092319797 -0.26220041049146298 0 -0.0017476628817073611 -0.27805551369469472 0 -0.01520552987642871 -0.27187005660595642 0 -0.01024060517545407 -0.26077279915728391 0 -0.0017476628817073611 -0.27805551369469472 0 -0.01024060517545407 -0.26077279915728391 0 -0.01075429771457371 -0.28163518560512563 0 -0.0017476628817073611 -0.27805551369469472 0 -0.01520552987642871 -0.27187005660595642 0 -0.01075429771457371 -0.28163518560512563 0 -0.0017476628817073611 -0.27805551369469472 0 -0.01024060517545407 -0.26077279915728391 0 0.0057386521092319797 -0.26220041049146298 0 0.0025328853753160741 -0.24958102673793139 0 -0.01024060517545407 -0.26077279915728391 0 -0.018733547469201091 -0.24349008461987329 0 -0.01024060517545407 -0.26077279915728391 0 -0.018733547469201091 -0.24349008461987329 0 0.0025328853753160741 -0.24958102673793139 0 -0.01024060517545407 -0.26077279915728391 0 -0.030801127425925001 -0.25680016795848581 0 -0.018733547469201091 -0.24349008461987329 0 -0.01520552987642871 -0.27187005660595642 0 -0.01024060517545407 -0.26077279915728391 0 -0.030801127425925001 -0.25680016795848581 0 -0.032940321160402269 -0.25029644079438251 0 -0.030801127425925001 -0.25680016795848581 0 -0.026871719323301121 -0.24650256912316601 0 -0.030801127425925001 -0.25680016795848581 0 -0.018733547469201091 -0.24349008461987329 0 -0.034078071302702163 -0.36149906291939787 0 -0.05778126825204781 -0.35817517109810632 0 -0.044598414929564491 -0.33459332569111688 0 -0.034078071302702163 -0.36149906291939787 0 -0.044598414929564491 -0.33459332569111688 0 -0.02963630761074966 -0.34409655343526241 0 -0.034078071302702163 -0.36149906291939787 0 -0.05778126825204781 -0.35817517109810632 0 -0.034078071302702163 -0.36149906291939787 0 -0.031733352269984409 -0.37630872523495079 0 -0.04671422923235316 -0.37926911911211442 0 -0.034078071302702163 -0.36149906291939787 0 -0.05778126825204781 -0.35817517109810632 0 -0.04671422923235316 -0.37926911911211442 0 -0.066117606829746781 -0.37437488941039382 0 -0.05778126825204781 -0.35817517109810632 0 -0.04671422923235316 -0.37926911911211442 0 -0.062587044379988993 -0.33886333000968721 0 -0.05778126825204781 -0.35817517109810632 0 -0.044598414929564491 -0.33459332569111688 0 -0.06349485352407537 -0.31994243130957151 0 -0.062587044379988993 -0.33886333000968721 0 -0.044598414929564491 -0.33459332569111688 0 -0.06349485352407537 -0.31994243130957151 0 -0.049632549315637188 -0.31626240511852 0 -0.044598414929564491 -0.33459332569111688 0 -0.06349485352407537 -0.31994243130957151 0 -0.05709164511789562 -0.30596989755068921 0 -0.049632549315637188 -0.31626240511852 0 -0.049632549315637188 -0.31626240511852 0 -0.036505516356473318 -0.31400569198040618 0 -0.044598414929564491 -0.33459332569111688 0 -0.036505516356473318 -0.31400569198040618 0 -0.044598414929564491 -0.33459332569111688 0 -0.021312585502779081 -0.32213078764647213 0 -0.044598414929564491 -0.33459332569111688 0 -0.021312585502779081 -0.32213078764647213 0 -0.02963630761074966 -0.34409655343526241 0 -0.015843729928067991 -0.34347687119358122 0 -0.021312585502779081 -0.32213078764647213 0 -0.02963630761074966 -0.34409655343526241 0 -0.015843729928067991 -0.34347687119358122 0 -0.021312585502779081 -0.32213078764647213 0 -0.0063780240591087903 -0.31078717533589839 0 -0.021312585502779081 -0.32213078764647213 0 3.5896068887442723e-05 -0.32803491845883598 0 -0.015843729928067991 -0.34347687119358122 0 -0.00014080085946228561 -0.35082738964002957 0 3.5896068887442723e-05 -0.32803491845883598 0 -0.015843729928067991 -0.34347687119358122 0 -0.021312585502779081 -0.32213078764647213 0 3.5896068887442723e-05 -0.32803491845883598 0 -0.015843729928067991 -0.34347687119358122 0 -0.00014080085946228561 -0.35082738964002957 0 -0.01037487435335663 -0.3648229547406901 0 -0.015843729928067991 -0.34347687119358122 0 -0.01037487435335663 -0.3648229547406901 0 -0.015843729928067991 -0.34347687119358122 0 -0.02275820373048933 -0.35362182208710219 0 -0.02963630761074966 -0.34409655343526241 0 -0.015843729928067991 -0.34347687119358122 0 -0.02275820373048933 -0.35362182208710219 0 -0.01037487435335663 -0.3648229547406901 0 -0.034078071302702163 -0.36149906291939787 0 -0.02275820373048933 -0.35362182208710219 0 -0.02963630761074966 -0.34409655343526241 0 -0.034078071302702163 -0.36149906291939787 0 -0.02215424893162643 -0.37111505202744122 0 -0.01037487435335663 -0.3648229547406901 0 -0.034078071302702163 -0.36149906291939787 0 -0.01037487435335663 -0.3648229547406901 0 -0.034078071302702163 -0.36149906291939787 0 -0.02275820373048933 -0.35362182208710219 0 -0.01037487435335663 -0.3648229547406901 0 -0.034078071302702163 -0.36149906291939787 0 -0.02215424893162643 -0.37111505202744122 0 -0.031733352269984409 -0.37630872523495079 0 -0.02215424893162643 -0.37111505202744122 0 -0.016772253886492949 -0.37410089839641808 0 -0.01404568160319189 -0.3712617873641948 0 -0.01404568160319189 -0.3712617873641948 0 -0.0094265442937821464 -0.37378457166277412 0 -0.01319259440905524 -0.37623554315916408 0 -0.0078283346885702904 -0.37476262999778609 0 -0.0094265442937821464 -0.37378457166277412 0 -0.01037487435335663 -0.3648229547406901 0 -0.02215424893162643 -0.37111505202744122 0 -0.01404568160319189 -0.3712617873641948 0 -0.01037487435335663 -0.3648229547406901 0 -0.01037487435335663 -0.3648229547406901 0 0.0058490520874761691 -0.36709803082098191 0 -0.016772253886492949 -0.37410089839641808 0 -0.01404568160319189 -0.3712617873641948 0 -0.01319259440905524 -0.37623554315916408 0 -0.00014080085946228561 -0.35082738964002957 0 -0.01037487435335663 -0.3648229547406901 0 0.0058490520874761691 -0.36709803082098191 0 -0.0078283346885702904 -0.37476262999778609 0 -0.01037487435335663 -0.3648229547406901 0 0.0058490520874761691 -0.36709803082098191 0 -0.0078283346885702904 -0.37476262999778609 0 -0.01037487435335663 -0.3648229547406901 0 -0.01404568160319189 -0.3712617873641948 0 -0.0094265442937821464 -0.37378457166277412 0 -0.01037487435335663 -0.3648229547406901 0 -0.0078283346885702904 -0.37476262999778609 0 -0.0094265442937821464 -0.37378457166277412 0 -0.0078283346885702904 -0.37476262999778609 0 -0.0023576536845698339 -0.39611583857600319 0 -0.0078283346885702904 -0.37476262999778609 0 -0.011142097151610131 -0.38172381805447092 0 -0.0023576536845698339 -0.39611583857600319 0 -0.011142097151610131 -0.38172381805447092 0 -0.0023576536845698339 -0.39611583857600319 0 -0.01587325479487519 -0.38723674351337972 0 -0.011142097151610131 -0.38172381805447092 0 -0.01610234460482865 -0.37998891207167063 0 -0.01587325479487519 -0.38723674351337972 0 -0.01319259440905524 -0.37623554315916408 0 -0.011142097151610131 -0.38172381805447092 0 -0.01610234460482865 -0.37998891207167063 0 -0.016772253886492949 -0.37410089839641808 0 -0.01319259440905524 -0.37623554315916408 0 -0.01610234460482865 -0.37998891207167063 0 -0.01319259440905524 -0.37623554315916408 0 -0.010397392635754449 -0.37662664071854879 0 -0.011142097151610131 -0.38172381805447092 0 -0.0078283346885702904 -0.37476262999778609 0 -0.010397392635754449 -0.37662664071854879 0 -0.011142097151610131 -0.38172381805447092 0 -0.0094265442937821464 -0.37378457166277412 0 -0.01319259440905524 -0.37623554315916408 0 -0.010397392635754449 -0.37662664071854879 0 -0.0078283346885702904 -0.37476262999778609 0 -0.0094265442937821464 -0.37378457166277412 0 -0.010397392635754449 -0.37662664071854879 0 -0.0023576536845698339 -0.39611583857600319 0 -0.016854849126784088 -0.39742738565483049 0 -0.01587325479487519 -0.38723674351337972 0 -0.0023576536845698339 -0.39611583857600319 0 -0.016854849126784088 -0.39742738565483049 0 -0.0081630895937607941 -0.41129335178386173 0 -0.016854849126784088 -0.39742738565483049 0 -0.023392714889338931 -0.39064901327928331 0 -0.029305467632274609 -0.40049385546170407 0 -0.016854849126784088 -0.39742738565483049 0 -0.023392714889338931 -0.39064901327928331 0 -0.01587325479487519 -0.38723674351337972 0 -0.023392714889338931 -0.39064901327928331 0 -0.029305467632274609 -0.40049385546170407 0 -0.032188689101130562 -0.38901283488088068 0 -0.02215424893162643 -0.37111505202744122 0 -0.016772253886492949 -0.37410089839641808 0 -0.02353152278210973 -0.38064755723492022 0 -0.016772253886492949 -0.37410089839641808 0 -0.01610234460482865 -0.37998891207167063 0 -0.02353152278210973 -0.38064755723492022 0 -0.01610234460482865 -0.37998891207167063 0 -0.01587325479487519 -0.38723674351337972 0 -0.02353152278210973 -0.38064755723492022 0 -0.023392714889338931 -0.39064901327928331 0 -0.01587325479487519 -0.38723674351337972 0 -0.02353152278210973 -0.38064755723492022 0 -0.023392714889338931 -0.39064901327928331 0 -0.02353152278210973 -0.38064755723492022 0 -0.032188689101130562 -0.38901283488088068 0 -0.02353152278210973 -0.38064755723492022 0 -0.031733352269984409 -0.37630872523495079 0 -0.032188689101130562 -0.38901283488088068 0 -0.02215424893162643 -0.37111505202744122 0 -0.02353152278210973 -0.38064755723492022 0 -0.031733352269984409 -0.37630872523495079 0 -0.031733352269984409 -0.37630872523495079 0 -0.04671422923235316 -0.37926911911211442 0 -0.032188689101130562 -0.38901283488088068 0 -0.04671422923235316 -0.37926911911211442 0 -0.032188689101130562 -0.38901283488088068 0 -0.044289202763444772 -0.39135289085216762 0 -0.032188689101130562 -0.38901283488088068 0 -0.041257957344308177 -0.40487627914437913 0 -0.044289202763444772 -0.39135289085216762 0 -0.029305467632274609 -0.40049385546170407 0 -0.032188689101130562 -0.38901283488088068 0 -0.041257957344308177 -0.40487627914437913 0 -0.056230819367541693 -0.39440183914975269 0 -0.051493530029743613 -0.41277891791385168 0 -0.065747409502729032 -0.40953455918739179 0 -0.041257957344308177 -0.40487627914437913 0 -0.056230819367541693 -0.39440183914975269 0 -0.051493530029743613 -0.41277891791385168 0 -0.041257957344308177 -0.40487627914437913 0 -0.044289202763444772 -0.39135289085216762 0 -0.056230819367541693 -0.39440183914975269 0 -0.056230819367541693 -0.39440183914975269 0 -0.065747409502729032 -0.40953455918739179 0 -0.066117606829746781 -0.37437488941039382 0 -0.04671422923235316 -0.37926911911211442 0 -0.056230819367541693 -0.39440183914975269 0 -0.04671422923235316 -0.37926911911211442 0 -0.044289202763444772 -0.39135289085216762 0 -0.056230819367541693 -0.39440183914975269 0 -0.04671422923235316 -0.37926911911211442 0 -0.056230819367541693 -0.39440183914975269 0 -0.057674512383022389 -0.42734400629007657 0 -0.049601615263317987 -0.44515345339276252 0 -0.057674512383022389 -0.42734400629007657 0 -0.051493530029743613 -0.41277891791385168 0 -0.065747409502729032 -0.40953455918739179 0 -0.057674512383022389 -0.42734400629007657 0 -0.065747409502729032 -0.40953455918739179 0 -0.057674512383022389 -0.42734400629007657 0 -0.051493530029743613 -0.41277891791385168 0 -0.03322823219505102 -0.42129041952379648 0 -0.029305467632274609 -0.40049385546170407 0 -0.041257957344308177 -0.40487627914437913 0 -0.03322823219505102 -0.42129041952379648 0 -0.041257957344308177 -0.40487627914437913 0 -0.051493530029743613 -0.41277891791385168 0 -0.03322823219505102 -0.42129041952379648 0 -0.03322823219505102 -0.42129041952379648 0 -0.02439234541253921 -0.43490569650885758 0 -0.049601615263317987 -0.44515345339276252 0 -0.03322823219505102 -0.42129041952379648 0 -0.049601615263317987 -0.44515345339276252 0 -0.057674512383022389 -0.42734400629007657 0 -0.03322823219505102 -0.42129041952379648 0 -0.049601615263317987 -0.44515345339276252 0 -0.03322823219505102 -0.42129041952379648 0 -0.02439234541253921 -0.43490569650885758 0 -0.010818991714530671 -0.42579448288144173 0 -0.016854849126784088 -0.39742738565483049 0 -0.03322823219505102 -0.42129041952379648 0 -0.03322823219505102 -0.42129041952379648 0 -0.0081630895937607941 -0.41129335178386173 0 -0.010818991714530671 -0.42579448288144173 0 -0.016854849126784088 -0.39742738565483049 0 -0.029305467632274609 -0.40049385546170407 0 -0.03322823219505102 -0.42129041952379648 0 -0.016854849126784088 -0.39742738565483049 0 -0.03322823219505102 -0.42129041952379648 0 -0.0081630895937607941 -0.41129335178386173 0 -0.0081630895937607941 -0.41129335178386173 0 -0.010818991714530671 -0.42579448288144173 0 0.0026957591361241309 -0.41958824334712869 0 -0.02439234541253921 -0.43490569650885758 0 -0.010818991714530671 -0.42579448288144173 0 -0.01027783979290609 -0.4450418277695869 0 -0.010818991714530671 -0.42579448288144173 0 -0.01027783979290609 -0.4450418277695869 0 0.003851027954898749 -0.43172418954792041 0 -0.010818991714530671 -0.42579448288144173 0 0.0026957591361241309 -0.41958824334712869 0 0.003851027954898749 -0.43172418954792041 0 -0.01027783979290609 -0.4450418277695869 0 -0.011038280792740629 -0.46258843223684681 0 0.0031349746952128348 -0.45732154608844711 0 -0.01027783979290609 -0.4450418277695869 0 -0.011038280792740629 -0.46258843223684681 0 -0.02289260566061898 -0.45897742689034388 0 -0.011038280792740629 -0.46258843223684681 0 -0.00094907817261298132 -0.47112804672216879 0 0.0031349746952128348 -0.45732154608844711 0 -0.02289260566061898 -0.45897742689034388 0 -0.029356635895327849 -0.44930438287917762 0 -0.040413005672661102 -0.46542425011239508 0 -0.02289260566061898 -0.45897742689034388 0 -0.023377266149459251 -0.47252824145371342 0 -0.040413005672661102 -0.46542425011239508 0 -0.011038280792740629 -0.46258843223684681 0 -0.02289260566061898 -0.45897742689034388 0 -0.023377266149459251 -0.47252824145371342 0 -0.02439234541253921 -0.43490569650885758 0 -0.01027783979290609 -0.4450418277695869 0 -0.029356635895327849 -0.44930438287917762 0 -0.01027783979290609 -0.4450418277695869 0 -0.02289260566061898 -0.45897742689034388 0 -0.029356635895327849 -0.44930438287917762 0 -0.0023310323066341181 -0.5 0 -0.0043793089323552817 -0.49170101865338262 0 -0.02815109917196898 -0.49861636840837392 0 -0.0043793089323552817 -0.49170101865338262 0 -0.0043176495648967151 -0.48070428616945038 0 0.0053352152350804568 -0.4807791696356124 0 -0.0043793089323552817 -0.49170101865338262 0 -0.0106231170010091 -0.48419136288379427 0 -0.0043176495648967151 -0.48070428616945038 0 -0.0043793089323552817 -0.49170101865338262 0 -0.0106231170010091 -0.48419136288379427 0 -0.017950876149337221 -0.4893641285520216 0 -0.0106231170010091 -0.48419136288379427 0 -0.01097195895358667 -0.47572183295229409 0 -0.019957514846631629 -0.48311391022826639 0 -0.0106231170010091 -0.48419136288379427 0 -0.0043176495648967151 -0.48070428616945038 0 -0.01097195895358667 -0.47572183295229409 0 -0.011038280792740629 -0.46258843223684681 0 -0.00094907817261298132 -0.47112804672216879 0 -0.01097195895358667 -0.47572183295229409 0 -0.0043176495648967151 -0.48070428616945038 0 -0.00094907817261298132 -0.47112804672216879 0 -0.01097195895358667 -0.47572183295229409 0 -0.011038280792740629 -0.46258843223684681 0 -0.01097195895358667 -0.47572183295229409 0 -0.023377266149459251 -0.47252824145371342 0 -0.023377266149459251 -0.47252824145371342 0 -0.019957514846631629 -0.48311391022826639 0 -0.031224396082004221 -0.48569504683202769 0 -0.01097195895358667 -0.47572183295229409 0 -0.023377266149459251 -0.47252824145371342 0 -0.019957514846631629 -0.48311391022826639 0 -0.0023310323066341181 -0.5 0 -0.02815109917196898 -0.49861636840837392 0 -0.031360818006208928 -0.5 0 -0.0043793089323552817 -0.49170101865338262 0 -0.017950876149337221 -0.4893641285520216 0 -0.02815109917196898 -0.49861636840837392 0 -0.0043793089323552817 -0.49170101865338262 0 -0.02815109917196898 -0.49861636840837392 0 -0.0106231170010091 -0.48419136288379427 0 -0.019957514846631629 -0.48311391022826639 0 -0.017950876149337221 -0.4893641285520216 0 -0.019957514846631629 -0.48311391022826639 0 -0.017950876149337221 -0.4893641285520216 0 -0.025597474744393309 -0.49118284869574791 0 -0.019957514846631629 -0.48311391022826639 0 -0.031224396082004221 -0.48569504683202769 0 -0.025597474744393309 -0.49118284869574791 0 -0.025597474744393309 -0.49118284869574791 0 -0.02815109917196898 -0.49861636840837392 0 -0.031360818006208928 -0.5 0 -0.031224396082004221 -0.48569504683202769 0 -0.025597474744393309 -0.49118284869574791 0 -0.031360818006208928 -0.5 0 -0.017950876149337221 -0.4893641285520216 0 -0.025597474744393309 -0.49118284869574791 0 -0.02815109917196898 -0.49861636840837392 0 -0.031360818006208928 -0.5 0 -0.048343055904351132 -0.4819359294639956 0 -0.060390603705783863 -0.5 0 -0.031224396082004221 -0.48569504683202769 0 -0.031360818006208928 -0.5 0 -0.048343055904351132 -0.4819359294639956 0 -0.031224396082004221 -0.48569504683202769 0 -0.040413005672661102 -0.46542425011239508 0 -0.031224396082004221 -0.48569504683202769 0 -0.048343055904351132 -0.4819359294639956 0 -0.040413005672661102 -0.46542425011239508 0 -0.023377266149459251 -0.47252824145371342 0 -0.031224396082004221 -0.48569504683202769 0 -0.040413005672661102 -0.46542425011239508 0 -0.048343055904351132 -0.4819359294639956 0 -0.040413005672661102 -0.46542425011239508 0 -0.061868527913120197 -0.46303160055449383 0 -0.048343055904351132 -0.4819359294639956 0 -0.061868527913120197 -0.46303160055449383 0 -0.067715258758524743 -0.48343239441089819 0 -0.048343055904351132 -0.4819359294639956 0 -0.060390603705783863 -0.5 0 -0.067715258758524743 -0.48343239441089819 0 -0.02439234541253921 -0.43490569650885758 0 -0.029356635895327849 -0.44930438287917762 0 -0.049601615263317987 -0.44515345339276252 0 -0.029356635895327849 -0.44930438287917762 0 -0.040413005672661102 -0.46542425011239508 0 -0.049601615263317987 -0.44515345339276252 0 -0.040413005672661102 -0.46542425011239508 0 -0.049601615263317987 -0.44515345339276252 0 -0.040413005672661102 -0.46542425011239508 0 -0.061868527913120197 -0.46303160055449383 0 -0.049601615263317987 -0.44515345339276252 0 -0.061868527913120197 -0.46303160055449383 0 -0.049601615263317987 -0.44515345339276252 0 -0.057674512383022389 -0.42734400629007657 0 -0.049601615263317987 -0.44515345339276252 0 -0.067687044322660692 -0.44438888407200389 0 -0.061868527913120197 -0.46303160055449383 0 -0.049601615263317987 -0.44515345339276252 0 -0.067687044322660692 -0.44438888407200389 0 -0.067687044322660692 -0.44438888407200389 0 -0.087522951364224152 -0.44416074083195012 0 -0.076635180433477057 -0.42684765000967062 0 -0.067687044322660692 -0.44438888407200389 0 -0.078553716864009776 -0.47219444203600192 0 -0.067687044322660692 -0.44438888407200389 0 -0.080483752515153384 -0.45444307226959779 0 -0.078553716864009776 -0.47219444203600192 0 -0.061868527913120197 -0.46303160055449383 0 -0.067687044322660692 -0.44438888407200389 0 -0.078553716864009776 -0.47219444203600192 0 -0.088171297509719124 -0.45702822213843508 0 -0.078553716864009776 -0.47219444203600192 0 -0.094850460920166413 -0.46755552228499719 0 -0.080483752515153384 -0.45444307226959779 0 -0.088171297509719124 -0.45702822213843508 0 -0.078553716864009776 -0.47219444203600192 0 -0.088171297509719124 -0.45702822213843508 0 -0.092026296169145899 -0.451321693988255 0 -0.09646742034415963 -0.45806785732742278 0 -0.088171297509719124 -0.45702822213843508 0 -0.09646742034415963 -0.45806785732742278 0 -0.094850460920166413 -0.46755552228499719 0 -0.067687044322660692 -0.44438888407200389 0 -0.080483752515153384 -0.45444307226959779 0 -0.087522951364224152 -0.44416074083195012 0 -0.088171297509719124 -0.45702822213843508 0 -0.087522951364224152 -0.44416074083195012 0 -0.088171297509719124 -0.45702822213843508 0 -0.092026296169145899 -0.451321693988255 0 -0.087522951364224152 -0.44416074083195012 0 -0.092026296169145899 -0.451321693988255 0 -0.087522951364224152 -0.44416074083195012 0 -0.080483752515153384 -0.45444307226959779 0 -0.088171297509719124 -0.45702822213843508 0 -0.087522951364224152 -0.44416074083195012 0 -0.060390603705783863 -0.5 0 -0.067715258758524743 -0.48343239441089819 0 -0.089420389405358791 -0.49999999999999978 0 -0.061868527913120197 -0.46303160055449383 0 -0.067715258758524743 -0.48343239441089819 0 -0.078553716864009776 -0.47219444203600192 0 -0.078553716864009776 -0.47219444203600192 0 -0.098208235557426499 -0.48290520710575457 0 -0.094850460920166413 -0.46755552228499719 0 -0.067715258758524743 -0.48343239441089819 0 -0.078553716864009776 -0.47219444203600192 0 -0.089420389405358791 -0.49999999999999978 0 -0.078553716864009776 -0.47219444203600192 0 -0.089420389405358791 -0.49999999999999978 0 -0.078553716864009776 -0.47219444203600192 0 -0.089420389405358791 -0.49999999999999978 0 -0.098208235557426499 -0.48290520710575457 0 -0.098208235557426499 -0.48290520710575457 0 -0.1125398430852395 -0.48112820013538338 0 -0.1148616459058424 -0.5 0 -0.089420389405358791 -0.49999999999999978 0 -0.098208235557426499 -0.48290520710575457 0 -0.1148616459058424 -0.5 0 -0.098208235557426499 -0.48290520710575457 0 -0.1051850434628086 -0.47275710198064308 0 -0.1125398430852395 -0.48112820013538338 0 -0.098208235557426499 -0.48290520710575457 0 -0.1051850434628086 -0.47275710198064308 0 -0.094850460920166413 -0.46755552228499719 0 -0.12704973474613379 -0.46277216333596533 0 -0.13010403334985379 -0.48000251283874379 0 -0.1157083509407465 -0.46985326695645979 0 -0.13010403334985379 -0.48000251283874379 0 -0.1157083509407465 -0.46985326695645979 0 -0.1125398430852395 -0.48112820013538338 0 -0.1051850434628086 -0.47275710198064308 0 -0.1157083509407465 -0.46985326695645979 0 -0.1125398430852395 -0.48112820013538338 0 -0.13010403334985379 -0.48000251283874379 0 -0.1125398430852395 -0.48112820013538338 0 -0.1148616459058424 -0.5 0 -0.10267072031130239 -0.4520905348048061 0 -0.102335674083258 -0.43919792399196639 0 -0.11570487117906469 -0.45324354028800051 0 -0.092026296169145899 -0.451321693988255 0 -0.087522951364224152 -0.44416074083195012 0 -0.102335674083258 -0.43919792399196639 0 -0.092026296169145899 -0.451321693988255 0 -0.10267072031130239 -0.4520905348048061 0 -0.102335674083258 -0.43919792399196639 0 -0.10267072031130239 -0.4520905348048061 0 -0.09646742034415963 -0.45806785732742278 0 -0.1046183268104643 -0.46234331342062063 0 -0.092026296169145899 -0.451321693988255 0 -0.10267072031130239 -0.4520905348048061 0 -0.09646742034415963 -0.45806785732742278 0 -0.1051850434628086 -0.47275710198064308 0 -0.094850460920166413 -0.46755552228499719 0 -0.1046183268104643 -0.46234331342062063 0 -0.09646742034415963 -0.45806785732742278 0 -0.094850460920166413 -0.46755552228499719 0 -0.1046183268104643 -0.46234331342062063 0 -0.1051850434628086 -0.47275710198064308 0 -0.1157083509407465 -0.46985326695645979 0 -0.1046183268104643 -0.46234331342062063 0 -0.10267072031130239 -0.4520905348048061 0 -0.1046183268104643 -0.46234331342062063 0 -0.11570487117906469 -0.45324354028800051 0 -0.12704973474613379 -0.46277216333596533 0 -0.1157083509407465 -0.46985326695645979 0 -0.11570487117906469 -0.45324354028800051 0 -0.1157083509407465 -0.46985326695645979 0 -0.1046183268104643 -0.46234331342062063 0 -0.11570487117906469 -0.45324354028800051 0 -0.13093011984253891 -0.44972195681556543 0 -0.12704973474613379 -0.46277216333596533 0 -0.11570487117906469 -0.45324354028800051 0 -0.13093011984253891 -0.44972195681556543 0 -0.11570487117906469 -0.45324354028800051 0 -0.123519809913229 -0.43733662075251151 0 -0.102335674083258 -0.43919792399196639 0 -0.11570487117906469 -0.45324354028800051 0 -0.123519809913229 -0.43733662075251151 0 -0.102335674083258 -0.43919792399196639 0 -0.123519809913229 -0.43733662075251151 0 -0.1073839645685936 -0.41867419567875119 0 -0.12597911368703019 -0.41952469120143437 0 -0.123519809913229 -0.43733662075251151 0 -0.1073839645685936 -0.41867419567875119 0 -0.102335674083258 -0.43919792399196639 0 -0.1073839645685936 -0.41867419567875119 0 -0.086273448473222103 -0.4193623284343494 0 -0.1073839645685936 -0.41867419567875119 0 -0.1004955064841186 -0.39983262220326049 0 -0.086273448473222103 -0.4193623284343494 0 -0.1073839645685936 -0.41867419567875119 0 -0.11827115974421661 -0.40327967795429231 0 -0.1004955064841186 -0.39983262220326049 0 -0.12597911368703019 -0.41952469120143437 0 -0.1073839645685936 -0.41867419567875119 0 -0.11827115974421661 -0.40327967795429231 0 -0.11827115974421661 -0.40327967795429231 0 -0.11220573075163159 -0.38220411347121069 0 -0.1004955064841186 -0.39983262220326049 0 -0.13724659116883831 -0.38156720383825199 0 -0.1192781490478088 -0.36668410834504778 0 -0.11220573075163159 -0.38220411347121069 0 -0.13724659116883831 -0.38156720383825199 0 -0.11827115974421661 -0.40327967795429231 0 -0.11220573075163159 -0.38220411347121069 0 -0.11220573075163159 -0.38220411347121069 0 -0.093814789784828018 -0.38091150164421111 0 -0.1004955064841186 -0.39983262220326049 0 -0.1016352808315869 -0.36700177770792092 0 -0.11220573075163159 -0.38220411347121069 0 -0.093814789784828018 -0.38091150164421111 0 -0.093814789784828018 -0.38091150164421111 0 -0.1004955064841186 -0.39983262220326049 0 -0.085023945582219762 -0.39456391603674879 0 -0.085023945582219762 -0.39456391603674879 0 -0.074760926096971728 -0.38965003141326948 0 -0.077688182017724178 -0.40799169701628579 0 -0.1004955064841186 -0.39983262220326049 0 -0.085023945582219762 -0.39456391603674879 0 -0.086273448473222103 -0.4193623284343494 0 -0.083774442691217046 -0.36976550363914829 0 -0.093814789784828018 -0.38091150164421111 0 -0.085023945582219762 -0.39456391603674879 0 -0.083774442691217046 -0.36976550363914829 0 -0.085023945582219762 -0.39456391603674879 0 -0.074760926096971728 -0.38965003141326948 0 -0.083774442691217046 -0.36976550363914829 0 -0.085023945582219762 -0.39456391603674879 0 -0.083774442691217046 -0.36976550363914829 0 -0.074760926096971728 -0.38965003141326948 0 -0.066117606829746781 -0.37437488941039382 0 -0.083774442691217046 -0.36976550363914829 0 -0.074760926096971728 -0.38965003141326948 0 -0.066117606829746781 -0.37437488941039382 0 -0.056230819367541693 -0.39440183914975269 0 -0.074760926096971728 -0.38965003141326948 0 -0.074760926096971728 -0.38965003141326948 0 -0.065747409502729032 -0.40953455918739179 0 -0.056230819367541693 -0.39440183914975269 0 -0.074760926096971728 -0.38965003141326948 0 -0.065747409502729032 -0.40953455918739179 0 -0.074760926096971728 -0.38965003141326948 0 -0.077688182017724178 -0.40799169701628579 0 -0.065747409502729032 -0.40953455918739179 0 -0.057674512383022389 -0.42734400629007657 0 -0.065747409502729032 -0.40953455918739179 0 -0.076635180433477057 -0.42684765000967062 0 -0.065747409502729032 -0.40953455918739179 0 -0.076635180433477057 -0.42684765000967062 0 -0.077688182017724178 -0.40799169701628579 0 -0.065747409502729032 -0.40953455918739179 0 -0.076635180433477057 -0.42684765000967062 0 -0.057674512383022389 -0.42734400629007657 0 -0.067687044322660692 -0.44438888407200389 0 -0.076635180433477057 -0.42684765000967062 0 -0.087522951364224152 -0.44416074083195012 0 -0.102335674083258 -0.43919792399196639 0 -0.086273448473222103 -0.4193623284343494 0 -0.087522951364224152 -0.44416074083195012 0 -0.076635180433477057 -0.42684765000967062 0 -0.087522951364224152 -0.44416074083195012 0 -0.086273448473222103 -0.4193623284343494 0 -0.087522951364224152 -0.44416074083195012 0 -0.076635180433477057 -0.42684765000967062 0 -0.086273448473222103 -0.4193623284343494 0 -0.077688182017724178 -0.40799169701628579 0 -0.076635180433477057 -0.42684765000967062 0 -0.086273448473222103 -0.4193623284343494 0 -0.085023945582219762 -0.39456391603674879 0 -0.086273448473222103 -0.4193623284343494 0 -0.085023945582219762 -0.39456391603674879 0 -0.077688182017724178 -0.40799169701628579 0 -0.086273448473222103 -0.4193623284343494 0 -0.088492877882569029 -0.082108210476901852 0 -0.076927128592812144 -0.088910799915979499 0 -0.09750588448509391 -0.094492999713411269 0 -0.088492877882569029 -0.082108210476901852 0 -0.079577064860946206 -0.073577453582062496 0 -0.076927128592812144 -0.088910799915979499 0 -0.079577064860946206 -0.073577453582062496 0 -0.0985919344824224 -0.072778756797164931 0 -0.087769009107716192 -0.046193724725750278 0 -0.088492877882569029 -0.082108210476901852 0 -0.079577064860946206 -0.073577453582062496 0 -0.0985919344824224 -0.072778756797164931 0 -0.079577064860946206 -0.073577453582062496 0 -0.068797467898171552 -0.064113028811232264 0 -0.064240921843242857 -0.078969573753286809 0 -0.068797467898171552 -0.064113028811232264 0 -0.064240921843242857 -0.078969573753286809 0 -0.05461803829180413 -0.069755112608578862 0 -0.064240921843242857 -0.078969573753286809 0 -0.065719917437320752 -0.085301382988547655 0 -0.071622236241637716 -0.082994103557465768 0 -0.079577064860946206 -0.073577453582062496 0 -0.064240921843242857 -0.078969573753286809 0 -0.071622236241637716 -0.082994103557465768 0 -0.079577064860946206 -0.073577453582062496 0 -0.071622236241637716 -0.082994103557465768 0 -0.076927128592812144 -0.088910799915979499 0 -0.076927128592812144 -0.088910799915979499 0 -0.070013937980536456 -0.090181036700446429 0 -0.073360588416105155 -0.101926594449817 0 -0.071622236241637716 -0.082994103557465768 0 -0.076927128592812144 -0.088910799915979499 0 -0.070013937980536456 -0.090181036700446429 0 -0.065719917437320752 -0.085301382988547655 0 -0.070013937980536456 -0.090181036700446429 0 -0.057002573683865979 -0.089060817942991616 0 -0.065719917437320752 -0.085301382988547655 0 -0.071622236241637716 -0.082994103557465768 0 -0.070013937980536456 -0.090181036700446429 0 -0.073360588416105155 -0.101926594449817 0 -0.064648045787775776 -0.1114736180136202 0 -0.083029262804162729 -0.11173362360677321 0 -0.076927128592812144 -0.088910799915979499 0 -0.073360588416105155 -0.101926594449817 0 -0.083029262804162729 -0.11173362360677321 0 -0.070013937980536456 -0.090181036700446429 0 -0.064167586873575405 -0.098824988458513688 0 -0.073360588416105155 -0.101926594449817 0 -0.064167586873575405 -0.098824988458513688 0 -0.073360588416105155 -0.101926594449817 0 -0.064648045787775776 -0.1114736180136202 0 -0.064648045787775776 -0.1114736180136202 0 -0.083029262804162729 -0.11173362360677321 0 -0.072915517223638954 -0.12670463451369329 0 -0.064648045787775776 -0.1114736180136202 0 -0.060928146748241367 -0.123537549367131 0 -0.072915517223638954 -0.12670463451369329 0 -0.083029262804162729 -0.11173362360677321 0 -0.089131397015513494 -0.13455644729756691 0 -0.072915517223638954 -0.12670463451369329 0 -0.083029262804162729 -0.11173362360677321 0 -0.089131397015513494 -0.13455644729756691 0 -0.083029262804162729 -0.11173362360677321 0 -0.099989791654964619 -0.11261170107408 0 -0.089131397015513494 -0.13455644729756691 0 -0.076927128592812144 -0.088910799915979499 0 -0.083029262804162729 -0.11173362360677321 0 -0.076927128592812144 -0.088910799915979499 0 -0.083029262804162729 -0.11173362360677321 0 -0.09750588448509391 -0.094492999713411269 0 -0.083029262804162729 -0.11173362360677321 0 -0.09750588448509391 -0.094492999713411269 0 -0.099989791654964619 -0.11261170107408 0 -0.09750588448509391 -0.094492999713411269 0 -0.099989791654964619 -0.11261170107408 0 -0.11605893441195141 -0.10185107539240761 0 -0.099989791654964619 -0.11261170107408 0 -0.11422347955810171 -0.1204243593602408 0 -0.089131397015513494 -0.13455644729756691 0 -0.11422347955810171 -0.1204243593602408 0 -0.11605893441195141 -0.10185107539240761 0 -0.13931556210068971 -0.10629227142291391 0 -0.099989791654964619 -0.11261170107408 0 -0.11422347955810171 -0.1204243593602408 0 -0.11605893441195141 -0.10185107539240761 0 -0.09750588448509391 -0.094492999713411269 0 -0.11605893441195141 -0.10185107539240761 0 -0.121811479392537 -0.084095963505499416 0 -0.09750588448509391 -0.094492999713411269 0 -0.121811479392537 -0.084095963505499416 0 -0.0985919344824224 -0.072778756797164931 0 -0.088492877882569029 -0.082108210476901852 0 -0.09750588448509391 -0.094492999713411269 0 -0.0985919344824224 -0.072778756797164931 0 -0.121811479392537 -0.084095963505499416 0 -0.0985919344824224 -0.072778756797164931 0 -0.12197003300458489 -0.067133964797042034 0 -0.0985919344824224 -0.072778756797164931 0 -0.12197003300458489 -0.067133964797042034 0 -0.11173313641422659 -0.051099137712197359 0 -0.12197003300458489 -0.067133964797042034 0 -0.11173313641422659 -0.051099137712197359 0 -0.13241258759658719 -0.044529255409706578 0 -0.11719553878173181 -0.037741673539740471 0 -0.12411398995058071 -0.026208981462584841 0 -0.13241258759658719 -0.044529255409706578 0 -0.11173313641422659 -0.051099137712197359 0 -0.11719553878173181 -0.037741673539740471 0 -0.13241258759658719 -0.044529255409706578 0 -0.11719553878173181 -0.037741673539740471 0 -0.1033935341420949 -0.036608907929656417 0 -0.1118019010511415 -0.027957019938586129 0 -0.11173313641422659 -0.051099137712197359 0 -0.11719553878173181 -0.037741673539740471 0 -0.1033935341420949 -0.036608907929656417 0 -0.11173313641422659 -0.051099137712197359 0 -0.1033935341420949 -0.036608907929656417 0 -0.087769009107716192 -0.046193724725750278 0 -0.1033935341420949 -0.036608907929656417 0 -0.091700817231413184 -0.028161456197506499 0 -0.087769009107716192 -0.046193724725750278 0 -0.0985919344824224 -0.072778756797164931 0 -0.11173313641422659 -0.051099137712197359 0 -0.087769009107716192 -0.046193724725750278 0 -0.1152652699767374 -0.0044733142422073097 0 -0.1278640484455188 -0.012334690821253821 0 -0.1273771369441013 0.0023450629401116992 0 -0.1152652699767374 -0.0044733142422073097 0 -0.11303603589243651 -0.016818202060669259 0 -0.1278640484455188 -0.012334690821253821 0 -0.1152652699767374 -0.0044733142422073097 0 -0.11303603589243651 -0.016818202060669259 0 -0.1012139958851531 -0.0082010901258140791 0 -0.11303603589243651 -0.016818202060669259 0 -0.12411398995058071 -0.026208981462584841 0 -0.1278640484455188 -0.012334690821253821 0 -0.11719553878173181 -0.037741673539740471 0 -0.12411398995058071 -0.026208981462584841 0 -0.1118019010511415 -0.027957019938586129 0 -0.11303603589243651 -0.016818202060669259 0 -0.12411398995058071 -0.026208981462584841 0 -0.1118019010511415 -0.027957019938586129 0 -0.1033935341420949 -0.036608907929656417 0 -0.1118019010511415 -0.027957019938586129 0 -0.10074487633177411 -0.021927112774035699 0 -0.1033935341420949 -0.036608907929656417 0 -0.10074487633177411 -0.021927112774035699 0 -0.091700817231413184 -0.028161456197506499 0 -0.10074487633177411 -0.021927112774035699 0 -0.089359217900845153 -0.01537750648633354 0 -0.091700817231413184 -0.028161456197506499 0 -0.11303603589243651 -0.016818202060669259 0 -0.10074487633177411 -0.021927112774035699 0 -0.1012139958851531 -0.0082010901258140791 0 -0.11303603589243651 -0.016818202060669259 0 -0.1118019010511415 -0.027957019938586129 0 -0.10074487633177411 -0.021927112774035699 0 -0.10074487633177411 -0.021927112774035699 0 -0.1012139958851531 -0.0082010901258140791 0 -0.089359217900845153 -0.01537750648633354 0 -0.1012139958851531 -0.0082010901258140791 0 -0.089124004628701792 -0.0040277377021705899 0 -0.097507665945787692 0.0040820149966005574 0 -0.1012139958851531 -0.0082010901258140791 0 -0.097507665945787692 0.0040820149966005574 0 -0.1058521268010089 0.00073384547527136773 0 -0.1152652699767374 -0.0044733142422073097 0 -0.1012139958851531 -0.0082010901258140791 0 -0.1058521268010089 0.00073384547527136773 0 -0.079764572027605563 -0.001208843295517239 0 -0.089124004628701792 -0.0040277377021705899 0 -0.080379206648835008 -0.009775819102595687 0 -0.089124004628701792 -0.0040277377021705899 0 -0.089359217900845153 -0.01537750648633354 0 -0.080379206648835008 -0.009775819102595687 0 -0.1012139958851531 -0.0082010901258140791 0 -0.089124004628701792 -0.0040277377021705899 0 -0.089359217900845153 -0.01537750648633354 0 -0.089359217900845153 -0.01537750648633354 0 -0.080379206648835008 -0.009775819102595687 0 -0.076946083733010012 -0.019608692654335649 0 -0.089359217900845153 -0.01537750648633354 0 -0.091700817231413184 -0.028161456197506499 0 -0.076946083733010012 -0.019608692654335649 0 -0.066439508831189667 -0.02875513821822643 0 -0.076946083733010012 -0.019608692654335649 0 -0.073396792324475907 -0.036549185213838799 0 -0.066439508831189667 -0.02875513821822643 0 -0.068530762808199294 -0.019938962024248611 0 -0.056338296441182101 -0.027044179732367449 0 -0.066439508831189667 -0.02875513821822643 0 -0.068530762808199294 -0.019938962024248611 0 -0.076946083733010012 -0.019608692654335649 0 -0.080379206648835008 -0.009775819102595687 0 -0.076946083733010012 -0.019608692654335649 0 -0.066123158358303874 0.0069763394170788487 0 -0.079764572027605563 -0.001208843295517239 0 -0.080379206648835008 -0.009775819102595687 0 -0.066123158358303874 0.0069763394170788487 0 -0.076946083733010012 -0.019608692654335649 0 -0.059664616745900671 -0.0040500510012267867 0 -0.066123158358303874 0.0069763394170788487 0 -0.068530762808199294 -0.019938962024248611 0 -0.059664616745900671 -0.0040500510012267867 0 -0.068530762808199294 -0.019938962024248611 0 -0.076946083733010012 -0.019608692654335649 0 -0.059664616745900671 -0.0040500510012267867 0 -0.076946083733010012 -0.019608692654335649 0 -0.066123158358303874 0.0069763394170788487 0 -0.079577064860946206 -0.073577453582062496 0 -0.068797467898171552 -0.064113028811232264 0 -0.087769009107716192 -0.046193724725750278 0 -0.0985919344824224 -0.072778756797164931 0 -0.087769009107716192 -0.046193724725750278 0 -0.076946083733010012 -0.019608692654335649 0 -0.087769009107716192 -0.046193724725750278 0 -0.073396792324475907 -0.036549185213838799 0 -0.091700817231413184 -0.028161456197506499 0 -0.076946083733010012 -0.019608692654335649 0 -0.087769009107716192 -0.046193724725750278 0 -0.076946083733010012 -0.019608692654335649 0 -0.087769009107716192 -0.046193724725750278 0 -0.073396792324475907 -0.036549185213838799 0 -0.062271996897588083 -0.052791321925605532 0 -0.056985608849081007 -0.04063467146634165 0 -0.087769009107716192 -0.046193724725750278 0 -0.073396792324475907 -0.036549185213838799 0 -0.062271996897588083 -0.052791321925605532 0 -0.066439508831189667 -0.02875513821822643 0 -0.073396792324475907 -0.036549185213838799 0 -0.056985608849081007 -0.04063467146634165 0 -0.068797467898171552 -0.064113028811232264 0 -0.087769009107716192 -0.046193724725750278 0 -0.062271996897588083 -0.052791321925605532 0 -0.050876123791686781 -0.0557005837010279 0 -0.062271996897588083 -0.052791321925605532 0 -0.05461803829180413 -0.069755112608578862 0 -0.068797467898171552 -0.064113028811232264 0 -0.062271996897588083 -0.052791321925605532 0 -0.05461803829180413 -0.069755112608578862 0 -0.050876123791686781 -0.0557005837010279 0 -0.04125611079489349 -0.061033813963863537 0 -0.05461803829180413 -0.069755112608578862 0 -0.050876123791686781 -0.0557005837010279 0 -0.056985608849081007 -0.04063467146634165 0 -0.043217803893324663 -0.046983348469378128 0 -0.050876123791686781 -0.0557005837010279 0 -0.062271996897588083 -0.052791321925605532 0 -0.056985608849081007 -0.04063467146634165 0 -0.066439508831189667 -0.02875513821822643 0 -0.056985608849081007 -0.04063467146634165 0 -0.056338296441182101 -0.027044179732367449 0 -0.056985608849081007 -0.04063467146634165 0 -0.048013312662868769 -0.034084565957593307 0 -0.056338296441182101 -0.027044179732367449 0 -0.056985608849081007 -0.04063467146634165 0 -0.048013312662868769 -0.034084565957593307 0 -0.043217803893324663 -0.046983348469378128 0 -0.034747022969916552 -0.036023397885302497 0 -0.03178279228815796 -0.053256275703554248 0 -0.043217803893324663 -0.046983348469378128 0 -0.048013312662868769 -0.034084565957593307 0 -0.034747022969916552 -0.036023397885302497 0 -0.043217803893324663 -0.046983348469378128 0 -0.03178279228815796 -0.053256275703554248 0 -0.04125611079489349 -0.061033813963863537 0 -0.027189616291661511 -0.068956488044421491 0 -0.03178279228815796 -0.053256275703554248 0 -0.04125611079489349 -0.061033813963863537 0 -0.043217803893324663 -0.046983348469378128 0 -0.050876123791686781 -0.0557005837010279 0 -0.04125611079489349 -0.061033813963863537 0 -0.043217803893324663 -0.046983348469378128 0 -0.068530762808199294 -0.019938962024248611 0 -0.059664616745900671 -0.0040500510012267867 0 -0.057625718948113309 -0.01560592069947127 0 -0.047617207273071643 -0.0035118018543059538 0 -0.059664616745900671 -0.0040500510012267867 0 -0.057625718948113309 -0.01560592069947127 0 -0.047617207273071643 -0.0035118018543059538 0 -0.057625718948113309 -0.01560592069947127 0 -0.044435943862541481 -0.018862463730406901 0 -0.057625718948113309 -0.01560592069947127 0 -0.056338296441182101 -0.027044179732367449 0 -0.044435943862541481 -0.018862463730406901 0 -0.068530762808199294 -0.019938962024248611 0 -0.057625718948113309 -0.01560592069947127 0 -0.056338296441182101 -0.027044179732367449 0 -0.048013312662868769 -0.034084565957593307 0 -0.056338296441182101 -0.027044179732367449 0 -0.044435943862541481 -0.018862463730406901 0 -0.048013312662868769 -0.034084565957593307 0 -0.034747022969916552 -0.036023397885302497 0 -0.044435943862541481 -0.018862463730406901 0 -0.034747022969916552 -0.036023397885302497 0 -0.044435943862541481 -0.018862463730406901 0 -0.029096019340949839 -0.020089153358083849 0 -0.044435943862541481 -0.018862463730406901 0 -0.037331614038931003 -0.0090830911405071785 0 -0.029096019340949839 -0.020089153358083849 0 -0.047617207273071643 -0.0035118018543059538 0 -0.044435943862541481 -0.018862463730406901 0 -0.037331614038931003 -0.0090830911405071785 0 -0.047617207273071643 -0.0035118018543059538 0 -0.044435943862541481 -0.018862463730406901 0 -0.037331614038931003 -0.0090830911405071785 0 -0.025670282478897081 -0.0054027298625421993 0 -0.03671052455766443 0.0037031618858211421 0 -0.047617207273071643 -0.0035118018543059538 0 -0.037331614038931003 -0.0090830911405071785 0 -0.03671052455766443 0.0037031618858211421 0 -0.025670282478897081 -0.0054027298625421993 0 -0.029096019340949839 -0.020089153358083849 0 -0.01201491237982177 -0.012697106039732861 0 -0.025670282478897081 -0.0054027298625421993 0 -0.01201491237982177 -0.012697106039732861 0 -0.010105069976996849 0.0023765649732562961 0 -0.037331614038931003 -0.0090830911405071785 0 -0.025670282478897081 -0.0054027298625421993 0 -0.029096019340949839 -0.020089153358083849 0 -0.034747022969916552 -0.036023397885302497 0 -0.029096019340949839 -0.020089153358083849 0 -0.01621539074153976 -0.030149579770640821 0 -0.029096019340949839 -0.020089153358083849 0 -0.01621539074153976 -0.030149579770640821 0 -0.01201491237982177 -0.012697106039732861 0 -0.01621539074153976 -0.030149579770640821 0 0.0026421611525163911 -0.019923693291100199 0 0.001114662024295677 -0.034644724797188199 0 -0.01621539074153976 -0.030149579770640821 0 -0.01201491237982177 -0.012697106039732861 0 0.0026421611525163911 -0.019923693291100199 0 -0.01201491237982177 -0.012697106039732861 0 0.0047038114401232534 -0.001040937293712483 0 0.0026421611525163911 -0.019923693291100199 0 -0.01201491237982177 -0.012697106039732861 0 -0.010105069976996849 0.0023765649732562961 0 0.0047038114401232534 -0.001040937293712483 0 -0.03178279228815796 -0.053256275703554248 0 -0.015718878272565229 -0.058792224196781109 0 -0.02130541942185268 -0.044498810144407437 0 -0.03178279228815796 -0.053256275703554248 0 -0.015718878272565229 -0.058792224196781109 0 -0.027189616291661511 -0.068956488044421491 0 -0.034747022969916552 -0.036023397885302497 0 -0.01621539074153976 -0.030149579770640821 0 -0.02130541942185268 -0.044498810144407437 0 -0.034747022969916552 -0.036023397885302497 0 -0.03178279228815796 -0.053256275703554248 0 -0.02130541942185268 -0.044498810144407437 0 -0.01621539074153976 -0.030149579770640821 0 -0.0092606153764647689 -0.044492254616565037 0 0.001114662024295677 -0.034644724797188199 0 -0.0092606153764647689 -0.044492254616565037 0 0.001114662024295677 -0.034644724797188199 0 0.003426744450576454 -0.054815297075420773 0 -0.01621539074153976 -0.030149579770640821 0 -0.02130541942185268 -0.044498810144407437 0 -0.0092606153764647689 -0.044492254616565037 0 -0.015718878272565229 -0.058792224196781109 0 -0.0092606153764647689 -0.044492254616565037 0 0.003426744450576454 -0.054815297075420773 0 -0.015718878272565229 -0.058792224196781109 0 -0.0072319765520409062 -0.068818796064575097 0 0.003426744450576454 -0.054815297075420773 0 -0.015718878272565229 -0.058792224196781109 0 -0.02130541942185268 -0.044498810144407437 0 -0.0092606153764647689 -0.044492254616565037 0 -0.0072319765520409062 -0.068818796064575097 0 -0.0056293594721457006 -0.082036805430144924 0 0.0054575408194632406 -0.073720759659108445 0 -0.0072319765520409062 -0.068818796064575097 0 -0.016531268938654212 -0.068489504758274394 0 -0.015984604638349179 -0.077390510727319894 0 -0.0072319765520409062 -0.068818796064575097 0 -0.0056293594721457006 -0.082036805430144924 0 -0.015984604638349179 -0.077390510727319894 0 -0.015718878272565229 -0.058792224196781109 0 -0.0072319765520409062 -0.068818796064575097 0 -0.016531268938654212 -0.068489504758274394 0 -0.0075898384642912086 -0.092772169897659226 0 -0.0056293594721457006 -0.082036805430144924 0 0.0072012692200917657 -0.09144049599341271 0 -0.0056293594721457006 -0.082036805430144924 0 -0.01562854721774792 -0.088078100238794171 0 -0.015984604638349179 -0.077390510727319894 0 -0.0075898384642912086 -0.092772169897659226 0 -0.0056293594721457006 -0.082036805430144924 0 -0.01562854721774792 -0.088078100238794171 0 -0.0075898384642912086 -0.092772169897659226 0 -0.01562854721774792 -0.088078100238794171 0 -0.015839401072447711 -0.097831294581907868 0 -0.01562854721774792 -0.088078100238794171 0 -0.02305577581672685 -0.083163458542690943 0 -0.024670005891415589 -0.092262667611894875 0 -0.01562854721774792 -0.088078100238794171 0 -0.024670005891415589 -0.092262667611894875 0 -0.015839401072447711 -0.097831294581907868 0 -0.01562854721774792 -0.088078100238794171 0 -0.02305577581672685 -0.083163458542690943 0 -0.015984604638349179 -0.077390510727319894 0 -0.02305577581672685 -0.083163458542690943 0 -0.024670005891415589 -0.092262667611894875 0 -0.031754510724464793 -0.081253108138323094 0 -0.024670005891415589 -0.092262667611894875 0 -0.031754510724464793 -0.081253108138323094 0 -0.03344051123233422 -0.092098432850847969 0 -0.015718878272565229 -0.058792224196781109 0 -0.016531268938654212 -0.068489504758274394 0 -0.027189616291661511 -0.068956488044421491 0 -0.016531268938654212 -0.068489504758274394 0 -0.015984604638349179 -0.077390510727319894 0 -0.027189616291661511 -0.068956488044421491 0 -0.02305577581672685 -0.083163458542690943 0 -0.015984604638349179 -0.077390510727319894 0 -0.027189616291661511 -0.068956488044421491 0 -0.02305577581672685 -0.083163458542690943 0 -0.027189616291661511 -0.068956488044421491 0 -0.031754510724464793 -0.081253108138323094 0 -0.04125611079489349 -0.061033813963863537 0 -0.027189616291661511 -0.068956488044421491 0 -0.04053175759116228 -0.071452392996033218 0 -0.04125611079489349 -0.061033813963863537 0 -0.04053175759116228 -0.071452392996033218 0 -0.05461803829180413 -0.069755112608578862 0 -0.04053175759116228 -0.071452392996033218 0 -0.04331800788480706 -0.080321541169751709 0 -0.05461803829180413 -0.069755112608578862 0 -0.027189616291661511 -0.068956488044421491 0 -0.04053175759116228 -0.071452392996033218 0 -0.031754510724464793 -0.081253108138323094 0 -0.04053175759116228 -0.071452392996033218 0 -0.031754510724464793 -0.081253108138323094 0 -0.04331800788480706 -0.080321541169751709 0 -0.031754510724464793 -0.081253108138323094 0 -0.037920360895102763 -0.086728863392239786 0 -0.04331800788480706 -0.080321541169751709 0 -0.031754510724464793 -0.081253108138323094 0 -0.03344051123233422 -0.092098432850847969 0 -0.037920360895102763 -0.086728863392239786 0 -0.03344051123233422 -0.092098432850847969 0 -0.037920360895102763 -0.086728863392239786 0 -0.039477100495342581 -0.093081883261144749 0 -0.043535591074226332 -0.088659540190963698 0 -0.052607434978589038 -0.084605160310905272 0 -0.044151246104392423 -0.095288874830203096 0 -0.039477100495342581 -0.093081883261144749 0 -0.043535591074226332 -0.088659540190963698 0 -0.044151246104392423 -0.095288874830203096 0 -0.037920360895102763 -0.086728863392239786 0 -0.039477100495342581 -0.093081883261144749 0 -0.043535591074226332 -0.088659540190963698 0 -0.043535591074226332 -0.088659540190963698 0 -0.044151246104392423 -0.095288874830203096 0 -0.037920360895102763 -0.086728863392239786 0 -0.043535591074226332 -0.088659540190963698 0 -0.04331800788480706 -0.080321541169751709 0 -0.043535591074226332 -0.088659540190963698 0 -0.04331800788480706 -0.080321541169751709 0 -0.052607434978589038 -0.084605160310905272 0 -0.04331800788480706 -0.080321541169751709 0 -0.052607434978589038 -0.084605160310905272 0 -0.05461803829180413 -0.069755112608578862 0 -0.070013937980536456 -0.090181036700446429 0 -0.057002573683865979 -0.089060817942991616 0 -0.04460455598339258 -0.10017008709341529 0 -0.052607434978589038 -0.084605160310905272 0 -0.044151246104392423 -0.095288874830203096 0 -0.052607434978589038 -0.084605160310905272 0 -0.057002573683865979 -0.089060817942991616 0 -0.044151246104392423 -0.095288874830203096 0 -0.064240921843242857 -0.078969573753286809 0 -0.065719917437320752 -0.085301382988547655 0 -0.057002573683865979 -0.089060817942991616 0 -0.064240921843242857 -0.078969573753286809 0 -0.052607434978589038 -0.084605160310905272 0 -0.057002573683865979 -0.089060817942991616 0 -0.064240921843242857 -0.078969573753286809 0 -0.052607434978589038 -0.084605160310905272 0 -0.05461803829180413 -0.069755112608578862 0 -0.064648045787775776 -0.1114736180136202 0 -0.054889055151619223 -0.1064960745062641 0 -0.046573596299020338 -0.1213725893565638 0 -0.064648045787775776 -0.1114736180136202 0 -0.060928146748241367 -0.123537549367131 0 -0.046573596299020338 -0.1213725893565638 0 -0.064167586873575405 -0.098824988458513688 0 -0.054889055151619223 -0.1064960745062641 0 -0.04460455598339258 -0.10017008709341529 0 -0.054889055151619223 -0.1064960745062641 0 -0.04460455598339258 -0.10017008709341529 0 -0.046573596299020338 -0.1213725893565638 0 -0.070013937980536456 -0.090181036700446429 0 -0.04460455598339258 -0.10017008709341529 0 -0.070013937980536456 -0.090181036700446429 0 -0.064167586873575405 -0.098824988458513688 0 -0.04460455598339258 -0.10017008709341529 0 -0.064167586873575405 -0.098824988458513688 0 -0.064648045787775776 -0.1114736180136202 0 -0.054889055151619223 -0.1064960745062641 0 -0.057002573683865979 -0.089060817942991616 0 -0.044151246104392423 -0.095288874830203096 0 -0.04460455598339258 -0.10017008709341529 0 -0.04460455598339258 -0.10017008709341529 0 -0.038337793170655582 -0.1026337050414691 0 -0.046573596299020338 -0.1213725893565638 0 -0.039477100495342581 -0.093081883261144749 0 -0.044151246104392423 -0.095288874830203096 0 -0.038337793170655582 -0.1026337050414691 0 -0.044151246104392423 -0.095288874830203096 0 -0.04460455598339258 -0.10017008709341529 0 -0.044151246104392423 -0.095288874830203096 0 -0.038337793170655582 -0.1026337050414691 0 -0.04460455598339258 -0.10017008709341529 0 -0.038337793170655582 -0.1026337050414691 0 -0.044151246104392423 -0.095288874830203096 0 -0.04460455598339258 -0.10017008709341529 0 -0.038337793170655582 -0.1026337050414691 0 -0.03344051123233422 -0.092098432850847969 0 -0.039477100495342581 -0.093081883261144749 0 -0.038337793170655582 -0.1026337050414691 0 -0.03344051123233422 -0.092098432850847969 0 -0.038337793170655582 -0.1026337050414691 0 -0.030143021990877521 -0.097413384547063803 0 -0.038337793170655582 -0.1026337050414691 0 -0.046573596299020338 -0.1213725893565638 0 -0.032898799107638058 -0.1301455039054305 0 -0.04460455598339258 -0.10017008709341529 0 -0.046573596299020338 -0.1213725893565638 0 -0.038337793170655582 -0.1026337050414691 0 -0.02075820173733281 -0.1248441049076035 0 -0.038337793170655582 -0.1026337050414691 0 -0.02075820173733281 -0.1248441049076035 0 -0.032898799107638058 -0.1301455039054305 0 -0.038337793170655582 -0.1026337050414691 0 -0.02075820173733281 -0.1248441049076035 0 -0.013304609286582791 -0.1124748627422944 0 -0.038337793170655582 -0.1026337050414691 0 -0.013304609286582791 -0.1124748627422944 0 -0.038337793170655582 -0.1026337050414691 0 -0.024123777669104458 -0.10265873268404301 0 -0.013304609286582791 -0.1124748627422944 0 -0.038337793170655582 -0.1026337050414691 0 -0.030143021990877521 -0.097413384547063803 0 -0.024123777669104458 -0.10265873268404301 0 -0.024670005891415589 -0.092262667611894875 0 -0.030143021990877521 -0.097413384547063803 0 -0.024123777669104458 -0.10265873268404301 0 -0.024670005891415589 -0.092262667611894875 0 -0.03344051123233422 -0.092098432850847969 0 -0.030143021990877521 -0.097413384547063803 0 -0.024123777669104458 -0.10265873268404301 0 -0.015994782990863529 -0.1079378035875192 0 -0.013304609286582791 -0.1124748627422944 0 -0.024123777669104458 -0.10265873268404301 0 -0.015994782990863529 -0.1079378035875192 0 -0.015839401072447711 -0.097831294581907868 0 -0.024670005891415589 -0.092262667611894875 0 -0.024123777669104458 -0.10265873268404301 0 -0.015839401072447711 -0.097831294581907868 0 -0.0070294542012635762 -0.10327829347153671 0 -0.013304609286582791 -0.1124748627422944 0 0.0046245275045138064 -0.1076828264142336 0 -0.0075898384642912086 -0.092772169897659226 0 -0.015839401072447711 -0.097831294581907868 0 -0.0070294542012635762 -0.10327829347153671 0 -0.015994782990863529 -0.1079378035875192 0 -0.015839401072447711 -0.097831294581907868 0 -0.0070294542012635762 -0.10327829347153671 0 -0.015994782990863529 -0.1079378035875192 0 -0.0070294542012635762 -0.10327829347153671 0 -0.013304609286582791 -0.1124748627422944 0 -0.0075898384642912086 -0.092772169897659226 0 -0.0070294542012635762 -0.10327829347153671 0 0.0072012692200917657 -0.09144049599341271 0 -0.02075820173733281 -0.1248441049076035 0 -0.013304609286582791 -0.1124748627422944 0 -0.00221818493688669 -0.13117245205018849 0 -0.013304609286582791 -0.1124748627422944 0 -0.00221818493688669 -0.13117245205018849 0 0.014197789575412951 -0.12328672932727321 0 -0.013304609286582791 -0.1124748627422944 0 -0.00221818493688669 -0.13117245205018849 0 -0.015994782990863529 -0.1079378035875192 0 -0.013304609286582791 -0.1124748627422944 0 -0.02075820173733281 -0.1248441049076035 0 -0.0137133242766358 -0.14598078836242959 0 -0.0031786103040098569 -0.14705450477373769 0 -0.02075820173733281 -0.1248441049076035 0 -0.0031786103040098569 -0.14705450477373769 0 -0.02075820173733281 -0.1248441049076035 0 -0.00221818493688669 -0.13117245205018849 0 -0.0031786103040098569 -0.14705450477373769 0 -0.02075820173733281 -0.1248441049076035 0 -0.02657462786173766 -0.13400490724319661 0 -0.021326083532184278 -0.14069250208886769 0 -0.02075820173733281 -0.1248441049076035 0 -0.021326083532184278 -0.14069250208886769 0 -0.0137133242766358 -0.14598078836242959 0 -0.02657462786173766 -0.13400490724319661 0 -0.032898799107638058 -0.1301455039054305 0 -0.031315427069795509 -0.14033751807088471 0 -0.02657462786173766 -0.13400490724319661 0 -0.021326083532184278 -0.14069250208886769 0 -0.031315427069795509 -0.14033751807088471 0 -0.02075820173733281 -0.1248441049076035 0 -0.02657462786173766 -0.13400490724319661 0 -0.032898799107638058 -0.1301455039054305 0 -0.026655807174363451 -0.14845120392719069 0 -0.02210874630731275 -0.1561964137015745 0 -0.031495029160766817 -0.15509855920566379 0 -0.026655807174363451 -0.14845120392719069 0 -0.03449156258747036 -0.148917707105098 0 -0.031495029160766817 -0.15509855920566379 0 -0.026655807174363451 -0.14845120392719069 0 -0.021326083532184278 -0.14069250208886769 0 -0.031315427069795509 -0.14033751807088471 0 -0.026655807174363451 -0.14845120392719069 0 -0.031315427069795509 -0.14033751807088471 0 -0.03449156258747036 -0.148917707105098 0 -0.021326083532184278 -0.14069250208886769 0 -0.019449426413567759 -0.15004718796545319 0 -0.0137133242766358 -0.14598078836242959 0 -0.026655807174363451 -0.14845120392719069 0 -0.021326083532184278 -0.14069250208886769 0 -0.019449426413567759 -0.15004718796545319 0 -0.019449426413567759 -0.15004718796545319 0 -0.01542317820397726 -0.15505006264073101 0 -0.0137133242766358 -0.14598078836242959 0 -0.026655807174363451 -0.14845120392719069 0 -0.019449426413567759 -0.15004718796545319 0 -0.02210874630731275 -0.1561964137015745 0 -0.019449426413567759 -0.15004718796545319 0 -0.02210874630731275 -0.1561964137015745 0 -0.01542317820397726 -0.15505006264073101 0 -0.0137133242766358 -0.14598078836242959 0 -0.0031786103040098569 -0.14705450477373769 0 -0.0072073677341612146 -0.1544888065361133 0 -0.01542317820397726 -0.15505006264073101 0 -0.0137133242766358 -0.14598078836242959 0 -0.0072073677341612146 -0.1544888065361133 0 -0.0031786103040098569 -0.14705450477373769 0 -0.0072073677341612146 -0.1544888065361133 0 -0.0025999653858941639 -0.16131422913783491 0 -0.01542317820397726 -0.15505006264073101 0 -0.0084927016390539001 -0.17431231470194719 0 -0.01542317820397726 -0.15505006264073101 0 -0.0025999653858941639 -0.16131422913783491 0 -0.0084927016390539001 -0.17431231470194719 0 -0.01542317820397726 -0.15505006264073101 0 -0.0084927016390539001 -0.17431231470194719 0 -0.018600123305710169 -0.16452936741983731 0 -0.0025999653858941639 -0.16131422913783491 0 -0.0084927016390539001 -0.17431231470194719 0 0.0067086063528142403 -0.16809244781376179 0 -0.0084927016390539001 -0.17431231470194719 0 -0.019446339186483811 -0.17229591455881449 0 -0.018600123305710169 -0.16452936741983731 0 -0.01542317820397726 -0.15505006264073101 0 -0.0072073677341612146 -0.1544888065361133 0 -0.0025999653858941639 -0.16131422913783491 0 -0.0084927016390539001 -0.17431231470194719 0 -0.0015622250741301779 -0.1935745667631632 0 -0.01452589755716127 -0.18854972137590889 0 -0.0084927016390539001 -0.17431231470194719 0 -0.0015622250741301779 -0.1935745667631632 0 -0.0084927016390539001 -0.17431231470194719 0 -0.0015622250741301779 -0.1935745667631632 0 0.0091962193441852118 -0.18107109871456811 0 -0.0084927016390539001 -0.17431231470194719 0 -0.019789997202817391 -0.17944929683230451 0 -0.01452589755716127 -0.18854972137590889 0 -0.019789997202817391 -0.17944929683230451 0 -0.01452589755716127 -0.18854972137590889 0 -0.02459459850908961 -0.18853055632871979 0 -0.0084927016390539001 -0.17431231470194719 0 -0.019789997202817391 -0.17944929683230451 0 -0.019446339186483811 -0.17229591455881449 0 -0.019789997202817391 -0.17944929683230451 0 -0.019446339186483811 -0.17229591455881449 0 -0.025875972540285681 -0.17494695229964419 0 -0.019789997202817391 -0.17944929683230451 0 -0.025875972540285681 -0.17494695229964419 0 -0.028761852805915141 -0.18157091371807699 0 -0.025875972540285681 -0.17494695229964419 0 -0.032240004386850082 -0.17024588421870079 0 -0.032480769472988377 -0.1765838753595764 0 -0.025875972540285681 -0.17494695229964419 0 -0.028761852805915141 -0.18157091371807699 0 -0.032480769472988377 -0.1765838753595764 0 -0.028761852805915141 -0.18157091371807699 0 -0.032920373861235572 -0.18696580359983689 0 -0.02459459850908961 -0.18853055632871979 0 -0.019789997202817391 -0.17944929683230451 0 -0.028761852805915141 -0.18157091371807699 0 -0.02459459850908961 -0.18853055632871979 0 -0.02210874630731275 -0.1561964137015745 0 -0.02334206205745518 -0.16321350683772101 0 -0.018600123305710169 -0.16452936741983731 0 -0.02210874630731275 -0.1561964137015745 0 -0.01542317820397726 -0.15505006264073101 0 -0.018600123305710169 -0.16452936741983731 0 -0.019446339186483811 -0.17229591455881449 0 -0.018600123305710169 -0.16452936741983731 0 -0.024472901244551901 -0.1682416415403396 0 -0.019446339186483811 -0.17229591455881449 0 -0.025875972540285681 -0.17494695229964419 0 -0.024472901244551901 -0.1682416415403396 0 -0.02334206205745518 -0.16321350683772101 0 -0.018600123305710169 -0.16452936741983731 0 -0.024472901244551901 -0.1682416415403396 0 -0.02334206205745518 -0.16321350683772101 0 -0.024472901244551901 -0.1682416415403396 0 -0.028186477372245909 -0.16388660468913291 0 -0.025875972540285681 -0.17494695229964419 0 -0.024472901244551901 -0.1682416415403396 0 -0.032240004386850082 -0.17024588421870079 0 -0.024472901244551901 -0.1682416415403396 0 -0.028186477372245909 -0.16388660468913291 0 -0.032240004386850082 -0.17024588421870079 0 -0.02210874630731275 -0.1561964137015745 0 -0.036601677587355427 -0.1631254910080501 0 -0.02210874630731275 -0.1561964137015745 0 -0.028186477372245909 -0.16388660468913291 0 -0.036601677587355427 -0.1631254910080501 0 -0.02210874630731275 -0.1561964137015745 0 -0.036601677587355427 -0.1631254910080501 0 -0.031495029160766817 -0.15509855920566379 0 -0.02210874630731275 -0.1561964137015745 0 -0.02334206205745518 -0.16321350683772101 0 -0.028186477372245909 -0.16388660468913291 0 -0.036601677587355427 -0.1631254910080501 0 -0.031495029160766817 -0.15509855920566379 0 -0.03757233301838208 -0.1561293615731485 0 -0.036601677587355427 -0.1631254910080501 0 -0.042683024331232992 -0.16071659108817879 0 -0.03757233301838208 -0.1561293615731485 0 -0.036601677587355427 -0.1631254910080501 0 -0.032240004386850082 -0.17024588421870079 0 -0.040990311010288182 -0.1707810542940659 0 -0.028186477372245909 -0.16388660468913291 0 -0.036601677587355427 -0.1631254910080501 0 -0.032240004386850082 -0.17024588421870079 0 -0.036601677587355427 -0.1631254910080501 0 -0.040990311010288182 -0.1707810542940659 0 -0.051094608867397598 -0.17005456831452659 0 -0.036601677587355427 -0.1631254910080501 0 -0.042683024331232992 -0.16071659108817879 0 -0.051094608867397598 -0.17005456831452659 0 -0.036601677587355427 -0.1631254910080501 0 -0.051094608867397598 -0.17005456831452659 0 -0.042683024331232992 -0.16071659108817879 0 -0.03757233301838208 -0.1561293615731485 0 -0.042590371425084809 -0.152788459458752 0 -0.042683024331232992 -0.16071659108817879 0 -0.049852416986034973 -0.1566787242717059 0 -0.042590371425084809 -0.152788459458752 0 -0.042683024331232992 -0.16071659108817879 0 -0.049852416986034973 -0.1566787242717059 0 -0.032920373861235572 -0.18696580359983689 0 -0.035662893679222471 -0.1808176818492459 0 -0.039648887306358682 -0.18457447877016059 0 -0.028761852805915141 -0.18157091371807699 0 -0.032920373861235572 -0.18696580359983689 0 -0.035662893679222471 -0.1808176818492459 0 -0.032240004386850082 -0.17024588421870079 0 -0.040990311010288182 -0.1707810542940659 0 -0.038331319031698619 -0.1753090981098179 0 -0.035662893679222471 -0.1808176818492459 0 -0.038331319031698619 -0.1753090981098179 0 -0.042134054383572032 -0.1794085226548284 0 -0.035662893679222471 -0.1808176818492459 0 -0.032480769472988377 -0.1765838753595764 0 -0.038331319031698619 -0.1753090981098179 0 -0.028761852805915141 -0.18157091371807699 0 -0.035662893679222471 -0.1808176818492459 0 -0.032480769472988377 -0.1765838753595764 0 -0.032240004386850082 -0.17024588421870079 0 -0.032480769472988377 -0.1765838753595764 0 -0.038331319031698619 -0.1753090981098179 0 -0.040990311010288182 -0.1707810542940659 0 -0.045496547127059937 -0.17528527585558801 0 -0.051094608867397598 -0.17005456831452659 0 -0.040990311010288182 -0.1707810542940659 0 -0.038331319031698619 -0.1753090981098179 0 -0.045496547127059937 -0.17528527585558801 0 -0.045496547127059937 -0.17528527585558801 0 -0.042134054383572032 -0.1794085226548284 0 -0.049232931697160941 -0.18142535687920061 0 -0.038331319031698619 -0.1753090981098179 0 -0.045496547127059937 -0.17528527585558801 0 -0.042134054383572032 -0.1794085226548284 0 -0.042134054383572032 -0.1794085226548284 0 -0.039648887306358682 -0.18457447877016059 0 -0.049232931697160941 -0.18142535687920061 0 -0.039648887306358682 -0.18457447877016059 0 -0.049232931697160941 -0.18142535687920061 0 -0.037513132105194948 -0.19164621715467339 0 -0.035662893679222471 -0.1808176818492459 0 -0.042134054383572032 -0.1794085226548284 0 -0.039648887306358682 -0.18457447877016059 0 -0.052530262953744307 -0.18551360121156771 0 -0.064566778430722005 -0.1899668467895553 0 -0.070259181001566293 -0.17921715932508539 0 -0.052530262953744307 -0.18551360121156771 0 -0.051094608867397598 -0.17005456831452659 0 -0.070259181001566293 -0.17921715932508539 0 -0.051094608867397598 -0.17005456831452659 0 -0.070259181001566293 -0.17921715932508539 0 -0.052530262953744307 -0.18551360121156771 0 -0.049232931697160941 -0.18142535687920061 0 -0.051094608867397598 -0.17005456831452659 0 -0.052530262953744307 -0.18551360121156771 0 -0.051094608867397598 -0.17005456831452659 0 -0.045496547127059937 -0.17528527585558801 0 -0.049232931697160941 -0.18142535687920061 0 -0.051094608867397598 -0.17005456831452659 0 -0.051094608867397598 -0.17005456831452659 0 -0.061817946007188637 -0.1647032604190713 0 -0.070259181001566293 -0.17921715932508539 0 -0.049852416986034973 -0.1566787242717059 0 -0.051094608867397598 -0.17005456831452659 0 -0.061817946007188637 -0.1647032604190713 0 -0.042683024331232992 -0.16071659108817879 0 -0.049852416986034973 -0.1566787242717059 0 -0.051094608867397598 -0.17005456831452659 0 -0.049852416986034973 -0.1566787242717059 0 -0.051094608867397598 -0.17005456831452659 0 -0.049852416986034973 -0.1566787242717059 0 -0.061817946007188637 -0.1647032604190713 0 -0.059473492795946999 -0.1512600473178678 0 -0.049852416986034973 -0.1566787242717059 0 -0.059473492795946999 -0.1512600473178678 0 -0.049852416986034973 -0.1566787242717059 0 -0.048542636614648908 -0.14257509161971199 0 -0.042590371425084809 -0.152788459458752 0 -0.049852416986034973 -0.1566787242717059 0 -0.059473492795946999 -0.1512600473178678 0 -0.048542636614648908 -0.14257509161971199 0 -0.049852416986034973 -0.1566787242717059 0 -0.048542636614648908 -0.14257509161971199 0 -0.059473492795946999 -0.1512600473178678 0 -0.048542636614648908 -0.14257509161971199 0 -0.059473492795946999 -0.1512600473178678 0 -0.048542636614648908 -0.14257509161971199 0 -0.061100100412547438 -0.13647315015658409 0 -0.046573596299020338 -0.1213725893565638 0 -0.048542636614648908 -0.14257509161971199 0 -0.061100100412547438 -0.13647315015658409 0 -0.046573596299020338 -0.1213725893565638 0 -0.048542636614648908 -0.14257509161971199 0 -0.060928146748241367 -0.123537549367131 0 -0.046573596299020338 -0.1213725893565638 0 -0.061100100412547438 -0.13647315015658409 0 -0.046573596299020338 -0.1213725893565638 0 -0.048542636614648908 -0.14257509161971199 0 -0.032898799107638058 -0.1301455039054305 0 -0.048542636614648908 -0.14257509161971199 0 -0.032898799107638058 -0.1301455039054305 0 -0.031315427069795509 -0.14033751807088471 0 -0.048542636614648908 -0.14257509161971199 0 -0.032898799107638058 -0.1301455039054305 0 -0.048542636614648908 -0.14257509161971199 0 -0.031315427069795509 -0.14033751807088471 0 -0.03449156258747036 -0.148917707105098 0 -0.03449156258747036 -0.148917707105098 0 -0.03757233301838208 -0.1561293615731485 0 -0.042590371425084809 -0.152788459458752 0 -0.03449156258747036 -0.148917707105098 0 -0.031495029160766817 -0.15509855920566379 0 -0.03757233301838208 -0.1561293615731485 0 -0.048542636614648908 -0.14257509161971199 0 -0.03449156258747036 -0.148917707105098 0 -0.042590371425084809 -0.152788459458752 0 -0.030801127425925001 -0.25680016795848581 0 -0.026871719323301121 -0.24650256912316601 0 -0.018733547469201091 -0.24349008461987329 0 -0.032940321160402269 -0.25029644079438251 0 -0.026871719323301121 -0.24650256912316601 0 -0.030857658388656541 -0.2362056796655021 0 -0.032940321160402269 -0.25029644079438251 0 -0.026871719323301121 -0.24650256912316601 0 -0.026871719323301121 -0.24650256912316601 0 -0.030857658388656541 -0.2362056796655021 0 -0.018733547469201091 -0.24349008461987329 0 -0.018733547469201091 -0.24349008461987329 0 0.0010854142569982001 -0.23807309260292489 0 0.0025328853753160741 -0.24958102673793139 0 -0.018733547469201091 -0.24349008461987329 0 -0.0061584899570064598 -0.22962027277065361 0 0.0010854142569982001 -0.23807309260292489 0 -0.018733547469201091 -0.24349008461987329 0 -0.0061584899570064598 -0.22962027277065361 0 -0.018733547469201091 -0.24349008461987329 0 -0.0061584899570064598 -0.22962027277065361 0 -0.014959502272226489 -0.22084886391346231 0 -0.0061584899570064598 -0.22962027277065361 0 -0.0054289760133702037 -0.21457987404047249 0 0.0064165675551885711 -0.21575046092143421 0 -0.0061584899570064598 -0.22962027277065361 0 -0.014959502272226489 -0.22084886391346231 0 -0.0054289760133702037 -0.21457987404047249 0 -0.018733547469201091 -0.24349008461987329 0 -0.02919644603132129 -0.2221986071991269 0 -0.02714058579554627 -0.22330174697438809 0 -0.018733547469201091 -0.24349008461987329 0 -0.02919644603132129 -0.2221986071991269 0 -0.018733547469201091 -0.24349008461987329 0 -0.014959502272226489 -0.22084886391346231 0 -0.02714058579554627 -0.22330174697438809 0 -0.030857658388656541 -0.2362056796655021 0 -0.018733547469201091 -0.24349008461987329 0 -0.02919644603132129 -0.2221986071991269 0 -0.02919644603132129 -0.2221986071991269 0 -0.02714058579554627 -0.22330174697438809 0 -0.023298310508535151 -0.21367384618425 0 -0.02883797433537726 -0.20835292232393379 0 -0.020914866328615171 -0.2008213059726579 0 -0.039659344593441261 -0.20090712977838049 0 -0.02919644603132129 -0.2221986071991269 0 -0.02883797433537726 -0.20835292232393379 0 -0.023298310508535151 -0.21367384618425 0 -0.02883797433537726 -0.20835292232393379 0 -0.023298310508535151 -0.21367384618425 0 -0.020914866328615171 -0.2008213059726579 0 -0.023298310508535151 -0.21367384618425 0 -0.014351405434837939 -0.2084381568687759 0 -0.020914866328615171 -0.2008213059726579 0 -0.02714058579554627 -0.22330174697438809 0 -0.014351405434837939 -0.2084381568687759 0 -0.014959502272226489 -0.22084886391346231 0 -0.02714058579554627 -0.22330174697438809 0 -0.014351405434837939 -0.2084381568687759 0 -0.02714058579554627 -0.22330174697438809 0 -0.023298310508535151 -0.21367384618425 0 -0.014351405434837939 -0.2084381568687759 0 -0.014959502272226489 -0.22084886391346231 0 -0.0054289760133702037 -0.21457987404047249 0 -0.014351405434837939 -0.2084381568687759 0 -0.0054289760133702037 -0.21457987404047249 0 -0.014351405434837939 -0.2084381568687759 0 -0.0015622250741301779 -0.1935745667631632 0 -0.0054289760133702037 -0.21457987404047249 0 -0.0015622250741301779 -0.1935745667631632 0 0.0064165675551885711 -0.21575046092143421 0 -0.014351405434837939 -0.2084381568687759 0 -0.0015622250741301779 -0.1935745667631632 0 -0.014351405434837939 -0.2084381568687759 0 -0.01223217889679739 -0.19705511845509929 0 -0.0015622250741301779 -0.1935745667631632 0 -0.01223217889679739 -0.19705511845509929 0 -0.0015622250741301779 -0.1935745667631632 0 -0.01452589755716127 -0.18854972137590889 0 -0.020914866328615171 -0.2008213059726579 0 -0.039659344593441261 -0.20090712977838049 0 -0.01452589755716127 -0.18854972137590889 0 -0.020914866328615171 -0.2008213059726579 0 -0.02459459850908961 -0.18853055632871979 0 -0.020914866328615171 -0.2008213059726579 0 -0.030654603298793132 -0.19382629647353339 0 -0.039659344593441261 -0.20090712977838049 0 -0.014351405434837939 -0.2084381568687759 0 -0.01223217889679739 -0.19705511845509929 0 -0.020914866328615171 -0.2008213059726579 0 -0.01223217889679739 -0.19705511845509929 0 -0.01452589755716127 -0.18854972137590889 0 -0.020914866328615171 -0.2008213059726579 0 -0.020914866328615171 -0.2008213059726579 0 -0.030654603298793132 -0.19382629647353339 0 -0.02459459850908961 -0.18853055632871979 0 -0.032920373861235572 -0.18696580359983689 0 -0.030654603298793132 -0.19382629647353339 0 -0.02459459850908961 -0.18853055632871979 0 -0.049232931697160941 -0.18142535687920061 0 -0.037513132105194948 -0.19164621715467339 0 -0.039659344593441261 -0.20090712977838049 0 -0.049232931697160941 -0.18142535687920061 0 -0.039659344593441261 -0.20090712977838049 0 -0.032920373861235572 -0.18696580359983689 0 -0.039648887306358682 -0.18457447877016059 0 -0.037513132105194948 -0.19164621715467339 0 -0.032920373861235572 -0.18696580359983689 0 -0.030654603298793132 -0.19382629647353339 0 -0.037513132105194948 -0.19164621715467339 0 -0.030654603298793132 -0.19382629647353339 0 -0.037513132105194948 -0.19164621715467339 0 -0.039659344593441261 -0.20090712977838049 0 -0.039659344593441261 -0.20090712977838049 0 -0.049171036143441697 -0.20095068018059209 0 -0.052530262953744307 -0.18551360121156771 0 -0.053965917040092279 -0.20097263410860849 0 -0.052530262953744307 -0.18551360121156771 0 -0.049232931697160941 -0.18142535687920061 0 -0.039659344593441261 -0.20090712977838049 0 -0.052530262953744307 -0.18551360121156771 0 -0.053965917040092279 -0.20097263410860849 0 -0.064566778430722005 -0.1899668467895553 0 -0.052530262953744307 -0.18551360121156771 0 -0.039659344593441261 -0.20090712977838049 0 -0.049171036143441697 -0.20095068018059209 0 -0.053965917040092279 -0.20097263410860849 0 -0.049171036143441697 -0.20095068018059209 0 -0.052530262953744307 -0.18551360121156771 0 -0.053965917040092279 -0.20097263410860849 0 -0.049171036143441697 -0.20095068018059209 0 -0.049171036143441697 -0.20095068018059209 0 -0.054685660498906767 -0.208722786400212 0 -0.041055678651922348 -0.2256235604874875 0 -0.053965917040092279 -0.20097263410860849 0 -0.054685660498906767 -0.208722786400212 0 -0.075274492420391248 -0.20107019793555661 0 -0.054685660498906767 -0.208722786400212 0 -0.058782723788501128 -0.22597342721149569 0 -0.066300796797188796 -0.21509277327032089 0 -0.053965917040092279 -0.20097263410860849 0 -0.049171036143441697 -0.20095068018059209 0 -0.054685660498906767 -0.208722786400212 0 -0.053965917040092279 -0.20097263410860849 0 -0.054685660498906767 -0.208722786400212 0 -0.049171036143441697 -0.20095068018059209 0 -0.041055678651922348 -0.2256235604874875 0 -0.02919644603132129 -0.2221986071991269 0 -0.039659344593441261 -0.20090712977838049 0 -0.02919644603132129 -0.2221986071991269 0 -0.02883797433537726 -0.20835292232393379 0 -0.039659344593441261 -0.20090712977838049 0 -0.039659344593441261 -0.20090712977838049 0 -0.049171036143441697 -0.20095068018059209 0 -0.041055678651922348 -0.2256235604874875 0 -0.02919644603132129 -0.2221986071991269 0 -0.039659344593441261 -0.20090712977838049 0 -0.041055678651922348 -0.2256235604874875 0 -0.030857658388656541 -0.2362056796655021 0 -0.02919644603132129 -0.2221986071991269 0 -0.041055678651922348 -0.2256235604874875 0 -0.041055678651922348 -0.2256235604874875 0 -0.058782723788501128 -0.22597342721149569 0 -0.050902643065861071 -0.24349095896983161 0 -0.054685660498906767 -0.208722786400212 0 -0.041055678651922348 -0.2256235604874875 0 -0.058782723788501128 -0.22597342721149569 0 -0.058782723788501128 -0.22597342721149569 0 -0.050902643065861071 -0.24349095896983161 0 -0.077646128541525 -0.24813916513248199 0 -0.032940321160402269 -0.25029644079438251 0 -0.041055678651922348 -0.2256235604874875 0 -0.050902643065861071 -0.24349095896983161 0 -0.032940321160402269 -0.25029644079438251 0 -0.030857658388656541 -0.2362056796655021 0 -0.041055678651922348 -0.2256235604874875 0 -0.032940321160402269 -0.25029644079438251 0 -0.041055678651922348 -0.2256235604874875 0 -0.077646128541525 -0.24813916513248199 0 -0.082279147983734507 -0.22463132376819159 0 -0.088104632666654803 -0.24175912157342011 0 -0.077646128541525 -0.24813916513248199 0 -0.082279147983734507 -0.22463132376819159 0 -0.077646128541525 -0.24813916513248199 0 -0.076460310480956056 -0.22460468153401941 0 -0.058782723788501128 -0.22597342721149569 0 -0.077646128541525 -0.24813916513248199 0 -0.076460310480956056 -0.22460468153401941 0 -0.058782723788501128 -0.22597342721149569 0 -0.076460310480956056 -0.22460468153401941 0 -0.066300796797188796 -0.21509277327032089 0 -0.077646128541525 -0.24813916513248199 0 -0.076460310480956056 -0.22460468153401941 0 -0.082279147983734507 -0.22463132376819159 0 -0.088104632666654803 -0.24175912157342011 0 -0.091210523848666042 -0.22145825259936749 0 -0.096373561920523113 -0.2318247108995648 0 -0.088104632666654803 -0.24175912157342011 0 -0.082279147983734507 -0.22463132376819159 0 -0.091210523848666042 -0.22145825259936749 0 -0.088104632666654803 -0.24175912157342011 0 -0.091210523848666042 -0.22145825259936749 0 -0.082279147983734507 -0.22463132376819159 0 -0.075274492420391248 -0.20107019793555661 0 -0.086912167425944153 -0.20112348240390099 0 -0.082279147983734507 -0.22463132376819159 0 -0.091210523848666042 -0.22145825259936749 0 -0.086912167425944153 -0.20112348240390099 0 -0.091210523848666042 -0.22145825259936749 0 -0.094316415030678002 -0.20115738362531499 0 -0.091210523848666042 -0.22145825259936749 0 -0.086912167425944153 -0.20112348240390099 0 -0.094316415030678002 -0.20115738362531499 0 -0.082279147983734507 -0.22463132376819159 0 -0.086912167425944153 -0.20112348240390099 0 -0.076460310480956056 -0.22460468153401941 0 -0.066300796797188796 -0.21509277327032089 0 -0.075274492420391248 -0.20107019793555661 0 -0.054685660498906767 -0.208722786400212 0 -0.066300796797188796 -0.21509277327032089 0 -0.075274492420391248 -0.20107019793555661 0 -0.076460310480956056 -0.22460468153401941 0 -0.082279147983734507 -0.22463132376819159 0 -0.075274492420391248 -0.20107019793555661 0 -0.076460310480956056 -0.22460468153401941 0 -0.075274492420391248 -0.20107019793555661 0 -0.053965917040092279 -0.20097263410860849 0 -0.075274492420391248 -0.20107019793555661 0 -0.070100108945259781 -0.19629415080948229 0 -0.053965917040092279 -0.20097263410860849 0 -0.070100108945259781 -0.19629415080948229 0 -0.064566778430722005 -0.1899668467895553 0 -0.053965917040092279 -0.20097263410860849 0 -0.075274492420391248 -0.20107019793555661 0 -0.075274492420391248 -0.20107019793555661 0 -0.075113373652805612 -0.19571605274700751 0 -0.079733979793737045 -0.19605477611637959 0 -0.075274492420391248 -0.20107019793555661 0 -0.075113373652805612 -0.19571605274700751 0 -0.070100108945259781 -0.19629415080948229 0 -0.070100108945259781 -0.19629415080948229 0 -0.064566778430722005 -0.1899668467895553 0 -0.075377056328755521 -0.19008301367616509 0 -0.075113373652805612 -0.19571605274700751 0 -0.070100108945259781 -0.19629415080948229 0 -0.075377056328755521 -0.19008301367616509 0 -0.075113373652805612 -0.19571605274700751 0 -0.075377056328755521 -0.19008301367616509 0 -0.079733979793737045 -0.19605477611637959 0 -0.075377056328755521 -0.19008301367616509 0 -0.079733979793737045 -0.19605477611637959 0 -0.089423753135733974 -0.18837975033564619 0 -0.079733979793737045 -0.19605477611637959 0 -0.086912167425944153 -0.20112348240390099 0 -0.089423753135733974 -0.18837975033564619 0 -0.075274492420391248 -0.20107019793555661 0 -0.086912167425944153 -0.20112348240390099 0 -0.075274492420391248 -0.20107019793555661 0 -0.079733979793737045 -0.19605477611637959 0 -0.086912167425944153 -0.20112348240390099 0 -0.086912167425944153 -0.20112348240390099 0 -0.095804572093432044 -0.1914304229002349 0 -0.094316415030678002 -0.20115738362531499 0 -0.086912167425944153 -0.20112348240390099 0 -0.094316415030678002 -0.20115738362531499 0 -0.086912167425944153 -0.20112348240390099 0 -0.089423753135733974 -0.18837975033564619 0 -0.086912167425944153 -0.20112348240390099 0 -0.089423753135733974 -0.18837975033564619 0 -0.095804572093432044 -0.1914304229002349 0 -0.089423753135733974 -0.18837975033564619 0 -0.095804572093432044 -0.1914304229002349 0 -0.090500110278716836 -0.18291833725845449 0 -0.089423753135733974 -0.18837975033564619 0 -0.095804572093432044 -0.1914304229002349 0 -0.095804572093432044 -0.1914304229002349 0 -0.1055884512206339 -0.19610810014299959 0 -0.099028938128851704 -0.1826882615985625 0 -0.095804572093432044 -0.1914304229002349 0 -0.1055884512206339 -0.19610810014299959 0 -0.095804572093432044 -0.1914304229002349 0 -0.099726318276372988 -0.19712665769699661 0 -0.1055884512206339 -0.19610810014299959 0 -0.094316415030678002 -0.20115738362531499 0 -0.099726318276372988 -0.19712665769699661 0 -0.1069539478940484 -0.20121524606085259 0 -0.095804572093432044 -0.1914304229002349 0 -0.094316415030678002 -0.20115738362531499 0 -0.095804572093432044 -0.1914304229002349 0 -0.094316415030678002 -0.20115738362531499 0 -0.099726318276372988 -0.19712665769699661 0 -0.094316415030678002 -0.20115738362531499 0 -0.1069539478940484 -0.20121524606085259 0 -0.1006154135170836 -0.20550376286944089 0 -0.094316415030678002 -0.20115738362531499 0 -0.1069539478940484 -0.20121524606085259 0 -0.099726318276372988 -0.19712665769699661 0 -0.1069539478940484 -0.20121524606085259 0 -0.1055884512206339 -0.19610810014299959 0 -0.1069539478940484 -0.20121524606085259 0 -0.1055884512206339 -0.19610810014299959 0 -0.1143022105317214 -0.19176920984990589 0 -0.1234142843990034 -0.20129061165398179 0 -0.118443644943155 -0.18313735869921541 0 -0.1234142843990034 -0.20129061165398179 0 -0.118443644943155 -0.18313735869921541 0 -0.12836978379805469 -0.19505845874684749 0 -0.1055884512206339 -0.19610810014299959 0 -0.1143022105317214 -0.19176920984990589 0 -0.1095912747331507 -0.1796343382558257 0 -0.1234142843990034 -0.20129061165398179 0 -0.118443644943155 -0.18313735869921541 0 -0.1234142843990034 -0.20129061165398179 0 -0.11636069704563699 -0.20125831597190941 0 -0.12446659453658469 -0.2051337493999616 0 -0.1143022105317214 -0.19176920984990589 0 -0.1234142843990034 -0.20129061165398179 0 -0.11636069704563699 -0.20125831597190941 0 -0.1234142843990034 -0.20129061165398179 0 -0.11636069704563699 -0.20125831597190941 0 -0.1055884512206339 -0.19610810014299959 0 -0.1143022105317214 -0.19176920984990589 0 -0.11636069704563699 -0.20125831597190941 0 -0.1055884512206339 -0.19610810014299959 0 -0.11636069704563699 -0.20125831597190941 0 -0.1069539478940484 -0.20121524606085259 0 -0.11636069704563699 -0.20125831597190941 0 -0.116503442890511 -0.20615462214379501 0 -0.1069539478940484 -0.20121524606085259 0 -0.1055884512206339 -0.19610810014299959 0 -0.11636069704563699 -0.20125831597190941 0 -0.1069539478940484 -0.20121524606085259 0 -0.11636069704563699 -0.20125831597190941 0 -0.1069539478940484 -0.20121524606085259 0 -0.1182325320857732 -0.21701117714245771 0 -0.1146322195844853 -0.229933041338924 0 -0.1069539478940484 -0.20121524606085259 0 -0.1146322195844853 -0.229933041338924 0 -0.12446659453658469 -0.2051337493999616 0 -0.1182325320857732 -0.21701117714245771 0 -0.12964778408632779 -0.2240559515308029 0 -0.1069539478940484 -0.20121524606085259 0 -0.116503442890511 -0.20615462214379501 0 -0.1182325320857732 -0.21701117714245771 0 -0.116503442890511 -0.20615462214379501 0 -0.12446659453658469 -0.2051337493999616 0 -0.1182325320857732 -0.21701117714245771 0 -0.11636069704563699 -0.20125831597190941 0 -0.116503442890511 -0.20615462214379501 0 -0.12446659453658469 -0.2051337493999616 0 -0.11636069704563699 -0.20125831597190941 0 -0.12446659453658469 -0.2051337493999616 0 -0.1234142843990034 -0.20129061165398179 0 -0.12446659453658469 -0.2051337493999616 0 -0.1069539478940484 -0.20121524606085259 0 -0.1039432587622498 -0.21234961129803451 0 -0.1146322195844853 -0.229933041338924 0 -0.091210523848666042 -0.22145825259936749 0 -0.094316415030678002 -0.20115738362531499 0 -0.098742607236989521 -0.21208478243994361 0 -0.1039432587622498 -0.21234961129803451 0 -0.098742607236989521 -0.21208478243994361 0 -0.10362742502627011 -0.2199549018075595 0 -0.1069539478940484 -0.20121524606085259 0 -0.1039432587622498 -0.21234961129803451 0 -0.1006154135170836 -0.20550376286944089 0 -0.1039432587622498 -0.21234961129803451 0 -0.1006154135170836 -0.20550376286944089 0 -0.098742607236989521 -0.21208478243994361 0 -0.094316415030678002 -0.20115738362531499 0 -0.1006154135170836 -0.20550376286944089 0 -0.098742607236989521 -0.21208478243994361 0 -0.091210523848666042 -0.22145825259936749 0 -0.098742607236989521 -0.21208478243994361 0 -0.10362742502627011 -0.2199549018075595 0 -0.096373561920523113 -0.2318247108995648 0 -0.10362742502627011 -0.2199549018075595 0 -0.1025516661405015 -0.24412656761791199 0 -0.1039432587622498 -0.21234961129803451 0 -0.10362742502627011 -0.2199549018075595 0 -0.1146322195844853 -0.229933041338924 0 -0.10362742502627011 -0.2199549018075595 0 -0.1025516661405015 -0.24412656761791199 0 -0.10362742502627011 -0.2199549018075595 0 -0.11057817055071439 -0.23713955200355691 0 -0.1025516661405015 -0.24412656761791199 0 -0.091210523848666042 -0.22145825259936749 0 -0.096373561920523113 -0.2318247108995648 0 -0.10362742502627011 -0.2199549018075595 0 -0.10362742502627011 -0.2199549018075595 0 -0.1146322195844853 -0.229933041338924 0 -0.11057817055071439 -0.23713955200355691 0 -0.1182325320857732 -0.21701117714245771 0 -0.1146322195844853 -0.229933041338924 0 -0.12964778408632779 -0.2240559515308029 0 -0.1146322195844853 -0.229933041338924 0 -0.12594535918601221 -0.23537450645762351 0 -0.12964778408632779 -0.2240559515308029 0 -0.1146322195844853 -0.229933041338924 0 -0.11057817055071439 -0.23713955200355691 0 -0.11992695639240671 -0.24305274461581289 0 -0.1146322195844853 -0.229933041338924 0 -0.11992695639240671 -0.24305274461581289 0 -0.12594535918601221 -0.23537450645762351 0 -0.11992695639240671 -0.24305274461581289 0 -0.12594535918601221 -0.23537450645762351 0 -0.1270777831465402 -0.24161244513161839 0 -0.11057817055071439 -0.23713955200355691 0 -0.11992695639240671 -0.24305274461581289 0 -0.1121525856099083 -0.24863050463757599 0 -0.1183855941197941 -0.25651062511641259 0 -0.11992695639240671 -0.24305274461581289 0 -0.1121525856099083 -0.24863050463757599 0 -0.1097432552782682 -0.2572086698476283 0 -0.1121525856099083 -0.24863050463757599 0 -0.1025516661405015 -0.24412656761791199 0 -0.11057817055071439 -0.23713955200355691 0 -0.1121525856099083 -0.24863050463757599 0 -0.1025516661405015 -0.24412656761791199 0 -0.088104632666654803 -0.24175912157342011 0 -0.096373561920523113 -0.2318247108995648 0 -0.1025516661405015 -0.24412656761791199 0 -0.093680051977193257 -0.25300014610948141 0 -0.088104632666654803 -0.24175912157342011 0 -0.1025516661405015 -0.24412656761791199 0 -0.091208904987890735 -0.14232661368977559 0 -0.087323419063827665 -0.1566704494577609 0 -0.098398678104261977 -0.16921735691638781 0 -0.081276062778159672 -0.14883202435870879 0 -0.08710950077230438 -0.14178266396580899 0 -0.074302444905730333 -0.14290824730771751 0 -0.081276062778159672 -0.14883202435870879 0 -0.091208904987890735 -0.14232661368977559 0 -0.087323419063827665 -0.1566704494577609 0 -0.081276062778159672 -0.14883202435870879 0 -0.08710950077230438 -0.14178266396580899 0 -0.091208904987890735 -0.14232661368977559 0 -0.08710950077230438 -0.14178266396580899 0 -0.091208904987890735 -0.14232661368977559 0 -0.091208904987890735 -0.14232661368977559 0 -0.089131397015513494 -0.13455644729756691 0 -0.089131397015513494 -0.13455644729756691 0 -0.072915517223638954 -0.12670463451369329 0 -0.074302444905730333 -0.14290824730771751 0 -0.08710950077230438 -0.14178266396580899 0 -0.091208904987890735 -0.14232661368977559 0 -0.089131397015513494 -0.13455644729756691 0 -0.08710950077230438 -0.14178266396580899 0 -0.089131397015513494 -0.13455644729756691 0 -0.074302444905730333 -0.14290824730771751 0 -0.089131397015513494 -0.13455644729756691 0 -0.074302444905730333 -0.14290824730771751 0 -0.061100100412547438 -0.13647315015658409 0 -0.072915517223638954 -0.12670463451369329 0 -0.074302444905730333 -0.14290824730771751 0 -0.060928146748241367 -0.123537549367131 0 -0.061100100412547438 -0.13647315015658409 0 -0.072915517223638954 -0.12670463451369329 0 -0.059473492795946999 -0.1512600473178678 0 -0.081276062778159672 -0.14883202435870879 0 -0.074302444905730333 -0.14290824730771751 0 -0.059473492795946999 -0.1512600473178678 0 -0.081276062778159672 -0.14883202435870879 0 -0.078410030384998497 -0.16630580286617139 0 -0.059473492795946999 -0.1512600473178678 0 -0.074302444905730333 -0.14290824730771751 0 -0.059473492795946999 -0.1512600473178678 0 -0.061100100412547438 -0.13647315015658409 0 -0.074302444905730333 -0.14290824730771751 0 -0.061817946007188637 -0.1647032604190713 0 -0.070259181001566293 -0.17921715932508539 0 -0.078410030384998497 -0.16630580286617139 0 -0.059473492795946999 -0.1512600473178678 0 -0.078410030384998497 -0.16630580286617139 0 -0.061817946007188637 -0.1647032604190713 0 -0.059473492795946999 -0.1512600473178678 0 -0.078410030384998497 -0.16630580286617139 0 -0.064566778430722005 -0.1899668467895553 0 -0.075377056328755521 -0.19008301367616509 0 -0.070259181001566293 -0.17921715932508539 0 -0.070259181001566293 -0.17921715932508539 0 -0.08402443889557612 -0.1788939005998389 0 -0.078410030384998497 -0.16630580286617139 0 -0.089423753135733974 -0.18837975033564619 0 -0.070259181001566293 -0.17921715932508539 0 -0.075377056328755521 -0.19008301367616509 0 -0.089423753135733974 -0.18837975033564619 0 -0.070259181001566293 -0.17921715932508539 0 -0.078410030384998497 -0.16630580286617139 0 -0.098398678104261977 -0.16921735691638781 0 -0.097346567974052028 -0.18135155841447259 0 -0.078410030384998497 -0.16630580286617139 0 -0.097346567974052028 -0.18135155841447259 0 -0.08402443889557612 -0.1788939005998389 0 -0.078410030384998497 -0.16630580286617139 0 -0.097346567974052028 -0.18135155841447259 0 -0.089423753135733974 -0.18837975033564619 0 -0.070259181001566293 -0.17921715932508539 0 -0.08402443889557612 -0.1788939005998389 0 -0.089423753135733974 -0.18837975033564619 0 -0.08402443889557612 -0.1788939005998389 0 -0.090500110278716836 -0.18291833725845449 0 -0.08402443889557612 -0.1788939005998389 0 -0.090500110278716836 -0.18291833725845449 0 -0.097346567974052028 -0.18135155841447259 0 -0.089423753135733974 -0.18837975033564619 0 -0.090500110278716836 -0.18291833725845449 0 -0.081276062778159672 -0.14883202435870879 0 -0.078410030384998497 -0.16630580286617139 0 -0.087323419063827665 -0.1566704494577609 0 -0.078410030384998497 -0.16630580286617139 0 -0.087323419063827665 -0.1566704494577609 0 -0.098398678104261977 -0.16921735691638781 0 -0.098398678104261977 -0.16921735691638781 0 -0.1095912747331507 -0.1796343382558257 0 -0.1134730054873082 -0.16498410574444861 0 -0.098398678104261977 -0.16921735691638781 0 -0.1134730054873082 -0.16498410574444861 0 -0.1057127461594554 -0.15566112818699529 0 -0.1055884512206339 -0.19610810014299959 0 -0.098398678104261977 -0.16921735691638781 0 -0.099028938128851704 -0.1826882615985625 0 -0.1055884512206339 -0.19610810014299959 0 -0.098398678104261977 -0.16921735691638781 0 -0.1055884512206339 -0.19610810014299959 0 -0.098398678104261977 -0.16921735691638781 0 -0.1095912747331507 -0.1796343382558257 0 -0.095804572093432044 -0.1914304229002349 0 -0.097346567974052028 -0.18135155841447259 0 -0.099028938128851704 -0.1826882615985625 0 -0.095804572093432044 -0.1914304229002349 0 -0.090500110278716836 -0.18291833725845449 0 -0.097346567974052028 -0.18135155841447259 0 -0.095804572093432044 -0.1914304229002349 0 -0.097346567974052028 -0.18135155841447259 0 -0.097346567974052028 -0.18135155841447259 0 -0.099028938128851704 -0.1826882615985625 0 -0.098398678104261977 -0.16921735691638781 0 -0.097346567974052028 -0.18135155841447259 0 -0.099028938128851704 -0.1826882615985625 0 -0.118443644943155 -0.18313735869921541 0 -0.1134730054873082 -0.16498410574444861 0 -0.1288769000074067 -0.1787922372229141 0 -0.118443644943155 -0.18313735869921541 0 -0.1134730054873082 -0.16498410574444861 0 -0.1095912747331507 -0.1796343382558257 0 -0.118443644943155 -0.18313735869921541 0 -0.1134730054873082 -0.16498410574444861 0 -0.1143022105317214 -0.19176920984990589 0 -0.1095912747331507 -0.1796343382558257 0 -0.118443644943155 -0.18313735869921541 0 -0.1134730054873082 -0.16498410574444861 0 -0.1197703960583608 -0.14611643639736929 0 -0.1290470673658046 -0.1573335562640088 0 -0.1134730054873082 -0.16498410574444861 0 -0.1197703960583608 -0.14611643639736929 0 -0.1057127461594554 -0.15566112818699529 0 -0.091208904987890735 -0.14232661368977559 0 -0.1197703960583608 -0.14611643639736929 0 -0.1055319536065798 -0.13433424813048789 0 -0.091208904987890735 -0.14232661368977559 0 -0.1197703960583608 -0.14611643639736929 0 -0.091208904987890735 -0.14232661368977559 0 -0.098398678104261977 -0.16921735691638781 0 -0.091208904987890735 -0.14232661368977559 0 -0.1197703960583608 -0.14611643639736929 0 -0.1057127461594554 -0.15566112818699529 0 -0.091208904987890735 -0.14232661368977559 0 -0.098398678104261977 -0.16921735691638781 0 -0.1057127461594554 -0.15566112818699529 0 -0.11422347955810171 -0.1204243593602408 0 -0.089131397015513494 -0.13455644729756691 0 -0.1055319536065798 -0.13433424813048789 0 -0.091208904987890735 -0.14232661368977559 0 -0.089131397015513494 -0.13455644729756691 0 -0.1055319536065798 -0.13433424813048789 0 -0.11422347955810171 -0.1204243593602408 0 -0.089131397015513494 -0.13455644729756691 0 -0.11422347955810171 -0.1204243593602408 0 -0.1197703960583608 -0.14611643639736929 0 -0.13445671698849809 -0.1291024538471422 0 -0.11422347955810171 -0.1204243593602408 0 -0.1197703960583608 -0.14611643639736929 0 -0.1055319536065798 -0.13433424813048789 0 -0.1483318871288308 -0.14990625910496369 0 -0.16449988742022109 -0.13664022397910389 0 -0.1531014227808439 -0.1221458571451004 0 -0.13445671698849809 -0.1291024538471422 0 -0.1483318871288308 -0.14990625910496369 0 -0.1531014227808439 -0.1221458571451004 0 -0.1197703960583608 -0.14611643639736929 0 -0.1483318871288308 -0.14990625910496369 0 -0.1197703960583608 -0.14611643639736929 0 -0.13445671698849809 -0.1291024538471422 0 -0.1483318871288308 -0.14990625910496369 0 -0.1197703960583608 -0.14611643639736929 0 -0.1483318871288308 -0.14990625910496369 0 -0.1290470673658046 -0.1573335562640088 0 -0.1134730054873082 -0.16498410574444861 0 -0.13461298078871861 -0.16832742380925381 0 -0.1288769000074067 -0.1787922372229141 0 -0.1134730054873082 -0.16498410574444861 0 -0.1290470673658046 -0.1573335562640088 0 -0.13461298078871861 -0.16832742380925381 0 -0.1483318871288308 -0.14990625910496369 0 -0.1290470673658046 -0.1573335562640088 0 -0.13461298078871861 -0.16832742380925381 0 -0.1288769000074067 -0.1787922372229141 0 -0.13667151748925299 -0.18732448341615179 0 -0.12964513627792831 -0.18854704193980709 0 -0.118443644943155 -0.18313735869921541 0 -0.1288769000074067 -0.1787922372229141 0 -0.12964513627792831 -0.18854704193980709 0 -0.13461298078871861 -0.16832742380925381 0 -0.1288769000074067 -0.1787922372229141 0 -0.13971937495991149 -0.1792470101286355 0 -0.13971937495991149 -0.1792470101286355 0 -0.13667151748925299 -0.18732448341615179 0 -0.14496415935730611 -0.1865433765957375 0 -0.1288769000074067 -0.1787922372229141 0 -0.13971937495991149 -0.1792470101286355 0 -0.13667151748925299 -0.18732448341615179 0 -0.13461298078871861 -0.16832742380925381 0 -0.13971937495991149 -0.1792470101286355 0 -0.15185728900885839 -0.17281716391360821 0 -0.13971937495991149 -0.1792470101286355 0 -0.14496415935730611 -0.1865433765957375 0 -0.15185728900885839 -0.17281716391360821 0 -0.14496415935730611 -0.1865433765957375 0 -0.15185728900885839 -0.17281716391360821 0 -0.15433817598466459 -0.18776234762491931 0 -0.1483318871288308 -0.14990625910496369 0 -0.13461298078871861 -0.16832742380925381 0 -0.15185728900885839 -0.17281716391360821 0 -0.1483318871288308 -0.14990625910496369 0 -0.15185728900885839 -0.17281716391360821 0 -0.1768933781993007 -0.15369608181255809 0 -0.15185728900885839 -0.17281716391360821 0 -0.16517877359736971 -0.18077311964873491 0 -0.1768933781993007 -0.15369608181255809 0 -0.16517877359736971 -0.18077311964873491 0 -0.15433817598466459 -0.18776234762491931 0 -0.16707343948115469 -0.19329854854562631 0 -0.15185728900885839 -0.17281716391360821 0 -0.16517877359736971 -0.18077311964873491 0 -0.15433817598466459 -0.18776234762491931 0 -0.16517877359736971 -0.18077311964873491 0 -0.17993745220376059 -0.17895489523397801 0 -0.16707343948115469 -0.19329854854562631 0 -0.16517877359736971 -0.18077311964873491 0 -0.17993745220376059 -0.17895489523397801 0 -0.1768933781993007 -0.15369608181255809 0 -0.17993745220376059 -0.17895489523397801 0 -0.1768933781993007 -0.15369608181255809 0 -0.19905977422349169 -0.1755558360643551 0 -0.1768933781993007 -0.15369608181255809 0 -0.17856324423929071 -0.13411692648003359 0 -0.16449988742022109 -0.13664022397910389 0 -0.1768933781993007 -0.15369608181255809 0 -0.17856324423929071 -0.13411692648003359 0 -0.1900158864605431 -0.1418606691544825 0 -0.17856324423929071 -0.13411692648003359 0 -0.1912596026832544 -0.12883579632457359 0 -0.1900158864605431 -0.1418606691544825 0 -0.17856324423929071 -0.13411692648003359 0 -0.1912596026832544 -0.12883579632457359 0 -0.18212358698306741 -0.12142770117184561 0 -0.17856324423929071 -0.13411692648003359 0 -0.18212358698306741 -0.12142770117184561 0 -0.16904936396502779 -0.1225698900008125 0 -0.16449988742022109 -0.13664022397910389 0 -0.16904936396502779 -0.1225698900008125 0 -0.1531014227808439 -0.1221458571451004 0 -0.17856324423929071 -0.13411692648003359 0 -0.16449988742022109 -0.13664022397910389 0 -0.16904936396502779 -0.1225698900008125 0 -0.1483318871288308 -0.14990625910496369 0 -0.1768933781993007 -0.15369608181255809 0 -0.1483318871288308 -0.14990625910496369 0 -0.1768933781993007 -0.15369608181255809 0 -0.16449988742022109 -0.13664022397910389 0 -0.15566934165753701 -0.24482136105764621 0 -0.13482897363606841 -0.24297815366164491 0 -0.14564999181442231 -0.22989611270817639 0 -0.15566934165753701 -0.24482136105764621 0 -0.14564999181442231 -0.22989611270817639 0 -0.16429012863802009 -0.23491512272004891 0 -0.15821309250511281 -0.26118480488572993 0 -0.15566934165753701 -0.24482136105764621 0 -0.13482897363606841 -0.24297815366164491 0 -0.1283361407779757 -0.25159171728621699 0 -0.13482897363606841 -0.24297815366164491 0 -0.1310987251445577 -0.2446583467236331 0 -0.1283361407779757 -0.25159171728621699 0 -0.1310987251445577 -0.2446583467236331 0 -0.1270777831465402 -0.24161244513161839 0 -0.1283361407779757 -0.25159171728621699 0 -0.11992695639240671 -0.24305274461581289 0 -0.1270777831465402 -0.24161244513161839 0 -0.13482897363606841 -0.24297815366164491 0 -0.1310987251445577 -0.2446583467236331 0 -0.1270777831465402 -0.24161244513161839 0 -0.13482897363606841 -0.24297815366164491 0 -0.12594535918601221 -0.23537450645762351 0 -0.1270777831465402 -0.24161244513161839 0 -0.13482897363606841 -0.24297815366164491 0 -0.12964778408632779 -0.2240559515308029 0 -0.14564999181442231 -0.22989611270817639 0 -0.13482897363606841 -0.24297815366164491 0 -0.12594535918601221 -0.23537450645762351 0 -0.12964778408632779 -0.2240559515308029 0 -0.13482897363606841 -0.24297815366164491 0 -0.12964778408632779 -0.2240559515308029 0 -0.12964778408632779 -0.2240559515308029 0 -0.14564999181442231 -0.22989611270817639 0 -0.13906082520362789 -0.21424948005767519 0 -0.14564999181442231 -0.22989611270817639 0 -0.1532157355819776 -0.21469763412746851 0 -0.16429012863802009 -0.23491512272004891 0 -0.14564999181442231 -0.22989611270817639 0 -0.1532157355819776 -0.21469763412746851 0 -0.13906082520362789 -0.21424948005767519 0 -0.1532157355819776 -0.21469763412746851 0 -0.1421413425259351 -0.1944801455348881 0 -0.14344356041104711 -0.20138231805780499 0 -0.1532157355819776 -0.21469763412746851 0 -0.1421413425259351 -0.1944801455348881 0 -0.1532157355819776 -0.21469763412746851 0 -0.13906082520362789 -0.21424948005767519 0 -0.14344356041104711 -0.20138231805780499 0 -0.12964778408632779 -0.2240559515308029 0 -0.13906082520362789 -0.21424948005767519 0 -0.12775347419704111 -0.20670520812175669 0 -0.12446659453658469 -0.2051337493999616 0 -0.12964778408632779 -0.2240559515308029 0 -0.12775347419704111 -0.20670520812175669 0 -0.12446659453658469 -0.2051337493999616 0 -0.12964778408632779 -0.2240559515308029 0 -0.1234142843990034 -0.20129061165398179 0 -0.12775347419704111 -0.20670520812175669 0 -0.1342433848347403 -0.2059710501757869 0 -0.1234142843990034 -0.20129061165398179 0 -0.12446659453658469 -0.2051337493999616 0 -0.12775347419704111 -0.20670520812175669 0 -0.12446659453658469 -0.2051337493999616 0 -0.12775347419704111 -0.20670520812175669 0 -0.13906082520362789 -0.21424948005767519 0 -0.12775347419704111 -0.20670520812175669 0 -0.1342433848347403 -0.2059710501757869 0 -0.13906082520362789 -0.21424948005767519 0 -0.1342433848347403 -0.2059710501757869 0 -0.14344356041104711 -0.20138231805780499 0 -0.13448747671815081 -0.19705371152474219 0 -0.1421413425259351 -0.1944801455348881 0 -0.14344356041104711 -0.20138231805780499 0 -0.1234142843990034 -0.20129061165398179 0 -0.1342433848347403 -0.2059710501757869 0 -0.14344356041104711 -0.20138231805780499 0 -0.1234142843990034 -0.20129061165398179 0 -0.13448747671815081 -0.19705371152474219 0 -0.14344356041104711 -0.20138231805780499 0 -0.1234142843990034 -0.20129061165398179 0 -0.14344356041104711 -0.20138231805780499 0 -0.1234142843990034 -0.20129061165398179 0 -0.13448747671815081 -0.19705371152474219 0 -0.12836978379805469 -0.19505845874684749 0 -0.118443644943155 -0.18313735869921541 0 -0.12836978379805469 -0.19505845874684749 0 -0.12964513627792831 -0.18854704193980709 0 -0.12836978379805469 -0.19505845874684749 0 -0.12964513627792831 -0.18854704193980709 0 -0.1350684124567138 -0.19305702363018909 0 -0.13448747671815081 -0.19705371152474219 0 -0.12836978379805469 -0.19505845874684749 0 -0.1350684124567138 -0.19305702363018909 0 -0.13667151748925299 -0.18732448341615179 0 -0.12964513627792831 -0.18854704193980709 0 -0.1350684124567138 -0.19305702363018909 0 -0.13448747671815081 -0.19705371152474219 0 -0.1350684124567138 -0.19305702363018909 0 -0.1421413425259351 -0.1944801455348881 0 -0.13667151748925299 -0.18732448341615179 0 -0.1350684124567138 -0.19305702363018909 0 -0.1421413425259351 -0.1944801455348881 0 -0.1532157355819776 -0.21469763412746851 0 -0.1421413425259351 -0.1944801455348881 0 -0.15666351948114629 -0.1995899832452937 0 -0.13667151748925299 -0.18732448341615179 0 -0.14496415935730611 -0.1865433765957375 0 -0.1421413425259351 -0.1944801455348881 0 -0.14496415935730611 -0.1865433765957375 0 -0.1421413425259351 -0.1944801455348881 0 -0.15433817598466459 -0.18776234762491931 0 -0.1421413425259351 -0.1944801455348881 0 -0.15433817598466459 -0.18776234762491931 0 -0.15666351948114629 -0.1995899832452937 0 -0.15433817598466459 -0.18776234762491931 0 -0.15666351948114629 -0.1995899832452937 0 -0.16707343948115469 -0.19329854854562631 0 -0.15666351948114629 -0.1995899832452937 0 -0.16707343948115469 -0.19329854854562631 0 -0.16732224548458891 -0.20842311436722119 0 -0.16707343948115469 -0.19329854854562631 0 -0.17975878066101059 -0.20042989322362739 0 -0.16732224548458891 -0.20842311436722119 0 -0.17993745220376059 -0.17895489523397801 0 -0.17975878066101059 -0.20042989322362739 0 -0.19266467917721081 -0.1936257676085566 0 -0.17993745220376059 -0.17895489523397801 0 -0.16707343948115469 -0.19329854854562631 0 -0.17975878066101059 -0.20042989322362739 0 -0.17975878066101059 -0.20042989322362739 0 -0.18070391625864071 -0.21863984915545301 0 -0.19253239785726259 -0.2093467412910768 0 -0.17975878066101059 -0.20042989322362739 0 -0.18070391625864071 -0.21863984915545301 0 -0.16732224548458891 -0.20842311436722119 0 -0.1532157355819776 -0.21469763412746851 0 -0.15666351948114629 -0.1995899832452937 0 -0.16732224548458891 -0.20842311436722119 0 -0.1532157355819776 -0.21469763412746851 0 -0.16732224548458891 -0.20842311436722119 0 -0.16429012863802009 -0.23491512272004891 0 -0.1532157355819776 -0.21469763412746851 0 -0.16429012863802009 -0.23491512272004891 0 -0.18070391625864071 -0.21863984915545301 0 -0.16732224548458891 -0.20842311436722119 0 -0.16429012863802009 -0.23491512272004891 0 -0.18070391625864071 -0.21863984915545301 0 -0.18601458812680871 -0.23629827425452701 0 -0.16429012863802009 -0.23491512272004891 0 -0.18070391625864071 -0.21863984915545301 0 -0.18601458812680871 -0.23629827425452701 0 -0.19270158591305361 -0.22296204550849591 0 -0.17536452169406261 -0.25513261131262932 0 -0.18601458812680871 -0.23629827425452701 0 -0.1971211098569064 -0.2485562144643311 0 -0.17536452169406261 -0.25513261131262932 0 -0.18601458812680871 -0.23629827425452701 0 -0.16429012863802009 -0.23491512272004891 0 -0.17536452169406261 -0.25513261131262932 0 -0.16429012863802009 -0.23491512272004891 0 -0.17536452169406261 -0.25513261131262932 0 -0.15566934165753701 -0.24482136105764621 0 -0.16429012863802009 -0.23491512272004891 0 -0.2040044810152343 -0.23377727090047351 0 -0.22181314593257209 -0.22697511150882529 0 -0.22025275826160279 -0.2471257797298928 0 -0.1971211098569064 -0.2485562144643311 0 -0.2040044810152343 -0.23377727090047351 0 -0.22025275826160279 -0.2471257797298928 0 -0.18601458812680871 -0.23629827425452701 0 -0.1971211098569064 -0.2485562144643311 0 -0.2040044810152343 -0.23377727090047351 0 -0.18601458812680871 -0.23629827425452701 0 -0.19270158591305361 -0.22296204550849591 0 -0.2040044810152343 -0.23377727090047351 0 -0.19270158591305361 -0.22296204550849591 0 -0.20646661184779291 -0.2209366033754204 0 -0.2040044810152343 -0.23377727090047351 0 -0.20646661184779291 -0.2209366033754204 0 -0.2040044810152343 -0.23377727090047351 0 -0.22181314593257209 -0.22697511150882529 0 -0.20646661184779291 -0.2209366033754204 0 -0.22181314593257209 -0.22697511150882529 0 -0.20646661184779291 -0.2209366033754204 0 -0.21966781828876961 -0.21222017746694699 0 -0.22181314593257209 -0.22697511150882529 0 -0.20646661184779291 -0.2209366033754204 0 -0.20611948272011121 -0.20304611138236681 0 -0.21966781828876961 -0.21222017746694699 0 -0.20611948272011121 -0.20304611138236681 0 -0.21897926871800019 -0.19669337567287831 0 -0.21966781828876961 -0.21222017746694699 0 -0.20646661184779291 -0.2209366033754204 0 -0.19253239785726259 -0.2093467412910768 0 -0.20611948272011121 -0.20304611138236681 0 -0.19270158591305361 -0.22296204550849591 0 -0.20646661184779291 -0.2209366033754204 0 -0.19253239785726259 -0.2093467412910768 0 -0.18070391625864071 -0.21863984915545301 0 -0.19270158591305361 -0.22296204550849591 0 -0.19253239785726259 -0.2093467412910768 0 -0.19266467917721081 -0.1936257676085566 0 -0.20611948272011121 -0.20304611138236681 0 -0.2083219237785757 -0.1873320277690235 0 -0.17975878066101059 -0.20042989322362739 0 -0.19253239785726259 -0.2093467412910768 0 -0.19266467917721081 -0.1936257676085566 0 -0.19253239785726259 -0.2093467412910768 0 -0.19266467917721081 -0.1936257676085566 0 -0.20611948272011121 -0.20304611138236681 0 -0.20611948272011121 -0.20304611138236681 0 -0.21897926871800019 -0.19669337567287831 0 -0.2083219237785757 -0.1873320277690235 0 -0.21897926871800019 -0.19669337567287831 0 -0.23230424975577199 -0.20503470769258789 0 -0.23313215691775949 -0.18450877018534409 0 -0.2448317244682672 -0.19494017856122331 0 -0.23230424975577199 -0.20503470769258789 0 -0.23313215691775949 -0.18450877018534409 0 -0.2448317244682672 -0.19494017856122331 0 -0.24405101732391901 -0.2151790953022156 0 -0.23230424975577199 -0.20503470769258789 0 -0.2448317244682672 -0.19494017856122331 0 -0.24405101732391901 -0.2151790953022156 0 -0.24405101732391901 -0.2151790953022156 0 -0.23230424975577199 -0.20503470769258789 0 -0.23232415075836929 -0.22063515516960361 0 -0.23230424975577199 -0.20503470769258789 0 -0.21966781828876961 -0.21222017746694699 0 -0.23232415075836929 -0.22063515516960361 0 -0.21897926871800019 -0.19669337567287831 0 -0.23230424975577199 -0.20503470769258789 0 -0.21966781828876961 -0.21222017746694699 0 -0.21966781828876961 -0.21222017746694699 0 -0.22181314593257209 -0.22697511150882529 0 -0.23232415075836929 -0.22063515516960361 0 -0.22181314593257209 -0.22697511150882529 0 -0.23232415075836929 -0.22063515516960361 0 -0.2371596800173508 -0.23301361964223161 0 -0.22181314593257209 -0.22697511150882529 0 -0.2371596800173508 -0.23301361964223161 0 -0.24405101732391901 -0.2151790953022156 0 -0.24327031017957049 -0.23541801204320789 0 -0.24405101732391901 -0.2151790953022156 0 -0.24327031017957049 -0.23541801204320789 0 -0.25588924886857078 -0.22577026586403889 0 -0.24405101732391901 -0.2151790953022156 0 -0.23232415075836929 -0.22063515516960361 0 -0.23916826383476761 -0.23133706037317611 0 -0.24405101732391901 -0.2151790953022156 0 -0.23916826383476761 -0.23133706037317611 0 -0.24327031017957049 -0.23541801204320789 0 -0.23916826383476761 -0.23133706037317611 0 -0.2371596800173508 -0.23301361964223161 0 -0.24327031017957049 -0.23541801204320789 0 -0.2371596800173508 -0.23301361964223161 0 -0.24327031017957049 -0.23541801204320789 0 -0.23232415075836929 -0.22063515516960361 0 -0.23916826383476761 -0.23133706037317611 0 -0.2371596800173508 -0.23301361964223161 0 -0.23916826383476761 -0.23133706037317611 0 -0.2371596800173508 -0.23301361964223161 0 -0.24233717299785959 -0.25960849866204011 0 -0.24327031017957049 -0.23541801204320789 0 -0.23442911476228809 -0.24683612341654529 0 -0.24233717299785959 -0.25960849866204011 0 -0.24327031017957049 -0.23541801204320789 0 -0.25018128361314113 -0.24746468840205441 0 -0.2371596800173508 -0.23301361964223161 0 -0.24327031017957049 -0.23541801204320789 0 -0.23442911476228809 -0.24683612341654529 0 -0.24233717299785959 -0.25960849866204011 0 -0.24327031017957049 -0.23541801204320789 0 -0.2371596800173508 -0.23301361964223161 0 -0.22025275826160279 -0.2471257797298928 0 -0.2371596800173508 -0.23301361964223161 0 -0.23442911476228809 -0.24683612341654529 0 -0.22025275826160279 -0.2471257797298928 0 -0.22181314593257209 -0.22697511150882529 0 -0.2371596800173508 -0.23301361964223161 0 -0.22025275826160279 -0.2471257797298928 0 -0.21260261997950849 -0.1372892749024191 0 -0.20545486926977061 -0.1574859045201529 0 -0.21260261997950849 -0.1372892749024191 0 -0.20545486926977061 -0.1574859045201529 0 -0.22601880180638709 -0.14497793796819641 0 -0.21260261997950849 -0.1372892749024191 0 -0.20085213665154589 -0.13643960324073179 0 -0.20545486926977061 -0.1574859045201529 0 -0.21260261997950849 -0.1372892749024191 0 -0.2197503706892443 -0.1170926452846846 0 -0.20366324778073339 -0.1226314006036201 0 -0.21260261997950849 -0.1372892749024191 0 -0.2197503706892443 -0.1170926452846846 0 -0.21260261997950849 -0.1372892749024191 0 -0.20085213665154589 -0.13643960324073179 0 -0.20366324778073339 -0.1226314006036201 0 -0.20085213665154589 -0.13643960324073179 0 -0.1912596026832544 -0.12883579632457359 0 -0.20366324778073339 -0.1226314006036201 0 -0.20085213665154589 -0.13643960324073179 0 -0.1912596026832544 -0.12883579632457359 0 -0.1900158864605431 -0.1418606691544825 0 -0.1768933781993007 -0.15369608181255809 0 -0.1900158864605431 -0.1418606691544825 0 -0.20545486926977061 -0.1574859045201529 0 -0.1768933781993007 -0.15369608181255809 0 -0.20545486926977061 -0.1574859045201529 0 -0.20085213665154589 -0.13643960324073179 0 -0.1900158864605431 -0.1418606691544825 0 -0.20545486926977061 -0.1574859045201529 0 -0.1768933781993007 -0.15369608181255809 0 -0.19905977422349169 -0.1755558360643551 0 -0.20545486926977061 -0.1574859045201529 0 -0.19905977422349169 -0.1755558360643551 0 -0.20545486926977061 -0.1574859045201529 0 -0.19266467917721081 -0.1936257676085566 0 -0.19905977422349169 -0.1755558360643551 0 -0.19266467917721081 -0.1936257676085566 0 -0.19905977422349169 -0.1755558360643551 0 -0.2083219237785757 -0.1873320277690235 0 -0.17993745220376059 -0.17895489523397801 0 -0.19266467917721081 -0.1936257676085566 0 -0.19905977422349169 -0.1755558360643551 0 -0.21897926871800019 -0.19669337567287831 0 -0.2083219237785757 -0.1873320277690235 0 -0.21860002285518379 -0.17692462022396371 0 -0.19905977422349169 -0.1755558360643551 0 -0.2083219237785757 -0.1873320277690235 0 -0.21860002285518379 -0.17692462022396371 0 -0.19905977422349169 -0.1755558360643551 0 -0.21860002285518379 -0.17692462022396371 0 -0.20545486926977061 -0.1574859045201529 0 -0.21860002285518379 -0.17692462022396371 0 -0.20545486926977061 -0.1574859045201529 0 -0.2334194436613071 -0.16119652238585741 0 -0.20545486926977061 -0.1574859045201529 0 -0.2334194436613071 -0.16119652238585741 0 -0.21860002285518379 -0.17692462022396371 0 -0.2334194436613071 -0.16119652238585741 0 -0.23313215691775949 -0.18450877018534409 0 -0.21897926871800019 -0.19669337567287831 0 -0.21860002285518379 -0.17692462022396371 0 -0.23313215691775949 -0.18450877018534409 0 -0.2448317244682672 -0.19494017856122331 0 -0.24561243161261531 -0.1747012618202311 0 -0.2448317244682672 -0.19494017856122331 0 -0.23313215691775949 -0.18450877018534409 0 -0.24561243161261531 -0.1747012618202311 0 -0.2334194436613071 -0.16119652238585741 0 -0.23313215691775949 -0.18450877018534409 0 -0.24561243161261531 -0.1747012618202311 0 -0.2334194436613071 -0.16119652238585741 0 -0.24768759332024501 -0.15288591991307249 0 -0.26138401805284373 -0.16490714025156239 0 -0.2334194436613071 -0.16119652238585741 0 -0.24561243161261531 -0.1747012618202311 0 -0.26138401805284373 -0.16490714025156239 0 -0.2334194436613071 -0.16119652238585741 0 -0.26138401805284373 -0.16490714025156239 0 -0.24768759332024501 -0.15288591991307249 0 -0.24035206963199701 -0.13773520297616959 0 -0.25066558347885931 -0.13251764995053431 0 -0.23716828236838119 -0.14842713651880179 0 -0.22601880180638709 -0.14497793796819641 0 -0.24035206963199701 -0.13773520297616959 0 -0.24768759332024501 -0.15288591991307249 0 -0.23716828236838119 -0.14842713651880179 0 -0.24035206963199701 -0.13773520297616959 0 -0.2334194436613071 -0.16119652238585741 0 -0.24768759332024501 -0.15288591991307249 0 -0.23716828236838119 -0.14842713651880179 0 -0.20545486926977061 -0.1574859045201529 0 -0.2334194436613071 -0.16119652238585741 0 -0.22601880180638709 -0.14497793796819641 0 -0.2334194436613071 -0.16119652238585741 0 -0.23716828236838119 -0.14842713651880179 0 -0.22601880180638709 -0.14497793796819641 0 -0.21260261997950849 -0.1372892749024191 0 -0.22701037204806629 -0.12800517972509859 0 -0.2197503706892443 -0.1170926452846846 0 -0.22601880180638709 -0.14497793796819641 0 -0.22701037204806629 -0.12800517972509859 0 -0.24035206963199701 -0.13773520297616959 0 -0.21260261997950849 -0.1372892749024191 0 -0.22601880180638709 -0.14497793796819641 0 -0.22701037204806629 -0.12800517972509859 0 -0.22701037204806629 -0.12800517972509859 0 -0.23833475363582929 -0.12699719077821001 0 -0.24035206963199701 -0.13773520297616959 0 -0.23833475363582929 -0.12699719077821001 0 -0.24035206963199701 -0.13773520297616959 0 -0.25066558347885931 -0.13251764995053431 0 -0.23833475363582929 -0.12699719077821001 0 -0.2466021228926524 -0.1215603100838341 0 -0.25066558347885931 -0.13251764995053431 0 -0.2466021228926524 -0.1215603100838341 0 -0.23420880670407421 -0.115344861449812 0 -0.25028307647261949 -0.1119170655065333 0 -0.23833475363582929 -0.12699719077821001 0 -0.2466021228926524 -0.1215603100838341 0 -0.23420880670407421 -0.115344861449812 0 -0.23975108867161321 -0.096745383671773488 0 -0.23420880670407421 -0.115344861449812 0 -0.25028307647261949 -0.1119170655065333 0 -0.23975108867161321 -0.096745383671773488 0 -0.25028307647261949 -0.1119170655065333 0 -0.25454071313255938 -0.097810231909066098 0 -0.23975108867161321 -0.096745383671773488 0 -0.22550089202944229 -0.1008440162637169 0 -0.23125141336964011 -0.084595387242749231 0 -0.23975108867161321 -0.096745383671773488 0 -0.22550089202944229 -0.1008440162637169 0 -0.23420880670407421 -0.115344861449812 0 -0.22550089202944229 -0.1008440162637169 0 -0.23125141336964011 -0.084595387242749231 0 -0.20770402821161371 -0.098985744105056478 0 -0.22550089202944229 -0.1008440162637169 0 -0.2197503706892443 -0.1170926452846846 0 -0.22550089202944229 -0.1008440162637169 0 -0.2197503706892443 -0.1170926452846846 0 -0.23420880670407421 -0.115344861449812 0 -0.22701037204806629 -0.12800517972509859 0 -0.2197503706892443 -0.1170926452846846 0 -0.22701037204806629 -0.12800517972509859 0 -0.2197503706892443 -0.1170926452846846 0 -0.23420880670407421 -0.115344861449812 0 -0.22701037204806629 -0.12800517972509859 0 -0.23833475363582929 -0.12699719077821001 0 -0.23420880670407421 -0.115344861449812 0 -0.24621250417125429 -0.067242688607955695 0 -0.2359213828018043 -0.071399957410672343 0 -0.2460442741291925 -0.056732515276429897 0 -0.24101683233652779 -0.07862751170581421 0 -0.252754029676304 -0.071454636367457428 0 -0.24621250417125429 -0.067242688607955695 0 -0.24101683233652779 -0.07862751170581421 0 -0.252754029676304 -0.071454636367457428 0 -0.2359213828018043 -0.071399957410672343 0 -0.24101683233652779 -0.07862751170581421 0 -0.24621250417125429 -0.067242688607955695 0 -0.2359213828018043 -0.071399957410672343 0 -0.24101683233652779 -0.07862751170581421 0 -0.24101683233652779 -0.07862751170581421 0 -0.25454071313255938 -0.097810231909066098 0 -0.23975108867161321 -0.096745383671773488 0 -0.24101683233652779 -0.07862751170581421 0 -0.25454071313255938 -0.097810231909066098 0 -0.23975108867161321 -0.096745383671773488 0 -0.24101683233652779 -0.07862751170581421 0 -0.23125141336964011 -0.084595387242749231 0 -0.24101683233652779 -0.07862751170581421 0 -0.23125141336964011 -0.084595387242749231 0 -0.2359213828018043 -0.071399957410672343 0 -0.24101683233652779 -0.07862751170581421 0 -0.23125141336964011 -0.084595387242749231 0 -0.23125141336964011 -0.084595387242749231 0 -0.2244703125416819 -0.072794076224461268 0 -0.21310247649950159 -0.079773441579648038 0 -0.23125141336964011 -0.084595387242749231 0 -0.20770402821161371 -0.098985744105056478 0 -0.22550089202944229 -0.1008440162637169 0 -0.23125141336964011 -0.084595387242749231 0 -0.2359213828018043 -0.071399957410672343 0 -0.2235514570548072 -0.053854045248439182 0 -0.2244703125416819 -0.072794076224461268 0 -0.21482267827762841 -0.069082647852091478 0 -0.2235514570548072 -0.053854045248439182 0 -0.2359213828018043 -0.071399957410672343 0 -0.2244703125416819 -0.072794076224461268 0 -0.2235514570548072 -0.053854045248439182 0 -0.2359213828018043 -0.071399957410672343 0 -0.23125141336964011 -0.084595387242749231 0 -0.2244703125416819 -0.072794076224461268 0 -0.2359213828018043 -0.071399957410672343 0 -0.23125141336964011 -0.084595387242749231 0 -0.20472732395068391 -0.070425609547595483 0 -0.21310247649950159 -0.079773441579648038 0 -0.1942101978544846 -0.078703118630565005 0 -0.21482267827762841 -0.069082647852091478 0 -0.20472732395068391 -0.070425609547595483 0 -0.20783277774853701 -0.056374475910446593 0 -0.2244703125416819 -0.072794076224461268 0 -0.21482267827762841 -0.069082647852091478 0 -0.21310247649950159 -0.079773441579648038 0 -0.21482267827762841 -0.069082647852091478 0 -0.20472732395068391 -0.070425609547595483 0 -0.21310247649950159 -0.079773441579648038 0 -0.23125141336964011 -0.084595387242749231 0 -0.21310247649950159 -0.079773441579648038 0 -0.20770402821161371 -0.098985744105056478 0 -0.21310247649950159 -0.079773441579648038 0 -0.1942101978544846 -0.078703118630565005 0 -0.20770402821161371 -0.098985744105056478 0 -0.1942101978544846 -0.078703118630565005 0 -0.20770402821161371 -0.098985744105056478 0 -0.1942101978544846 -0.078703118630565005 0 -0.20770402821161371 -0.098985744105056478 0 -0.19331927689223261 -0.094690670375105077 0 -0.1942101978544846 -0.078703118630565005 0 -0.19331927689223261 -0.094690670375105077 0 -0.1804061946459036 -0.0975656506999769 0 -0.1942101978544846 -0.078703118630565005 0 -0.1807163674973549 -0.058420493156073998 0 -0.19569491766720151 -0.061370611856350392 0 -0.20472732395068391 -0.070425609547595483 0 -0.1942101978544846 -0.078703118630565005 0 -0.19569491766720151 -0.061370611856350392 0 -0.20472732395068391 -0.070425609547595483 0 -0.19569491766720151 -0.061370611856350392 0 -0.20783277774853701 -0.056374475910446593 0 -0.2197503706892443 -0.1170926452846846 0 -0.20366324778073339 -0.1226314006036201 0 -0.20770402821161371 -0.098985744105056478 0 -0.22550089202944229 -0.1008440162637169 0 -0.2197503706892443 -0.1170926452846846 0 -0.20770402821161371 -0.098985744105056478 0 -0.2197503706892443 -0.1170926452846846 0 -0.20770402821161371 -0.098985744105056478 0 -0.20770402821161371 -0.098985744105056478 0 -0.19331927689223261 -0.094690670375105077 0 -0.18400427859456039 -0.1134692144457318 0 -0.20770402821161371 -0.098985744105056478 0 -0.18400427859456039 -0.1134692144457318 0 -0.20770402821161371 -0.098985744105056478 0 -0.19170728544238649 -0.1194909919475228 0 -0.18400427859456039 -0.1134692144457318 0 -0.20366324778073339 -0.1226314006036201 0 -0.20770402821161371 -0.098985744105056478 0 -0.19170728544238649 -0.1194909919475228 0 -0.1912596026832544 -0.12883579632457359 0 -0.20366324778073339 -0.1226314006036201 0 -0.19170728544238649 -0.1194909919475228 0 -0.1912596026832544 -0.12883579632457359 0 -0.19170728544238649 -0.1194909919475228 0 -0.18212358698306741 -0.12142770117184561 0 -0.18212358698306741 -0.12142770117184561 0 -0.18400427859456039 -0.1134692144457318 0 -0.1804061946459036 -0.0975656506999769 0 -0.18212358698306741 -0.12142770117184561 0 -0.17231042801981861 -0.11010941660198729 0 -0.1804061946459036 -0.0975656506999769 0 -0.19170728544238649 -0.1194909919475228 0 -0.18212358698306741 -0.12142770117184561 0 -0.18400427859456039 -0.1134692144457318 0 -0.18212358698306741 -0.12142770117184561 0 -0.1804061946459036 -0.0975656506999769 0 -0.18212358698306741 -0.12142770117184561 0 -0.17231042801981861 -0.11010941660198729 0 -0.16904936396502779 -0.1225698900008125 0 -0.16904936396502779 -0.1225698900008125 0 -0.16303186383997401 -0.11054530689275879 0 -0.1531014227808439 -0.1221458571451004 0 -0.16303186383997401 -0.11054530689275879 0 -0.1531014227808439 -0.1221458571451004 0 -0.15302467802266631 -0.099964594768007481 0 -0.17231042801981861 -0.11010941660198729 0 -0.16904936396502779 -0.1225698900008125 0 -0.16303186383997401 -0.11054530689275879 0 -0.16694113066512001 -0.098438534244542714 0 -0.1583311292500037 -0.086155785580523059 0 -0.15302467802266631 -0.099964594768007481 0 -0.16303186383997401 -0.11054530689275879 0 -0.16694113066512001 -0.098438534244542714 0 -0.15302467802266631 -0.099964594768007481 0 -0.17231042801981861 -0.11010941660198729 0 -0.16303186383997401 -0.11054530689275879 0 -0.16694113066512001 -0.098438534244542714 0 -0.16694113066512001 -0.098438534244542714 0 -0.1804061946459036 -0.0975656506999769 0 -0.1699979234477183 -0.086164615643162509 0 -0.19331927689223261 -0.094690670375105077 0 -0.18400427859456039 -0.1134692144457318 0 -0.1804061946459036 -0.0975656506999769 0 -0.17231042801981861 -0.11010941660198729 0 -0.16694113066512001 -0.098438534244542714 0 -0.1804061946459036 -0.0975656506999769 0 -0.1942101978544846 -0.078703118630565005 0 -0.1804061946459036 -0.0975656506999769 0 -0.17868880230873979 -0.073703600228108263 0 -0.1804061946459036 -0.0975656506999769 0 -0.17868880230873979 -0.073703600228108263 0 -0.1804061946459036 -0.0975656506999769 0 -0.17868880230873979 -0.073703600228108263 0 -0.1699979234477183 -0.086164615643162509 0 -0.1942101978544846 -0.078703118630565005 0 -0.17868880230873979 -0.073703600228108263 0 -0.1807163674973549 -0.058420493156073998 0 -0.1942101978544846 -0.078703118630565005 0 -0.1807163674973549 -0.058420493156073998 0 -0.17868880230873979 -0.073703600228108263 0 -0.16456215259537851 -0.07423447470758808 0 -0.1687761726195266 -0.062055246708151823 0 -0.16456215259537851 -0.07423447470758808 0 -0.1601060057786266 -0.063048208625582775 0 -0.1687761726195266 -0.062055246708151823 0 -0.17868880230873979 -0.073703600228108263 0 -0.16456215259537851 -0.07423447470758808 0 -0.1699979234477183 -0.086164615643162509 0 -0.16456215259537851 -0.07423447470758808 0 -0.1601060057786266 -0.063048208625582775 0 -0.15147288216765581 -0.074279391460000108 0 -0.16694113066512001 -0.098438534244542714 0 -0.1699979234477183 -0.086164615643162509 0 -0.1583311292500037 -0.086155785580523059 0 -0.16456215259537851 -0.07423447470758808 0 -0.1699979234477183 -0.086164615643162509 0 -0.1583311292500037 -0.086155785580523059 0 -0.16456215259537851 -0.07423447470758808 0 -0.1583311292500037 -0.086155785580523059 0 -0.15147288216765581 -0.074279391460000108 0 -0.1583311292500037 -0.086155785580523059 0 -0.1406917504718985 -0.083199174386461974 0 -0.15147288216765581 -0.074279391460000108 0 -0.1583311292500037 -0.086155785580523059 0 -0.1406917504718985 -0.083199174386461974 0 -0.15302467802266631 -0.099964594768007481 0 -0.1601060057786266 -0.063048208625582775 0 -0.15147288216765581 -0.074279391460000108 0 -0.14916280428309589 -0.053864076679432472 0 -0.15147288216765581 -0.074279391460000108 0 -0.13891648936515211 -0.064472249171247775 0 -0.14916280428309589 -0.053864076679432472 0 -0.1406917504718985 -0.083199174386461974 0 -0.15147288216765581 -0.074279391460000108 0 -0.13891648936515211 -0.064472249171247775 0 -0.12197003300458489 -0.067133964797042034 0 -0.1406917504718985 -0.083199174386461974 0 -0.13891648936515211 -0.064472249171247775 0 -0.121811479392537 -0.084095963505499416 0 -0.12197003300458489 -0.067133964797042034 0 -0.1406917504718985 -0.083199174386461974 0 -0.121811479392537 -0.084095963505499416 0 -0.1406917504718985 -0.083199174386461974 0 -0.13931556210068971 -0.10629227142291391 0 -0.11605893441195141 -0.10185107539240761 0 -0.121811479392537 -0.084095963505499416 0 -0.13931556210068971 -0.10629227142291391 0 -0.11422347955810171 -0.1204243593602408 0 -0.13931556210068971 -0.10629227142291391 0 -0.11422347955810171 -0.1204243593602408 0 -0.13445671698849809 -0.1291024538471422 0 -0.13931556210068971 -0.10629227142291391 0 -0.13445671698849809 -0.1291024538471422 0 -0.13931556210068971 -0.10629227142291391 0 -0.1531014227808439 -0.1221458571451004 0 -0.13931556210068971 -0.10629227142291391 0 -0.1531014227808439 -0.1221458571451004 0 -0.15302467802266631 -0.099964594768007481 0 -0.1406917504718985 -0.083199174386461974 0 -0.13931556210068971 -0.10629227142291391 0 -0.15302467802266631 -0.099964594768007481 0 -0.14079925107272581 -0.02334449083682992 0 -0.15349169287978739 -0.035208883327978051 0 -0.15939520176274349 -0.015620398581745401 0 -0.14079925107272581 -0.02334449083682992 0 -0.14275634286812811 -0.006203461430080404 0 -0.15939520176274349 -0.015620398581745401 0 -0.14275634286812811 -0.006203461430080404 0 -0.15939520176274349 -0.015620398581745401 0 -0.15796117991031841 -0.00029962151665172479 0 -0.14079925107272581 -0.02334449083682992 0 -0.14275634286812811 -0.006203461430080404 0 -0.1278640484455188 -0.012334690821253821 0 -0.14275634286812811 -0.006203461430080404 0 -0.1278640484455188 -0.012334690821253821 0 -0.1273771369441013 0.0023450629401116992 0 -0.12411398995058071 -0.026208981462584841 0 -0.14079925107272581 -0.02334449083682992 0 -0.1278640484455188 -0.012334690821253821 0 -0.12411398995058071 -0.026208981462584841 0 -0.14079925107272581 -0.02334449083682992 0 -0.13241258759658719 -0.044529255409706578 0 -0.13891648936515211 -0.064472249171247775 0 -0.13241258759658719 -0.044529255409706578 0 -0.14916280428309589 -0.053864076679432472 0 -0.12197003300458489 -0.067133964797042034 0 -0.13891648936515211 -0.064472249171247775 0 -0.13241258759658719 -0.044529255409706578 0 -0.14079925107272581 -0.02334449083682992 0 -0.13241258759658719 -0.044529255409706578 0 -0.15349169287978739 -0.035208883327978051 0 -0.14916280428309589 -0.053864076679432472 0 -0.15349169287978739 -0.035208883327978051 0 -0.16249228466986629 -0.048723367468166891 0 -0.13241258759658719 -0.044529255409706578 0 -0.14916280428309589 -0.053864076679432472 0 -0.15349169287978739 -0.035208883327978051 0 -0.15349169287978739 -0.035208883327978051 0 -0.16249228466986629 -0.048723367468166891 0 -0.17525401763441231 -0.025979499284370731 0 -0.16249228466986629 -0.048723367468166891 0 -0.17697140997157609 -0.049841549756239563 0 -0.17525401763441231 -0.025979499284370731 0 -0.1601060057786266 -0.063048208625582775 0 -0.14916280428309589 -0.053864076679432472 0 -0.16249228466986629 -0.048723367468166891 0 -0.1601060057786266 -0.063048208625582775 0 -0.16249228466986629 -0.048723367468166891 0 -0.1687761726195266 -0.062055246708151823 0 -0.16249228466986629 -0.048723367468166891 0 -0.1687761726195266 -0.062055246708151823 0 -0.17697140997157609 -0.049841549756239563 0 -0.17868880230873979 -0.073703600228108263 0 -0.17697140997157609 -0.049841549756239563 0 -0.17868880230873979 -0.073703600228108263 0 -0.17697140997157609 -0.049841549756239563 0 -0.1807163674973549 -0.058420493156073998 0 -0.17868880230873979 -0.073703600228108263 0 -0.1687761726195266 -0.062055246708151823 0 -0.17697140997157609 -0.049841549756239563 0 -0.17697140997157609 -0.049841549756239563 0 -0.187061179232277 -0.050545000195171969 0 -0.1807163674973549 -0.058420493156073998 0 -0.17697140997157609 -0.049841549756239563 0 -0.17525401763441231 -0.025979499284370731 0 -0.17697140997157609 -0.049841549756239563 0 -0.1844822702309237 -0.037308153316215523 0 -0.17525401763441231 -0.025979499284370731 0 -0.17697140997157609 -0.049841549756239563 0 -0.187061179232277 -0.050545000195171969 0 -0.1844822702309237 -0.037308153316215523 0 -0.1844822702309237 -0.037308153316215523 0 -0.17525401763441231 -0.025979499284370731 0 -0.19881160556081021 -0.01876222092397466 0 -0.17525401763441231 -0.025979499284370731 0 -0.17967452986780849 -0.0030086181600807401 0 -0.19881160556081021 -0.01876222092397466 0 -0.15349169287978739 -0.035208883327978051 0 -0.17525401763441231 -0.025979499284370731 0 -0.15939520176274349 -0.015620398581745401 0 -0.17525401763441231 -0.025979499284370731 0 -0.15939520176274349 -0.015620398581745401 0 -0.17967452986780849 -0.0030086181600807401 0 -0.15939520176274349 -0.015620398581745401 0 -0.15796117991031841 -0.00029962151665172479 0 -0.17967452986780849 -0.0030086181600807401 0 -0.17967452986780849 -0.0030086181600807401 0 -0.19881160556081021 -0.01876222092397466 0 -0.20680301002479959 -0.0020434230711429339 0 -0.1844822702309237 -0.037308153316215523 0 -0.19881160556081021 -0.01876222092397466 0 -0.19797908447346779 -0.034540675054344362 0 -0.19881160556081021 -0.01876222092397466 0 -0.19797908447346779 -0.034540675054344362 0 -0.2111815313078087 -0.036308133086206937 0 -0.19881160556081021 -0.01876222092397466 0 -0.2111815313078087 -0.036308133086206937 0 -0.19881160556081021 -0.01876222092397466 0 -0.2111815313078087 -0.036308133086206937 0 -0.21993326537292579 -0.016570742696256829 0 -0.19881160556081021 -0.01876222092397466 0 -0.20680301002479959 -0.0020434230711429339 0 -0.21993326537292579 -0.016570742696256829 0 -0.20680301002479959 -0.0020434230711429339 0 -0.21993326537292579 -0.016570742696256829 0 -0.22850437187820721 0.00061554774341724197 0 -0.187061179232277 -0.050545000195171969 0 -0.1807163674973549 -0.058420493156073998 0 -0.19569491766720151 -0.061370611856350392 0 -0.187061179232277 -0.050545000195171969 0 -0.19569491766720151 -0.061370611856350392 0 -0.1974409307943287 -0.045784192890980333 0 -0.19569491766720151 -0.061370611856350392 0 -0.1974409307943287 -0.045784192890980333 0 -0.20783277774853701 -0.056374475910446593 0 -0.187061179232277 -0.050545000195171969 0 -0.1844822702309237 -0.037308153316215523 0 -0.1974409307943287 -0.045784192890980333 0 -0.1844822702309237 -0.037308153316215523 0 -0.1974409307943287 -0.045784192890980333 0 -0.19797908447346779 -0.034540675054344362 0 -0.1974409307943287 -0.045784192890980333 0 -0.19797908447346779 -0.034540675054344362 0 -0.2111815313078087 -0.036308133086206937 0 -0.1974409307943287 -0.045784192890980333 0 -0.2111815313078087 -0.036308133086206937 0 -0.20783277774853701 -0.056374475910446593 0 -0.2111815313078087 -0.036308133086206937 0 -0.2235514570548072 -0.053854045248439182 0 -0.21482267827762841 -0.069082647852091478 0 -0.20783277774853701 -0.056374475910446593 0 -0.2235514570548072 -0.053854045248439182 0 -0.2111815313078087 -0.036308133086206937 0 -0.20783277774853701 -0.056374475910446593 0 -0.2235514570548072 -0.053854045248439182 0 -0.2359213828018043 -0.071399957410672343 0 -0.2235514570548072 -0.053854045248439182 0 -0.23385975453729951 -0.05448316257834377 0 -0.2235514570548072 -0.053854045248439182 0 -0.23385975453729951 -0.05448316257834377 0 -0.23195090370150159 -0.044148728843497582 0 -0.2111815313078087 -0.036308133086206937 0 -0.23195090370150159 -0.044148728843497582 0 -0.2330954250503823 -0.030605580137893669 0 -0.2111815313078087 -0.036308133086206937 0 -0.2235514570548072 -0.053854045248439182 0 -0.23195090370150159 -0.044148728843497582 0 -0.2440152745910836 -0.048529918810766987 0 -0.25210916638036568 -0.025659880210862549 0 -0.23195090370150159 -0.044148728843497582 0 -0.2440152745910836 -0.048529918810766987 0 -0.2330954250503823 -0.030605580137893669 0 -0.2440152745910836 -0.048529918810766987 0 -0.2330954250503823 -0.030605580137893669 0 -0.25210916638036568 -0.025659880210862549 0 -0.2359213828018043 -0.071399957410672343 0 -0.2440152745910836 -0.048529918810766987 0 -0.2460442741291925 -0.056732515276429897 0 -0.2359213828018043 -0.071399957410672343 0 -0.2440152745910836 -0.048529918810766987 0 -0.2359213828018043 -0.071399957410672343 0 -0.23385975453729951 -0.05448316257834377 0 -0.2440152745910836 -0.048529918810766987 0 -0.23385975453729951 -0.05448316257834377 0 -0.23195090370150159 -0.044148728843497582 0 -0.2440152745910836 -0.048529918810766987 0 -0.2440152745910836 -0.048529918810766987 0 -0.2460442741291925 -0.056732515276429897 0 -0.25586239660102372 -0.042106716883949957 0 -0.21993326537292579 -0.016570742696256829 0 -0.2409228609234593 -0.01213331886889705 0 -0.22850437187820721 0.00061554774341724197 0 -0.21993326537292579 -0.016570742696256829 0 -0.2330954250503823 -0.030605580137893669 0 -0.2409228609234593 -0.01213331886889705 0 -0.2111815313078087 -0.036308133086206937 0 -0.21993326537292579 -0.016570742696256829 0 -0.2330954250503823 -0.030605580137893669 0 -0.2330954250503823 -0.030605580137893669 0 -0.2409228609234593 -0.01213331886889705 0 -0.25210916638036568 -0.025659880210862549 0 -0.2409228609234593 -0.01213331886889705 0 -0.25132042997239518 0.0027134119798401068 0 -0.22850437187820721 0.00061554774341724197 0 -0.2409228609234593 -0.01213331886889705 0 -0.26431478179583978 -0.01186883573312463 0 -0.25132042997239518 0.0027134119798401068 0 -0.2409228609234593 -0.01213331886889705 0 -0.26431478179583978 -0.01186883573312463 0 -0.25210916638036568 -0.025659880210862549 0 -0.26431478179583978 -0.01186883573312463 0 -0.25210916638036568 -0.025659880210862549 0 -0.26885463380623098 -0.032431385670777198 0 -0.26431478179583978 -0.01186883573312463 0 -0.28272693982295583 -0.022072801118422261 0 -0.26885463380623098 -0.032431385670777198 0 -0.26431478179583978 -0.01186883573312463 0 -0.2820771903446922 -0.0013122005201030101 0 -0.28272693982295583 -0.022072801118422261 0 -0.26431478179583978 -0.01186883573312463 0 -0.2820771903446922 -0.0013122005201030101 0 -0.26646431581863778 0.01029557754540468 0 -0.2820771903446922 -0.0013122005201030101 0 -0.29531588189047731 -0.01459302740547606 0 -0.28272693982295583 -0.022072801118422261 0 -0.2820771903446922 -0.0013122005201030101 0 -0.29531588189047731 -0.01459302740547606 0 -0.30047775033007851 -0.00039401612408775783 0 -0.28272693982295583 -0.022072801118422261 0 -0.29548818451705972 -0.026431314805352931 0 -0.29006158744840338 -0.043009214960059237 0 -0.29531588189047731 -0.01459302740547606 0 -0.28272693982295583 -0.022072801118422261 0 -0.29548818451705972 -0.026431314805352931 0 -0.30546101391149699 -0.021623392358951481 0 -0.31536924438116293 -0.015921951660718081 0 -0.31269309410946189 -0.035953378537937578 0 -0.29531588189047731 -0.01459302740547606 0 -0.29548818451705972 -0.026431314805352931 0 -0.30546101391149699 -0.021623392358951481 0 -0.29548818451705972 -0.026431314805352931 0 -0.30546101391149699 -0.021623392358951481 0 -0.30306546886548719 -0.032455918975325043 0 -0.30546101391149699 -0.021623392358951481 0 -0.31269309410946189 -0.035953378537937578 0 -0.30546101391149699 -0.021623392358951481 0 -0.30306546886548719 -0.032455918975325043 0 -0.31269309410946189 -0.035953378537937578 0 -0.30546101391149699 -0.021623392358951481 0 -0.30702321298661528 -0.0098616365840560535 0 -0.31536924438116293 -0.015921951660718081 0 -0.30702321298661528 -0.0098616365840560535 0 -0.30047775033007851 -0.00039401612408775783 0 -0.31849217441985911 0.0032242046289520012 0 -0.29531588189047731 -0.01459302740547606 0 -0.30702321298661528 -0.0098616365840560535 0 -0.30047775033007851 -0.00039401612408775783 0 -0.29531588189047731 -0.01459302740547606 0 -0.30546101391149699 -0.021623392358951481 0 -0.30702321298661528 -0.0098616365840560535 0 -0.30785263576887473 -0.062005008750064983 0 -0.31269309410946189 -0.035953378537937578 0 -0.30785263576887473 -0.062005008750064983 0 -0.29006158744840338 -0.043009214960059237 0 -0.31269309410946189 -0.035953378537937578 0 -0.30306546886548719 -0.032455918975325043 0 -0.29006158744840338 -0.043009214960059237 0 -0.31269309410946189 -0.035953378537937578 0 -0.29006158744840338 -0.043009214960059237 0 -0.31269309410946189 -0.035953378537937578 0 -0.29548818451705972 -0.026431314805352931 0 -0.30306546886548719 -0.032455918975325043 0 -0.29006158744840338 -0.043009214960059237 0 -0.30785263576887473 -0.062005008750064983 0 -0.29006158744840338 -0.043009214960059237 0 -0.29043964680931811 -0.063340758069959313 0 -0.29006158744840338 -0.043009214960059237 0 -0.27571433008302992 -0.061323808156972907 0 -0.29043964680931811 -0.063340758069959313 0 -0.27571433008302992 -0.061323808156972907 0 -0.26805293078879788 -0.049870865118244581 0 -0.25908974683711639 -0.062912752445689821 0 -0.29006158744840338 -0.043009214960059237 0 -0.27571433008302992 -0.061323808156972907 0 -0.26805293078879788 -0.049870865118244581 0 -0.28272693982295583 -0.022072801118422261 0 -0.29006158744840338 -0.043009214960059237 0 -0.26885463380623098 -0.032431385670777198 0 -0.29006158744840338 -0.043009214960059237 0 -0.26805293078879788 -0.049870865118244581 0 -0.29006158744840338 -0.043009214960059237 0 -0.26805293078879788 -0.049870865118244581 0 -0.26885463380623098 -0.032431385670777198 0 -0.2440152745910836 -0.048529918810766987 0 -0.25210916638036568 -0.025659880210862549 0 -0.25586239660102372 -0.042106716883949957 0 -0.26805293078879788 -0.049870865118244581 0 -0.26885463380623098 -0.032431385670777198 0 -0.25586239660102372 -0.042106716883949957 0 -0.25210916638036568 -0.025659880210862549 0 -0.26885463380623098 -0.032431385670777198 0 -0.25586239660102372 -0.042106716883949957 0 -0.2460442741291925 -0.056732515276429897 0 -0.26805293078879788 -0.049870865118244581 0 -0.2460442741291925 -0.056732515276429897 0 -0.26805293078879788 -0.049870865118244581 0 -0.25908974683711639 -0.062912752445689821 0 -0.2460442741291925 -0.056732515276429897 0 -0.26805293078879788 -0.049870865118244581 0 -0.25586239660102372 -0.042106716883949957 0 -0.24621250417125429 -0.067242688607955695 0 -0.2460442741291925 -0.056732515276429897 0 -0.25908974683711639 -0.062912752445689821 0 -0.24621250417125429 -0.067242688607955695 0 -0.25908974683711639 -0.062912752445689821 0 -0.252754029676304 -0.071454636367457428 0 -0.24101683233652779 -0.07862751170581421 0 -0.252754029676304 -0.071454636367457428 0 -0.26402766811367417 -0.083484384069295273 0 -0.25908974683711639 -0.062912752445689821 0 -0.252754029676304 -0.071454636367457428 0 -0.26621243399467659 -0.070844567870559746 0 -0.252754029676304 -0.071454636367457428 0 -0.26402766811367417 -0.083484384069295273 0 -0.26621243399467659 -0.070844567870559746 0 -0.24101683233652779 -0.07862751170581421 0 -0.26402766811367417 -0.083484384069295273 0 -0.25454071313255938 -0.097810231909066098 0 -0.26402766811367417 -0.083484384069295273 0 -0.27094601368544552 -0.10060299140421709 0 -0.28369928052750421 -0.089996057638050242 0 -0.26402766811367417 -0.083484384069295273 0 -0.27947639526325851 -0.075047258313383283 0 -0.28369928052750421 -0.089996057638050242 0 -0.27571433008302992 -0.061323808156972907 0 -0.25908974683711639 -0.062912752445689821 0 -0.26621243399467659 -0.070844567870559746 0 -0.27571433008302992 -0.061323808156972907 0 -0.27947639526325851 -0.075047258313383283 0 -0.26621243399467659 -0.070844567870559746 0 -0.26402766811367417 -0.083484384069295273 0 -0.27947639526325851 -0.075047258313383283 0 -0.26621243399467659 -0.070844567870559746 0 -0.25700205454408459 -0.1228995308742117 0 -0.25028307647261949 -0.1119170655065333 0 -0.26806459392859111 -0.11699295211231781 0 -0.25700205454408459 -0.1228995308742117 0 -0.26806459392859111 -0.11699295211231781 0 -0.26633673802341562 -0.13121143084146969 0 -0.2466021228926524 -0.1215603100838341 0 -0.25700205454408459 -0.1228995308742117 0 -0.25028307647261949 -0.1119170655065333 0 -0.25454071313255938 -0.097810231909066098 0 -0.27094601368544552 -0.10060299140421709 0 -0.26806459392859111 -0.11699295211231781 0 -0.25028307647261949 -0.1119170655065333 0 -0.25454071313255938 -0.097810231909066098 0 -0.26806459392859111 -0.11699295211231781 0 -0.25454071313255938 -0.097810231909066098 0 -0.26806459392859111 -0.11699295211231781 0 -0.26402766811367417 -0.083484384069295273 0 -0.25454071313255938 -0.097810231909066098 0 -0.27094601368544552 -0.10060299140421709 0 -0.27094601368544552 -0.10060299140421709 0 -0.28498588272658609 -0.10953694176986691 0 -0.28369928052750421 -0.089996057638050242 0 -0.27094601368544552 -0.10060299140421709 0 -0.26806459392859111 -0.11699295211231781 0 -0.28498588272658609 -0.10953694176986691 0 -0.26806459392859111 -0.11699295211231781 0 -0.28498588272658609 -0.10953694176986691 0 -0.26633673802341562 -0.13121143084146969 0 -0.28498588272658609 -0.10953694176986691 0 -0.26633673802341562 -0.13121143084146969 0 -0.28390483366507108 -0.12795146285425149 0 -0.28498588272658609 -0.10953694176986691 0 -0.26633673802341562 -0.13121143084146969 0 -0.28498588272658609 -0.10953694176986691 0 -0.29939047470698632 -0.1138850881088251 0 -0.28390483366507108 -0.12795146285425149 0 -0.28498588272658609 -0.10953694176986691 0 -0.29939047470698632 -0.1138850881088251 0 -0.30363502742975002 -0.087862452698258112 0 -0.28498588272658609 -0.10953694176986691 0 -0.28369928052750421 -0.089996057638050242 0 -0.30363502742975002 -0.087862452698258112 0 -0.28498588272658609 -0.10953694176986691 0 -0.30363502742975002 -0.087862452698258112 0 -0.31112038415555038 -0.105912916312301 0 -0.30363502742975002 -0.087862452698258112 0 -0.31872509099925939 -0.09489525911115787 0 -0.29939047470698632 -0.1138850881088251 0 -0.30363502742975002 -0.087862452698258112 0 -0.31112038415555038 -0.105912916312301 0 -0.29939047470698632 -0.1138850881088251 0 -0.30363502742975002 -0.087862452698258112 0 -0.31112038415555038 -0.105912916312301 0 -0.29939047470698632 -0.1138850881088251 0 -0.3108150907057583 -0.123289039988229 0 -0.27571433008302992 -0.061323808156972907 0 -0.27947639526325851 -0.075047258313383283 0 -0.29043964680931811 -0.063340758069959313 0 -0.27947639526325851 -0.075047258313383283 0 -0.29326350469267087 -0.075637034816957854 0 -0.29043964680931811 -0.063340758069959313 0 -0.27947639526325851 -0.075047258313383283 0 -0.29326350469267087 -0.075637034816957854 0 -0.28369928052750421 -0.089996057638050242 0 -0.29326350469267087 -0.075637034816957854 0 -0.28369928052750421 -0.089996057638050242 0 -0.30363502742975002 -0.087862452698258112 0 -0.30363502742975002 -0.087862452698258112 0 -0.3147457864693044 -0.074949258596716542 0 -0.31872509099925939 -0.09489525911115787 0 -0.30363502742975002 -0.087862452698258112 0 -0.3147457864693044 -0.074949258596716542 0 -0.30785263576887473 -0.062005008750064983 0 -0.29326350469267087 -0.075637034816957854 0 -0.30363502742975002 -0.087862452698258112 0 -0.30785263576887473 -0.062005008750064983 0 -0.30363502742975002 -0.087862452698258112 0 -0.3147457864693044 -0.074949258596716542 0 -0.30785263576887473 -0.062005008750064983 0 -0.29326350469267087 -0.075637034816957854 0 -0.29043964680931811 -0.063340758069959313 0 -0.30785263576887473 -0.062005008750064983 0 -0.30363502742975002 -0.087862452698258112 0 -0.3147457864693044 -0.074949258596716542 0 -0.3258565455088529 -0.062036064495169851 0 -0.3147457864693044 -0.074949258596716542 0 -0.33306166037992252 -0.0763126202985034 0 -0.3258565455088529 -0.062036064495169851 0 -0.30785263576887473 -0.062005008750064983 0 -0.3147457864693044 -0.074949258596716542 0 -0.3258565455088529 -0.062036064495169851 0 -0.3147457864693044 -0.074949258596716542 0 -0.32890001459834822 -0.087516828956376788 0 -0.31872509099925939 -0.09489525911115787 0 -0.3147457864693044 -0.074949258596716542 0 -0.32890001459834822 -0.087516828956376788 0 -0.33306166037992252 -0.0763126202985034 0 -0.32890001459834822 -0.087516828956376788 0 -0.34026677525099192 -0.090589176101837157 0 -0.33306166037992252 -0.0763126202985034 0 -0.34026677525099192 -0.090589176101837157 0 -0.33306166037992252 -0.0763126202985034 0 -0.34026677525099192 -0.090589176101837157 0 -0.33306166037992252 -0.0763126202985034 0 -0.34512097989852569 -0.077376017677512551 0 -0.3363426704622316 -0.065040097883454634 0 -0.33306166037992252 -0.0763126202985034 0 -0.34512097989852569 -0.077376017677512551 0 -0.3363426704622316 -0.065040097883454634 0 -0.34775082305034588 -0.06364522302323769 0 -0.34512097989852569 -0.077376017677512551 0 -0.33306166037992252 -0.0763126202985034 0 -0.3258565455088529 -0.062036064495169851 0 -0.3363426704622316 -0.065040097883454634 0 -0.33306166037992252 -0.0763126202985034 0 -0.3258565455088529 -0.062036064495169851 0 -0.31112038415555038 -0.105912916312301 0 -0.3108150907057583 -0.123289039988229 0 -0.32269556115348802 -0.1134475374517785 0 -0.32269556115348802 -0.1134475374517785 0 -0.33213803149032362 -0.1206207689722909 0 -0.32288905220234743 -0.1288405143651869 0 -0.3108150907057583 -0.123289039988229 0 -0.32269556115348802 -0.1134475374517785 0 -0.32288905220234743 -0.1288405143651869 0 -0.32269556115348802 -0.1134475374517785 0 -0.31872509099925939 -0.09489525911115787 0 -0.33360553934550968 -0.1041906416325506 0 -0.31112038415555038 -0.105912916312301 0 -0.32269556115348802 -0.1134475374517785 0 -0.31872509099925939 -0.09489525911115787 0 -0.32890001459834822 -0.087516828956376788 0 -0.31872509099925939 -0.09489525911115787 0 -0.33360553934550968 -0.1041906416325506 0 -0.3434725512788051 -0.1026137903417853 0 -0.33360553934550968 -0.1041906416325506 0 -0.3466874303271234 -0.11958926053505441 0 -0.32890001459834822 -0.087516828956376788 0 -0.34026677525099192 -0.090589176101837157 0 -0.33360553934550968 -0.1041906416325506 0 -0.34026677525099192 -0.090589176101837157 0 -0.3434725512788051 -0.1026137903417853 0 -0.33360553934550968 -0.1041906416325506 0 -0.33360553934550968 -0.1041906416325506 0 -0.33213803149032362 -0.1206207689722909 0 -0.3466874303271234 -0.11958926053505441 0 -0.32269556115348802 -0.1134475374517785 0 -0.33360553934550968 -0.1041906416325506 0 -0.33213803149032362 -0.1206207689722909 0 -0.3466874303271234 -0.11958926053505441 0 -0.36980343247362518 -0.1100922289949047 0 -0.35999293180258313 -0.1258522389537349 0 -0.3466874303271234 -0.11958926053505441 0 -0.35333046019159542 -0.096086083097699004 0 -0.36980343247362518 -0.1100922289949047 0 -0.3434725512788051 -0.1026137903417853 0 -0.3466874303271234 -0.11958926053505441 0 -0.35333046019159542 -0.096086083097699004 0 -0.3466874303271234 -0.11958926053505441 0 -0.35333046019159542 -0.096086083097699004 0 -0.34026677525099192 -0.090589176101837157 0 -0.3434725512788051 -0.1026137903417853 0 -0.35333046019159542 -0.096086083097699004 0 -0.35333046019159542 -0.096086083097699004 0 -0.36980343247362518 -0.1100922289949047 0 -0.37347114863240299 -0.089088331268139143 0 -0.36980343247362518 -0.1100922289949047 0 -0.35999293180258313 -0.1258522389537349 0 -0.37152802352755399 -0.13164580699010159 0 -0.36980343247362518 -0.1100922289949047 0 -0.37152802352755399 -0.13164580699010159 0 -0.38235470820745771 -0.123978498660336 0 -0.34775082305034588 -0.06364522302323769 0 -0.35997349005606738 -0.07258290566034345 0 -0.36099236519079719 -0.058965157594587259 0 -0.34775082305034588 -0.06364522302323769 0 -0.34512097989852569 -0.077376017677512551 0 -0.35997349005606738 -0.07258290566034345 0 -0.35333046019159542 -0.096086083097699004 0 -0.35997349005606738 -0.07258290566034345 0 -0.35333046019159542 -0.096086083097699004 0 -0.34512097989852569 -0.077376017677512551 0 -0.35997349005606738 -0.07258290566034345 0 -0.34026677525099192 -0.090589176101837157 0 -0.35333046019159542 -0.096086083097699004 0 -0.34512097989852569 -0.077376017677512551 0 -0.35333046019159542 -0.096086083097699004 0 -0.37347114863240299 -0.089088331268139143 0 -0.35997349005606738 -0.07258290566034345 0 -0.37347114863240299 -0.089088331268139143 0 -0.35997349005606738 -0.07258290566034345 0 -0.37513495807632252 -0.068027960422620465 0 -0.35997349005606738 -0.07258290566034345 0 -0.36099236519079719 -0.058965157594587259 0 -0.37513495807632252 -0.068027960422620465 0 -0.37357085562444819 -0.050327950541553881 0 -0.36099236519079719 -0.058965157594587259 0 -0.37513495807632252 -0.068027960422620465 0 -0.37357085562444819 -0.050327950541553881 0 -0.36080282922430701 -0.047544586661118063 0 -0.36099236519079719 -0.058965157594587259 0 -0.34775082305034588 -0.06364522302323769 0 -0.36099236519079719 -0.058965157594587259 0 -0.34872123511329239 -0.051662319258650009 0 -0.36080282922430701 -0.047544586661118063 0 -0.36099236519079719 -0.058965157594587259 0 -0.34872123511329239 -0.051662319258650009 0 -0.34775082305034588 -0.06364522302323769 0 -0.34872123511329239 -0.051662319258650009 0 -0.33906118872719399 -0.055758100993783748 0 -0.35023980363822049 -0.040197400203048239 0 -0.3638826905141766 -0.035463803005797899 0 -0.34258176142245139 -0.029723406047678591 0 -0.35023980363822049 -0.040197400203048239 0 -0.34258176142245139 -0.029723406047678591 0 -0.35023980363822049 -0.040197400203048239 0 -0.34258176142245139 -0.029723406047678591 0 -0.33960488145915169 -0.038902248398748569 0 -0.34872123511329239 -0.051662319258650009 0 -0.35023980363822049 -0.040197400203048239 0 -0.33950963895876157 -0.046563850177851397 0 -0.36080282922430701 -0.047544586661118063 0 -0.35023980363822049 -0.040197400203048239 0 -0.3638826905141766 -0.035463803005797899 0 -0.36080282922430701 -0.047544586661118063 0 -0.34872123511329239 -0.051662319258650009 0 -0.35023980363822049 -0.040197400203048239 0 -0.37357085562444819 -0.050327950541553881 0 -0.3638826905141766 -0.035463803005797899 0 -0.38712728366555788 -0.02974425569958293 0 -0.37357085562444819 -0.050327950541553881 0 -0.36080282922430701 -0.047544586661118063 0 -0.3638826905141766 -0.035463803005797899 0 -0.3638826905141766 -0.035463803005797899 0 -0.36897360951007507 -0.015245218881805699 0 -0.38712728366555788 -0.02974425569958293 0 -0.36897360951007507 -0.015245218881805699 0 -0.38465333842141641 -0.0066435457767305304 0 -0.36979036210562988 0.0025511841975563729 0 -0.36897360951007507 -0.015245218881805699 0 -0.35319748844548088 -0.0026450940697062141 0 -0.36979036210562988 0.0025511841975563729 0 -0.36897360951007507 -0.015245218881805699 0 -0.35319748844548088 -0.0026450940697062141 0 -0.36897360951007507 -0.015245218881805699 0 -0.35319748844548088 -0.0026450940697062141 0 -0.34557514790129729 -0.01385186480739395 0 -0.35319748844548088 -0.0026450940697062141 0 -0.34557514790129729 -0.01385186480739395 0 -0.33742136738088668 0.0099550307423931228 0 -0.36897360951007507 -0.015245218881805699 0 -0.34557514790129729 -0.01385186480739395 0 -0.34258176142245139 -0.029723406047678591 0 -0.3638826905141766 -0.035463803005797899 0 -0.36897360951007507 -0.015245218881805699 0 -0.34258176142245139 -0.029723406047678591 0 -0.36897360951007507 -0.015245218881805699 0 -0.34258176142245139 -0.029723406047678591 0 -0.34258176142245139 -0.029723406047678591 0 -0.33053696792115572 -0.013249600709362951 0 -0.34557514790129729 -0.01385186480739395 0 -0.34258176142245139 -0.029723406047678591 0 -0.33053696792115572 -0.013249600709362951 0 -0.34258176142245139 -0.029723406047678591 0 -0.33123792958382192 -0.02655418191443467 0 -0.33053696792115572 -0.013249600709362951 0 -0.33123792958382192 -0.02655418191443467 0 -0.33053696792115572 -0.013249600709362951 0 -0.32518110448499649 -0.02265309324021984 0 -0.33123792958382192 -0.02655418191443467 0 -0.32494971957893121 -0.032132124138264453 0 -0.33294009451157502 -0.035012685436647553 0 -0.34258176142245139 -0.029723406047678591 0 -0.33123792958382192 -0.02655418191443467 0 -0.33294009451157502 -0.035012685436647553 0 -0.33053696792115572 -0.013249600709362951 0 -0.31849217441985911 0.0032242046289520012 0 -0.33742136738088668 0.0099550307423931228 0 -0.34557514790129729 -0.01385186480739395 0 -0.33053696792115572 -0.013249600709362951 0 -0.33742136738088668 0.0099550307423931228 0 -0.30702321298661528 -0.0098616365840560535 0 -0.31536924438116293 -0.015921951660718081 0 -0.31849217441985911 0.0032242046289520012 0 -0.31536924438116293 -0.015921951660718081 0 -0.31849217441985911 0.0032242046289520012 0 -0.33053696792115572 -0.013249600709362951 0 -0.31849217441985911 0.0032242046289520012 0 -0.33053696792115572 -0.013249600709362951 0 -0.31536924438116293 -0.015921951660718081 0 -0.31849217441985911 0.0032242046289520012 0 -0.31536924438116293 -0.015921951660718081 0 -0.31269309410946189 -0.035953378537937578 0 -0.31536924438116293 -0.015921951660718081 0 -0.3196636581113782 -0.026330909640423061 0 -0.31269309410946189 -0.035953378537937578 0 -0.33123792958382192 -0.02655418191443467 0 -0.32518110448499649 -0.02265309324021984 0 -0.32494971957893121 -0.032132124138264453 0 -0.32518110448499649 -0.02265309324021984 0 -0.3196636581113782 -0.026330909640423061 0 -0.32494971957893121 -0.032132124138264453 0 -0.33053696792115572 -0.013249600709362951 0 -0.32518110448499649 -0.02265309324021984 0 -0.31536924438116293 -0.015921951660718081 0 -0.32518110448499649 -0.02265309324021984 0 -0.31536924438116293 -0.015921951660718081 0 -0.3196636581113782 -0.026330909640423061 0 -0.31269309410946189 -0.035953378537937578 0 -0.32494971957893121 -0.032132124138264453 0 -0.3196636581113782 -0.026330909640423061 0 -0.31269309410946189 -0.035953378537937578 0 -0.32494971957893121 -0.032132124138264453 0 -0.32589239144387999 -0.038804272667940308 0 -0.32494971957893121 -0.032132124138264453 0 -0.33294009451157502 -0.035012685436647553 0 -0.31269309410946189 -0.035953378537937578 0 -0.32589239144387999 -0.038804272667940308 0 -0.32494971957893121 -0.032132124138264453 0 -0.31269309410946189 -0.035953378537937578 0 -0.32589239144387999 -0.038804272667940308 0 -0.32612594025468172 -0.0479092750983348 0 -0.31269309410946189 -0.035953378537937578 0 -0.3258565455088529 -0.062036064495169851 0 -0.32612594025468172 -0.0479092750983348 0 -0.30785263576887473 -0.062005008750064983 0 -0.31269309410946189 -0.035953378537937578 0 -0.3258565455088529 -0.062036064495169851 0 -0.31269309410946189 -0.035953378537937578 0 -0.3258565455088529 -0.062036064495169851 0 -0.3258565455088529 -0.062036064495169851 0 -0.32612594025468172 -0.0479092750983348 0 -0.32948021068586231 -0.057824552786275359 0 -0.3258565455088529 -0.062036064495169851 0 -0.32948021068586231 -0.057824552786275359 0 -0.33273312926745618 -0.050000536382928867 0 -0.32948021068586231 -0.057824552786275359 0 -0.33906118872719399 -0.055758100993783748 0 -0.32612594025468172 -0.0479092750983348 0 -0.33273312926745618 -0.050000536382928867 0 -0.32948021068586231 -0.057824552786275359 0 -0.32612594025468172 -0.0479092750983348 0 -0.33273312926745618 -0.050000536382928867 0 -0.33275310876475001 -0.043013900128517107 0 -0.3363426704622316 -0.065040097883454634 0 -0.32948021068586231 -0.057824552786275359 0 -0.33906118872719399 -0.055758100993783748 0 -0.3363426704622316 -0.065040097883454634 0 -0.3258565455088529 -0.062036064495169851 0 -0.32948021068586231 -0.057824552786275359 0 -0.3363426704622316 -0.065040097883454634 0 -0.34775082305034588 -0.06364522302323769 0 -0.33906118872719399 -0.055758100993783748 0 -0.34872123511329239 -0.051662319258650009 0 -0.33906118872719399 -0.055758100993783748 0 -0.33950963895876157 -0.046563850177851397 0 -0.33273312926745618 -0.050000536382928867 0 -0.33906118872719399 -0.055758100993783748 0 -0.33950963895876157 -0.046563850177851397 0 -0.35023980363822049 -0.040197400203048239 0 -0.33950963895876157 -0.046563850177851397 0 -0.33960488145915169 -0.038902248398748569 0 -0.33950963895876157 -0.046563850177851397 0 -0.33960488145915169 -0.038902248398748569 0 -0.33275310876475001 -0.043013900128517107 0 -0.34258176142245139 -0.029723406047678591 0 -0.33294009451157502 -0.035012685436647553 0 -0.34258176142245139 -0.029723406047678591 0 -0.33960488145915169 -0.038902248398748569 0 -0.33294009451157502 -0.035012685436647553 0 -0.32589239144387999 -0.038804272667940308 0 -0.33294009451157502 -0.035012685436647553 0 -0.33275310876475001 -0.043013900128517107 0 -0.33960488145915169 -0.038902248398748569 0 -0.33294009451157502 -0.035012685436647553 0 -0.33275310876475001 -0.043013900128517107 0 -0.32589239144387999 -0.038804272667940308 0 -0.32612594025468172 -0.0479092750983348 0 -0.33275310876475001 -0.043013900128517107 0 -0.33273312926745618 -0.050000536382928867 0 -0.33950963895876157 -0.046563850177851397 0 -0.33275310876475001 -0.043013900128517107 0 -0.3072444938386063 -0.24298546540808871 0 -0.29465074886808879 -0.2402547820199166 0 -0.31547147842988582 -0.2330670094454039 0 -0.29465074886808879 -0.2402547820199166 0 -0.31547147842988582 -0.2330670094454039 0 -0.31283906540333922 -0.25031215033235238 0 -0.3072444938386063 -0.24298546540808871 0 -0.31547147842988582 -0.2330670094454039 0 -0.29948497002523827 -0.2483657822867901 0 -0.3072444938386063 -0.24298546540808871 0 -0.29465074886808879 -0.2402547820199166 0 -0.29948497002523827 -0.2483657822867901 0 -0.3072444938386063 -0.24298546540808871 0 -0.30623861516307299 -0.24935013043731349 0 -0.31283906540333922 -0.25031215033235238 0 -0.3072444938386063 -0.24298546540808871 0 -0.30623861516307299 -0.24935013043731349 0 -0.30340245666429422 -0.2199120115188499 0 -0.29465074886808879 -0.2402547820199166 0 -0.31547147842988582 -0.2330670094454039 0 -0.30340245666429422 -0.2199120115188499 0 -0.31790591229007997 -0.21133065133653661 0 -0.31547147842988582 -0.2330670094454039 0 -0.30340245666429422 -0.2199120115188499 0 -0.29465074886808879 -0.2402547820199166 0 -0.28241226381596191 -0.21797562975109799 0 -0.29465074886808879 -0.2402547820199166 0 -0.27816771109320582 -0.2439982651616662 0 -0.28241226381596191 -0.21797562975109799 0 -0.29465074886808879 -0.2402547820199166 0 -0.27383001930629169 -0.24744255459442921 0 -0.28942662192718172 -0.25357945894426132 0 -0.29465074886808879 -0.2402547820199166 0 -0.27383001930629169 -0.24744255459442921 0 -0.29465074886808879 -0.2402547820199166 0 -0.27816771109320582 -0.2439982651616662 0 -0.27383001930629169 -0.24744255459442921 0 -0.28942662192718172 -0.25357945894426132 0 -0.29948497002523827 -0.2483657822867901 0 -0.29465074886808879 -0.2402547820199166 0 -0.27816771109320582 -0.2439982651616662 0 -0.27383001930629169 -0.24744255459442921 0 -0.26926560585898118 -0.2360615599669478 0 -0.27383001930629169 -0.24744255459442921 0 -0.26926560585898118 -0.2360615599669478 0 -0.25855016474293108 -0.24143028331881861 0 -0.27383001930629169 -0.24744255459442921 0 -0.25855016474293108 -0.24143028331881861 0 -0.2565674865322034 -0.25340195958415102 0 -0.27383001930629169 -0.24744255459442921 0 -0.25855016474293108 -0.24143028331881861 0 -0.26926560585898118 -0.2360615599669478 0 -0.25855016474293108 -0.24143028331881861 0 -0.25588924886857078 -0.22577026586403889 0 -0.24327031017957049 -0.23541801204320789 0 -0.25855016474293108 -0.24143028331881861 0 -0.24327031017957049 -0.23541801204320789 0 -0.25855016474293108 -0.24143028331881861 0 -0.25018128361314113 -0.24746468840205441 0 -0.2565674865322034 -0.25340195958415102 0 -0.25855016474293108 -0.24143028331881861 0 -0.25018128361314113 -0.24746468840205441 0 -0.24327031017957049 -0.23541801204320789 0 -0.25855016474293108 -0.24143028331881861 0 -0.25588924886857078 -0.22577026586403889 0 -0.26926560585898118 -0.2360615599669478 0 -0.25588924886857078 -0.22577026586403889 0 -0.26783798195298542 -0.22189041659364681 0 -0.27816771109320582 -0.2439982651616662 0 -0.26926560585898118 -0.2360615599669478 0 -0.28241226381596191 -0.21797562975109799 0 -0.26926560585898118 -0.2360615599669478 0 -0.26783798195298542 -0.22189041659364681 0 -0.28241226381596191 -0.21797562975109799 0 -0.27816771109320582 -0.2439982651616662 0 -0.28241226381596191 -0.21797562975109799 0 -0.26378480926842768 -0.2077542107925027 0 -0.286656816538718 -0.19195299434052959 0 -0.28241226381596191 -0.21797562975109799 0 -0.26783798195298542 -0.22189041659364681 0 -0.26378480926842768 -0.2077542107925027 0 -0.28241226381596191 -0.21797562975109799 0 -0.25588924886857078 -0.22577026586403889 0 -0.26783798195298542 -0.22189041659364681 0 -0.26378480926842768 -0.2077542107925027 0 -0.2448317244682672 -0.19494017856122331 0 -0.24405101732391901 -0.2151790953022156 0 -0.26378480926842768 -0.2077542107925027 0 -0.24405101732391901 -0.2151790953022156 0 -0.25588924886857078 -0.22577026586403889 0 -0.26378480926842768 -0.2077542107925027 0 -0.2448317244682672 -0.19494017856122331 0 -0.26378480926842768 -0.2077542107925027 0 -0.26312512204060101 -0.18530650416748581 0 -0.26378480926842768 -0.2077542107925027 0 -0.286656816538718 -0.19195299434052959 0 -0.26312512204060101 -0.18530650416748581 0 -0.286656816538718 -0.19195299434052959 0 -0.28241226381596191 -0.21797562975109799 0 -0.30591086076688379 -0.19847336016990141 0 -0.286656816538718 -0.19195299434052959 0 -0.28241226381596191 -0.21797562975109799 0 -0.30340245666429422 -0.2199120115188499 0 -0.28241226381596191 -0.21797562975109799 0 -0.30591086076688379 -0.19847336016990141 0 -0.30340245666429422 -0.2199120115188499 0 -0.30591086076688379 -0.19847336016990141 0 -0.31790591229007997 -0.21133065133653661 0 -0.286656816538718 -0.19195299434052959 0 -0.30591086076688379 -0.19847336016990141 0 -0.31180552805921091 -0.17430838359622669 0 -0.31180552805921091 -0.17430838359622669 0 -0.29090136926147409 -0.16593035892996141 0 -0.30878195228896921 -0.15303576335633209 0 -0.286656816538718 -0.19195299434052959 0 -0.29090136926147409 -0.16593035892996141 0 -0.286656816538718 -0.19195299434052959 0 -0.31180552805921091 -0.17430838359622669 0 -0.29090136926147409 -0.16593035892996141 0 -0.286656816538718 -0.19195299434052959 0 -0.29090136926147409 -0.16593035892996141 0 -0.27584707269233227 -0.1739466899300364 0 -0.27584707269233227 -0.1739466899300364 0 -0.26312512204060101 -0.18530650416748581 0 -0.26138401805284373 -0.16490714025156239 0 -0.286656816538718 -0.19195299434052959 0 -0.27584707269233227 -0.1739466899300364 0 -0.26312512204060101 -0.18530650416748581 0 -0.2448317244682672 -0.19494017856122331 0 -0.24561243161261531 -0.1747012618202311 0 -0.26312512204060101 -0.18530650416748581 0 -0.24561243161261531 -0.1747012618202311 0 -0.26312512204060101 -0.18530650416748581 0 -0.26138401805284373 -0.16490714025156239 0 -0.27584707269233227 -0.1739466899300364 0 -0.26138401805284373 -0.16490714025156239 0 -0.27641132505293098 -0.14990407015019561 0 -0.29090136926147409 -0.16593035892996141 0 -0.27584707269233227 -0.1739466899300364 0 -0.27641132505293098 -0.14990407015019561 0 -0.27641132505293098 -0.14990407015019561 0 -0.26295491861235881 -0.14972714028907499 0 -0.26633673802341562 -0.13121143084146969 0 -0.26138401805284373 -0.16490714025156239 0 -0.27641132505293098 -0.14990407015019561 0 -0.26295491861235881 -0.14972714028907499 0 -0.24768759332024501 -0.15288591991307249 0 -0.26633673802341562 -0.13121143084146969 0 -0.24768759332024501 -0.15288591991307249 0 -0.26295491861235881 -0.14972714028907499 0 -0.26633673802341562 -0.13121143084146969 0 -0.24768759332024501 -0.15288591991307249 0 -0.26138401805284373 -0.16490714025156239 0 -0.26295491861235881 -0.14972714028907499 0 -0.25700205454408459 -0.1228995308742117 0 -0.25066558347885931 -0.13251764995053431 0 -0.26633673802341562 -0.13121143084146969 0 -0.24768759332024501 -0.15288591991307249 0 -0.25066558347885931 -0.13251764995053431 0 -0.26633673802341562 -0.13121143084146969 0 -0.2466021228926524 -0.1215603100838341 0 -0.25700205454408459 -0.1228995308742117 0 -0.25066558347885931 -0.13251764995053431 0 -0.27641132505293098 -0.14990407015019561 0 -0.26633673802341562 -0.13121143084146969 0 -0.28390483366507108 -0.12795146285425149 0 -0.27641132505293098 -0.14990407015019561 0 -0.29514592198423018 -0.13990772351939329 0 -0.28390483366507108 -0.12795146285425149 0 -0.29939047470698632 -0.1138850881088251 0 -0.29514592198423018 -0.13990772351939329 0 -0.28390483366507108 -0.12795146285425149 0 -0.29090136926147409 -0.16593035892996141 0 -0.27641132505293098 -0.14990407015019561 0 -0.29514592198423018 -0.13990772351939329 0 -0.29090136926147409 -0.16593035892996141 0 -0.29514592198423018 -0.13990772351939329 0 -0.29514592198423018 -0.13990772351939329 0 -0.30878195228896921 -0.15303576335633209 0 -0.31204687939749698 -0.1371714365216575 0 -0.29090136926147409 -0.16593035892996141 0 -0.29514592198423018 -0.13990772351939329 0 -0.30878195228896921 -0.15303576335633209 0 -0.3108150907057583 -0.123289039988229 0 -0.29514592198423018 -0.13990772351939329 0 -0.31204687939749698 -0.1371714365216575 0 -0.29939047470698632 -0.1138850881088251 0 -0.3108150907057583 -0.123289039988229 0 -0.29514592198423018 -0.13990772351939329 0 -0.29939047470698632 -0.1138850881088251 0 -0.29514592198423018 -0.13990772351939329 0 -0.32288905220234743 -0.1288405143651869 0 -0.32258299715563782 -0.14068177926995709 0 -0.33321030378869931 -0.13646686722665249 0 -0.3108150907057583 -0.123289039988229 0 -0.31204687939749698 -0.1371714365216575 0 -0.32288905220234743 -0.1288405143651869 0 -0.31204687939749698 -0.1371714365216575 0 -0.32288905220234743 -0.1288405143651869 0 -0.32258299715563782 -0.14068177926995709 0 -0.30878195228896921 -0.15303576335633209 0 -0.32482557091518699 -0.15217937608711771 0 -0.32258299715563782 -0.14068177926995709 0 -0.30878195228896921 -0.15303576335633209 0 -0.31204687939749698 -0.1371714365216575 0 -0.32258299715563782 -0.14068177926995709 0 -0.32482557091518699 -0.15217937608711771 0 -0.32258299715563782 -0.14068177926995709 0 -0.33321030378869931 -0.13646686722665249 0 -0.32482557091518699 -0.15217937608711771 0 -0.34004440046265172 -0.14309243797241011 0 -0.33321030378869931 -0.13646686722665249 0 -0.34004440046265172 -0.14309243797241011 0 -0.35498504575946821 -0.15757720561970059 0 -0.3332048416520596 -0.1672909388971599 0 -0.34004440046265172 -0.14309243797241011 0 -0.3332048416520596 -0.1672909388971599 0 -0.32482557091518699 -0.15217937608711771 0 -0.34004440046265172 -0.14309243797241011 0 -0.3332048416520596 -0.1672909388971599 0 -0.3466874303271234 -0.11958926053505441 0 -0.34004440046265172 -0.14309243797241011 0 -0.33213803149032362 -0.1206207689722909 0 -0.32288905220234743 -0.1288405143651869 0 -0.33321030378869931 -0.13646686722665249 0 -0.33213803149032362 -0.1206207689722909 0 -0.3466874303271234 -0.11958926053505441 0 -0.33321030378869931 -0.13646686722665249 0 -0.3466874303271234 -0.11958926053505441 0 -0.34004440046265172 -0.14309243797241011 0 -0.33321030378869931 -0.13646686722665249 0 -0.34004440046265172 -0.14309243797241011 0 -0.33321030378869931 -0.13646686722665249 0 -0.3466874303271234 -0.11958926053505441 0 -0.35676717686891291 -0.14006723761877321 0 -0.35999293180258313 -0.1258522389537349 0 -0.3466874303271234 -0.11958926053505441 0 -0.34004440046265172 -0.14309243797241011 0 -0.35676717686891291 -0.14006723761877321 0 -0.35676717686891291 -0.14006723761877321 0 -0.37152802352755399 -0.13164580699010159 0 -0.37069541475874412 -0.1487336244607225 0 -0.35676717686891291 -0.14006723761877321 0 -0.35999293180258313 -0.1258522389537349 0 -0.37152802352755399 -0.13164580699010159 0 -0.35676717686891291 -0.14006723761877321 0 -0.37069541475874412 -0.1487336244607225 0 -0.35498504575946821 -0.15757720561970059 0 -0.37069541475874412 -0.1487336244607225 0 -0.35498504575946821 -0.15757720561970059 0 -0.37692746124962329 -0.16011968929401549 0 -0.37152802352755399 -0.13164580699010159 0 -0.37069541475874412 -0.1487336244607225 0 -0.38190833683646341 -0.1417380771930716 0 -0.34004440046265172 -0.14309243797241011 0 -0.35676717686891291 -0.14006723761877321 0 -0.35498504575946821 -0.15757720561970059 0 -0.34004440046265172 -0.14309243797241011 0 -0.35498504575946821 -0.15757720561970059 0 -0.35102499454429859 -0.17065527247529391 0 -0.35498504575946821 -0.15757720561970059 0 -0.36992569105628492 -0.1720619732669908 0 -0.35102499454429859 -0.17065527247529391 0 -0.35498504575946821 -0.15757720561970059 0 -0.3332048416520596 -0.1672909388971599 0 -0.35498504575946821 -0.15757720561970059 0 -0.36992569105628492 -0.1720619732669908 0 -0.37692746124962329 -0.16011968929401549 0 -0.35498504575946821 -0.15757720561970059 0 -0.36992569105628492 -0.1720619732669908 0 -0.36802329911298681 -0.18587483615006681 0 -0.36992569105628492 -0.1720619732669908 0 -0.38452179946839471 -0.1862127167391712 0 -0.36802329911298681 -0.18587483615006681 0 -0.36992569105628492 -0.1720619732669908 0 -0.34598439970938172 -0.18569097211732419 0 -0.35102499454429859 -0.17065527247529391 0 -0.36992569105628492 -0.1720619732669908 0 -0.34598439970938172 -0.18569097211732419 0 -0.36992569105628492 -0.1720619732669908 0 -0.34598439970938172 -0.18569097211732419 0 -0.35102499454429859 -0.17065527247529391 0 -0.34598439970938172 -0.18569097211732419 0 -0.3332048416520596 -0.1672909388971599 0 -0.34598439970938172 -0.18569097211732419 0 -0.3332048416520596 -0.1672909388971599 0 -0.32636528284146782 -0.19148943982190991 0 -0.3332048416520596 -0.1672909388971599 0 -0.32636528284146782 -0.19148943982190991 0 -0.31180552805921091 -0.17430838359622669 0 -0.32482557091518699 -0.15217937608711771 0 -0.3332048416520596 -0.1672909388971599 0 -0.31180552805921091 -0.17430838359622669 0 -0.30878195228896921 -0.15303576335633209 0 -0.32482557091518699 -0.15217937608711771 0 -0.31180552805921091 -0.17430838359622669 0 -0.3332048416520596 -0.1672909388971599 0 -0.32636528284146782 -0.19148943982190991 0 -0.30591086076688379 -0.19847336016990141 0 -0.32636528284146782 -0.19148943982190991 0 -0.31790591229007997 -0.21133065133653661 0 -0.30591086076688379 -0.19847336016990141 0 -0.31180552805921091 -0.17430838359622669 0 -0.32636528284146782 -0.19148943982190991 0 -0.32636528284146782 -0.19148943982190991 0 -0.31790591229007997 -0.21133065133653661 0 -0.33039187961118982 -0.20742389982875531 0 -0.31790591229007997 -0.21133065133653661 0 -0.33039187961118982 -0.20742389982875531 0 -0.32870803705144969 -0.21844997174213321 0 -0.33039187961118982 -0.20742389982875531 0 -0.32870803705144969 -0.21844997174213321 0 -0.33850246058748812 -0.21389845468103499 0 -0.32870803705144969 -0.21844997174213321 0 -0.33850246058748812 -0.21389845468103499 0 -0.33596699493009807 -0.21993263715474329 0 -0.33850246058748812 -0.21389845468103499 0 -0.34687159193856038 -0.2183762197826761 0 -0.3403652740897718 -0.22150288532491411 0 -0.33850246058748812 -0.21389845468103499 0 -0.3403652740897718 -0.22150288532491411 0 -0.33596699493009807 -0.21993263715474329 0 -0.33039187961118982 -0.20742389982875531 0 -0.33850246058748812 -0.21389845468103499 0 -0.34047770528546362 -0.2019509815621614 0 -0.33850246058748812 -0.21389845468103499 0 -0.34047770528546362 -0.2019509815621614 0 -0.34737571748628571 -0.2101963969508848 0 -0.34598439970938172 -0.18569097211732419 0 -0.32636528284146782 -0.19148943982190991 0 -0.34047770528546362 -0.2019509815621614 0 -0.32636528284146782 -0.19148943982190991 0 -0.33039187961118982 -0.20742389982875531 0 -0.34047770528546362 -0.2019509815621614 0 -0.34598439970938172 -0.18569097211732419 0 -0.35303310702934909 -0.20231631441727971 0 -0.36343771537771569 -0.19566750525459251 0 -0.34598439970938172 -0.18569097211732419 0 -0.34047770528546362 -0.2019509815621614 0 -0.35303310702934909 -0.20231631441727971 0 -0.36802329911298681 -0.18587483615006681 0 -0.34598439970938172 -0.18569097211732419 0 -0.36343771537771569 -0.19566750525459251 0 -0.35303310702934909 -0.20231631441727971 0 -0.36343771537771569 -0.19566750525459251 0 -0.36388592792924168 -0.20758305467352059 0 -0.36343771537771569 -0.19566750525459251 0 -0.37301156641091737 -0.20337184000283479 0 -0.36388592792924168 -0.20758305467352059 0 -0.36343771537771569 -0.19566750525459251 0 -0.37438048369549509 -0.19384422148204511 0 -0.37301156641091737 -0.20337184000283479 0 -0.36802329911298681 -0.18587483615006681 0 -0.36343771537771569 -0.19566750525459251 0 -0.37438048369549509 -0.19384422148204511 0 -0.37273312771996808 -0.21396345107145709 0 -0.37301156641091737 -0.20337184000283479 0 -0.36388592792924168 -0.20758305467352059 0 -0.37273312771996808 -0.21396345107145709 0 -0.36388592792924168 -0.20758305467352059 0 -0.36460053442081081 -0.21946742083422599 0 -0.36388592792924168 -0.20758305467352059 0 -0.35626724818121019 -0.21440977701126371 0 -0.36460053442081081 -0.21946742083422599 0 -0.35626724818121019 -0.21440977701126371 0 -0.34687159193856038 -0.2183762197826761 0 -0.35361393690670712 -0.22275298964725909 0 -0.35303310702934909 -0.20231631441727971 0 -0.36388592792924168 -0.20758305467352059 0 -0.35626724818121019 -0.21440977701126371 0 -0.35303310702934909 -0.20231631441727971 0 -0.35626724818121019 -0.21440977701126371 0 -0.34737571748628571 -0.2101963969508848 0 -0.34047770528546362 -0.2019509815621614 0 -0.35303310702934909 -0.20231631441727971 0 -0.34737571748628571 -0.2101963969508848 0 -0.33850246058748812 -0.21389845468103499 0 -0.34737571748628571 -0.2101963969508848 0 -0.34687159193856038 -0.2183762197826761 0 -0.35626724818121019 -0.21440977701126371 0 -0.34737571748628571 -0.2101963969508848 0 -0.34687159193856038 -0.2183762197826761 0 -0.34687159193856038 -0.2183762197826761 0 -0.3448729074691318 -0.22568858673477191 0 -0.3403652740897718 -0.22150288532491411 0 -0.34687159193856038 -0.2183762197826761 0 -0.3448729074691318 -0.22568858673477191 0 -0.35361393690670712 -0.22275298964725909 0 -0.3448729074691318 -0.22568858673477191 0 -0.35311939258201253 -0.23120947699362049 0 -0.35361393690670712 -0.22275298964725909 0 -0.3448729074691318 -0.22568858673477191 0 -0.35311939258201253 -0.23120947699362049 0 -0.3466300329275056 -0.23782645962689411 0 -0.35311939258201253 -0.23120947699362049 0 -0.35361393690670712 -0.22275298964725909 0 -0.36278739720748587 -0.22937453583313699 0 -0.35311939258201253 -0.23120947699362049 0 -0.36278739720748587 -0.22937453583313699 0 -0.35743223323550471 -0.2390192939344549 0 -0.35626724818121019 -0.21440977701126371 0 -0.35361393690670712 -0.22275298964725909 0 -0.36460053442081081 -0.21946742083422599 0 -0.36460053442081081 -0.21946742083422599 0 -0.36278739720748587 -0.22937453583313699 0 -0.37306962678156358 -0.22430756502184571 0 -0.35361393690670712 -0.22275298964725909 0 -0.36460053442081081 -0.21946742083422599 0 -0.36278739720748587 -0.22937453583313699 0 -0.36278739720748587 -0.22937453583313699 0 -0.37393716339703942 -0.23401667981853819 0 -0.37306962678156358 -0.22430756502184571 0 -0.36278739720748587 -0.22937453583313699 0 -0.37393716339703942 -0.23401667981853819 0 -0.36594725961251939 -0.23889039006825119 0 -0.37273312771996808 -0.21396345107145709 0 -0.36460053442081081 -0.21946742083422599 0 -0.37306962678156358 -0.22430756502184571 0 -0.37393540655460039 -0.25504906339868932 0 -0.37362469669529808 -0.24416340610428999 0 -0.363557814049559 -0.2486896754833777 0 -0.37362469669529808 -0.24416340610428999 0 -0.36594725961251939 -0.23889039006825119 0 -0.363557814049559 -0.2486896754833777 0 -0.37393716339703942 -0.23401667981853819 0 -0.37362469669529808 -0.24416340610428999 0 -0.36594725961251939 -0.23889039006825119 0 -0.36278739720748587 -0.22937453583313699 0 -0.36594725961251939 -0.23889039006825119 0 -0.35743223323550471 -0.2390192939344549 0 -0.36594725961251939 -0.23889039006825119 0 -0.363557814049559 -0.2486896754833777 0 -0.35743223323550471 -0.2390192939344549 0 -0.363557814049559 -0.2486896754833777 0 -0.35255150303394622 -0.24812522560144931 0 -0.35743223323550471 -0.2390192939344549 0 -0.35311939258201253 -0.23120947699362049 0 -0.35743223323550471 -0.2390192939344549 0 -0.3466300329275056 -0.23782645962689411 0 -0.35255150303394622 -0.24812522560144931 0 -0.35743223323550471 -0.2390192939344549 0 -0.3466300329275056 -0.23782645962689411 0 -0.35255150303394622 -0.24812522560144931 0 -0.3466300329275056 -0.23782645962689411 0 -0.3420777495351906 -0.24844208584564559 0 -0.33131030172746923 -0.25321851497678438 0 -0.33373364759712132 -0.2373308373461466 0 -0.32202724095639168 -0.2495658441092535 0 -0.33131030172746923 -0.25321851497678438 0 -0.33373364759712132 -0.2373308373461466 0 -0.33131030172746923 -0.25321851497678438 0 -0.3420777495351906 -0.24844208584564559 0 -0.33373364759712132 -0.2373308373461466 0 -0.3466300329275056 -0.23782645962689411 0 -0.3420777495351906 -0.24844208584564559 0 -0.33373364759712132 -0.2373308373461466 0 -0.3448729074691318 -0.22568858673477191 0 -0.33373364759712132 -0.2373308373461466 0 -0.33513500532203722 -0.22814340766163391 0 -0.3448729074691318 -0.22568858673477191 0 -0.33373364759712132 -0.2373308373461466 0 -0.3448729074691318 -0.22568858673477191 0 -0.3466300329275056 -0.23782645962689411 0 -0.33373364759712132 -0.2373308373461466 0 -0.3362922079916828 -0.22587923687089109 0 -0.33513500532203722 -0.22814340766163391 0 -0.31547147842988582 -0.2330670094454039 0 -0.3448729074691318 -0.22568858673477191 0 -0.3362922079916828 -0.22587923687089109 0 -0.33513500532203722 -0.22814340766163391 0 -0.3448729074691318 -0.22568858673477191 0 -0.3403652740897718 -0.22150288532491411 0 -0.3362922079916828 -0.22587923687089109 0 -0.3403652740897718 -0.22150288532491411 0 -0.3362922079916828 -0.22587923687089109 0 -0.33596699493009807 -0.21993263715474329 0 -0.32870803705144969 -0.21844997174213321 0 -0.3362922079916828 -0.22587923687089109 0 -0.33596699493009807 -0.21993263715474329 0 -0.33373364759712132 -0.2373308373461466 0 -0.33513500532203722 -0.22814340766163391 0 -0.31790591229007997 -0.21133065133653661 0 -0.32870803705144969 -0.21844997174213321 0 -0.31547147842988582 -0.2330670094454039 0 -0.3362922079916828 -0.22587923687089109 0 -0.31547147842988582 -0.2330670094454039 0 -0.32870803705144969 -0.21844997174213321 0 -0.3362922079916828 -0.22587923687089109 0 -0.31547147842988582 -0.2330670094454039 0 -0.33373364759712132 -0.2373308373461466 0 -0.33513500532203722 -0.22814340766163391 0 -0.31547147842988582 -0.2330670094454039 0 -0.33373364759712132 -0.2373308373461466 0 -0.31547147842988582 -0.2330670094454039 0 -0.32202724095639168 -0.2495658441092535 0 -0.31283906540333922 -0.25031215033235238 0 -0.31547147842988582 -0.2330670094454039 0 -0.32202724095639168 -0.2495658441092535 0 -0.33373364759712132 -0.2373308373461466 0 -0.32202724095639168 -0.2495658441092535 0 -0.42931567121415071 -0.25028064732030619 0 -0.41974440223132548 -0.2277223948390894 0 -0.42931567121415071 -0.25028064732030619 0 -0.43665732485841618 -0.24137016429136929 0 -0.41974440223132548 -0.2277223948390894 0 -0.43487007995442373 -0.25384069753834382 0 -0.42931567121415071 -0.25028064732030619 0 -0.43665732485841618 -0.24137016429136929 0 -0.43665732485841618 -0.24137016429136929 0 -0.41974440223132548 -0.2277223948390894 0 -0.44277641758923081 -0.23102430468348881 0 -0.43377720402095787 -0.21991138490827611 0 -0.41974440223132548 -0.2277223948390894 0 -0.44277641758923081 -0.23102430468348881 0 -0.43377720402095787 -0.21991138490827611 0 -0.41974440223132548 -0.2277223948390894 0 -0.42075205755079043 -0.21398522646416529 0 -0.41974440223132548 -0.2277223948390894 0 -0.40847937369743209 -0.24258689873782929 0 -0.40379864078896821 -0.22147517947459039 0 -0.42931567121415071 -0.25028064732030619 0 -0.41974440223132548 -0.2277223948390894 0 -0.40847937369743209 -0.24258689873782929 0 -0.3945867816951415 -0.25828321704239809 0 -0.40847937369743209 -0.24258689873782929 0 -0.3933004523496676 -0.24484402304582939 0 -0.40847937369743209 -0.24258689873782929 0 -0.3933004523496676 -0.24484402304582939 0 -0.39478669289115392 -0.23309544567896751 0 -0.3933004523496676 -0.24484402304582939 0 -0.38349803953804651 -0.2389949919606586 0 -0.38258347849844832 -0.24967798674395081 0 -0.3933004523496676 -0.24484402304582939 0 -0.38349803953804651 -0.2389949919606586 0 -0.39478669289115392 -0.23309544567896751 0 -0.37393716339703942 -0.23401667981853819 0 -0.37362469669529808 -0.24416340610428999 0 -0.38349803953804651 -0.2389949919606586 0 -0.37393540655460039 -0.25504906339868932 0 -0.37362469669529808 -0.24416340610428999 0 -0.38258347849844832 -0.24967798674395081 0 -0.37362469669529808 -0.24416340610428999 0 -0.38349803953804651 -0.2389949919606586 0 -0.38258347849844832 -0.24967798674395081 0 -0.37306962678156358 -0.22430756502184571 0 -0.38469596054732291 -0.22836918992304631 0 -0.38295547739377761 -0.21861943378263729 0 -0.37273312771996808 -0.21396345107145709 0 -0.37306962678156358 -0.22430756502184571 0 -0.38295547739377761 -0.21861943378263729 0 -0.37393716339703942 -0.23401667981853819 0 -0.38349803953804651 -0.2389949919606586 0 -0.38469596054732291 -0.22836918992304631 0 -0.37393716339703942 -0.23401667981853819 0 -0.37306962678156358 -0.22430756502184571 0 -0.38469596054732291 -0.22836918992304631 0 -0.38349803953804651 -0.2389949919606586 0 -0.38469596054732291 -0.22836918992304631 0 -0.39478669289115392 -0.23309544567896751 0 -0.38469596054732291 -0.22836918992304631 0 -0.39264909581396568 -0.2229573829789786 0 -0.38295547739377761 -0.21861943378263729 0 -0.39264909581396568 -0.2229573829789786 0 -0.39478669289115392 -0.23309544567896751 0 -0.40379864078896821 -0.22147517947459039 0 -0.40847937369743209 -0.24258689873782929 0 -0.39478669289115392 -0.23309544567896751 0 -0.40379864078896821 -0.22147517947459039 0 -0.40847937369743209 -0.24258689873782929 0 -0.40379864078896821 -0.22147517947459039 0 -0.39264909581396568 -0.2229573829789786 0 -0.40379864078896821 -0.22147517947459039 0 -0.39247153470499518 -0.2129117927155128 0 -0.38469596054732291 -0.22836918992304631 0 -0.39264909581396568 -0.2229573829789786 0 -0.39478669289115392 -0.23309544567896751 0 -0.40379864078896821 -0.22147517947459039 0 -0.39911790788050461 -0.2003634602113514 0 -0.40379864078896821 -0.22147517947459039 0 -0.39247153470499518 -0.2129117927155128 0 -0.39911790788050461 -0.2003634602113514 0 -0.40379864078896821 -0.22147517947459039 0 -0.40520524043689871 -0.20626505254016059 0 -0.39911790788050461 -0.2003634602113514 0 -0.40520524043689871 -0.20626505254016059 0 -0.39911790788050461 -0.2003634602113514 0 -0.41017313324850019 -0.2051641423578727 0 -0.40520524043689871 -0.20626505254016059 0 -0.39911790788050461 -0.2003634602113514 0 -0.39247153470499518 -0.2129117927155128 0 -0.38971867217429529 -0.20303686442097379 0 -0.39911790788050461 -0.2003634602113514 0 -0.39247153470499518 -0.2129117927155128 0 -0.38295547739377761 -0.21861943378263729 0 -0.38211351879485039 -0.2092072209849834 0 -0.39264909581396568 -0.2229573829789786 0 -0.39247153470499518 -0.2129117927155128 0 -0.38295547739377761 -0.21861943378263729 0 -0.38211351879485039 -0.2092072209849834 0 -0.38151862494823319 -0.19996558655041019 0 -0.38971867217429529 -0.20303686442097379 0 -0.39247153470499518 -0.2129117927155128 0 -0.38211351879485039 -0.2092072209849834 0 -0.38971867217429529 -0.20303686442097379 0 -0.37273312771996808 -0.21396345107145709 0 -0.37301156641091737 -0.20337184000283479 0 -0.38211351879485039 -0.2092072209849834 0 -0.37301156641091737 -0.20337184000283479 0 -0.38211351879485039 -0.2092072209849834 0 -0.38151862494823319 -0.19996558655041019 0 -0.37273312771996808 -0.21396345107145709 0 -0.38295547739377761 -0.21861943378263729 0 -0.38211351879485039 -0.2092072209849834 0 -0.36802329911298681 -0.18587483615006681 0 -0.37438048369549509 -0.19384422148204511 0 -0.38452179946839471 -0.1862127167391712 0 -0.38151862494823319 -0.19996558655041019 0 -0.38971867217429529 -0.20303686442097379 0 -0.38452179946839471 -0.1862127167391712 0 -0.37438048369549509 -0.19384422148204511 0 -0.38151862494823319 -0.19996558655041019 0 -0.38452179946839471 -0.1862127167391712 0 -0.37438048369549509 -0.19384422148204511 0 -0.37301156641091737 -0.20337184000283479 0 -0.38151862494823319 -0.19996558655041019 0 -0.39911790788050461 -0.2003634602113514 0 -0.39550730918059213 -0.18407841519480589 0 -0.38452179946839471 -0.1862127167391712 0 -0.39911790788050461 -0.2003634602113514 0 -0.40135005364381798 -0.19305297691017151 0 -0.39550730918059213 -0.18407841519480589 0 -0.39911790788050461 -0.2003634602113514 0 -0.39550730918059213 -0.18407841519480589 0 -0.38971867217429529 -0.20303686442097379 0 -0.39911790788050461 -0.2003634602113514 0 -0.38452179946839471 -0.1862127167391712 0 -0.41017313324850019 -0.2051641423578727 0 -0.40060186426567512 -0.18260588987665591 0 -0.40135005364381798 -0.19305297691017151 0 -0.41017313324850019 -0.2051641423578727 0 -0.40060186426567512 -0.18260588987665591 0 -0.39911790788050461 -0.2003634602113514 0 -0.38452179946839471 -0.1862127167391712 0 -0.39911790788050461 -0.2003634602113514 0 -0.40135005364381798 -0.19305297691017151 0 -0.41017313324850019 -0.2051641423578727 0 -0.40882722491020068 -0.19324634934951379 0 -0.40670914653930851 -0.1871811045826946 0 -0.40060186426567512 -0.18260588987665591 0 -0.40882722491020068 -0.19324634934951379 0 -0.41182634361573828 -0.18846823012601879 0 -0.40670914653930851 -0.1871811045826946 0 -0.40882722491020068 -0.19324634934951379 0 -0.41017313324850019 -0.2051641423578727 0 -0.40060186426567512 -0.18260588987665591 0 -0.40882722491020068 -0.19324634934951379 0 -0.41332632127240471 -0.19520135196246871 0 -0.41182634361573828 -0.18846823012601879 0 -0.41182634361573828 -0.18846823012601879 0 -0.42015528071935893 -0.19373976728588371 0 -0.42086010939994178 -0.18624419393877539 0 -0.41332632127240471 -0.19520135196246871 0 -0.41182634361573828 -0.18846823012601879 0 -0.42015528071935893 -0.19373976728588371 0 -0.42015528071935893 -0.19373976728588371 0 -0.41596892406105851 -0.2005599774501266 0 -0.4250272884910265 -0.2012921483654643 0 -0.41596892406105851 -0.2005599774501266 0 -0.41798035083784391 -0.20525037365940721 0 -0.4250272884910265 -0.2012921483654643 0 -0.41332632127240471 -0.19520135196246871 0 -0.42015528071935893 -0.19373976728588371 0 -0.41596892406105851 -0.2005599774501266 0 -0.41596892406105851 -0.2005599774501266 0 -0.41190905555667651 -0.19876129696974801 0 -0.41017313324850019 -0.2051641423578727 0 -0.40882722491020068 -0.19324634934951379 0 -0.41190905555667651 -0.19876129696974801 0 -0.41017313324850019 -0.2051641423578727 0 -0.40882722491020068 -0.19324634934951379 0 -0.41332632127240471 -0.19520135196246871 0 -0.41190905555667651 -0.19876129696974801 0 -0.41332632127240471 -0.19520135196246871 0 -0.41596892406105851 -0.2005599774501266 0 -0.41190905555667651 -0.19876129696974801 0 -0.41974440223132548 -0.2277223948390894 0 -0.40379864078896821 -0.22147517947459039 0 -0.41017313324850019 -0.2051641423578727 0 -0.41974440223132548 -0.2277223948390894 0 -0.41017313324850019 -0.2051641423578727 0 -0.42075205755079043 -0.21398522646416529 0 -0.40379864078896821 -0.22147517947459039 0 -0.40520524043689871 -0.20626505254016059 0 -0.41017313324850019 -0.2051641423578727 0 -0.41974440223132548 -0.2277223948390894 0 -0.41017313324850019 -0.2051641423578727 0 -0.41017313324850019 -0.2051641423578727 0 -0.42075205755079043 -0.21398522646416529 0 -0.41798035083784391 -0.20525037365940721 0 -0.42075205755079043 -0.21398522646416529 0 -0.41798035083784391 -0.20525037365940721 0 -0.4250272884910265 -0.2012921483654643 0 -0.41596892406105851 -0.2005599774501266 0 -0.41017313324850019 -0.2051641423578727 0 -0.41798035083784391 -0.20525037365940721 0 -0.42075205755079043 -0.21398522646416529 0 -0.43601245252430942 -0.20793643678791121 0 -0.4250272884910265 -0.2012921483654643 0 -0.43377720402095787 -0.21991138490827611 0 -0.42075205755079043 -0.21398522646416529 0 -0.43601245252430942 -0.20793643678791121 0 -0.42704416580793209 -0.1915833167308334 0 -0.4250272884910265 -0.2012921483654643 0 -0.43829012180726529 -0.19322062900912909 0 -0.43601245252430942 -0.20793643678791121 0 -0.4250272884910265 -0.2012921483654643 0 -0.43829012180726529 -0.19322062900912909 0 -0.42704416580793209 -0.1915833167308334 0 -0.43088802862206788 -0.18341984505491449 0 -0.43829012180726529 -0.19322062900912909 0 -0.42015528071935893 -0.19373976728588371 0 -0.42704416580793209 -0.1915833167308334 0 -0.42086010939994178 -0.18624419393877539 0 -0.42015528071935893 -0.19373976728588371 0 -0.42704416580793209 -0.1915833167308334 0 -0.4250272884910265 -0.2012921483654643 0 -0.4285734277027195 -0.1734756855885477 0 -0.43088802862206788 -0.18341984505491449 0 -0.41995474680429618 -0.17713819565942951 0 -0.42704416580793209 -0.1915833167308334 0 -0.43088802862206788 -0.18341984505491449 0 -0.42086010939994178 -0.18624419393877539 0 -0.43088802862206788 -0.18341984505491449 0 -0.41995474680429618 -0.17713819565942951 0 -0.42086010939994178 -0.18624419393877539 0 -0.43088802862206788 -0.18341984505491449 0 -0.44104422433457419 -0.1777922577957152 0 -0.43829012180726529 -0.19322062900912909 0 -0.4285734277027195 -0.1734756855885477 0 -0.43088802862206788 -0.18341984505491449 0 -0.44104422433457419 -0.1777922577957152 0 -0.4285734277027195 -0.1734756855885477 0 -0.4344270590450659 -0.1609053943072484 0 -0.44104422433457419 -0.1777922577957152 0 -0.4285734277027195 -0.1734756855885477 0 -0.4344270590450659 -0.1609053943072484 0 -0.4151480566294905 -0.1680004084026471 0 -0.4151480566294905 -0.1680004084026471 0 -0.40323096316088519 -0.16793215078578741 0 -0.41306883257355248 -0.1475019853524365 0 -0.4344270590450659 -0.1609053943072484 0 -0.4151480566294905 -0.1680004084026471 0 -0.41306883257355248 -0.1475019853524365 0 -0.4151480566294905 -0.1680004084026471 0 -0.40690801218449152 -0.1762036959065488 0 -0.40323096316088519 -0.16793215078578741 0 -0.4151480566294905 -0.1680004084026471 0 -0.40690801218449152 -0.1762036959065488 0 -0.4136865446123984 -0.1757543503219206 0 -0.40690801218449152 -0.1762036959065488 0 -0.4136865446123984 -0.1757543503219206 0 -0.41273536283131562 -0.1816751013190569 0 -0.4151480566294905 -0.1680004084026471 0 -0.4136865446123984 -0.1757543503219206 0 -0.41995474680429618 -0.17713819565942951 0 -0.4285734277027195 -0.1734756855885477 0 -0.4151480566294905 -0.1680004084026471 0 -0.41995474680429618 -0.17713819565942951 0 -0.4136865446123984 -0.1757543503219206 0 -0.41995474680429618 -0.17713819565942951 0 -0.41273536283131562 -0.1816751013190569 0 -0.41995474680429618 -0.17713819565942951 0 -0.42086010939994178 -0.18624419393877539 0 -0.41273536283131562 -0.1816751013190569 0 -0.41182634361573828 -0.18846823012601879 0 -0.42086010939994178 -0.18624419393877539 0 -0.41273536283131562 -0.1816751013190569 0 -0.41182634361573828 -0.18846823012601879 0 -0.41273536283131562 -0.1816751013190569 0 -0.4077561458873058 -0.18322680436219499 0 -0.40690801218449152 -0.1762036959065488 0 -0.41273536283131562 -0.1816751013190569 0 -0.4077561458873058 -0.18322680436219499 0 -0.41182634361573828 -0.18846823012601879 0 -0.4077561458873058 -0.18322680436219499 0 -0.40670914653930851 -0.1871811045826946 0 -0.39550730918059213 -0.18407841519480589 0 -0.38736231178750308 -0.177259124355894 0 -0.39189671048067998 -0.1677933701782604 0 -0.40135005364381798 -0.19305297691017151 0 -0.40060186426567512 -0.18260588987665591 0 -0.39550730918059213 -0.18407841519480589 0 -0.4077561458873058 -0.18322680436219499 0 -0.40670914653930851 -0.1871811045826946 0 -0.40060186426567512 -0.18260588987665591 0 -0.39550730918059213 -0.18407841519480589 0 -0.39189671048067998 -0.1677933701782604 0 -0.40060186426567512 -0.18260588987665591 0 -0.39550730918059213 -0.18407841519480589 0 -0.39189671048067998 -0.1677933701782604 0 -0.40690801218449152 -0.1762036959065488 0 -0.4077561458873058 -0.18322680436219499 0 -0.40060186426567512 -0.18260588987665591 0 -0.40690801218449152 -0.1762036959065488 0 -0.40060186426567512 -0.18260588987665591 0 -0.40323096316088519 -0.16793215078578741 0 -0.36992569105628492 -0.1720619732669908 0 -0.38736231178750308 -0.177259124355894 0 -0.39189671048067998 -0.1677933701782604 0 -0.36992569105628492 -0.1720619732669908 0 -0.38452179946839471 -0.1862127167391712 0 -0.38736231178750308 -0.177259124355894 0 -0.39550730918059213 -0.18407841519480589 0 -0.38452179946839471 -0.1862127167391712 0 -0.38736231178750308 -0.177259124355894 0 -0.36992569105628492 -0.1720619732669908 0 -0.38452179946839471 -0.1862127167391712 0 -0.36992569105628492 -0.1720619732669908 0 -0.37692746124962329 -0.16011968929401549 0 -0.39103059528285172 -0.16004763739543851 0 -0.36992569105628492 -0.1720619732669908 0 -0.39189671048067998 -0.1677933701782604 0 -0.39103059528285172 -0.16004763739543851 0 -0.36992569105628492 -0.1720619732669908 0 -0.39103059528285172 -0.16004763739543851 0 -0.37692746124962329 -0.16011968929401549 0 -0.39103059528285172 -0.16004763739543851 0 -0.38828980922767731 -0.15358795645443499 0 -0.39103059528285172 -0.16004763739543851 0 -0.38828980922767731 -0.15358795645443499 0 -0.40060186426567512 -0.18260588987665591 0 -0.39103059528285172 -0.16004763739543851 0 -0.40323096316088519 -0.16793215078578741 0 -0.40060186426567512 -0.18260588987665591 0 -0.39189671048067998 -0.1677933701782604 0 -0.39103059528285172 -0.16004763739543851 0 -0.40060186426567512 -0.18260588987665591 0 -0.39103059528285172 -0.16004763739543851 0 -0.39103059528285172 -0.16004763739543851 0 -0.40323096316088519 -0.16793215078578741 0 -0.41306883257355248 -0.1475019853524365 0 -0.39103059528285172 -0.16004763739543851 0 -0.39795981207507403 -0.14502431583870179 0 -0.41306883257355248 -0.1475019853524365 0 -0.39795981207507403 -0.14502431583870179 0 -0.40633267592073652 -0.13102661860532899 0 -0.41306883257355248 -0.1475019853524365 0 -0.39103059528285172 -0.16004763739543851 0 -0.41306883257355248 -0.1475019853524365 0 -0.39103059528285172 -0.16004763739543851 0 -0.39795981207507403 -0.14502431583870179 0 -0.38828980922767731 -0.15358795645443499 0 -0.39795981207507403 -0.14502431583870179 0 -0.38828980922767731 -0.15358795645443499 0 -0.38190833683646341 -0.1417380771930716 0 -0.38828980922767731 -0.15358795645443499 0 -0.38190833683646341 -0.1417380771930716 0 -0.37945525551812698 -0.15104483685056111 0 -0.37069541475874412 -0.1487336244607225 0 -0.38190833683646341 -0.1417380771930716 0 -0.37945525551812698 -0.15104483685056111 0 -0.37692746124962329 -0.16011968929401549 0 -0.38828980922767731 -0.15358795645443499 0 -0.37945525551812698 -0.15104483685056111 0 -0.37069541475874412 -0.1487336244607225 0 -0.37692746124962329 -0.16011968929401549 0 -0.37945525551812698 -0.15104483685056111 0 -0.37152802352755399 -0.13164580699010159 0 -0.38190833683646341 -0.1417380771930716 0 -0.38235470820745771 -0.123978498660336 0 -0.38190833683646341 -0.1417380771930716 0 -0.39228294530364349 -0.13316426080004001 0 -0.38235470820745771 -0.123978498660336 0 -0.39228294530364349 -0.13316426080004001 0 -0.40633267592073652 -0.13102661860532899 0 -0.39306930808202878 -0.1142539450673672 0 -0.39795981207507403 -0.14502431583870179 0 -0.38190833683646341 -0.1417380771930716 0 -0.39228294530364349 -0.13316426080004001 0 -0.39795981207507403 -0.14502431583870179 0 -0.39228294530364349 -0.13316426080004001 0 -0.40633267592073652 -0.13102661860532899 0 -0.40633267592073652 -0.13102661860532899 0 -0.42371591628165239 -0.12841039464220819 0 -0.41294233195137359 -0.116724400289887 0 -0.40633267592073652 -0.13102661860532899 0 -0.41306883257355248 -0.1475019853524365 0 -0.42371591628165239 -0.12841039464220819 0 -0.4344270590450659 -0.1609053943072484 0 -0.41306883257355248 -0.1475019853524365 0 -0.43782831476482847 -0.1415704877041897 0 -0.41306883257355248 -0.1475019853524365 0 -0.42371591628165239 -0.12841039464220819 0 -0.43782831476482847 -0.1415704877041897 0 -0.42371591628165239 -0.12841039464220819 0 -0.43782831476482847 -0.1415704877041897 0 -0.44295770465017009 -0.12292285668534771 0 -0.43782831476482847 -0.1415704877041897 0 -0.45407528277834919 -0.1346042898317954 0 -0.44295770465017009 -0.12292285668534771 0 -0.43782831476482847 -0.1415704877041897 0 -0.45305184803309972 -0.15210272433296521 0 -0.45407528277834919 -0.1346042898317954 0 -0.4344270590450659 -0.1609053943072484 0 -0.43782831476482847 -0.1415704877041897 0 -0.45305184803309972 -0.15210272433296521 0 -0.45305184803309972 -0.15210272433296521 0 -0.45407528277834919 -0.1346042898317954 0 -0.47213782278640881 -0.13623393318828281 0 -0.45305184803309972 -0.15210272433296521 0 -0.47213782278640881 -0.13623393318828281 0 -0.46702369577757719 -0.16066454859793791 0 -0.45407528277834919 -0.1346042898317954 0 -0.47213782278640881 -0.13623393318828281 0 -0.46296805171726468 -0.11640170438458371 0 -0.47213782278640881 -0.13623393318828281 0 -0.5 -0.14556247672259531 0 -0.48245330698995931 -0.121898764666846 0 -0.5 -0.14556247672259531 0 -0.48245330698995931 -0.121898764666846 0 -0.50000000000000089 -0.1198938119733675 0 -0.47213782278640881 -0.13623393318828281 0 -0.5 -0.14556247672259531 0 -0.48142521519093828 -0.15645589086587239 0 -0.47213782278640881 -0.13623393318828281 0 -0.48142521519093828 -0.15645589086587239 0 -0.47213782278640881 -0.13623393318828281 0 -0.48142521519093828 -0.15645589086587239 0 -0.46702369577757719 -0.16066454859793791 0 -0.48142521519093828 -0.15645589086587239 0 -0.47632052375980027 -0.17461649056753861 0 -0.46702369577757719 -0.16066454859793791 0 -0.48142521519093828 -0.15645589086587239 0 -0.49071260759546798 -0.17667784854346191 0 -0.47632052375980027 -0.17461649056753861 0 -0.47632052375980027 -0.17461649056753861 0 -0.46570520523623959 -0.1757931846103527 0 -0.46702369577757719 -0.16066454859793791 0 -0.48142521519093828 -0.15645589086587239 0 -0.49071260759546798 -0.17667784854346191 0 -0.5 -0.14556247672259531 0 -0.48142521519093828 -0.15645589086587239 0 -0.5 -0.17123114147182319 0 -0.48142521519093828 -0.15645589086587239 0 -0.5 -0.17123114147182319 0 -0.49071260759546798 -0.17667784854346191 0 -0.49071260759546798 -0.17667784854346191 0 -0.49999999999999861 -0.19689980622105099 0 -0.5 -0.17123114147182319 0 -0.49071260759546798 -0.17667784854346191 0 -0.49999999999999861 -0.19689980622105099 0 -0.49071260759546798 -0.17667784854346191 0 -0.47632052375980027 -0.17461649056753861 0 -0.47993034859498662 -0.18922987045237161 0 -0.47632052375980027 -0.17461649056753861 0 -0.46763136520864318 -0.18653340036078911 0 -0.46570520523623959 -0.1757931846103527 0 -0.47632052375980027 -0.17461649056753861 0 -0.46763136520864318 -0.18653340036078911 0 -0.47993034859498662 -0.18922987045237161 0 -0.46570520523623959 -0.1757931846103527 0 -0.45350155965897682 -0.1687850680226157 0 -0.45596312027128949 -0.18794868189772959 0 -0.46763136520864318 -0.18653340036078911 0 -0.46570520523623959 -0.1757931846103527 0 -0.45596312027128949 -0.18794868189772959 0 -0.45305184803309972 -0.15210272433296521 0 -0.46702369577757719 -0.16066454859793791 0 -0.45350155965897682 -0.1687850680226157 0 -0.46570520523623959 -0.1757931846103527 0 -0.46702369577757719 -0.16066454859793791 0 -0.45350155965897682 -0.1687850680226157 0 -0.4344270590450659 -0.1609053943072484 0 -0.45305184803309972 -0.15210272433296521 0 -0.45350155965897682 -0.1687850680226157 0 -0.4344270590450659 -0.1609053943072484 0 -0.45350155965897682 -0.1687850680226157 0 -0.44104422433457419 -0.1777922577957152 0 -0.45350155965897682 -0.1687850680226157 0 -0.44104422433457419 -0.1777922577957152 0 -0.45596312027128949 -0.18794868189772959 0 -0.44104422433457419 -0.1777922577957152 0 -0.43829012180726529 -0.19322062900912909 0 -0.45596312027128949 -0.18794868189772959 0 -0.45013906333809789 -0.2009404811944836 0 -0.43829012180726529 -0.19322062900912909 0 -0.45596312027128949 -0.18794868189772959 0 -0.43601245252430942 -0.20793643678791121 0 -0.45013906333809789 -0.2009404811944836 0 -0.43829012180726529 -0.19322062900912909 0 -0.43377720402095787 -0.21991138490827611 0 -0.43601245252430942 -0.20793643678791121 0 -0.45297794936819918 -0.2159919965998246 0 -0.43601245252430942 -0.20793643678791121 0 -0.45013906333809789 -0.2009404811944836 0 -0.45297794936819918 -0.2159919965998246 0 -0.45013906333809789 -0.2009404811944836 0 -0.45297794936819918 -0.2159919965998246 0 -0.46745167271942573 -0.1996046616778234 0 -0.45297794936819918 -0.2159919965998246 0 -0.46745167271942573 -0.1996046616778234 0 -0.46956062781061803 -0.21704188818370149 0 -0.45013906333809789 -0.2009404811944836 0 -0.46745167271942573 -0.1996046616778234 0 -0.45596312027128949 -0.18794868189772959 0 -0.46763136520864318 -0.18653340036078911 0 -0.46745167271942573 -0.1996046616778234 0 -0.45596312027128949 -0.18794868189772959 0 -0.46745167271942573 -0.1996046616778234 0 -0.47993034859498662 -0.18922987045237161 0 -0.48475058775642699 -0.21058337118561141 0 -0.46763136520864318 -0.18653340036078911 0 -0.46745167271942573 -0.1996046616778234 0 -0.47993034859498662 -0.18922987045237161 0 -0.47993034859498662 -0.18922987045237161 0 -0.49999999999999861 -0.19689980622105099 0 -0.48475058775642699 -0.21058337118561141 0 -0.49071260759546798 -0.17667784854346191 0 -0.47993034859498662 -0.18922987045237161 0 -0.49999999999999861 -0.19689980622105099 0 -0.49999999999999861 -0.19689980622105099 0 -0.48475058775642699 -0.21058337118561141 0 -0.50000000000000355 -0.22426693615016591 0 -0.46745167271942573 -0.1996046616778234 0 -0.48475058775642699 -0.21058337118561141 0 -0.46956062781061803 -0.21704188818370149 0 -0.46956062781061803 -0.21704188818370149 0 -0.47829002665147741 -0.2341248566128927 0 -0.46279731583591321 -0.22891002208815581 0 -0.48475058775642699 -0.21058337118561141 0 -0.46956062781061803 -0.21704188818370149 0 -0.47829002665147741 -0.2341248566128927 0 -0.47829002665147741 -0.2341248566128927 0 -0.49757451855253881 -0.23053548086278239 0 -0.50000000000000355 -0.22426693615016591 0 -0.48475058775642699 -0.21058337118561141 0 -0.47829002665147741 -0.2341248566128927 0 -0.50000000000000355 -0.22426693615016591 0 -0.47829002665147741 -0.2341248566128927 0 -0.50000000000000355 -0.22426693615016591 0 -0.47829002665147741 -0.2341248566128927 0 -0.49757451855253881 -0.23053548086278239 0 -0.47793059070477772 -0.24540990329775009 0 -0.5 -0.25006354863638108 0 -0.49757451855253881 -0.23053548086278239 0 -0.49068252501969761 -0.24549971615663649 0 -0.49757451855253881 -0.23053548086278239 0 -0.49068252501969761 -0.24549971615663649 0 -0.47793059070477772 -0.24540990329775009 0 -0.49757451855253881 -0.23053548086278239 0 -0.47793059070477772 -0.24540990329775009 0 -0.5 -0.25006354863638108 0 -0.49757451855253881 -0.23053548086278239 0 -0.50000000000000355 -0.22426693615016591 0 -0.4872249908214738 -0.25598993182963242 0 -0.49068252501969761 -0.24549971615663649 0 -0.47793059070477772 -0.24540990329775009 0 -0.47829002665147741 -0.2341248566128927 0 -0.47793059070477772 -0.24540990329775009 0 -0.45658005330295048 -0.2439827770756183 0 -0.45658005330295048 -0.2439827770756183 0 -0.46279731583591321 -0.22891002208815581 0 -0.44277641758923081 -0.23102430468348881 0 -0.47829002665147741 -0.2341248566128927 0 -0.45658005330295048 -0.2439827770756183 0 -0.45828666285701658 -0.26028432573271792 0 -0.47793059070477772 -0.24540990329775009 0 -0.45658005330295048 -0.2439827770756183 0 -0.47829002665147741 -0.2341248566128927 0 -0.45658005330295048 -0.2439827770756183 0 -0.46279731583591321 -0.22891002208815581 0 -0.45297794936819918 -0.2159919965998246 0 -0.46956062781061803 -0.21704188818370149 0 -0.46279731583591321 -0.22891002208815581 0 -0.45297794936819918 -0.2159919965998246 0 -0.46279731583591321 -0.22891002208815581 0 -0.44277641758923081 -0.23102430468348881 0 -0.43377720402095787 -0.21991138490827611 0 -0.45297794936819918 -0.2159919965998246 0 -0.44277641758923081 -0.23102430468348881 0 -0.43487007995442373 -0.25384069753834382 0 -0.45658005330295048 -0.2439827770756183 0 -0.43487007995442373 -0.25384069753834382 0 -0.43665732485841618 -0.24137016429136929 0 -0.45658005330295048 -0.2439827770756183 0 -0.43665732485841618 -0.24137016429136929 0 -0.45658005330295048 -0.2439827770756183 0 -0.44277641758923081 -0.23102430468348881 0 -0.42837915354319411 -0.040827216461995969 0 -0.4199205163048339 -0.024265820886729 0 -0.40528095782104068 -0.044243292517360297 0 -0.42343463197652342 -0.05874232933513765 0 -0.42837915354319411 -0.040827216461995969 0 -0.40528095782104068 -0.044243292517360297 0 -0.42343463197652342 -0.05874232933513765 0 -0.40528095782104068 -0.044243292517360297 0 -0.42343463197652342 -0.05874232933513765 0 -0.40528095782104068 -0.044243292517360297 0 -0.40670414160736479 -0.063195666982337848 0 -0.42343463197652342 -0.05874232933513765 0 -0.42837915354319411 -0.040827216461995969 0 -0.44094154444346079 -0.04995238034171972 0 -0.42343463197652342 -0.05874232933513765 0 -0.44158830613200611 -0.073241366152915127 0 -0.44094154444346079 -0.04995238034171972 0 -0.42837915354319411 -0.040827216461995969 0 -0.4342900889778567 -0.026770694848987801 0 -0.4453801544960031 -0.037531923181514312 0 -0.4342900889778567 -0.026770694848987801 0 -0.43033724725149269 -0.0037964727450953309 0 -0.4199205163048339 -0.024265820886729 0 -0.4342900889778567 -0.026770694848987801 0 -0.43033724725149269 -0.0037964727450953309 0 -0.44743337329375982 -0.027432040969604381 0 -0.42837915354319411 -0.040827216461995969 0 -0.4342900889778567 -0.026770694848987801 0 -0.4199205163048339 -0.024265820886729 0 -0.43033724725149269 -0.0037964727450953309 0 -0.4131572459017161 -0.004875649818797438 0 -0.4199205163048339 -0.024265820886729 0 -0.4131572459017161 -0.004875649818797438 0 -0.4199205163048339 -0.024265820886729 0 -0.40195427741026962 -0.018113178269922089 0 -0.4199205163048339 -0.024265820886729 0 -0.40195427741026962 -0.018113178269922089 0 -0.40528095782104068 -0.044243292517360297 0 -0.40195427741026962 -0.018113178269922089 0 -0.38465333842141641 -0.0066435457767305304 0 -0.38712728366555788 -0.02974425569958293 0 -0.40195427741026962 -0.018113178269922089 0 -0.38712728366555788 -0.02974425569958293 0 -0.40528095782104068 -0.044243292517360297 0 -0.40195427741026962 -0.018113178269922089 0 -0.38465333842141641 -0.0066435457767305304 0 -0.40033306733275759 0.0019581273283447299 0 -0.4131572459017161 -0.004875649818797438 0 -0.40195427741026962 -0.018113178269922089 0 -0.40033306733275759 0.0019581273283447299 0 -0.38465333842141641 -0.0066435457767305304 0 -0.40033306733275759 0.0019581273283447299 0 -0.36897360951007507 -0.015245218881805699 0 -0.38465333842141641 -0.0066435457767305304 0 -0.36897360951007507 -0.015245218881805699 0 -0.38465333842141641 -0.0066435457767305304 0 -0.38712728366555788 -0.02974425569958293 0 -0.36897360951007507 -0.015245218881805699 0 -0.38712728366555788 -0.02974425569958293 0 -0.37357085562444819 -0.050327950541553881 0 -0.38712728366555788 -0.02974425569958293 0 -0.39147992867528753 -0.058279446621744307 0 -0.38712728366555788 -0.02974425569958293 0 -0.40528095782104068 -0.044243292517360297 0 -0.38712728366555788 -0.02974425569958293 0 -0.40528095782104068 -0.044243292517360297 0 -0.39147992867528753 -0.058279446621744307 0 -0.40528095782104068 -0.044243292517360297 0 -0.39147992867528753 -0.058279446621744307 0 -0.40670414160736479 -0.063195666982337848 0 -0.37357085562444819 -0.050327950541553881 0 -0.39147992867528753 -0.058279446621744307 0 -0.37513495807632252 -0.068027960422620465 0 -0.39147992867528753 -0.058279446621744307 0 -0.37513495807632252 -0.068027960422620465 0 -0.3944429598887787 -0.078419500118194568 0 -0.37347114863240299 -0.089088331268139143 0 -0.37513495807632252 -0.068027960422620465 0 -0.3944429598887787 -0.078419500118194568 0 -0.37347114863240299 -0.089088331268139143 0 -0.3944429598887787 -0.078419500118194568 0 -0.38844874713165228 -0.097169733216879689 0 -0.3944429598887787 -0.078419500118194568 0 -0.38844874713165228 -0.097169733216879689 0 -0.40907098738890341 -0.097978282768044114 0 -0.39147992867528753 -0.058279446621744307 0 -0.3944429598887787 -0.078419500118194568 0 -0.40670414160736479 -0.063195666982337848 0 -0.3944429598887787 -0.078419500118194568 0 -0.41749625226094061 -0.077358517460495352 0 -0.40670414160736479 -0.063195666982337848 0 -0.39228294530364349 -0.13316426080004001 0 -0.38235470820745771 -0.123978498660336 0 -0.39306930808202878 -0.1142539450673672 0 -0.36980343247362518 -0.1100922289949047 0 -0.38235470820745771 -0.123978498660336 0 -0.39306930808202878 -0.1142539450673672 0 -0.36980343247362518 -0.1100922289949047 0 -0.37347114863240299 -0.089088331268139143 0 -0.38844874713165228 -0.097169733216879689 0 -0.36980343247362518 -0.1100922289949047 0 -0.38844874713165228 -0.097169733216879689 0 -0.39306930808202878 -0.1142539450673672 0 -0.38844874713165228 -0.097169733216879689 0 -0.39306930808202878 -0.1142539450673672 0 -0.40907098738890341 -0.097978282768044114 0 -0.39306930808202878 -0.1142539450673672 0 -0.41294233195137359 -0.116724400289887 0 -0.40907098738890341 -0.097978282768044114 0 -0.40633267592073652 -0.13102661860532899 0 -0.39306930808202878 -0.1142539450673672 0 -0.41294233195137359 -0.116724400289887 0 -0.41294233195137359 -0.116724400289887 0 -0.40907098738890341 -0.097978282768044114 0 -0.42916563782925382 -0.1107160192160596 0 -0.42916563782925382 -0.1107160192160596 0 -0.42904349786494111 -0.093106334976964328 0 -0.44668080241849201 -0.10304266906569499 0 -0.40907098738890341 -0.097978282768044114 0 -0.42916563782925382 -0.1107160192160596 0 -0.42904349786494111 -0.093106334976964328 0 -0.42371591628165239 -0.12841039464220819 0 -0.42916563782925382 -0.1107160192160596 0 -0.44295770465017009 -0.12292285668534771 0 -0.42371591628165239 -0.12841039464220819 0 -0.41294233195137359 -0.116724400289887 0 -0.42916563782925382 -0.1107160192160596 0 -0.42343463197652342 -0.05874232933513765 0 -0.41749625226094061 -0.077358517460495352 0 -0.40670414160736479 -0.063195666982337848 0 -0.40907098738890341 -0.097978282768044114 0 -0.41749625226094061 -0.077358517460495352 0 -0.42904349786494111 -0.093106334976964328 0 -0.3944429598887787 -0.078419500118194568 0 -0.40907098738890341 -0.097978282768044114 0 -0.41749625226094061 -0.077358517460495352 0 -0.41749625226094061 -0.077358517460495352 0 -0.42904349786494111 -0.093106334976964328 0 -0.44158830613200611 -0.073241366152915127 0 -0.42904349786494111 -0.093106334976964328 0 -0.44158830613200611 -0.073241366152915127 0 -0.42343463197652342 -0.05874232933513765 0 -0.44158830613200611 -0.073241366152915127 0 -0.42343463197652342 -0.05874232933513765 0 -0.41749625226094061 -0.077358517460495352 0 -0.44158830613200611 -0.073241366152915127 0 -0.44158830613200611 -0.073241366152915127 0 -0.46118581313569179 -0.071431252447136412 0 -0.45067286806919349 -0.058855770468984832 0 -0.44158830613200611 -0.073241366152915127 0 -0.45067286806919349 -0.058855770468984832 0 -0.44158830613200611 -0.073241366152915127 0 -0.44459286929252761 -0.089545637905493386 0 -0.46105887075467122 -0.088792181426399025 0 -0.42904349786494111 -0.093106334976964328 0 -0.44158830613200611 -0.073241366152915127 0 -0.44459286929252761 -0.089545637905493386 0 -0.44158830613200611 -0.073241366152915127 0 -0.46105887075467122 -0.088792181426399025 0 -0.46105887075467122 -0.088792181426399025 0 -0.46118581313569179 -0.071431252447136412 0 -0.48115195350555812 -0.076249636056848105 0 -0.44158830613200611 -0.073241366152915127 0 -0.46105887075467122 -0.088792181426399025 0 -0.46118581313569179 -0.071431252447136412 0 -0.44295770465017009 -0.12292285668534771 0 -0.44668080241849201 -0.10304266906569499 0 -0.46296805171726468 -0.11640170438458371 0 -0.42916563782925382 -0.1107160192160596 0 -0.44295770465017009 -0.12292285668534771 0 -0.44668080241849201 -0.10304266906569499 0 -0.44459286929252761 -0.089545637905493386 0 -0.46105887075467122 -0.088792181426399025 0 -0.44668080241849201 -0.10304266906569499 0 -0.42904349786494111 -0.093106334976964328 0 -0.44459286929252761 -0.089545637905493386 0 -0.44668080241849201 -0.10304266906569499 0 -0.46105887075467122 -0.088792181426399025 0 -0.46296805171726468 -0.11640170438458371 0 -0.48052943537733628 -0.1043429966998831 0 -0.46105887075467122 -0.088792181426399025 0 -0.44668080241849201 -0.10304266906569499 0 -0.46296805171726468 -0.11640170438458371 0 -0.45407528277834919 -0.1346042898317954 0 -0.44295770465017009 -0.12292285668534771 0 -0.46296805171726468 -0.11640170438458371 0 -0.46296805171726468 -0.11640170438458371 0 -0.48245330698995931 -0.121898764666846 0 -0.48052943537733628 -0.1043429966998831 0 -0.47213782278640881 -0.13623393318828281 0 -0.46296805171726468 -0.11640170438458371 0 -0.48245330698995931 -0.121898764666846 0 -0.46105887075467122 -0.088792181426399025 0 -0.48052943537733628 -0.1043429966998831 0 -0.48052943537733628 -0.1043429966998831 0 -0.50000000000000089 -0.1198938119733675 0 -0.5 -0.090898883536528308 0 -0.48245330698995931 -0.121898764666846 0 -0.48052943537733628 -0.1043429966998831 0 -0.50000000000000089 -0.1198938119733675 0 -0.48052943537733628 -0.1043429966998831 0 -0.50000000000000089 -0.1198938119733675 0 -0.46118581313569179 -0.071431252447136412 0 -0.48115195350555812 -0.076249636056848105 0 -0.46833584839527592 -0.05632992550213807 0 -0.48115195350555812 -0.076249636056848105 0 -0.48490864188954641 -0.055044389119401932 0 -0.46833584839527592 -0.05632992550213807 0 -0.46105887075467122 -0.088792181426399025 0 -0.48052943537733628 -0.1043429966998831 0 -0.48115195350555812 -0.076249636056848105 0 -0.48052943537733628 -0.1043429966998831 0 -0.48115195350555812 -0.076249636056848105 0 -0.5 -0.090898883536528308 0 -0.48115195350555812 -0.076249636056848105 0 -0.5 -0.090898883536528308 0 -0.5 -0.061903955099689163 0 -0.48115195350555812 -0.076249636056848105 0 -0.5 -0.061903955099689163 0 -0.48490864188954641 -0.055044389119401932 0 -0.5 -0.061903955099689163 0 -0.48490864188954641 -0.055044389119401932 0 -0.5 -0.032909026662849998 0 -0.48490864188954641 -0.055044389119401932 0 -0.5 -0.032909026662849998 0 -0.47623700986288742 -0.042296174380792313 0 -0.47623700986288742 -0.042296174380792313 0 -0.45975743000638192 -0.044470174785055258 0 -0.47133789178420182 -0.026132268992706809 0 -0.5 -0.032909026662849998 0 -0.47623700986288742 -0.042296174380792313 0 -0.47133789178420182 -0.026132268992706809 0 -0.48490864188954641 -0.055044389119401932 0 -0.47623700986288742 -0.042296174380792313 0 -0.46833584839527592 -0.05632992550213807 0 -0.46118581313569179 -0.071431252447136412 0 -0.46833584839527592 -0.05632992550213807 0 -0.45067286806919349 -0.058855770468984832 0 -0.47623700986288742 -0.042296174380792313 0 -0.46833584839527592 -0.05632992550213807 0 -0.45975743000638192 -0.044470174785055258 0 -0.46833584839527592 -0.05632992550213807 0 -0.45975743000638192 -0.044470174785055258 0 -0.45067286806919349 -0.058855770468984832 0 -0.45975743000638192 -0.044470174785055258 0 -0.45067286806919349 -0.058855770468984832 0 -0.46833584839527592 -0.05632992550213807 0 -0.45975743000638192 -0.044470174785055258 0 -0.45964620516156041 -0.031574428691672249 0 -0.45975743000638192 -0.044470174785055258 0 -0.44743337329375982 -0.027432040969604381 0 -0.45975743000638192 -0.044470174785055258 0 -0.44743337329375982 -0.027432040969604381 0 -0.45975743000638192 -0.044470174785055258 0 -0.47133789178420182 -0.026132268992706809 0 -0.45964620516156041 -0.031574428691672249 0 -0.45975743000638192 -0.044470174785055258 0 -0.47133789178420182 -0.026132268992706809 0 -0.45975743000638192 -0.044470174785055258 0 -0.4453801544960031 -0.037531923181514312 0 -0.44743337329375982 -0.027432040969604381 0 -0.45975743000638192 -0.044470174785055258 0 -0.4453801544960031 -0.037531923181514312 0 -0.44094154444346079 -0.04995238034171972 0 -0.42837915354319411 -0.040827216461995969 0 -0.4453801544960031 -0.037531923181514312 0 -0.44094154444346079 -0.04995238034171972 0 -0.4453801544960031 -0.037531923181514312 0 -0.44743337329375982 -0.027432040969604381 0 -0.44158830613200611 -0.073241366152915127 0 -0.44094154444346079 -0.04995238034171972 0 -0.45067286806919349 -0.058855770468984832 0 -0.45975743000638192 -0.044470174785055258 0 -0.44094154444346079 -0.04995238034171972 0 -0.45067286806919349 -0.058855770468984832 0 -0.43033724725149269 -0.0037964727450953309 0 -0.45268467479845531 -0.00160063580491273 0 -0.44743337329375982 -0.027432040969604381 0 -0.45268467479845531 -0.00160063580491273 0 -0.44743337329375982 -0.027432040969604381 0 -0.43033724725149269 -0.0037964727450953309 0 -0.44743337329375982 -0.027432040969604381 0 -0.4342900889778567 -0.026770694848987801 0 -0.4453801544960031 -0.037531923181514312 0 -0.44743337329375982 -0.027432040969604381 0 -0.45964620516156041 -0.031574428691672249 0 -0.44743337329375982 -0.027432040969604381 0 -0.46065164258955998 -0.015998841515816709 0 -0.45964620516156041 -0.031574428691672249 0 -0.46065164258955998 -0.015998841515816709 0 -0.47133789178420182 -0.026132268992706809 0 -0.45268467479845531 -0.00160063580491273 0 -0.46065164258955998 -0.015998841515816709 0 -0.47044579822050858 0.003730308873902122 0 -0.45268467479845531 -0.00160063580491273 0 -0.44743337329375982 -0.027432040969604381 0 -0.46065164258955998 -0.015998841515816709 0 -0.46065164258955998 -0.015998841515816709 0 -0.48291835356202167 -0.0077943632003582772 0 -0.47044579822050858 0.003730308873902122 0 -0.46065164258955998 -0.015998841515816709 0 -0.48291835356202167 -0.0077943632003582772 0 -0.47133789178420182 -0.026132268992706809 0 -0.48291835356202167 -0.0077943632003582772 0 -0.47133789178420182 -0.026132268992706809 0 -0.5 -0.032909026662849998 0 -0.48291835356202167 -0.0077943632003582772 0 -0.47133789178420182 -0.026132268992706809 0 -0.5 -0.032909026662849998 0 -0.48291835356202167 -0.0077943632003582772 0 -0.5 -0.0039140982260107426 0 -0.48291835356202167 -0.0077943632003582772 0 -0.5 -0.0039140982260107426 0 -0.48656778433615411 0.0071434676601368312 0 -0.5 -0.0039140982260107426 0 -0.48656778433615411 0.0071434676601368312 0 -0.5 0.02508083021082835 0 -0.5 0.02508083021082835 0 -0.47947476989823978 0.0186146606423227 0 -0.48053744464613157 0.038241937480116027 0 -0.48656778433615411 0.0071434676601368312 0 -0.5 0.02508083021082835 0 -0.47947476989823978 0.0186146606423227 0 -0.47947476989823978 0.0186146606423227 0 -0.48053744464613157 0.038241937480116027 0 -0.45793597630314969 0.024230769359779091 0 -0.48656778433615411 0.0071434676601368312 0 -0.47947476989823978 0.0186146606423227 0 -0.47044579822050858 0.003730308873902122 0 -0.48291835356202167 -0.0077943632003582772 0 -0.48656778433615411 0.0071434676601368312 0 -0.47044579822050858 0.003730308873902122 0 -0.47947476989823978 0.0186146606423227 0 -0.47044579822050858 0.003730308873902122 0 -0.45793597630314969 0.024230769359779091 0 -0.5 0.05407575864766756 0 -0.48053744464613157 0.038241937480116027 0 -0.48160115767747708 0.06010989829645641 0 -0.5 0.02508083021082835 0 -0.5 0.05407575864766756 0 -0.48053744464613157 0.038241937480116027 0 -0.48053744464613157 0.038241937480116027 0 -0.48160115767747708 0.06010989829645641 0 -0.4631872778078443 0.050062174524471058 0 -0.48160115767747708 0.06010989829645641 0 -0.4631872778078443 0.050062174524471058 0 -0.46843857931253879 0.07589357968916309 0 -0.4631872778078443 0.050062174524471058 0 -0.4467001814262947 0.061097152827744368 0 -0.46843857931253879 0.07589357968916309 0 -0.48053744464613157 0.038241937480116027 0 -0.4631872778078443 0.050062174524471058 0 -0.45793597630314969 0.024230769359779091 0 -0.4631872778078443 0.050062174524471058 0 -0.45793597630314969 0.024230769359779091 0 -0.4631872778078443 0.050062174524471058 0 -0.44755765064800451 0.039790068000500847 0 -0.45793597630314969 0.024230769359779091 0 -0.44755765064800451 0.039790068000500847 0 -0.43523671041618939 0.023434885238954581 0 -0.43070758581248142 0.047053180835022322 0 -0.4631872778078443 0.050062174524471058 0 -0.44755765064800451 0.039790068000500847 0 -0.4467001814262947 0.061097152827744368 0 -0.44755765064800451 0.039790068000500847 0 -0.4467001814262947 0.061097152827744368 0 -0.43070758581248142 0.047053180835022322 0 -0.45268467479845531 -0.00160063580491273 0 -0.45793597630314969 0.024230769359779091 0 -0.45268467479845531 -0.00160063580491273 0 -0.47044579822050858 0.003730308873902122 0 -0.45793597630314969 0.024230769359779091 0 -0.44755765064800451 0.039790068000500847 0 -0.45793597630314969 0.024230769359779091 0 -0.43523671041618939 0.023434885238954581 0 -0.45268467479845531 -0.00160063580491273 0 -0.45793597630314969 0.024230769359779091 0 -0.43523671041618939 0.023434885238954581 0 -0.43033724725149269 -0.0037964727450953309 0 -0.45268467479845531 -0.00160063580491273 0 -0.43523671041618939 0.023434885238954581 0 -0.43033724725149269 -0.0037964727450953309 0 -0.41324112120922679 0.019839095479414509 0 -0.43523671041618939 0.023434885238954581 0 -0.4131572459017161 -0.004875649818797438 0 -0.41324112120922679 0.019839095479414509 0 -0.40033306733275759 0.0019581273283447299 0 -0.43033724725149269 -0.0037964727450953309 0 -0.4131572459017161 -0.004875649818797438 0 -0.41324112120922679 0.019839095479414509 0 -0.43033724725149269 -0.0037964727450953309 0 -0.41324112120922679 0.019839095479414509 0 -0.41324112120922679 0.019839095479414509 0 -0.43523671041618939 0.023434885238954581 0 -0.4159879611894004 0.038538653043845933 0 -0.43523671041618939 0.023434885238954581 0 -0.43070758581248142 0.047053180835022322 0 -0.4159879611894004 0.038538653043845933 0 -0.4467001814262947 0.061097152827744368 0 -0.43070758581248142 0.047053180835022322 0 -0.43187545736445182 0.065921103617004775 0 -0.43070758581248142 0.047053180835022322 0 -0.41322656597679058 0.058941655142102069 0 -0.43187545736445182 0.065921103617004775 0 -0.43070758581248142 0.047053180835022322 0 -0.41322656597679058 0.058941655142102069 0 -0.4159879611894004 0.038538653043845933 0 -0.41322656597679058 0.058941655142102069 0 -0.4159879611894004 0.038538653043845933 0 -0.39614499516696089 0.04347466370392436 0 -0.41324112120922679 0.019839095479414509 0 -0.4159879611894004 0.038538653043845933 0 -0.39614499516696089 0.04347466370392436 0 -0.41324112120922679 0.019839095479414509 0 -0.39614499516696089 0.04347466370392436 0 -0.39614499516696089 0.04347466370392436 0 -0.37904886912469499 0.067110231928434197 0 -0.39695674231957478 0.074929810419583368 0 -0.41322656597679058 0.058941655142102069 0 -0.39614499516696089 0.04347466370392436 0 -0.39695674231957478 0.074929810419583368 0 -0.39614499516696089 0.04347466370392436 0 -0.37904886912469499 0.067110231928434197 0 -0.39614499516696089 0.04347466370392436 0 -0.37830855690199738 0.048851891747440382 0 -0.37904886912469499 0.067110231928434197 0 -0.37830855690199738 0.048851891747440382 0 -0.37904886912469499 0.067110231928434197 0 -0.37119345183321822 0.058853827639881867 0 -0.39614499516696089 0.04347466370392436 0 -0.37753126207020948 0.034899308803226177 0 -0.39262774316901877 0.02112007510405265 0 -0.39614499516696089 0.04347466370392436 0 -0.37830855690199738 0.048851891747440382 0 -0.37753126207020948 0.034899308803226177 0 -0.38389636562500351 0.0078670615218947963 0 -0.39262774316901877 0.02112007510405265 0 -0.37274578052696178 0.01868977009819147 0 -0.37753126207020948 0.034899308803226177 0 -0.39262774316901877 0.02112007510405265 0 -0.37274578052696178 0.01868977009819147 0 -0.38465333842141641 -0.0066435457767305304 0 -0.38389636562500351 0.0078670615218947963 0 -0.40033306733275759 0.0019581273283447299 0 -0.38389636562500351 0.0078670615218947963 0 -0.37274578052696178 0.01868977009819147 0 -0.36979036210562988 0.0025511841975563729 0 -0.38465333842141641 -0.0066435457767305304 0 -0.38389636562500351 0.0078670615218947963 0 -0.36979036210562988 0.0025511841975563729 0 -0.38389636562500351 0.0078670615218947963 0 -0.40033306733275759 0.0019581273283447299 0 -0.39262774316901877 0.02112007510405265 0 -0.41324112120922679 0.019839095479414509 0 -0.40033306733275759 0.0019581273283447299 0 -0.39262774316901877 0.02112007510405265 0 -0.41324112120922679 0.019839095479414509 0 -0.39614499516696089 0.04347466370392436 0 -0.39262774316901877 0.02112007510405265 0 -0.38940712396436111 0.098535478259042519 0 -0.39976920250104669 0.086913075381088473 0 -0.40655062222011962 0.096340958868671334 0 -0.39063101314785642 0.1199442217017349 0 -0.40655062222011962 0.096340958868671334 0 -0.40795026737523371 0.1101441825861223 0 -0.39063101314785642 0.1199442217017349 0 -0.38940712396436111 0.098535478259042519 0 -0.40655062222011962 0.096340958868671334 0 -0.39063101314785642 0.1199442217017349 0 -0.40655062222011962 0.096340958868671334 0 -0.39063101314785642 0.1199442217017349 0 -0.40795026737523371 0.1101441825861223 0 -0.40406865080306442 0.1250183431131778 0 -0.39063101314785642 0.1199442217017349 0 -0.37896648635229202 0.10715504183998489 0 -0.36716541190589658 0.118616890008602 0 -0.39063101314785642 0.1199442217017349 0 -0.37896648635229202 0.10715504183998489 0 -0.38940712396436111 0.098535478259042519 0 -0.37896648635229202 0.10715504183998489 0 -0.38940712396436111 0.098535478259042519 0 -0.37643332436138899 0.09558572737664002 0 -0.38119130922167832 0.078766060501995444 0 -0.3856317933390121 0.08567132342606161 0 -0.39695674231957478 0.074929810419583368 0 -0.37643332436138899 0.09558572737664002 0 -0.3856317933390121 0.08567132342606161 0 -0.37016311523106599 0.083751267223082917 0 -0.38119130922167832 0.078766060501995444 0 -0.3856317933390121 0.08567132342606161 0 -0.37016311523106599 0.083751267223082917 0 -0.38940712396436111 0.098535478259042519 0 -0.37643332436138899 0.09558572737664002 0 -0.3856317933390121 0.08567132342606161 0 -0.39695674231957478 0.074929810419583368 0 -0.37201358599706058 0.070711840939253895 0 -0.38119130922167832 0.078766060501995444 0 -0.39695674231957478 0.074929810419583368 0 -0.37201358599706058 0.070711840939253895 0 -0.37904886912469499 0.067110231928434197 0 -0.39695674231957478 0.074929810419583368 0 -0.37201358599706058 0.070711840939253895 0 -0.39695674231957478 0.074929810419583368 0 -0.39976920250104669 0.086913075381088473 0 -0.42189989864208899 0.079147779899912826 0 -0.38940712396436111 0.098535478259042519 0 -0.3856317933390121 0.08567132342606161 0 -0.39976920250104669 0.086913075381088473 0 -0.3856317933390121 0.08567132342606161 0 -0.39695674231957478 0.074929810419583368 0 -0.39976920250104669 0.086913075381088473 0 -0.42189989864208899 0.079147779899912826 0 -0.41823283762125668 0.10021421029095 0 -0.40655062222011962 0.096340958868671334 0 -0.39976920250104669 0.086913075381088473 0 -0.42189989864208899 0.079147779899912826 0 -0.40655062222011962 0.096340958868671334 0 -0.39695674231957478 0.074929810419583368 0 -0.42189989864208899 0.079147779899912826 0 -0.41322656597679058 0.058941655142102069 0 -0.39695674231957478 0.074929810419583368 0 -0.42189989864208899 0.079147779899912826 0 -0.43187545736445182 0.065921103617004775 0 -0.42189989864208899 0.079147779899912826 0 -0.44684305496460319 0.083365749380242285 0 -0.41322656597679058 0.058941655142102069 0 -0.43187545736445182 0.065921103617004775 0 -0.42189989864208899 0.079147779899912826 0 -0.42189989864208899 0.079147779899912826 0 -0.43230900050581528 0.10074033507248679 0 -0.44684305496460319 0.083365749380242285 0 -0.42189989864208899 0.079147779899912826 0 -0.43230900050581528 0.10074033507248679 0 -0.41823283762125668 0.10021421029095 0 -0.42189989864208899 0.079147779899912826 0 -0.44684305496460319 0.083365749380242285 0 -0.43230900050581528 0.10074033507248679 0 -0.41823283762125668 0.10021421029095 0 -0.42245439936302609 0.1146977950275566 0 -0.41823283762125668 0.10021421029095 0 -0.40795026737523371 0.1101441825861223 0 -0.42245439936302609 0.1146977950275566 0 -0.41823283762125668 0.10021421029095 0 -0.40655062222011962 0.096340958868671334 0 -0.40795026737523371 0.1101441825861223 0 -0.40795026737523371 0.1101441825861223 0 -0.42245439936302609 0.1146977950275566 0 -0.41854804079657681 0.1335618185962307 0 -0.40795026737523371 0.1101441825861223 0 -0.41854804079657681 0.1335618185962307 0 -0.40795026737523371 0.1101441825861223 0 -0.41854804079657681 0.1335618185962307 0 -0.40406865080306442 0.1250183431131778 0 -0.4361514068569779 0.1212930370016405 0 -0.42245439936302609 0.1146977950275566 0 -0.41854804079657681 0.1335618185962307 0 -0.43230900050581528 0.10074033507248679 0 -0.4361514068569779 0.1212930370016405 0 -0.42245439936302609 0.1146977950275566 0 -0.4361514068569779 0.1212930370016405 0 -0.45131059104818438 0.10389771754541841 0 -0.45603072582896947 0.12415654782577901 0 -0.43230900050581528 0.10074033507248679 0 -0.4361514068569779 0.1212930370016405 0 -0.45131059104818438 0.10389771754541841 0 -0.43230900050581528 0.10074033507248679 0 -0.45131059104818438 0.10389771754541841 0 -0.44684305496460319 0.083365749380242285 0 -0.45131059104818438 0.10389771754541841 0 -0.46040635620489312 0.091287960740373597 0 -0.47503319949424611 0.10199479634667059 0 -0.45131059104818438 0.10389771754541841 0 -0.45603072582896947 0.12415654782577901 0 -0.47503319949424611 0.10199479634667059 0 -0.4467001814262947 0.061097152827744368 0 -0.43187545736445182 0.065921103617004775 0 -0.44684305496460319 0.083365749380242285 0 -0.45131059104818438 0.10389771754541841 0 -0.44684305496460319 0.083365749380242285 0 -0.46040635620489312 0.091287960740373597 0 -0.46040635620489312 0.091287960740373597 0 -0.46843857931253879 0.07589357968916309 0 -0.47503319949424611 0.10199479634667059 0 -0.44684305496460319 0.083365749380242285 0 -0.46040635620489312 0.091287960740373597 0 -0.46843857931253879 0.07589357968916309 0 -0.4631872778078443 0.050062174524471058 0 -0.46843857931253879 0.07589357968916309 0 -0.4467001814262947 0.061097152827744368 0 -0.44684305496460319 0.083365749380242285 0 -0.46843857931253879 0.07589357968916309 0 -0.48160115767747708 0.06010989829645641 0 -0.46843857931253879 0.07589357968916309 0 -0.5 0.083070687084506711 0 -0.46843857931253879 0.07589357968916309 0 -0.5 0.083070687084506711 0 -0.47503319949424611 0.10199479634667059 0 -0.5 0.05407575864766756 0 -0.48160115767747708 0.06010989829645641 0 -0.5 0.083070687084506711 0 -0.45603072582896947 0.12415654782577901 0 -0.47503319949424611 0.10199479634667059 0 -0.47840746745339868 0.1318715347448986 0 -0.5 0.083070687084506711 0 -0.47503319949424611 0.10199479634667059 0 -0.5 0.11206561552134579 0 -0.47503319949424611 0.10199479634667059 0 -0.5 0.11206561552134579 0 -0.47840746745339868 0.1318715347448986 0 -0.5 0.11206561552134579 0 -0.47840746745339868 0.1318715347448986 0 -0.5 0.14106054395818479 0 -0.47840746745339868 0.1318715347448986 0 -0.4813713775429343 0.15534342778339541 0 -0.45584990199199521 0.14839652371063539 0 -0.47840746745339868 0.1318715347448986 0 -0.4813713775429343 0.15534342778339541 0 -0.5 0.14106054395818479 0 -0.4813713775429343 0.15534342778339541 0 -0.5 0.14106054395818479 0 -0.5 0.17005547239502389 0 -0.4813713775429343 0.15534342778339541 0 -0.5 0.17005547239502389 0 -0.47888983910924399 0.1833910978263659 0 -0.5 0.17005547239502389 0 -0.47888983910924399 0.1833910978263659 0 -0.49999999999999639 0.19905040083186301 0 -0.4813713775429343 0.15534342778339541 0 -0.47888983910924399 0.1833910978263659 0 -0.46013732273498392 0.17116473448995881 0 -0.4813713775429343 0.15534342778339541 0 -0.47888983910924399 0.1833910978263659 0 -0.4813713775429343 0.15534342778339541 0 -0.46013732273498392 0.17116473448995881 0 -0.45584990199199521 0.14839652371063539 0 -0.47888983910924399 0.1833910978263659 0 -0.46013732273498392 0.17116473448995881 0 -0.4553652866229031 0.19812390853730849 0 -0.46013732273498392 0.17116473448995881 0 -0.43974358763926291 0.18039709061644729 0 -0.4553652866229031 0.19812390853730849 0 -0.46013732273498392 0.17116473448995881 0 -0.45584990199199521 0.14839652371063539 0 -0.42914581421791992 0.156979454606339 0 -0.46013732273498392 0.17116473448995881 0 -0.43974358763926291 0.18039709061644729 0 -0.42914581421791992 0.156979454606339 0 -0.43890233478009338 0.1378395493323826 0 -0.45584990199199521 0.14839652371063539 0 -0.42914581421791992 0.156979454606339 0 -0.4361514068569779 0.1212930370016405 0 -0.45603072582896947 0.12415654782577901 0 -0.43890233478009338 0.1378395493323826 0 -0.45603072582896947 0.12415654782577901 0 -0.43890233478009338 0.1378395493323826 0 -0.45584990199199521 0.14839652371063539 0 -0.45603072582896947 0.12415654782577901 0 -0.47840746745339868 0.1318715347448986 0 -0.45584990199199521 0.14839652371063539 0 -0.48510068849613291 0.2464952989699998 0 -0.5 0.22952651967534751 0 -0.5 0.27058277969487637 0 -0.48510068849613291 0.2464952989699998 0 -0.47450648191078398 0.23293413722231679 0 -0.4662317729600568 0.24711617116125539 0 -0.48510068849613291 0.2464952989699998 0 -0.5 0.22952651967534751 0 -0.47450648191078398 0.23293413722231679 0 -0.5 0.22952651967534751 0 -0.47450648191078398 0.23293413722231679 0 -0.47640830067555312 0.21143876786933641 0 -0.47450648191078398 0.23293413722231679 0 -0.47640830067555312 0.21143876786933641 0 -0.47640830067555312 0.21143876786933641 0 -0.49999999999999639 0.19905040083186301 0 -0.5 0.22952651967534751 0 -0.47640830067555312 0.21143876786933641 0 -0.49999999999999639 0.19905040083186301 0 -0.47888983910924399 0.1833910978263659 0 -0.47640830067555312 0.21143876786933641 0 -0.49999999999999639 0.19905040083186301 0 -0.47888983910924399 0.1833910978263659 0 -0.47640830067555312 0.21143876786933641 0 -0.47888983910924399 0.1833910978263659 0 -0.47640830067555312 0.21143876786933641 0 -0.4553652866229031 0.19812390853730849 0 -0.43974358763926291 0.18039709061644729 0 -0.4553652866229031 0.19812390853730849 0 -0.43067986422853077 0.20940139548392031 0 -0.4553652866229031 0.19812390853730849 0 -0.45283971357182312 0.22381499832142371 0 -0.43067986422853077 0.20940139548392031 0 -0.47640830067555312 0.21143876786933641 0 -0.4553652866229031 0.19812390853730849 0 -0.45283971357182312 0.22381499832142371 0 -0.47640830067555312 0.21143876786933641 0 -0.45283971357182312 0.22381499832142371 0 -0.47450648191078398 0.23293413722231679 0 -0.45283971357182312 0.22381499832142371 0 -0.45078000859246359 0.24156244513336969 0 -0.47450648191078398 0.23293413722231679 0 -0.47640830067555312 0.21143876786933641 0 -0.45283971357182312 0.22381499832142371 0 -0.45283971357182312 0.22381499832142371 0 -0.43294786837480398 0.2404538296894207 0 -0.42927112646809362 0.23619122877351181 0 -0.45283971357182312 0.22381499832142371 0 -0.42927112646809362 0.23619122877351181 0 -0.45283971357182312 0.22381499832142371 0 -0.42927112646809362 0.23619122877351181 0 -0.43067986422853077 0.20940139548392031 0 -0.45283971357182312 0.22381499832142371 0 -0.45078000859246359 0.24156244513336969 0 -0.43294786837480398 0.2404538296894207 0 -0.43294786837480398 0.2404538296894207 0 -0.44957601688056159 0.25938839971938082 0 -0.45078000859246359 0.24156244513336969 0 -0.43294786837480398 0.2404538296894207 0 -0.44957601688056159 0.25938839971938082 0 -0.45078000859246359 0.24156244513336969 0 -0.4662317729600568 0.24711617116125539 0 -0.44957601688056159 0.25938839971938082 0 -0.47450648191078398 0.23293413722231679 0 -0.45078000859246359 0.24156244513336969 0 -0.4662317729600568 0.24711617116125539 0 -0.42927112646809362 0.23619122877351181 0 -0.40439403923729561 0.237116777479636 0 -0.40570253936436479 0.24856745922560119 0 -0.42927112646809362 0.23619122877351181 0 -0.40570253936436479 0.24856745922560119 0 -0.43294786837480398 0.2404538296894207 0 -0.42927112646809362 0.23619122877351181 0 -0.40570253936436479 0.24856745922560119 0 -0.42927112646809362 0.23619122877351181 0 -0.41099867150134572 0.22378265931279079 0 -0.43067986422853077 0.20940139548392031 0 -0.42927112646809362 0.23619122877351181 0 -0.41099867150134572 0.22378265931279079 0 -0.40439403923729561 0.237116777479636 0 -0.40693149157881192 0.20854646138297669 0 -0.43067986422853077 0.20940139548392031 0 -0.41468845130467291 0.19268004053423909 0 -0.41099867150134572 0.22378265931279079 0 -0.40693149157881192 0.20854646138297669 0 -0.43067986422853077 0.20940139548392031 0 -0.43974358763926291 0.18039709061644729 0 -0.43067986422853077 0.20940139548392031 0 -0.41468845130467291 0.19268004053423909 0 -0.40693149157881192 0.20854646138297669 0 -0.41468845130467291 0.19268004053423909 0 -0.3971577940731173 0.19827573187671929 0 -0.41468845130467291 0.19268004053423909 0 -0.3971577940731173 0.19827573187671929 0 -0.39721082993519219 0.18448993107768991 0 -0.3971577940731173 0.19827573187671929 0 -0.38589476142810619 0.19424352100093389 0 -0.39721082993519219 0.18448993107768991 0 -0.38589476142810619 0.19424352100093389 0 -0.37633455857784293 0.18261391494179069 0 -0.37360736010814782 0.20134128663860251 0 -0.38589476142810619 0.19424352100093389 0 -0.388204088430469 0.2080493245121296 0 -0.37360736010814782 0.20134128663860251 0 -0.3971577940731173 0.19827573187671929 0 -0.38589476142810619 0.19424352100093389 0 -0.388204088430469 0.2080493245121296 0 -0.388204088430469 0.2080493245121296 0 -0.37752279527241261 0.21261086987475841 0 -0.37360736010814782 0.20134128663860251 0 -0.388204088430469 0.2080493245121296 0 -0.39698893960476778 0.22105750592270679 0 -0.38334950790794681 0.2216260941536595 0 -0.388204088430469 0.2080493245121296 0 -0.37752279527241261 0.21261086987475841 0 -0.38334950790794681 0.2216260941536595 0 -0.40693149157881192 0.20854646138297669 0 -0.3971577940731173 0.19827573187671929 0 -0.388204088430469 0.2080493245121296 0 -0.40693149157881192 0.20854646138297669 0 -0.388204088430469 0.2080493245121296 0 -0.39698893960476778 0.22105750592270679 0 -0.41099867150134572 0.22378265931279079 0 -0.40693149157881192 0.20854646138297669 0 -0.39698893960476778 0.22105750592270679 0 -0.41099867150134572 0.22378265931279079 0 -0.39817935363044121 0.2307605800777236 0 -0.39698893960476778 0.22105750592270679 0 -0.41099867150134572 0.22378265931279079 0 -0.39817935363044121 0.2307605800777236 0 -0.40439403923729561 0.237116777479636 0 -0.39817935363044121 0.2307605800777236 0 -0.39698893960476778 0.22105750592270679 0 -0.38938082192181989 0.23429513208400299 0 -0.39698893960476778 0.22105750592270679 0 -0.38334950790794681 0.2216260941536595 0 -0.38938082192181989 0.23429513208400299 0 -0.37752279527241261 0.21261086987475841 0 -0.38334950790794681 0.2216260941536595 0 -0.37349668708843092 0.2226496950895116 0 -0.38334950790794681 0.2216260941536595 0 -0.37780308712422273 0.23309721308500589 0 -0.37349668708843092 0.2226496950895116 0 -0.38334950790794681 0.2216260941536595 0 -0.37780308712422273 0.23309721308500589 0 -0.38938082192181989 0.23429513208400299 0 -0.37780308712422273 0.23309721308500589 0 -0.38938082192181989 0.23429513208400299 0 -0.38455494932564349 0.24416718140159829 0 -0.38938082192181989 0.23429513208400299 0 -0.38455494932564349 0.24416718140159829 0 -0.39556747567899392 0.24292135359640349 0 -0.37780308712422273 0.23309721308500589 0 -0.37552267705158737 0.2431978490864326 0 -0.38455494932564349 0.24416718140159829 0 -0.37552267705158737 0.2431978490864326 0 -0.38455494932564349 0.24416718140159829 0 -0.37675611103540763 0.25409865512553548 0 -0.38455494932564349 0.24416718140159829 0 -0.39556747567899392 0.24292135359640349 0 -0.38900306751682168 0.25733661077056619 0 -0.39556747567899392 0.24292135359640349 0 -0.40570253936436479 0.24856745922560119 0 -0.38900306751682168 0.25733661077056619 0 -0.39817935363044121 0.2307605800777236 0 -0.38938082192181989 0.23429513208400299 0 -0.39556747567899392 0.24292135359640349 0 -0.39817935363044121 0.2307605800777236 0 -0.39556747567899392 0.24292135359640349 0 -0.40439403923729561 0.237116777479636 0 -0.39556747567899392 0.24292135359640349 0 -0.40439403923729561 0.237116777479636 0 -0.40570253936436479 0.24856745922560119 0 -0.40439403923729561 0.237116777479636 0 -0.40570253936436479 0.24856745922560119 0 -0.41854804079657681 0.1335618185962307 0 -0.42914581421791992 0.156979454606339 0 -0.40043471814444209 0.15516303321545699 0 -0.41854804079657681 0.1335618185962307 0 -0.39914528189259102 0.13642314956862331 0 -0.40406865080306442 0.1250183431131778 0 -0.4361514068569779 0.1212930370016405 0 -0.43890233478009338 0.1378395493323826 0 -0.41854804079657681 0.1335618185962307 0 -0.41854804079657681 0.1335618185962307 0 -0.42914581421791992 0.156979454606339 0 -0.43890233478009338 0.1378395493323826 0 -0.41854804079657681 0.1335618185962307 0 -0.42914581421791992 0.156979454606339 0 -0.43974358763926291 0.18039709061644729 0 -0.42914581421791992 0.156979454606339 0 -0.43974358763926291 0.18039709061644729 0 -0.42914581421791992 0.156979454606339 0 -0.41320507520050959 0.17295104721716609 0 -0.43974358763926291 0.18039709061644729 0 -0.41468845130467291 0.19268004053423909 0 -0.41320507520050959 0.17295104721716609 0 -0.41468845130467291 0.19268004053423909 0 -0.41320507520050959 0.17295104721716609 0 -0.39721082993519219 0.18448993107768991 0 -0.42914581421791992 0.156979454606339 0 -0.41320507520050959 0.17295104721716609 0 -0.40043471814444209 0.15516303321545699 0 -0.41320507520050959 0.17295104721716609 0 -0.39020731289493082 0.17075062011690681 0 -0.40043471814444209 0.15516303321545699 0 -0.41320507520050959 0.17295104721716609 0 -0.39721082993519219 0.18448993107768991 0 -0.39020731289493082 0.17075062011690681 0 -0.38589476142810619 0.19424352100093389 0 -0.39721082993519219 0.18448993107768991 0 -0.37633455857784293 0.18261391494179069 0 -0.39721082993519219 0.18448993107768991 0 -0.37633455857784293 0.18261391494179069 0 -0.39020731289493082 0.17075062011690681 0 -0.37604315808934557 0.1616159605326225 0 -0.39020731289493082 0.17075062011690681 0 -0.40043471814444209 0.15516303321545699 0 -0.37633455857784293 0.18261391494179069 0 -0.37604315808934557 0.1616159605326225 0 -0.39020731289493082 0.17075062011690681 0 -0.37604315808934557 0.1616159605326225 0 -0.40043471814444209 0.15516303321545699 0 -0.37471140407559322 0.1435474845347986 0 -0.40043471814444209 0.15516303321545699 0 -0.39914528189259102 0.13642314956862331 0 -0.37471140407559322 0.1435474845347986 0 -0.41854804079657681 0.1335618185962307 0 -0.40043471814444209 0.15516303321545699 0 -0.39914528189259102 0.13642314956862331 0 -0.39063101314785642 0.1199442217017349 0 -0.39914528189259102 0.13642314956862331 0 -0.40406865080306442 0.1250183431131778 0 -0.39063101314785642 0.1199442217017349 0 -0.37471140407559322 0.1435474845347986 0 -0.39063101314785642 0.1199442217017349 0 -0.39914528189259102 0.13642314956862331 0 -0.37471140407559322 0.1435474845347986 0 -0.39063101314785642 0.1199442217017349 0 -0.37471140407559322 0.1435474845347986 0 -0.36716541190589658 0.118616890008602 0 -0.35994195951422209 0.1344452768815545 0 -0.37471140407559322 0.1435474845347986 0 -0.36716541190589658 0.118616890008602 0 -0.35994195951422209 0.1344452768815545 0 -0.36716541190589658 0.118616890008602 0 -0.35352278934268327 0.12307152153672141 0 -0.34641309729257957 0.13731862859844601 0 -0.34013489564456101 0.1359120708212119 0 -0.34492978578452338 0.1096826786703838 0 -0.35994195951422209 0.1344452768815545 0 -0.34641309729257957 0.13731862859844601 0 -0.35352278934268327 0.12307152153672141 0 -0.35994195951422209 0.1344452768815545 0 -0.34641309729257957 0.13731862859844601 0 -0.35789709495435779 0.14967185972920441 0 -0.34641309729257957 0.13731862859844601 0 -0.34789640880063583 0.16495457852650819 0 -0.34475730797662613 0.16425129963789131 0 -0.34641309729257957 0.13731862859844601 0 -0.34789640880063583 0.16495457852650819 0 -0.34641309729257957 0.13731862859844601 0 -0.35789709495435779 0.14967185972920441 0 -0.34789640880063583 0.16495457852650819 0 -0.34641309729257957 0.13731862859844601 0 -0.34475730797662613 0.16425129963789131 0 -0.34013489564456101 0.1359120708212119 0 -0.35994195951422209 0.1344452768815545 0 -0.35789709495435779 0.14967185972920441 0 -0.37471140407559322 0.1435474845347986 0 -0.37471140407559322 0.1435474845347986 0 -0.35879179500333003 0.16715074736786231 0 -0.35789709495435779 0.14967185972920441 0 -0.37471140407559322 0.1435474845347986 0 -0.35879179500333003 0.16715074736786231 0 -0.37604315808934557 0.1616159605326225 0 -0.37471140407559322 0.1435474845347986 0 -0.35879179500333003 0.16715074736786231 0 -0.37604315808934557 0.1616159605326225 0 -0.36770080355277779 0.17295393471821821 0 -0.35879179500333003 0.16715074736786231 0 -0.37633455857784293 0.18261391494179069 0 -0.37604315808934557 0.1616159605326225 0 -0.36770080355277779 0.17295393471821821 0 -0.37633455857784293 0.18261391494179069 0 -0.36024484160731629 0.17922248672973989 0 -0.36412185028301147 0.19234279238731111 0 -0.37633455857784293 0.18261391494179069 0 -0.36770080355277779 0.17295393471821821 0 -0.36024484160731629 0.17922248672973989 0 -0.36770080355277779 0.17295393471821821 0 -0.36024484160731629 0.17922248672973989 0 -0.35879179500333003 0.16715074736786231 0 -0.34475730797662613 0.16425129963789131 0 -0.34937972030869158 0.1925905284545705 0 -0.34475730797662613 0.16425129963789131 0 -0.33955964773429331 0.17429409395644799 0 -0.34937972030869158 0.1925905284545705 0 -0.34789640880063583 0.16495457852650819 0 -0.34937972030869158 0.1925905284545705 0 -0.36024484160731629 0.17922248672973989 0 -0.34789640880063583 0.16495457852650819 0 -0.34937972030869158 0.1925905284545705 0 -0.34789640880063583 0.16495457852650819 0 -0.34475730797662613 0.16425129963789131 0 -0.34937972030869158 0.1925905284545705 0 -0.35789709495435779 0.14967185972920441 0 -0.35879179500333003 0.16715074736786231 0 -0.34789640880063583 0.16495457852650819 0 -0.36024484160731629 0.17922248672973989 0 -0.35879179500333003 0.16715074736786231 0 -0.34789640880063583 0.16495457852650819 0 -0.34475730797662613 0.16425129963789131 0 -0.33718479128260948 0.15937809544746401 0 -0.33738994680948231 0.15124435901621999 0 -0.34475730797662613 0.16425129963789131 0 -0.33718479128260948 0.15937809544746401 0 -0.33813633189250208 0.16634522180797001 0 -0.34475730797662613 0.16425129963789131 0 -0.33813633189250208 0.16634522180797001 0 -0.33955964773429331 0.17429409395644799 0 -0.33813633189250208 0.16634522180797001 0 -0.33104358057647992 0.16745739819007679 0 -0.33955964773429331 0.17429409395644799 0 -0.33718479128260948 0.15937809544746401 0 -0.33813633189250208 0.16634522180797001 0 -0.33104358057647992 0.16745739819007679 0 -0.33718479128260948 0.15937809544746401 0 -0.33104358057647992 0.16745739819007679 0 -0.33026858376101731 0.15190637449176561 0 -0.33104358057647992 0.16745739819007679 0 -0.33403331992976748 0.18227938602527921 0 -0.31962491903722229 0.18594758427241961 0 -0.33955964773429331 0.17429409395644799 0 -0.33403331992976748 0.18227938602527921 0 -0.34937972030869158 0.1925905284545705 0 -0.33104358057647992 0.16745739819007679 0 -0.33955964773429331 0.17429409395644799 0 -0.33403331992976748 0.18227938602527921 0 -0.31962491903722229 0.18594758427241961 0 -0.31796283648197832 0.1633337389314328 0 -0.30596240671843039 0.18080678990447141 0 -0.31962491903722229 0.18594758427241961 0 -0.31796283648197832 0.1633337389314328 0 -0.33104358057647992 0.16745739819007679 0 -0.31962491903722229 0.18594758427241961 0 -0.31796283648197832 0.1633337389314328 0 -0.33104358057647992 0.16745739819007679 0 -0.31796283648197832 0.1633337389314328 0 -0.33026858376101731 0.15190637449176561 0 -0.31796283648197832 0.1633337389314328 0 -0.31630075392673418 0.14071989359044609 0 -0.31796283648197832 0.1633337389314328 0 -0.31630075392673418 0.14071989359044609 0 -0.33026858376101731 0.15190637449176561 0 -0.31630075392673418 0.14071989359044609 0 -0.32855297285770901 0.13997743418302819 0 -0.33026858376101731 0.15190637449176561 0 -0.31630075392673418 0.14071989359044609 0 -0.30835875028686138 0.12836861128214669 0 -0.32196666651361477 0.12487749701900901 0 -0.31630075392673418 0.14071989359044609 0 -0.32855297285770901 0.13997743418302819 0 -0.32196666651361477 0.12487749701900901 0 -0.32855297285770901 0.13997743418302819 0 -0.33106980320980312 0.1246503866679774 0 -0.32196666651361477 0.12487749701900901 0 -0.32855297285770901 0.13997743418302819 0 -0.34013489564456101 0.1359120708212119 0 -0.3346041553825978 0.14477395468276741 0 -0.32855297285770901 0.13997743418302819 0 -0.34013489564456101 0.1359120708212119 0 -0.33106980320980312 0.1246503866679774 0 -0.34475730797662613 0.16425129963789131 0 -0.34013489564456101 0.1359120708212119 0 -0.34013489564456101 0.1359120708212119 0 -0.33738994680948231 0.15124435901621999 0 -0.3346041553825978 0.14477395468276741 0 -0.34475730797662613 0.16425129963789131 0 -0.34013489564456101 0.1359120708212119 0 -0.33738994680948231 0.15124435901621999 0 -0.33718479128260948 0.15937809544746401 0 -0.33738994680948231 0.15124435901621999 0 -0.33026858376101731 0.15190637449176561 0 -0.33738994680948231 0.15124435901621999 0 -0.33026858376101731 0.15190637449176561 0 -0.3346041553825978 0.14477395468276741 0 -0.32855297285770901 0.13997743418302819 0 -0.33026858376101731 0.15190637449176561 0 -0.3346041553825978 0.14477395468276741 0 -0.35208907389890948 0.24306917690434299 0 -0.33787454055877381 0.24529314191448051 0 -0.34142207509263922 0.25572960106260723 0 -0.35208907389890948 0.24306917690434299 0 -0.34508884738596168 0.2342440782649087 0 -0.33787454055877381 0.24529314191448051 0 -0.35689366634974828 0.23865726176967661 0 -0.35926376548055328 0.2486735779402334 0 -0.35208907389890948 0.24306917690434299 0 -0.35926376548055328 0.2486735779402334 0 -0.36665925593476811 0.2402392529692276 0 -0.36723308052532222 0.25309369692869038 0 -0.35689366634974828 0.23865726176967661 0 -0.35926376548055328 0.2486735779402334 0 -0.36665925593476811 0.2402392529692276 0 -0.37552267705158737 0.2431978490864326 0 -0.36665925593476811 0.2402392529692276 0 -0.36723308052532222 0.25309369692869038 0 -0.37780308712422273 0.23309721308500589 0 -0.37552267705158737 0.2431978490864326 0 -0.36665925593476811 0.2402392529692276 0 -0.37780308712422273 0.23309721308500589 0 -0.36665925593476811 0.2402392529692276 0 -0.36843053074319038 0.2307028505946831 0 -0.3637449320256837 0.23462317477255459 0 -0.36665925593476811 0.2402392529692276 0 -0.36843053074319038 0.2307028505946831 0 -0.35689366634974828 0.23865726176967661 0 -0.3637449320256837 0.23462317477255459 0 -0.36304404037139409 0.23042929735762199 0 -0.35689366634974828 0.23865726176967661 0 -0.3637449320256837 0.23462317477255459 0 -0.36665925593476811 0.2402392529692276 0 -0.35689366634974828 0.23865726176967661 0 -0.36304404037139409 0.23042929735762199 0 -0.36041387714694573 0.22521835140317789 0 -0.36304404037139409 0.23042929735762199 0 -0.36843053074319038 0.2307028505946831 0 -0.36573719559140289 0.222944848248018 0 -0.3637449320256837 0.23462317477255459 0 -0.36304404037139409 0.23042929735762199 0 -0.36843053074319038 0.2307028505946831 0 -0.37780308712422273 0.23309721308500589 0 -0.36843053074319038 0.2307028505946831 0 -0.37349668708843092 0.2226496950895116 0 -0.36843053074319038 0.2307028505946831 0 -0.37349668708843092 0.2226496950895116 0 -0.36573719559140289 0.222944848248018 0 -0.37349668708843092 0.2226496950895116 0 -0.36573719559140289 0.222944848248018 0 -0.36813700589141007 0.21491629458094519 0 -0.36304404037139409 0.23042929735762199 0 -0.36573719559140289 0.222944848248018 0 -0.36041387714694573 0.22521835140317789 0 -0.36573719559140289 0.222944848248018 0 -0.36041387714694573 0.22521835140317789 0 -0.36096209089537368 0.21759825830877291 0 -0.36041387714694573 0.22521835140317789 0 -0.35785158193032179 0.22427444164843771 0 -0.36096209089537368 0.21759825830877291 0 -0.35689366634974828 0.23865726176967661 0 -0.35785158193032179 0.22427444164843771 0 -0.35313669332921982 0.21562389511212349 0 -0.35785158193032179 0.22427444164843771 0 -0.35313669332921982 0.21562389511212349 0 -0.36096209089537368 0.21759825830877291 0 -0.35689366634974828 0.23865726176967661 0 -0.35313669332921982 0.21562389511212349 0 -0.35208907389890948 0.24306917690434299 0 -0.34508884738596168 0.2342440782649087 0 -0.35073439710380072 0.2178298526794567 0 -0.34508884738596168 0.2342440782649087 0 -0.35073439710380072 0.2178298526794567 0 -0.33965737798236312 0.2307841415613546 0 -0.35208907389890948 0.24306917690434299 0 -0.35073439710380072 0.2178298526794567 0 -0.35689366634974828 0.23865726176967661 0 -0.35073439710380072 0.2178298526794567 0 -0.35313669332921982 0.21562389511212349 0 -0.35689366634974828 0.23865726176967661 0 -0.35208907389890948 0.24306917690434299 0 -0.35073439710380072 0.2178298526794567 0 -0.35689366634974828 0.23865726176967661 0 -0.36041387714694573 0.22521835140317789 0 -0.35785158193032179 0.22427444164843771 0 -0.35073439710380072 0.2178298526794567 0 -0.34937972030869158 0.1925905284545705 0 -0.35313669332921982 0.21562389511212349 0 -0.36104277081305908 0.20594574517185199 0 -0.34937972030869158 0.1925905284545705 0 -0.35073439710380072 0.2178298526794567 0 -0.35313669332921982 0.21562389511212349 0 -0.34937972030869158 0.1925905284545705 0 -0.35313669332921982 0.21562389511212349 0 -0.34937972030869158 0.1925905284545705 0 -0.35073439710380072 0.2178298526794567 0 -0.34937972030869158 0.1925905284545705 0 -0.34310613959102931 0.2055031457500841 0 -0.35073439710380072 0.2178298526794567 0 -0.34310613959102931 0.2055031457500841 0 -0.34102096872395049 0.21330790674795511 0 -0.35073439710380072 0.2178298526794567 0 -0.34102096872395049 0.21330790674795511 0 -0.34050958406480097 0.2204489809667724 0 -0.35313669332921982 0.21562389511212349 0 -0.36096209089537368 0.21759825830877291 0 -0.36104277081305908 0.20594574517185199 0 -0.36573719559140289 0.222944848248018 0 -0.36096209089537368 0.21759825830877291 0 -0.36813700589141007 0.21491629458094519 0 -0.36096209089537368 0.21759825830877291 0 -0.36813700589141007 0.21491629458094519 0 -0.36104277081305908 0.20594574517185199 0 -0.37752279527241261 0.21261086987475841 0 -0.37349668708843092 0.2226496950895116 0 -0.36813700589141007 0.21491629458094519 0 -0.37752279527241261 0.21261086987475841 0 -0.36813700589141007 0.21491629458094519 0 -0.37360736010814782 0.20134128663860251 0 -0.36813700589141007 0.21491629458094519 0 -0.36104277081305908 0.20594574517185199 0 -0.37360736010814782 0.20134128663860251 0 -0.37633455857784293 0.18261391494179069 0 -0.37360736010814782 0.20134128663860251 0 -0.36412185028301147 0.19234279238731111 0 -0.36104277081305908 0.20594574517185199 0 -0.37360736010814782 0.20134128663860251 0 -0.36412185028301147 0.19234279238731111 0 -0.36024484160731629 0.17922248672973989 0 -0.36412185028301147 0.19234279238731111 0 -0.34937972030869158 0.1925905284545705 0 -0.36104277081305908 0.20594574517185199 0 -0.36412185028301147 0.19234279238731111 0 -0.34937972030869158 0.1925905284545705 0 -0.33403331992976748 0.18227938602527921 0 -0.34937972030869158 0.1925905284545705 0 -0.33132558757267788 0.19645560619981381 0 -0.34937972030869158 0.1925905284545705 0 -0.33132558757267788 0.19645560619981381 0 -0.34310613959102931 0.2055031457500841 0 -0.33132558757267788 0.19645560619981381 0 -0.33206760714527173 0.20694684499318661 0 -0.34310613959102931 0.2055031457500841 0 -0.33403331992976748 0.18227938602527921 0 -0.31962491903722229 0.18594758427241961 0 -0.33132558757267788 0.19645560619981381 0 -0.31962491903722229 0.18594758427241961 0 -0.33132558757267788 0.19645560619981381 0 -0.32128700159246643 0.2085614296134064 0 -0.31962491903722229 0.18594758427241961 0 -0.32128700159246643 0.2085614296134064 0 -0.31094130810426679 0.20146887601233149 0 -0.31962491903722229 0.18594758427241961 0 -0.32128700159246643 0.2085614296134064 0 -0.32128700159246643 0.2085614296134064 0 -0.30991457648112369 0.2265504040794763 0 -0.30833129431909739 0.21334832502430981 0 -0.32128700159246643 0.2085614296134064 0 -0.30833129431909739 0.21334832502430981 0 -0.31094130810426679 0.20146887601233149 0 -0.32128700159246643 0.2085614296134064 0 -0.334517009846864 0.21514148884522391 0 -0.33414886994078158 0.22469785659874761 0 -0.334517009846864 0.21514148884522391 0 -0.33206760714527173 0.20694684499318661 0 -0.34102096872395049 0.21330790674795511 0 -0.33132558757267788 0.19645560619981381 0 -0.32128700159246643 0.2085614296134064 0 -0.33206760714527173 0.20694684499318661 0 -0.32128700159246643 0.2085614296134064 0 -0.334517009846864 0.21514148884522391 0 -0.33206760714527173 0.20694684499318661 0 -0.33206760714527173 0.20694684499318661 0 -0.34310613959102931 0.2055031457500841 0 -0.34102096872395049 0.21330790674795511 0 -0.334517009846864 0.21514148884522391 0 -0.34102096872395049 0.21330790674795511 0 -0.34050958406480097 0.2204489809667724 0 -0.33965737798236312 0.2307841415613546 0 -0.33414886994078158 0.22469785659874761 0 -0.32294908414771051 0.231175274954393 0 -0.34050958406480097 0.2204489809667724 0 -0.33965737798236312 0.2307841415613546 0 -0.33414886994078158 0.22469785659874761 0 -0.334517009846864 0.21514148884522391 0 -0.34050958406480097 0.2204489809667724 0 -0.33414886994078158 0.22469785659874761 0 -0.35073439710380072 0.2178298526794567 0 -0.34050958406480097 0.2204489809667724 0 -0.33965737798236312 0.2307841415613546 0 -0.32128700159246643 0.2085614296134064 0 -0.33414886994078158 0.22469785659874761 0 -0.32294908414771051 0.231175274954393 0 -0.32128700159246643 0.2085614296134064 0 -0.32294908414771051 0.231175274954393 0 -0.32128700159246643 0.2085614296134064 0 -0.32294908414771051 0.231175274954393 0 -0.30991457648112369 0.2265504040794763 0 -0.32294908414771051 0.231175274954393 0 -0.30659471691689572 0.242716670786389 0 -0.30991457648112369 0.2265504040794763 0 -0.32294908414771051 0.231175274954393 0 -0.30659471691689572 0.242716670786389 0 -0.32493898666941562 0.25370598596143412 0 -0.33965737798236312 0.2307841415613546 0 -0.32294908414771051 0.231175274954393 0 -0.33787454055877381 0.24529314191448051 0 -0.32294908414771051 0.231175274954393 0 -0.33787454055877381 0.24529314191448051 0 -0.32493898666941562 0.25370598596143412 0 -0.34508884738596168 0.2342440782649087 0 -0.33965737798236312 0.2307841415613546 0 -0.33787454055877381 0.24529314191448051 0 -0.28392805579818597 0.24584677119781029 0 -0.30659471691689572 0.242716670786389 0 -0.29475597619187288 0.23283261746471121 0 -0.28392805579818597 0.24584677119781029 0 -0.29475597619187288 0.23283261746471121 0 -0.28109078806307641 0.23123665432302171 0 -0.30991457648112369 0.2265504040794763 0 -0.2995127007984647 0.22240216811521779 0 -0.29475597619187288 0.23283261746471121 0 -0.30659471691689572 0.242716670786389 0 -0.30991457648112369 0.2265504040794763 0 -0.29475597619187288 0.23283261746471121 0 -0.30991457648112369 0.2265504040794763 0 -0.2995127007984647 0.22240216811521779 0 -0.30833129431909739 0.21334832502430981 0 -0.2995127007984647 0.22240216811521779 0 -0.29475597619187288 0.23283261746471121 0 -0.28658767146556752 0.2208426317688808 0 -0.29475597619187288 0.23283261746471121 0 -0.28658767146556752 0.2208426317688808 0 -0.28109078806307641 0.23123665432302171 0 -0.28658767146556752 0.2208426317688808 0 -0.28549164962408852 0.20589081089837991 0 -0.27599235506858921 0.213338138612501 0 -0.2995127007984647 0.22240216811521779 0 -0.28658767146556752 0.2208426317688808 0 -0.29782091388006071 0.2077851852193662 0 -0.28658767146556752 0.2208426317688808 0 -0.28549164962408852 0.20589081089837991 0 -0.29782091388006071 0.2077851852193662 0 -0.2995127007984647 0.22240216811521779 0 -0.30833129431909739 0.21334832502430981 0 -0.29782091388006071 0.2077851852193662 0 -0.30833129431909739 0.21334832502430981 0 -0.29782091388006071 0.2077851852193662 0 -0.31094130810426679 0.20146887601233149 0 -0.31094130810426679 0.20146887601233149 0 -0.28918285092023371 0.18809301854234381 0 -0.30596240671843039 0.18080678990447141 0 -0.31094130810426679 0.20146887601233149 0 -0.28918285092023371 0.18809301854234381 0 -0.31962491903722229 0.18594758427241961 0 -0.31094130810426679 0.20146887601233149 0 -0.30596240671843039 0.18080678990447141 0 -0.29782091388006071 0.2077851852193662 0 -0.31094130810426679 0.20146887601233149 0 -0.28918285092023371 0.18809301854234381 0 -0.28549164962408852 0.20589081089837991 0 -0.28918285092023371 0.18809301854234381 0 -0.27469451239495962 0.19856643751398209 0 -0.28549164962408852 0.20589081089837991 0 -0.29782091388006071 0.2077851852193662 0 -0.28918285092023371 0.18809301854234381 0 -0.27469451239495962 0.19856643751398209 0 -0.25846339158769432 0.19477026040294029 0 -0.26742439373620053 0.1747171610723561 0 -0.27469451239495962 0.19856643751398209 0 -0.25846339158769432 0.19477026040294029 0 -0.26373521695980739 0.20854805576629271 0 -0.25846339158769432 0.19477026040294029 0 -0.25264776582176801 0.2054066783297176 0 -0.24512564856919611 0.1966003761625241 0 -0.25846339158769432 0.19477026040294029 0 -0.26373521695980739 0.20854805576629271 0 -0.25264776582176801 0.2054066783297176 0 -0.26373521695980739 0.20854805576629271 0 -0.25264776582176801 0.2054066783297176 0 -0.25326648915379463 0.21765104414027969 0 -0.26373521695980739 0.20854805576629271 0 -0.25326648915379463 0.21765104414027969 0 -0.26696116117740232 0.2188897629996385 0 -0.26373521695980739 0.20854805576629271 0 -0.27599235506858921 0.213338138612501 0 -0.26696116117740232 0.2188897629996385 0 -0.27469451239495962 0.19856643751398209 0 -0.26373521695980739 0.20854805576629271 0 -0.27599235506858921 0.213338138612501 0 -0.28549164962408852 0.20589081089837991 0 -0.27469451239495962 0.19856643751398209 0 -0.27599235506858921 0.213338138612501 0 -0.28658767146556752 0.2208426317688808 0 -0.27599235506858921 0.213338138612501 0 -0.27366575233363138 0.22408994750137051 0 -0.28658767146556752 0.2208426317688808 0 -0.27366575233363138 0.22408994750137051 0 -0.28109078806307641 0.23123665432302171 0 -0.27366575233363138 0.22408994750137051 0 -0.28109078806307641 0.23123665432302171 0 -0.26613842301448931 0.22948780180005629 0 -0.27366575233363138 0.22408994750137051 0 -0.26613842301448931 0.22948780180005629 0 -0.27599235506858921 0.213338138612501 0 -0.27366575233363138 0.22408994750137051 0 -0.26696116117740232 0.2188897629996385 0 -0.27366575233363138 0.22408994750137051 0 -0.26613842301448931 0.22948780180005629 0 -0.26696116117740232 0.2188897629996385 0 -0.25326648915379463 0.21765104414027969 0 -0.26613842301448931 0.22948780180005629 0 -0.25326648915379463 0.21765104414027969 0 -0.26613842301448931 0.22948780180005629 0 -0.26696116117740232 0.2188897629996385 0 -0.26613842301448931 0.22948780180005629 0 -0.25250373055295899 0.22903132158689779 0 -0.2468893326351202 0.24329134098969171 0 -0.25326648915379463 0.21765104414027969 0 -0.26613842301448931 0.22948780180005629 0 -0.25250373055295899 0.22903132158689779 0 -0.26613842301448931 0.22948780180005629 0 -0.2468893326351202 0.24329134098969171 0 -0.26613842301448931 0.22948780180005629 0 -0.26514282027817931 0.24842266601513599 0 -0.2468893326351202 0.24329134098969171 0 -0.28392805579818597 0.24584677119781029 0 -0.26613842301448931 0.22948780180005629 0 -0.26514282027817931 0.24842266601513599 0 -0.28392805579818597 0.24584677119781029 0 -0.26613842301448931 0.22948780180005629 0 -0.28392805579818597 0.24584677119781029 0 -0.28109078806307641 0.23123665432302171 0 -0.26613842301448931 0.22948780180005629 0 -0.29674228528268098 0.14167201189203629 0 -0.29210011904845101 0.16519073176382951 0 -0.2788144627000812 0.14703818685698561 0 -0.29674228528268098 0.14167201189203629 0 -0.2788144627000812 0.14703818685698561 0 -0.2804226891664876 0.12940513594623221 0 -0.29674228528268098 0.14167201189203629 0 -0.2804226891664876 0.12940513594623221 0 -0.29563289833704792 0.1211109261551389 0 -0.29674228528268098 0.14167201189203629 0 -0.30835875028686138 0.12836861128214669 0 -0.29563289833704792 0.1211109261551389 0 -0.31630075392673418 0.14071989359044609 0 -0.29674228528268098 0.14167201189203629 0 -0.30835875028686138 0.12836861128214669 0 -0.31796283648197832 0.1633337389314328 0 -0.31630075392673418 0.14071989359044609 0 -0.29674228528268098 0.14167201189203629 0 -0.31796283648197832 0.1633337389314328 0 -0.30596240671843039 0.18080678990447141 0 -0.29210011904845101 0.16519073176382951 0 -0.31796283648197832 0.1633337389314328 0 -0.29674228528268098 0.14167201189203629 0 -0.29210011904845101 0.16519073176382951 0 -0.28918285092023371 0.18809301854234381 0 -0.30596240671843039 0.18080678990447141 0 -0.29210011904845101 0.16519073176382951 0 -0.28918285092023371 0.18809301854234381 0 -0.29210011904845101 0.16519073176382951 0 -0.26742439373620053 0.1747171610723561 0 -0.29210011904845101 0.16519073176382951 0 -0.26645859331151961 0.15770478106228089 0 -0.2788144627000812 0.14703818685698561 0 -0.29210011904845101 0.16519073176382951 0 -0.26645859331151961 0.15770478106228089 0 -0.26742439373620053 0.1747171610723561 0 -0.28918285092023371 0.18809301854234381 0 -0.27469451239495962 0.19856643751398209 0 -0.26742439373620053 0.1747171610723561 0 -0.28918285092023371 0.18809301854234381 0 -0.26742439373620053 0.1747171610723561 0 -0.25846339158769432 0.19477026040294029 0 -0.26742439373620053 0.1747171610723561 0 -0.2425545525554833 0.18325607046718431 0 -0.26742439373620053 0.1747171610723561 0 -0.24566593655216731 0.1613413036023684 0 -0.2425545525554833 0.18325607046718431 0 -0.26742439373620053 0.1747171610723561 0 -0.24566593655216731 0.1613413036023684 0 -0.26645859331151961 0.15770478106228089 0 -0.26742439373620053 0.1747171610723561 0 -0.24566593655216731 0.1613413036023684 0 -0.26645859331151961 0.15770478106228089 0 -0.26077588748637798 0.14053443996503889 0 -0.24566593655216731 0.1613413036023684 0 -0.26645859331151961 0.15770478106228089 0 -0.2788144627000812 0.14703818685698561 0 -0.26077588748637798 0.14053443996503889 0 -0.2788144627000812 0.14703818685698561 0 -0.2804226891664876 0.12940513594623221 0 -0.26077588748637798 0.14053443996503889 0 -0.2804226891664876 0.12940513594623221 0 -0.26077588748637798 0.14053443996503889 0 -0.26620622488190782 0.1187168322113534 0 -0.26077588748637798 0.14053443996503889 0 -0.25033803458298193 0.12914144363467839 0 -0.2394413917758374 0.14053574488666021 0 -0.26077588748637798 0.14053443996503889 0 -0.25033803458298193 0.12914144363467839 0 -0.26620622488190782 0.1187168322113534 0 -0.25033803458298193 0.12914144363467839 0 -0.25364395357421121 0.10678394025260531 0 -0.26620622488190782 0.1187168322113534 0 -0.25364395357421121 0.10678394025260531 0 -0.26910496068450029 0.10059928658519129 0 -0.26340159681891351 0.087305486383429762 0 -0.25364395357421121 0.10678394025260531 0 -0.26910496068450029 0.10059928658519129 0 -0.26620622488190782 0.1187168322113534 0 -0.26910496068450029 0.10059928658519129 0 -0.28436437631082973 0.10735841859683989 0 -0.28176033911896858 0.090840469038767704 0 -0.26910496068450029 0.10059928658519129 0 -0.26620622488190782 0.1187168322113534 0 -0.28436437631082973 0.10735841859683989 0 -0.2804226891664876 0.12940513594623221 0 -0.26620622488190782 0.1187168322113534 0 -0.28436437631082973 0.10735841859683989 0 -0.2804226891664876 0.12940513594623221 0 -0.29563289833704792 0.1211109261551389 0 -0.28436437631082973 0.10735841859683989 0 -0.29563289833704792 0.1211109261551389 0 -0.28436437631082973 0.10735841859683989 0 -0.30333203744139958 0.1018092028156232 0 -0.28436437631082973 0.10735841859683989 0 -0.30333203744139958 0.1018092028156232 0 -0.29505738772415852 0.092466809089677027 0 -0.28436437631082973 0.10735841859683989 0 -0.29505738772415852 0.092466809089677027 0 -0.28176033911896858 0.090840469038767704 0 -0.30333203744139958 0.1018092028156232 0 -0.31115114737422961 0.1134627277541034 0 -0.31621893882499519 0.096173217231134644 0 -0.29563289833704792 0.1211109261551389 0 -0.30333203744139958 0.1018092028156232 0 -0.31115114737422961 0.1134627277541034 0 -0.30835875028686138 0.12836861128214669 0 -0.29563289833704792 0.1211109261551389 0 -0.31115114737422961 0.1134627277541034 0 -0.2988364877494265 0.069896585727329402 0 -0.3095990562077543 0.082833834969606807 0 -0.31708477734686968 0.066938799678275263 0 -0.2988364877494265 0.069896585727329402 0 -0.30266664287706341 0.054708362279179482 0 -0.31708477734686968 0.066938799678275263 0 -0.2988364877494265 0.069896585727329402 0 -0.28935545939309398 0.062964548691125152 0 -0.30266664287706341 0.054708362279179482 0 -0.30333203744139958 0.1018092028156232 0 -0.3095990562077543 0.082833834969606807 0 -0.31621893882499519 0.096173217231134644 0 -0.30333203744139958 0.1018092028156232 0 -0.3095990562077543 0.082833834969606807 0 -0.29505738772415852 0.092466809089677027 0 -0.3095990562077543 0.082833834969606807 0 -0.29687345717375091 0.081902945336330912 0 -0.29505738772415852 0.092466809089677027 0 -0.2988364877494265 0.069896585727329402 0 -0.3095990562077543 0.082833834969606807 0 -0.29687345717375091 0.081902945336330912 0 -0.29687345717375091 0.081902945336330912 0 -0.28176033911896858 0.090840469038767704 0 -0.2804463735768567 0.075556206852953223 0 -0.29687345717375091 0.081902945336330912 0 -0.29505738772415852 0.092466809089677027 0 -0.28176033911896858 0.090840469038767704 0 -0.2988364877494265 0.069896585727329402 0 -0.28935545939309398 0.062964548691125152 0 -0.2804463735768567 0.075556206852953223 0 -0.2988364877494265 0.069896585727329402 0 -0.29687345717375091 0.081902945336330912 0 -0.2804463735768567 0.075556206852953223 0 -0.28935545939309398 0.062964548691125152 0 -0.28020443427428848 0.065937434716272045 0 -0.28232948387749679 0.060243429622273227 0 -0.28935545939309398 0.062964548691125152 0 -0.28020443427428848 0.065937434716272045 0 -0.2804463735768567 0.075556206852953223 0 -0.2804463735768567 0.075556206852953223 0 -0.26340159681891351 0.087305486383429762 0 -0.26195798501385009 0.070226375813507561 0 -0.28020443427428848 0.065937434716272045 0 -0.26195798501385009 0.070226375813507561 0 -0.2800946942601637 0.055740888585776333 0 -0.28020443427428848 0.065937434716272045 0 -0.2804463735768567 0.075556206852953223 0 -0.26195798501385009 0.070226375813507561 0 -0.26195798501385009 0.070226375813507561 0 -0.2800946942601637 0.055740888585776333 0 -0.26910496068450029 0.10059928658519129 0 -0.28176033911896858 0.090840469038767704 0 -0.26340159681891351 0.087305486383429762 0 -0.28176033911896858 0.090840469038767704 0 -0.2804463735768567 0.075556206852953223 0 -0.26340159681891351 0.087305486383429762 0 -0.26340159681891351 0.087305486383429762 0 -0.26195798501385009 0.070226375813507561 0 -0.24382127576753621 0.084711863041238192 0 -0.25364395357421121 0.10678394025260531 0 -0.26340159681891351 0.087305486383429762 0 -0.24382127576753621 0.084711863041238192 0 -0.26195798501385009 0.070226375813507561 0 -0.24382127576753621 0.084711863041238192 0 -0.26195798501385009 0.070226375813507561 0 -0.26253060434091768 0.04486583530805522 0 -0.24534917185526489 0.049526218608574313 0 -0.26253060434091768 0.04486583530805522 0 -0.25642639863326749 0.02710060176493858 0 -0.24534917185526489 0.049526218608574313 0 -0.26253060434091768 0.04486583530805522 0 -0.27431483662099609 0.037465275048419483 0 -0.25642639863326749 0.02710060176493858 0 -0.26253060434091768 0.04486583530805522 0 -0.27431483662099609 0.037465275048419483 0 -0.2800946942601637 0.055740888585776333 0 -0.26195798501385009 0.070226375813507561 0 -0.26253060434091768 0.04486583530805522 0 -0.2800946942601637 0.055740888585776333 0 -0.28020443427428848 0.065937434716272045 0 -0.2800946942601637 0.055740888585776333 0 -0.28232948387749679 0.060243429622273227 0 -0.26431478179583978 -0.01186883573312463 0 -0.25132042997239518 0.0027134119798401068 0 -0.26646431581863778 0.01029557754540468 0 -0.25132042997239518 0.0027134119798401068 0 -0.25642639863326749 0.02710060176493858 0 -0.26646431581863778 0.01029557754540468 0 -0.27431483662099609 0.037465275048419483 0 -0.25642639863326749 0.02710060176493858 0 -0.27962863155723588 0.021383722316491719 0 -0.25642639863326749 0.02710060176493858 0 -0.27962863155723588 0.021383722316491719 0 -0.26646431581863778 0.01029557754540468 0 -0.2820771903446922 -0.0013122005201030101 0 -0.27962863155723588 0.021383722316491719 0 -0.26646431581863778 0.01029557754540468 0 -0.2820771903446922 -0.0013122005201030101 0 -0.30047775033007851 -0.00039401612408775783 0 -0.29196914664965867 0.01010181790504874 0 -0.2820771903446922 -0.0013122005201030101 0 -0.27962863155723588 0.021383722316491719 0 -0.29196914664965867 0.01010181790504874 0 -0.27962863155723588 0.021383722316491719 0 -0.29196914664965867 0.01010181790504874 0 -0.3056930143666281 0.020729765947894 0 -0.27962863155723588 0.021383722316491719 0 -0.3056930143666281 0.020729765947894 0 -0.2928938543133956 0.038235327266834943 0 -0.3056930143666281 0.020729765947894 0 -0.2928938543133956 0.038235327266834943 0 -0.3056930143666281 0.020729765947894 0 -0.30086997028822832 0.039148022070134687 0 -0.32164524631629432 0.022555155554494829 0 -0.30086997028822832 0.039148022070134687 0 -0.32164524631629432 0.022555155554494829 0 -0.3056930143666281 0.020729765947894 0 -0.31849217441985911 0.0032242046289520012 0 -0.30047775033007851 -0.00039401612408775783 0 -0.3056930143666281 0.020729765947894 0 -0.31849217441985911 0.0032242046289520012 0 -0.30047775033007851 -0.00039401612408775783 0 -0.29196914664965867 0.01010181790504874 0 -0.3056930143666281 0.020729765947894 0 -0.2800946942601637 0.055740888585776333 0 -0.30086997028822832 0.039148022070134687 0 -0.28935545939309398 0.062964548691125152 0 -0.2800946942601637 0.055740888585776333 0 -0.30266664287706341 0.054708362279179482 0 -0.2800946942601637 0.055740888585776333 0 -0.2928938543133956 0.038235327266834943 0 -0.2800946942601637 0.055740888585776333 0 -0.30086997028822832 0.039148022070134687 0 -0.30266664287706341 0.054708362279179482 0 -0.28935545939309398 0.062964548691125152 0 -0.2800946942601637 0.055740888585776333 0 -0.28232948387749679 0.060243429622273227 0 -0.2800946942601637 0.055740888585776333 0 -0.2928938543133956 0.038235327266834943 0 -0.30086997028822832 0.039148022070134687 0 -0.27431483662099609 0.037465275048419483 0 -0.27962863155723588 0.021383722316491719 0 -0.2928938543133956 0.038235327266834943 0 -0.27431483662099609 0.037465275048419483 0 -0.2800946942601637 0.055740888585776333 0 -0.2928938543133956 0.038235327266834943 0 -0.3056930143666281 0.020729765947894 0 -0.2928938543133956 0.038235327266834943 0 -0.30086997028822832 0.039148022070134687 0 -0.30086997028822832 0.039148022070134687 0 -0.30266664287706341 0.054708362279179482 0 -0.3262676586483656 0.050894384371173287 0 -0.30266664287706341 0.054708362279179482 0 -0.3262676586483656 0.050894384371173287 0 -0.31708477734686968 0.066938799678275263 0 -0.3262676586483656 0.050894384371173287 0 -0.32164524631629432 0.022555155554494829 0 -0.30086997028822832 0.039148022070134687 0 -0.3262676586483656 0.050894384371173287 0 -0.32164524631629432 0.022555155554494829 0 -0.3262676586483656 0.050894384371173287 0 -0.32164524631629432 0.022555155554494829 0 -0.34047985126035502 0.026774828886197279 0 -0.3419631627684111 0.054410778814259472 0 -0.34047985126035502 0.026774828886197279 0 -0.3262676586483656 0.050894384371173287 0 -0.3419631627684111 0.054410778814259472 0 -0.34047985126035502 0.026774828886197279 0 -0.3262676586483656 0.050894384371173287 0 -0.3419631627684111 0.054410778814259472 0 -0.33089007098043072 0.079233613187852742 0 -0.3056930143666281 0.020729765947894 0 -0.31849217441985911 0.0032242046289520012 0 -0.32164524631629432 0.022555155554494829 0 -0.31849217441985911 0.0032242046289520012 0 -0.32164524631629432 0.022555155554494829 0 -0.33742136738088668 0.0099550307423931228 0 -0.31849217441985911 0.0032242046289520012 0 -0.32164524631629432 0.022555155554494829 0 -0.32164524631629432 0.022555155554494829 0 -0.33742136738088668 0.0099550307423931228 0 -0.32164524631629432 0.022555155554494829 0 -0.34047985126035502 0.026774828886197279 0 -0.33742136738088668 0.0099550307423931228 0 -0.35319748844548088 -0.0026450940697062141 0 -0.33742136738088668 0.0099550307423931228 0 -0.35319748844548088 -0.0026450940697062141 0 -0.33742136738088668 0.0099550307423931228 0 -0.35568472126330458 0.01398178967161531 0 -0.34047985126035502 0.026774828886197279 0 -0.35568472126330458 0.01398178967161531 0 -0.36050468596179641 0.029201478886372499 0 -0.34047985126035502 0.026774828886197279 0 -0.33742136738088668 0.0099550307423931228 0 -0.35568472126330458 0.01398178967161531 0 -0.35568472126330458 0.01398178967161531 0 -0.36050468596179641 0.029201478886372499 0 -0.37274578052696178 0.01868977009819147 0 -0.37753126207020948 0.034899308803226177 0 -0.36050468596179641 0.029201478886372499 0 -0.37274578052696178 0.01868977009819147 0 -0.35319748844548088 -0.0026450940697062141 0 -0.35568472126330458 0.01398178967161531 0 -0.36979036210562988 0.0025511841975563729 0 -0.35568472126330458 0.01398178967161531 0 -0.37274578052696178 0.01868977009819147 0 -0.36979036210562988 0.0025511841975563729 0 -0.35367539322405089 0.052192583201526178 0 -0.35229578078182711 0.042127528613546239 0 -0.36485581069452189 0.048057973279375742 0 -0.35367539322405089 0.052192583201526178 0 -0.36174043644781612 0.059537200304905107 0 -0.34707042967454638 0.066493871458924422 0 -0.3419631627684111 0.054410778814259472 0 -0.35367539322405089 0.052192583201526178 0 -0.34707042967454638 0.066493871458924422 0 -0.3419631627684111 0.054410778814259472 0 -0.35367539322405089 0.052192583201526178 0 -0.35229578078182711 0.042127528613546239 0 -0.34047985126035502 0.026774828886197279 0 -0.36050468596179641 0.029201478886372499 0 -0.35229578078182711 0.042127528613546239 0 -0.3419631627684111 0.054410778814259472 0 -0.34047985126035502 0.026774828886197279 0 -0.35229578078182711 0.042127528613546239 0 -0.36050468596179641 0.029201478886372499 0 -0.35229578078182711 0.042127528613546239 0 -0.36485581069452189 0.048057973279375742 0 -0.37753126207020948 0.034899308803226177 0 -0.36050468596179641 0.029201478886372499 0 -0.36485581069452189 0.048057973279375742 0 -0.37830855690199738 0.048851891747440382 0 -0.37753126207020948 0.034899308803226177 0 -0.36485581069452189 0.048057973279375742 0 -0.37830855690199738 0.048851891747440382 0 -0.36485581069452189 0.048057973279375742 0 -0.37119345183321822 0.058853827639881867 0 -0.35367539322405089 0.052192583201526178 0 -0.36485581069452189 0.048057973279375742 0 -0.36174043644781612 0.059537200304905107 0 -0.36485581069452189 0.048057973279375742 0 -0.36174043644781612 0.059537200304905107 0 -0.37119345183321822 0.058853827639881867 0 -0.37201358599706058 0.070711840939253895 0 -0.36026946930678239 0.075913175113325196 0 -0.34707042967454638 0.066493871458924422 0 -0.37904886912469499 0.067110231928434197 0 -0.37119345183321822 0.058853827639881867 0 -0.37201358599706058 0.070711840939253895 0 -0.37201358599706058 0.070711840939253895 0 -0.34707042967454638 0.066493871458924422 0 -0.36174043644781612 0.059537200304905107 0 -0.37119345183321822 0.058853827639881867 0 -0.37201358599706058 0.070711840939253895 0 -0.36174043644781612 0.059537200304905107 0 -0.37201358599706058 0.070711840939253895 0 -0.34707042967454638 0.066493871458924422 0 -0.37201358599706058 0.070711840939253895 0 -0.36026946930678239 0.075913175113325196 0 -0.37016311523106599 0.083751267223082917 0 -0.38119130922167832 0.078766060501995444 0 -0.37201358599706058 0.070711840939253895 0 -0.37016311523106599 0.083751267223082917 0 -0.3419631627684111 0.054410778814259472 0 -0.34707042967454638 0.066493871458924422 0 -0.34344647427646718 0.082046728742321648 0 -0.36026946930678239 0.075913175113325196 0 -0.35274187612612162 0.077211514003190262 0 -0.34707042967454638 0.066493871458924422 0 -0.35274187612612162 0.077211514003190262 0 -0.34707042967454638 0.066493871458924422 0 -0.34344647427646718 0.082046728742321648 0 -0.35295667425925747 0.085123838591775802 0 -0.35001973748798287 0.095551702326820934 0 -0.34344647427646718 0.082046728742321648 0 -0.35274187612612162 0.077211514003190262 0 -0.35295667425925747 0.085123838591775802 0 -0.34344647427646718 0.082046728742321648 0 -0.35274187612612162 0.077211514003190262 0 -0.35295667425925747 0.085123838591775802 0 -0.35935833950511731 0.08139738194217451 0 -0.35295667425925747 0.085123838591775802 0 -0.35935833950511731 0.08139738194217451 0 -0.35921694390059838 0.089411865944371699 0 -0.36026946930678239 0.075913175113325196 0 -0.35274187612612162 0.077211514003190262 0 -0.35935833950511731 0.08139738194217451 0 -0.35295667425925747 0.085123838591775802 0 -0.35921694390059838 0.089411865944371699 0 -0.35001973748798287 0.095551702326820934 0 -0.35921694390059838 0.089411865944371699 0 -0.37016311523106599 0.083751267223082917 0 -0.36611800641667808 0.094109198156665408 0 -0.36026946930678239 0.075913175113325196 0 -0.35935833950511731 0.08139738194217451 0 -0.37016311523106599 0.083751267223082917 0 -0.35935833950511731 0.08139738194217451 0 -0.35921694390059838 0.089411865944371699 0 -0.37016311523106599 0.083751267223082917 0 -0.37643332436138899 0.09558572737664002 0 -0.37016311523106599 0.083751267223082917 0 -0.36611800641667808 0.094109198156665408 0 -0.37643332436138899 0.09558572737664002 0 -0.36831342086492491 0.1042920553550029 0 -0.36611800641667808 0.094109198156665408 0 -0.37896648635229202 0.10715504183998489 0 -0.37643332436138899 0.09558572737664002 0 -0.36831342086492491 0.1042920553550029 0 -0.36831342086492491 0.1042920553550029 0 -0.35948680904503588 0.10793893666500461 0 -0.35938862515943509 0.099383552161339872 0 -0.35921694390059838 0.089411865944371699 0 -0.35938862515943509 0.099383552161339872 0 -0.36611800641667808 0.094109198156665408 0 -0.36831342086492491 0.1042920553550029 0 -0.35938862515943509 0.099383552161339872 0 -0.36611800641667808 0.094109198156665408 0 -0.37896648635229202 0.10715504183998489 0 -0.36831342086492491 0.1042920553550029 0 -0.36716541190589658 0.118616890008602 0 -0.36831342086492491 0.1042920553550029 0 -0.35948680904503588 0.10793893666500461 0 -0.36716541190589658 0.118616890008602 0 -0.35948680904503588 0.10793893666500461 0 -0.36716541190589658 0.118616890008602 0 -0.35375916145188291 0.11350041634001019 0 -0.34641309729257957 0.13731862859844601 0 -0.34492978578452338 0.1096826786703838 0 -0.34641309729257957 0.13731862859844601 0 -0.35352278934268327 0.12307152153672141 0 -0.34492978578452338 0.1096826786703838 0 -0.36716541190589658 0.118616890008602 0 -0.35352278934268327 0.12307152153672141 0 -0.35375916145188291 0.11350041634001019 0 -0.35375916145188291 0.11350041634001019 0 -0.34492978578452338 0.1096826786703838 0 -0.35317683324139082 0.10499755452017361 0 -0.35352278934268327 0.12307152153672141 0 -0.35375916145188291 0.11350041634001019 0 -0.34492978578452338 0.1096826786703838 0 -0.34492978578452338 0.1096826786703838 0 -0.35001973748798287 0.095551702326820934 0 -0.34344647427646718 0.082046728742321648 0 -0.34492978578452338 0.1096826786703838 0 -0.34344647427646718 0.082046728742321648 0 -0.35921694390059838 0.089411865944371699 0 -0.35938862515943509 0.099383552161339872 0 -0.35001973748798287 0.095551702326820934 0 -0.35938862515943509 0.099383552161339872 0 -0.35317683324139082 0.10499755452017361 0 -0.35001973748798287 0.095551702326820934 0 -0.35948680904503588 0.10793893666500461 0 -0.35938862515943509 0.099383552161339872 0 -0.35317683324139082 0.10499755452017361 0 -0.35948680904503588 0.10793893666500461 0 -0.35375916145188291 0.11350041634001019 0 -0.35317683324139082 0.10499755452017361 0 -0.34492978578452338 0.1096826786703838 0 -0.35317683324139082 0.10499755452017361 0 -0.35001973748798287 0.095551702326820934 0 -0.33551248331249578 0.10757284200453231 0 -0.32636827877939262 0.096437598311714251 0 -0.33089007098043072 0.079233613187852742 0 -0.34492978578452338 0.1096826786703838 0 -0.33551248331249578 0.10757284200453231 0 -0.34344647427646718 0.082046728742321648 0 -0.34013489564456101 0.1359120708212119 0 -0.33551248331249578 0.10757284200453231 0 -0.33106980320980312 0.1246503866679774 0 -0.33551248331249578 0.10757284200453231 0 -0.33106980320980312 0.1246503866679774 0 -0.3276422557938925 0.11637059862038419 0 -0.34013489564456101 0.1359120708212119 0 -0.33551248331249578 0.10757284200453231 0 -0.34013489564456101 0.1359120708212119 0 -0.34492978578452338 0.1096826786703838 0 -0.33551248331249578 0.10757284200453231 0 -0.33551248331249578 0.10757284200453231 0 -0.3276422557938925 0.11637059862038419 0 -0.32202007013965611 0.108381668790018 0 -0.31115114737422961 0.1134627277541034 0 -0.32196666651361477 0.12487749701900901 0 -0.32202007013965611 0.108381668790018 0 -0.32196666651361477 0.12487749701900901 0 -0.3276422557938925 0.11637059862038419 0 -0.32202007013965611 0.108381668790018 0 -0.33106980320980312 0.1246503866679774 0 -0.32196666651361477 0.12487749701900901 0 -0.3276422557938925 0.11637059862038419 0 -0.30835875028686138 0.12836861128214669 0 -0.31115114737422961 0.1134627277541034 0 -0.32196666651361477 0.12487749701900901 0 -0.31115114737422961 0.1134627277541034 0 -0.32202007013965611 0.108381668790018 0 -0.31621893882499519 0.096173217231134644 0 -0.32636827877939262 0.096437598311714251 0 -0.32202007013965611 0.108381668790018 0 -0.31621893882499519 0.096173217231134644 0 -0.33551248331249578 0.10757284200453231 0 -0.32636827877939262 0.096437598311714251 0 -0.32202007013965611 0.108381668790018 0 -0.32636827877939262 0.096437598311714251 0 -0.3206518095107353 0.086423961441370711 0 -0.33089007098043072 0.079233613187852742 0 -0.3095990562077543 0.082833834969606807 0 -0.31621893882499519 0.096173217231134644 0 -0.3206518095107353 0.086423961441370711 0 -0.32636827877939262 0.096437598311714251 0 -0.31621893882499519 0.096173217231134644 0 -0.3206518095107353 0.086423961441370711 0 -0.3206518095107353 0.086423961441370711 0 -0.3195564285114475 0.078857552319276381 0 -0.33089007098043072 0.079233613187852742 0 -0.3095990562077543 0.082833834969606807 0 -0.3206518095107353 0.086423961441370711 0 -0.3195564285114475 0.078857552319276381 0 -0.3095990562077543 0.082833834969606807 0 -0.3195564285114475 0.078857552319276381 0 -0.31708477734686968 0.066938799678275263 0 -0.3262676586483656 0.050894384371173287 0 -0.31708477734686968 0.066938799678275263 0 -0.33089007098043072 0.079233613187852742 0 -0.3195564285114475 0.078857552319276381 0 -0.31708477734686968 0.066938799678275263 0 -0.33089007098043072 0.079233613187852742 0 -0.3262676586483656 0.050894384371173287 0 -0.33089007098043072 0.079233613187852742 0 -0.3419631627684111 0.054410778814259472 0 -0.34344647427646718 0.082046728742321648 0 -0.3419631627684111 0.054410778814259472 0 -0.34344647427646718 0.082046728742321648 0 -0.33089007098043072 0.079233613187852742 0 -0.33551248331249578 0.10757284200453231 0 -0.34344647427646718 0.082046728742321648 0 -0.33089007098043072 0.079233613187852742 0 -0.33551248331249578 0.10757284200453231 0 -0.33089007098043072 0.079233613187852742 0 -0.38413367002432852 0.48466820949397371 0 -0.39197467039505129 0.46611734068214988 0 -0.41460981883164078 0.48516798004791117 0 -0.3981750166650535 0.50000000000000056 0 -0.38413367002432852 0.48466820949397371 0 -0.41460981883164078 0.48516798004791117 0 -0.3981750166650535 0.50000000000000056 0 -0.38413367002432852 0.48466820949397371 0 -0.37107410569903487 0.5 0 -0.39197467039505129 0.46611734068214988 0 -0.36482960672615539 0.47476559140937902 0 -0.38413367002432852 0.48466820949397371 0 -0.39197467039505129 0.46611734068214988 0 -0.36580706476392733 0.47631646954851292 0 -0.38785270990024268 0.44600589254376838 0 -0.39197467039505129 0.46611734068214988 0 -0.37006527051019528 0.45259743283909409 0 -0.39197467039505129 0.46611734068214988 0 -0.37006527051019528 0.45259743283909409 0 -0.36482960672615539 0.47476559140937902 0 -0.38785270990024268 0.44600589254376838 0 -0.37388199021079188 0.43349662060099697 0 -0.37006527051019528 0.45259743283909409 0 -0.38785270990024268 0.44600589254376838 0 -0.40320620376676342 0.45007503942677379 0 -0.39595691431975 0.42995942871021692 0 -0.38785270990024268 0.44600589254376838 0 -0.40320620376676342 0.45007503942677379 0 -0.39197467039505129 0.46611734068214988 0 -0.40320620376676342 0.45007503942677379 0 -0.39197467039505129 0.46611734068214988 0 -0.41277096383307582 0.46532813801804862 0 -0.40320620376676342 0.45007503942677379 0 -0.42781315099835598 0.44205737320498029 0 -0.39595691431975 0.42995942871021692 0 -0.40320620376676342 0.45007503942677379 0 -0.41277096383307582 0.46532813801804862 0 -0.42781315099835598 0.44205737320498029 0 -0.42781315099835598 0.44205737320498029 0 -0.43466730821188831 0.46706657063262308 0 -0.44460389203804629 0.44806533343805571 0 -0.42781315099835598 0.44205737320498029 0 -0.4310446209982266 0.47033596009582029 0 -0.42781315099835598 0.44205737320498029 0 -0.43466730821188831 0.46706657063262308 0 -0.4310446209982266 0.47033596009582029 0 -0.41277096383307582 0.46532813801804862 0 -0.42781315099835598 0.44205737320498029 0 -0.4310446209982266 0.47033596009582029 0 -0.43466730821188831 0.46706657063262308 0 -0.4310446209982266 0.47033596009582029 0 -0.4310446209982266 0.47033596009582029 0 -0.43443441043131342 0.50000000000000755 0 -0.4447827686264566 0.47926022536349122 0 -0.4310446209982266 0.47033596009582029 0 -0.41460981883164078 0.48516798004791117 0 -0.4310446209982266 0.47033596009582029 0 -0.41460981883164078 0.48516798004791117 0 -0.42409839095234109 0.48887598503593521 0 -0.43466730821188831 0.46706657063262308 0 -0.4310446209982266 0.47033596009582029 0 -0.4447827686264566 0.47926022536349122 0 -0.39197467039505129 0.46611734068214988 0 -0.41277096383307582 0.46532813801804862 0 -0.41460981883164078 0.48516798004791117 0 -0.41277096383307582 0.46532813801804862 0 -0.4310446209982266 0.47033596009582029 0 -0.41460981883164078 0.48516798004791117 0 -0.3981750166650535 0.50000000000000056 0 -0.41460981883164078 0.48516798004791117 0 -0.3981750166650535 0.50000000000000056 0 -0.41460981883164078 0.48516798004791117 0 -0.41630471354818338 0.5 0 -0.41460981883164078 0.48516798004791117 0 -0.41630471354818338 0.5 0 -0.42409839095234109 0.48887598503593521 0 -0.41630471354818338 0.5 0 -0.43443441043131342 0.50000000000000755 0 -0.42409839095234109 0.48887598503593521 0 -0.4310446209982266 0.47033596009582029 0 -0.43443441043131342 0.50000000000000755 0 -0.4310446209982266 0.47033596009582029 0 -0.43443441043131342 0.50000000000000755 0 -0.42409839095234109 0.48887598503593521 0 -0.43443441043131342 0.50000000000000755 0 -0.4447827686264566 0.47926022536349122 0 -0.4595127163698095 0.50000000000000022 0 -0.5 0.5 0 -0.47335596745111108 0.44169355163120572 0 -0.5 0.40038011321019712 0 -0.43466730821188831 0.46706657063262308 0 -0.4447827686264566 0.47926022536349122 0 -0.44899911668232212 0.46303481381032341 0 -0.4447827686264566 0.47926022536349122 0 -0.46015144363500948 0.47359397987248231 0 -0.44899911668232212 0.46303481381032341 0 -0.4447827686264566 0.47926022536349122 0 -0.46015144363500948 0.47359397987248231 0 -0.4595127163698095 0.50000000000000022 0 -0.46015144363500948 0.47359397987248231 0 -0.4595127163698095 0.50000000000000022 0 -0.46015144363500948 0.47359397987248231 0 -0.4595127163698095 0.50000000000000022 0 -0.5 0.5 0 -0.46015144363500948 0.47359397987248231 0 -0.5 0.5 0 -0.47335596745111108 0.44169355163120572 0 -0.46015144363500948 0.47359397987248231 0 -0.47335596745111108 0.44169355163120572 0 -0.46079017090020952 0.44718795974496428 0 -0.46079017090020952 0.44718795974496428 0 -0.44460389203804629 0.44806533343805571 0 -0.45590269758544211 0.43346995798949911 0 -0.47335596745111108 0.44169355163120572 0 -0.46079017090020952 0.44718795974496428 0 -0.45590269758544211 0.43346995798949911 0 -0.46015144363500948 0.47359397987248231 0 -0.46079017090020952 0.44718795974496428 0 -0.44899911668232212 0.46303481381032341 0 -0.46015144363500948 0.47359397987248231 0 -0.46079017090020952 0.44718795974496428 0 -0.43466730821188831 0.46706657063262308 0 -0.44899911668232212 0.46303481381032341 0 -0.44460389203804629 0.44806533343805571 0 -0.42781315099835598 0.44205737320498029 0 -0.44460389203804629 0.44806533343805571 0 -0.44268906624812487 0.42665452579602331 0 -0.46079017090020952 0.44718795974496428 0 -0.44899911668232212 0.46303481381032341 0 -0.44460389203804629 0.44806533343805571 0 -0.44460389203804629 0.44806533343805571 0 -0.44268906624812487 0.42665452579602331 0 -0.45590269758544211 0.43346995798949911 0 -0.44268906624812487 0.42665452579602331 0 -0.45186506472241439 0.42144574071262142 0 -0.45590269758544211 0.43346995798949911 0 -0.44268906624812487 0.42665452579602331 0 -0.45186506472241439 0.42144574071262142 0 -0.44576315445017062 0.40546276927260178 0 -0.44268906624812487 0.42665452579602331 0 -0.44576315445017062 0.40546276927260178 0 -0.42458168099848842 0.41377878631413989 0 -0.46310534060592018 0.42019570979236182 0 -0.47346151536459102 0.41731684507507272 0 -0.46374026742882618 0.39151162716981691 0 -0.45186506472241439 0.42144574071262142 0 -0.46310534060592018 0.42019570979236182 0 -0.44576315445017062 0.40546276927260178 0 -0.47335596745111108 0.44169355163120572 0 -0.46310534060592018 0.42019570979236182 0 -0.45590269758544211 0.43346995798949911 0 -0.45186506472241439 0.42144574071262142 0 -0.46310534060592018 0.42019570979236182 0 -0.45590269758544211 0.43346995798949911 0 -0.47335596745111108 0.44169355163120572 0 -0.46310534060592018 0.42019570979236182 0 -0.47346151536459102 0.41731684507507272 0 -0.47335596745111108 0.44169355163120572 0 -0.47346151536459102 0.41731684507507272 0 -0.5 0.40038011321019712 0 -0.47346151536459102 0.41731684507507272 0 -0.5 0.40038011321019712 0 -0.47533567507008778 0.39330498401591851 0 -0.47346151536459102 0.41731684507507272 0 -0.47533567507008778 0.39330498401591851 0 -0.47346151536459102 0.41731684507507272 0 -0.47533567507008778 0.39330498401591851 0 -0.46374026742882618 0.39151162716981691 0 -0.5 0.40038011321019712 0 -0.47533567507008778 0.39330498401591851 0 -0.47720983477558448 0.36929312295676431 0 -0.47533567507008778 0.39330498401591851 0 -0.47720983477558448 0.36929312295676431 0 -0.47533567507008778 0.39330498401591851 0 -0.46374026742882618 0.39151162716981691 0 -0.47720983477558448 0.36929312295676431 0 -0.46374026742882618 0.39151162716981691 0 -0.45297946443592813 0.37787116286410599 0 -0.46437519425173218 0.36282754454727217 0 -0.46374026742882618 0.39151162716981691 0 -0.45297946443592813 0.37787116286410599 0 -0.44807155782876301 0.39051600802545461 0 -0.46374026742882618 0.39151162716981691 0 -0.46437519425173218 0.36282754454727217 0 -0.46310534060592018 0.42019570979236182 0 -0.46374026742882618 0.39151162716981691 0 -0.46310534060592018 0.42019570979236182 0 -0.46374026742882618 0.39151162716981691 0 -0.44576315445017062 0.40546276927260178 0 -0.46374026742882618 0.39151162716981691 0 -0.44576315445017062 0.40546276927260178 0 -0.44807155782876301 0.39051600802545461 0 -0.44576315445017062 0.40546276927260178 0 -0.44807155782876301 0.39051600802545461 0 -0.43603237714897469 0.39502180629923989 0 -0.45297946443592813 0.37787116286410599 0 -0.44807155782876301 0.39051600802545461 0 -0.44039528146883089 0.37985126846070372 0 -0.44807155782876301 0.39051600802545461 0 -0.44039528146883089 0.37985126846070372 0 -0.43603237714897469 0.39502180629923989 0 -0.44039528146883089 0.37985126846070372 0 -0.42135021099862069 0.38550019942329938 0 -0.43603237714897469 0.39502180629923989 0 -0.44039528146883089 0.37985126846070372 0 -0.42135021099862069 0.38550019942329938 0 -0.43330693618304927 0.36743111704715392 0 -0.42135021099862069 0.38550019942329938 0 -0.3928737426436214 0.38288862872844909 0 -0.41811874099875312 0.35722161253245888 0 -0.42135021099862069 0.38550019942329938 0 -0.42458168099848842 0.41377878631413989 0 -0.40302940150938782 0.40252809503019821 0 -0.44576315445017062 0.40546276927260178 0 -0.43603237714897469 0.39502180629923989 0 -0.42458168099848842 0.41377878631413989 0 -0.42135021099862069 0.38550019942329938 0 -0.42458168099848842 0.41377878631413989 0 -0.42135021099862069 0.38550019942329938 0 -0.43603237714897469 0.39502180629923989 0 -0.42458168099848842 0.41377878631413989 0 -0.42781315099835598 0.44205737320498029 0 -0.42458168099848842 0.41377878631413989 0 -0.39595691431975 0.42995942871021692 0 -0.42781315099835598 0.44205737320498029 0 -0.44268906624812487 0.42665452579602331 0 -0.42458168099848842 0.41377878631413989 0 -0.42781315099835598 0.44205737320498029 0 -0.42458168099848842 0.41377878631413989 0 -0.42458168099848842 0.41377878631413989 0 -0.39595691431975 0.42995942871021692 0 -0.40302940150938782 0.40252809503019821 0 -0.39595691431975 0.42995942871021692 0 -0.38133644129271771 0.41060795377957438 0 -0.40302940150938782 0.40252809503019821 0 -0.39595691431975 0.42995942871021692 0 -0.38133644129271771 0.41060795377957438 0 -0.37388199021079188 0.43349662060099697 0 -0.38785270990024268 0.44600589254376838 0 -0.39595691431975 0.42995942871021692 0 -0.37388199021079188 0.43349662060099697 0 -0.39595691431975 0.42995942871021692 0 -0.38133644129271771 0.41060795377957438 0 -0.38133644129271771 0.41060795377957438 0 -0.3928737426436214 0.38288862872844909 0 -0.36671596826568531 0.39125647884893172 0 -0.3928737426436214 0.38288862872844909 0 -0.37126589511329411 0.37377724987418581 0 -0.36671596826568531 0.39125647884893172 0 -0.42135021099862069 0.38550019942329938 0 -0.3928737426436214 0.38288862872844909 0 -0.40302940150938782 0.40252809503019821 0 -0.38133644129271771 0.41060795377957438 0 -0.3928737426436214 0.38288862872844909 0 -0.40302940150938782 0.40252809503019821 0 -0.39068435811404417 0.36093702398180222 0 -0.39395667907880888 0.34326368506717603 0 -0.41811874099875312 0.35722161253245888 0 -0.3928737426436214 0.38288862872844909 0 -0.39068435811404417 0.36093702398180222 0 -0.41811874099875312 0.35722161253245888 0 -0.3928737426436214 0.38288862872844909 0 -0.39068435811404417 0.36093702398180222 0 -0.37126589511329411 0.37377724987418581 0 -0.39068435811404417 0.36093702398180222 0 -0.37302608715873109 0.35758434449273291 0 -0.37126589511329411 0.37377724987418581 0 -0.39395667907880888 0.34326368506717603 0 -0.37302608715873109 0.35758434449273291 0 -0.39068435811404417 0.36093702398180222 0 -0.39395667907880888 0.34326368506717603 0 -0.37302608715873109 0.35758434449273291 0 -0.37563375498023588 0.33893957100260502 0 -0.39395667907880888 0.34326368506717603 0 -0.37302608715873109 0.35758434449273291 0 -0.37563375498023588 0.33893957100260502 0 -0.3809584867257152 0.31995934924364311 0 -0.39395667907880888 0.34326368506717603 0 -0.3809584867257152 0.31995934924364311 0 -0.40019053093036899 0.31727751782089808 0 -0.39395667907880888 0.34326368506717603 0 -0.40019053093036899 0.31727751782089808 0 -0.39395667907880888 0.34326368506717603 0 -0.414887270998886 0.32894302564161831 0 -0.39395667907880888 0.34326368506717603 0 -0.414887270998886 0.32894302564161831 0 -0.414887270998886 0.32894302564161831 0 -0.41811874099875312 0.35722161253245888 0 -0.39395667907880888 0.34326368506717603 0 -0.414887270998886 0.32894302564161831 0 -0.41811874099875312 0.35722161253245888 0 -0.414887270998886 0.32894302564161831 0 -0.4287524947490482 0.33739992334137159 0 -0.41811874099875312 0.35722161253245888 0 -0.414887270998886 0.32894302564161831 0 -0.42784370751339318 0.3200782636988328 0 -0.41182569378737999 0.30215117016961263 0 -0.414887270998886 0.32894302564161831 0 -0.41182569378737999 0.30215117016961263 0 -0.40019053093036899 0.31727751782089808 0 -0.414887270998886 0.32894302564161831 0 -0.41182569378737999 0.30215117016961263 0 -0.414887270998886 0.32894302564161831 0 -0.42784370751339318 0.3200782636988328 0 -0.42784370751339318 0.3200782636988328 0 -0.44080014402789969 0.3112135017560464 0 -0.414887270998886 0.32894302564161831 0 -0.42784370751339318 0.3200782636988328 0 -0.4287524947490482 0.33739992334137159 0 -0.42784370751339318 0.3200782636988328 0 -0.4287524947490482 0.33739992334137159 0 -0.44455732798665581 0.33082357613192309 0 -0.4287524947490482 0.33739992334137159 0 -0.43835542624755341 0.34993313870202492 0 -0.44455732798665581 0.33082357613192309 0 -0.4287524947490482 0.33739992334137159 0 -0.41811874099875312 0.35722161253245888 0 -0.43835542624755341 0.34993313870202492 0 -0.41811874099875312 0.35722161253245888 0 -0.43330693618304927 0.36743111704715392 0 -0.43835542624755341 0.34993313870202492 0 -0.42135021099862069 0.38550019942329938 0 -0.41811874099875312 0.35722161253245888 0 -0.42135021099862069 0.38550019942329938 0 -0.41811874099875312 0.35722161253245888 0 -0.43330693618304927 0.36743111704715392 0 -0.44039528146883089 0.37985126846070372 0 -0.43330693618304927 0.36743111704715392 0 -0.44831502120148831 0.36464936611728249 0 -0.5 0.40038011321019712 0 -0.47720983477558448 0.36929312295676431 0 -0.5 0.32588146503443682 0 -0.43330693618304927 0.36743111704715392 0 -0.44831502120148831 0.36464936611728249 0 -0.43835542624755341 0.34993313870202492 0 -0.45297946443592813 0.37787116286410599 0 -0.44039528146883089 0.37985126846070372 0 -0.44831502120148831 0.36464936611728249 0 -0.44831502120148831 0.36464936611728249 0 -0.45212261815241361 0.34847541748464589 0 -0.43835542624755341 0.34993313870202492 0 -0.46437519425173218 0.36282754454727217 0 -0.46501012107463818 0.3341434619247271 0 -0.45212261815241361 0.34847541748464589 0 -0.46437519425173218 0.36282754454727217 0 -0.46501012107463818 0.3341434619247271 0 -0.44831502120148831 0.36464936611728249 0 -0.45212261815241361 0.34847541748464589 0 -0.46437519425173218 0.36282754454727217 0 -0.45297946443592813 0.37787116286410599 0 -0.44831502120148831 0.36464936611728249 0 -0.46437519425173218 0.36282754454727217 0 -0.46374026742882618 0.39151162716981691 0 -0.46437519425173218 0.36282754454727217 0 -0.47720983477558448 0.36929312295676431 0 -0.47720983477558448 0.36929312295676431 0 -0.4790839944810813 0.34528126189761021 0 -0.5 0.32588146503443682 0 -0.46437519425173218 0.36282754454727217 0 -0.47720983477558448 0.36929312295676431 0 -0.4790839944810813 0.34528126189761021 0 -0.46437519425173218 0.36282754454727217 0 -0.4790839944810813 0.34528126189761021 0 -0.46501012107463818 0.3341434619247271 0 -0.47720983477558448 0.36929312295676431 0 -0.4790839944810813 0.34528126189761021 0 -0.5 0.32588146503443682 0 -0.48095815418657811 0.32126940083845601 0 -0.48438341280173691 0.2990237851864897 0 -0.4790839944810813 0.34528126189761021 0 -0.5 0.32588146503443682 0 -0.48095815418657811 0.32126940083845601 0 -0.4790839944810813 0.34528126189761021 0 -0.48095815418657811 0.32126940083845601 0 -0.4790839944810813 0.34528126189761021 0 -0.48095815418657811 0.32126940083845601 0 -0.46501012107463818 0.3341434619247271 0 -0.48095815418657811 0.32126940083845601 0 -0.46501012107463818 0.3341434619247271 0 -0.46564504789754418 0.30545937930218209 0 -0.46501012107463818 0.3341434619247271 0 -0.46564504789754418 0.30545937930218209 0 -0.45334860311094782 0.31584311053598302 0 -0.46501012107463818 0.3341434619247271 0 -0.44455732798665581 0.33082357613192309 0 -0.45334860311094782 0.31584311053598302 0 -0.46501012107463818 0.3341434619247271 0 -0.46564504789754418 0.30545937930218209 0 -0.45212261815241361 0.34847541748464589 0 -0.46501012107463818 0.3341434619247271 0 -0.44455732798665581 0.33082357613192309 0 -0.45212261815241361 0.34847541748464589 0 -0.43835542624755341 0.34993313870202492 0 -0.44455732798665581 0.33082357613192309 0 -0.45334860311094782 0.31584311053598302 0 -0.44455732798665581 0.33082357613192309 0 -0.44080014402789969 0.3112135017560464 0 -0.42784370751339318 0.3200782636988328 0 -0.44455732798665581 0.33082357613192309 0 -0.44080014402789969 0.3112135017560464 0 -0.45334860311094782 0.31584311053598302 0 -0.44080014402789969 0.3112135017560464 0 -0.45212090372732222 0.29751224224269018 0 -0.44080014402789969 0.3112135017560464 0 -0.45212090372732222 0.29751224224269018 0 -0.43098419661848369 0.29848737705662681 0 -0.45212090372732222 0.29751224224269018 0 -0.44106680473088589 0.27968718865599468 0 -0.43098419661848369 0.29848737705662681 0 -0.45212090372732222 0.29751224224269018 0 -0.46878861662768212 0.293945894508436 0 -0.46620416538631942 0.27832296974934079 0 -0.45212090372732222 0.29751224224269018 0 -0.46620416538631942 0.27832296974934079 0 -0.44106680473088589 0.27968718865599468 0 -0.45334860311094782 0.31584311053598302 0 -0.45212090372732222 0.29751224224269018 0 -0.46564504789754418 0.30545937930218209 0 -0.45212090372732222 0.29751224224269018 0 -0.46564504789754418 0.30545937930218209 0 -0.46878861662768212 0.293945894508436 0 -0.48095815418657811 0.32126940083845601 0 -0.46564504789754418 0.30545937930218209 0 -0.47422271850004488 0.30257989257828583 0 -0.48095815418657811 0.32126940083845601 0 -0.48283231389207593 0.29725753977930192 0 -0.48095815418657811 0.32126940083845601 0 -0.48283231389207593 0.29725753977930192 0 -0.48438341280173691 0.2990237851864897 0 -0.48095815418657811 0.32126940083845601 0 -0.48283231389207593 0.29725753977930192 0 -0.47422271850004488 0.30257989257828583 0 -0.5 0.32588146503443682 0 -0.48438341280173691 0.2990237851864897 0 -0.5 0.27058277969487637 0 -0.48283231389207593 0.29725753977930192 0 -0.48438341280173691 0.2990237851864897 0 -0.48283231389207593 0.29725753977930192 0 -0.47422271850004488 0.30257989257828583 0 -0.46878861662768212 0.293945894508436 0 -0.46564504789754418 0.30545937930218209 0 -0.47422271850004488 0.30257989257828583 0 -0.46878861662768212 0.293945894508436 0 -0.48283231389207593 0.29725753977930192 0 -0.46620416538631942 0.27832296974934079 0 -0.4832665619079245 0.29169392479429618 0 -0.48272378290968532 0.2745465744653578 0 -0.46620416538631942 0.27832296974934079 0 -0.48283231389207593 0.29725753977930192 0 -0.46878861662768212 0.293945894508436 0 -0.46620416538631942 0.27832296974934079 0 -0.48283231389207593 0.29725753977930192 0 -0.4832665619079245 0.29169392479429618 0 -0.46620416538631942 0.27832296974934079 0 -0.48283231389207593 0.29725753977930192 0 -0.4832665619079245 0.29169392479429618 0 -0.48438341280173691 0.2990237851864897 0 -0.48283231389207593 0.29725753977930192 0 -0.4832665619079245 0.29169392479429618 0 -0.4832665619079245 0.29169392479429618 0 -0.48438341280173691 0.2990237851864897 0 -0.5 0.27058277969487637 0 -0.48510068849613291 0.2464952989699998 0 -0.5 0.27058277969487637 0 -0.47736829551405641 0.25971614189080378 0 -0.4832665619079245 0.29169392479429618 0 -0.5 0.27058277969487637 0 -0.48272378290968532 0.2745465744653578 0 -0.5 0.27058277969487637 0 -0.48272378290968532 0.2745465744653578 0 -0.47736829551405641 0.25971614189080378 0 -0.48272378290968532 0.2745465744653578 0 -0.47736829551405641 0.25971614189080378 0 -0.46620416538631942 0.27832296974934079 0 -0.48510068849613291 0.2464952989699998 0 -0.4662317729600568 0.24711617116125539 0 -0.47736829551405641 0.25971614189080378 0 -0.4662317729600568 0.24711617116125539 0 -0.47736829551405641 0.25971614189080378 0 -0.44957601688056159 0.25938839971938082 0 -0.47736829551405641 0.25971614189080378 0 -0.46620416538631942 0.27832296974934079 0 -0.44957601688056159 0.25938839971938082 0 -0.46620416538631942 0.27832296974934079 0 -0.44957601688056159 0.25938839971938082 0 -0.46620416538631942 0.27832296974934079 0 -0.44106680473088589 0.27968718865599468 0 -0.44957601688056159 0.25938839971938082 0 -0.44106680473088589 0.27968718865599468 0 -0.44957601688056159 0.25938839971938082 0 -0.42702456861835142 0.26373592368695459 0 -0.43294786837480398 0.2404538296894207 0 -0.44957601688056159 0.25938839971938082 0 -0.42702456861835142 0.26373592368695459 0 -0.43294786837480398 0.2404538296894207 0 -0.40570253936436479 0.24856745922560119 0 -0.42702456861835142 0.26373592368695459 0 -0.40570253936436479 0.24856745922560119 0 -0.40876411657587441 0.27535931469760672 0 -0.40570253936436479 0.24856745922560119 0 -0.42702456861835142 0.26373592368695459 0 -0.40876411657587441 0.27535931469760672 0 -0.42702456861835142 0.26373592368695459 0 -0.40876411657587441 0.27535931469760672 0 -0.42393307606619501 0.28388419485335897 0 -0.44106680473088589 0.27968718865599468 0 -0.42702456861835142 0.26373592368695459 0 -0.42393307606619501 0.28388419485335897 0 -0.44106680473088589 0.27968718865599468 0 -0.42393307606619501 0.28388419485335897 0 -0.43098419661848369 0.29848737705662681 0 -0.42393307606619501 0.28388419485335897 0 -0.43098419661848369 0.29848737705662681 0 -0.41182569378737999 0.30215117016961263 0 -0.42784370751339318 0.3200782636988328 0 -0.44080014402789969 0.3112135017560464 0 -0.43098419661848369 0.29848737705662681 0 -0.42784370751339318 0.3200782636988328 0 -0.43098419661848369 0.29848737705662681 0 -0.41182569378737999 0.30215117016961263 0 -0.40876411657587441 0.27535931469760672 0 -0.42393307606619501 0.28388419485335897 0 -0.41182569378737999 0.30215117016961263 0 -0.40876411657587441 0.27535931469760672 0 -0.41182569378737999 0.30215117016961263 0 -0.40876411657587441 0.27535931469760672 0 -0.41182569378737999 0.30215117016961263 0 -0.38942632587964537 0.29641120061531351 0 -0.40876411657587441 0.27535931469760672 0 -0.38942632587964537 0.29641120061531351 0 -0.38778179087320769 0.27529621765694001 0 -0.40019053093036899 0.31727751782089808 0 -0.41182569378737999 0.30215117016961263 0 -0.38942632587964537 0.29641120061531351 0 -0.3809584867257152 0.31995934924364311 0 -0.38942632587964537 0.29641120061531351 0 -0.36990774782730562 0.30465198401604282 0 -0.3809584867257152 0.31995934924364311 0 -0.40019053093036899 0.31727751782089808 0 -0.38942632587964537 0.29641120061531351 0 -0.38942632587964537 0.29641120061531351 0 -0.38778179087320769 0.27529621765694001 0 -0.37124129201382 0.2841753332327091 0 -0.38942632587964537 0.29641120061531351 0 -0.37124129201382 0.2841753332327091 0 -0.36990774782730562 0.30465198401604282 0 -0.38778179087320769 0.27529621765694001 0 -0.37230359566927929 0.26610576231553251 0 -0.37124129201382 0.2841753332327091 0 -0.38778179087320769 0.27529621765694001 0 -0.38900306751682168 0.25733661077056619 0 -0.37230359566927929 0.26610576231553251 0 -0.38900306751682168 0.25733661077056619 0 -0.37230359566927929 0.26610576231553251 0 -0.37675611103540763 0.25409865512553548 0 -0.38900306751682168 0.25733661077056619 0 -0.37230359566927929 0.26610576231553251 0 -0.38455494932564349 0.24416718140159829 0 -0.37675611103540763 0.25409865512553548 0 -0.38900306751682168 0.25733661077056619 0 -0.40570253936436479 0.24856745922560119 0 -0.40876411657587441 0.27535931469760672 0 -0.38900306751682168 0.25733661077056619 0 -0.40570253936436479 0.24856745922560119 0 -0.38900306751682168 0.25733661077056619 0 -0.40876411657587441 0.27535931469760672 0 -0.38778179087320769 0.27529621765694001 0 -0.38900306751682168 0.25733661077056619 0 -0.35344375069401829 0.26830850112922933 0 -0.35479842748912699 0.29354782535411539 0 -0.33783775680192157 0.27023153782616838 0 -0.35344375069401829 0.26830850112922933 0 -0.35479842748912699 0.29354782535411539 0 -0.35926376548055328 0.2486735779402334 0 -0.35208907389890948 0.24306917690434299 0 -0.35344375069401829 0.26830850112922933 0 -0.35208907389890948 0.24306917690434299 0 -0.35344375069401829 0.26830850112922933 0 -0.34142207509263922 0.25572960106260723 0 -0.35208907389890948 0.24306917690434299 0 -0.35344375069401829 0.26830850112922933 0 -0.35344375069401829 0.26830850112922933 0 -0.33783775680192157 0.27023153782616838 0 -0.34142207509263922 0.25572960106260723 0 -0.35344375069401829 0.26830850112922933 0 -0.36723308052532222 0.25309369692869038 0 -0.37230359566927929 0.26610576231553251 0 -0.35926376548055328 0.2486735779402334 0 -0.35344375069401829 0.26830850112922933 0 -0.36723308052532222 0.25309369692869038 0 -0.37552267705158737 0.2431978490864326 0 -0.37675611103540763 0.25409865512553548 0 -0.36723308052532222 0.25309369692869038 0 -0.37675611103540763 0.25409865512553548 0 -0.36723308052532222 0.25309369692869038 0 -0.37230359566927929 0.26610576231553251 0 -0.35344375069401829 0.26830850112922933 0 -0.37230359566927929 0.26610576231553251 0 -0.37124129201382 0.2841753332327091 0 -0.37124129201382 0.2841753332327091 0 -0.36990774782730562 0.30465198401604282 0 -0.35479842748912699 0.29354782535411539 0 -0.35344375069401829 0.26830850112922933 0 -0.37124129201382 0.2841753332327091 0 -0.35479842748912699 0.29354782535411539 0 -0.36990774782730562 0.30465198401604282 0 -0.35479842748912699 0.29354782535411539 0 -0.35615310428423591 0.31878714957900162 0 -0.35479842748912699 0.29354782535411539 0 -0.35615310428423591 0.31878714957900162 0 -0.35479842748912699 0.29354782535411539 0 -0.33790089425573833 0.30106400074382289 0 -0.35615310428423591 0.31878714957900162 0 -0.35479842748912699 0.29354782535411539 0 -0.32994760687178648 0.28429515218691809 0 -0.33783775680192157 0.27023153782616838 0 -0.35479842748912699 0.29354782535411539 0 -0.32994760687178648 0.28429515218691809 0 -0.33790089425573833 0.30106400074382289 0 -0.33790089425573833 0.30106400074382289 0 -0.31376474629655843 0.30225304786416751 0 -0.33257481532433891 0.31836647764434117 0 -0.32994760687178648 0.28429515218691809 0 -0.33790089425573833 0.30106400074382289 0 -0.31376474629655843 0.30225304786416751 0 -0.32994760687178648 0.28429515218691809 0 -0.31376474629655843 0.30225304786416751 0 -0.30745975664346697 0.28108303278283259 0 -0.32994760687178648 0.28429515218691809 0 -0.32025265357816562 0.27050697347699348 0 -0.30745975664346697 0.28108303278283259 0 -0.32994760687178648 0.28429515218691809 0 -0.32025265357816562 0.27050697347699348 0 -0.33783775680192157 0.27023153782616838 0 -0.33783775680192157 0.27023153782616838 0 -0.34142207509263922 0.25572960106260723 0 -0.32493898666941562 0.25370598596143412 0 -0.33787454055877381 0.24529314191448051 0 -0.34142207509263922 0.25572960106260723 0 -0.32493898666941562 0.25370598596143412 0 -0.32025265357816562 0.27050697347699348 0 -0.32493898666941562 0.25370598596143412 0 -0.3017176885818823 0.26220574059556451 0 -0.32025265357816562 0.27050697347699348 0 -0.33783775680192157 0.27023153782616838 0 -0.32493898666941562 0.25370598596143412 0 -0.28392805579818597 0.24584677119781029 0 -0.30659471691689572 0.242716670786389 0 -0.3017176885818823 0.26220574059556451 0 -0.30659471691689572 0.242716670786389 0 -0.32493898666941562 0.25370598596143412 0 -0.3017176885818823 0.26220574059556451 0 -0.32025265357816562 0.27050697347699348 0 -0.3017176885818823 0.26220574059556451 0 -0.30745975664346697 0.28108303278283259 0 -0.3017176885818823 0.26220574059556451 0 -0.30745975664346697 0.28108303278283259 0 -0.28581088023419748 0.27213864639403801 0 -0.28392805579818597 0.24584677119781029 0 -0.3017176885818823 0.26220574059556451 0 -0.28392805579818597 0.24584677119781029 0 -0.3017176885818823 0.26220574059556451 0 -0.28581088023419748 0.27213864639403801 0 -0.28392805579818597 0.24584677119781029 0 -0.28581088023419748 0.27213864639403801 0 -0.26655259030946182 0.26726307071448002 0 -0.28392805579818597 0.24584677119781029 0 -0.26514282027817931 0.24842266601513599 0 -0.26655259030946182 0.26726307071448002 0 -0.28581088023419748 0.27213864639403801 0 -0.26655259030946182 0.26726307071448002 0 -0.26709784128719349 0.28662765883125513 0 -0.26655259030946182 0.26726307071448002 0 -0.26709784128719349 0.28662765883125513 0 -0.24190471242523851 0.27972751922608308 0 -0.26655259030946182 0.26726307071448002 0 -0.24943129659764751 0.26000894523212309 0 -0.24190471242523851 0.27972751922608308 0 -0.26514282027817931 0.24842266601513599 0 -0.26655259030946182 0.26726307071448002 0 -0.24943129659764751 0.26000894523212309 0 -0.26514282027817931 0.24842266601513599 0 -0.24943129659764751 0.26000894523212309 0 -0.2468893326351202 0.24329134098969171 0 -0.25616918259472732 0.30236015827283808 0 -0.26709784128719349 0.28662765883125513 0 -0.24190471242523851 0.27972751922608308 0 -0.28581088023419748 0.27213864639403801 0 -0.26709784128719349 0.28662765883125513 0 -0.29016097772449478 0.2935014559625142 0 -0.26709784128719349 0.28662765883125513 0 -0.27491611994182802 0.30516871221215541 0 -0.29016097772449478 0.2935014559625142 0 -0.25616918259472732 0.30236015827283808 0 -0.27491611994182802 0.30516871221215541 0 -0.27043365276421599 0.32499279731959319 0 -0.25616918259472732 0.30236015827283808 0 -0.26709784128719349 0.28662765883125513 0 -0.27491611994182802 0.30516871221215541 0 -0.27491611994182802 0.30516871221215541 0 -0.29016097772449478 0.2935014559625142 0 -0.29169578744288521 0.31398791816734961 0 -0.30745975664346697 0.28108303278283259 0 -0.28581088023419748 0.27213864639403801 0 -0.29016097772449478 0.2935014559625142 0 -0.31376474629655843 0.30225304786416751 0 -0.30745975664346697 0.28108303278283259 0 -0.29016097772449478 0.2935014559625142 0 -0.31376474629655843 0.30225304786416751 0 -0.29016097772449478 0.2935014559625142 0 -0.29169578744288521 0.31398791816734961 0 -0.31376474629655843 0.30225304786416751 0 -0.31074538478735791 0.32738191455196902 0 -0.29169578744288521 0.31398791816734961 0 -0.31074538478735791 0.32738191455196902 0 -0.29170910681836448 0.3316805874579164 0 -0.29169578744288521 0.31398791816734961 0 -0.31074538478735791 0.32738191455196902 0 -0.30097258616365841 0.34441487088432199 0 -0.31556783578130437 0.34561409599239279 0 -0.31074538478735791 0.32738191455196902 0 -0.29170910681836448 0.3316805874579164 0 -0.30097258616365841 0.34441487088432199 0 -0.29170910681836448 0.3316805874579164 0 -0.28469812293370489 0.34762543636634829 0 -0.30097258616365841 0.34441487088432199 0 -0.29170910681836448 0.3316805874579164 0 -0.27043365276421599 0.32499279731959319 0 -0.28469812293370489 0.34762543636634829 0 -0.29170910681836448 0.3316805874579164 0 -0.29169578744288521 0.31398791816734961 0 -0.27043365276421599 0.32499279731959319 0 -0.27491611994182802 0.30516871221215541 0 -0.29169578744288521 0.31398791816734961 0 -0.27043365276421599 0.32499279731959319 0 -0.27043365276421599 0.32499279731959319 0 -0.26243222306204511 0.35090504016953772 0 -0.28469812293370489 0.34762543636634829 0 -0.27043365276421599 0.32499279731959319 0 -0.28469812293370489 0.34762543636634829 0 -0.27043365276421599 0.32499279731959319 0 -0.25002058798003007 0.3320526588471332 0 -0.26243222306204511 0.35090504016953772 0 -0.25616918259472732 0.30236015827283808 0 -0.27043365276421599 0.32499279731959319 0 -0.25616918259472732 0.30236015827283808 0 -0.27043365276421599 0.32499279731959319 0 -0.25002058798003007 0.3320526588471332 0 -0.25717133997193298 0.37426095615225607 0 -0.26243222306204511 0.35090504016953772 0 -0.27169383631612543 0.36953364855257259 0 -0.25717133997193298 0.37426095615225607 0 -0.26243222306204511 0.35090504016953772 0 -0.24481421723968019 0.36490975255658048 0 -0.27524778858216448 0.35766291394235578 0 -0.28324842690769031 0.36508823660180101 0 -0.28469812293370489 0.34762543636634829 0 -0.26243222306204511 0.35090504016953772 0 -0.27524778858216448 0.35766291394235578 0 -0.27169383631612543 0.36953364855257259 0 -0.26243222306204511 0.35090504016953772 0 -0.27524778858216448 0.35766291394235578 0 -0.28469812293370489 0.34762543636634829 0 -0.27524778858216448 0.35766291394235578 0 -0.27169383631612543 0.36953364855257259 0 -0.28324842690769031 0.36508823660180101 0 -0.27169383631612543 0.36953364855257259 0 -0.28324842690769031 0.36508823660180101 0 -0.28209338532393202 0.38222600668133688 0 -0.28324842690769031 0.36508823660180101 0 -0.28469812293370489 0.34762543636634829 0 -0.29896259310319367 0.37025807541310352 0 -0.28324842690769031 0.36508823660180101 0 -0.29896259310319367 0.37025807541310352 0 -0.28209338532393202 0.38222600668133688 0 -0.28469812293370489 0.34762543636634829 0 -0.29896259310319367 0.37025807541310352 0 -0.28469812293370489 0.34762543636634829 0 -0.30097258616365841 0.34441487088432199 0 -0.29896259310319367 0.37025807541310352 0 -0.30097258616365841 0.34441487088432199 0 -0.30971140611047582 0.35873879640362499 0 -0.29896259310319367 0.37025807541310352 0 -0.30097258616365841 0.34441487088432199 0 -0.29896259310319367 0.37025807541310352 0 -0.30097258616365841 0.34441487088432199 0 -0.30971140611047582 0.35873879640362499 0 -0.31556783578130437 0.34561409599239279 0 -0.30971140611047582 0.35873879640362499 0 -0.29896259310319367 0.37025807541310352 0 -0.31229554397435733 0.37005867265250031 0 -0.29896259310319367 0.37025807541310352 0 -0.31229554397435733 0.37005867265250031 0 -0.30732872976294823 0.38353215772995369 0 -0.31229554397435733 0.37005867265250031 0 -0.32118050234516199 0.36201264788746418 0 -0.32091897818789411 0.37757395005697603 0 -0.30971140611047582 0.35873879640362499 0 -0.31229554397435733 0.37005867265250031 0 -0.32118050234516199 0.36201264788746418 0 -0.32118050234516199 0.36201264788746418 0 -0.33508210951592582 0.36870163953731322 0 -0.32091897818789411 0.37757395005697603 0 -0.33508210951592582 0.36870163953731322 0 -0.35209549523865291 0.37190500391828912 0 -0.33393211710626841 0.38433234248782061 0 -0.32118050234516199 0.36201264788746418 0 -0.33508210951592582 0.36870163953731322 0 -0.33321476088078839 0.35466849371962073 0 -0.33508210951592582 0.36870163953731322 0 -0.33321476088078839 0.35466849371962073 0 -0.34577529297467657 0.36353966338233001 0 -0.33321476088078839 0.35466849371962073 0 -0.34577529297467657 0.36353966338233001 0 -0.34447532111727192 0.34884924989517158 0 -0.33321476088078839 0.35466849371962073 0 -0.33003563329740881 0.33925758124412497 0 -0.34447532111727192 0.34884924989517158 0 -0.32118050234516199 0.36201264788746418 0 -0.33321476088078839 0.35466849371962073 0 -0.31556783578130437 0.34561409599239279 0 -0.30971140611047582 0.35873879640362499 0 -0.32118050234516199 0.36201264788746418 0 -0.31556783578130437 0.34561409599239279 0 -0.33321476088078839 0.35466849371962073 0 -0.31556783578130437 0.34561409599239279 0 -0.33003563329740881 0.33925758124412497 0 -0.31074538478735791 0.32738191455196902 0 -0.33257481532433891 0.31836647764434117 0 -0.33003563329740881 0.33925758124412497 0 -0.31074538478735791 0.32738191455196902 0 -0.31556783578130437 0.34561409599239279 0 -0.33003563329740881 0.33925758124412497 0 -0.31376474629655843 0.30225304786416751 0 -0.31074538478735791 0.32738191455196902 0 -0.33257481532433891 0.31836647764434117 0 -0.33790089425573833 0.30106400074382289 0 -0.33257481532433891 0.31836647764434117 0 -0.35615310428423591 0.31878714957900162 0 -0.33257481532433891 0.31836647764434117 0 -0.33003563329740881 0.33925758124412497 0 -0.34490357793898208 0.33379293979876401 0 -0.33003563329740881 0.33925758124412497 0 -0.34490357793898208 0.33379293979876401 0 -0.34447532111727192 0.34884924989517158 0 -0.34490357793898208 0.33379293979876401 0 -0.34447532111727192 0.34884924989517158 0 -0.35750778107934472 0.34402647380388779 0 -0.35615310428423591 0.31878714957900162 0 -0.35750778107934472 0.34402647380388779 0 -0.34490357793898208 0.33379293979876401 0 -0.35615310428423591 0.31878714957900162 0 -0.35750778107934472 0.34402647380388779 0 -0.33257481532433891 0.31836647764434117 0 -0.34490357793898208 0.33379293979876401 0 -0.35615310428423591 0.31878714957900162 0 -0.3809584867257152 0.31995934924364311 0 -0.36990774782730562 0.30465198401604282 0 -0.35615310428423591 0.31878714957900162 0 -0.37563375498023588 0.33893957100260502 0 -0.3809584867257152 0.31995934924364311 0 -0.35615310428423591 0.31878714957900162 0 -0.37563375498023588 0.33893957100260502 0 -0.35615310428423591 0.31878714957900162 0 -0.35750778107934472 0.34402647380388779 0 -0.37563375498023588 0.33893957100260502 0 -0.37302608715873109 0.35758434449273291 0 -0.35750778107934472 0.34402647380388779 0 -0.37302608715873109 0.35758434449273291 0 -0.35750778107934472 0.34402647380388779 0 -0.35541488053243109 0.35781034742230239 0 -0.37302608715873109 0.35758434449273291 0 -0.35209549523865291 0.37190500391828912 0 -0.35541488053243109 0.35781034742230239 0 -0.37302608715873109 0.35758434449273291 0 -0.37126589511329411 0.37377724987418581 0 -0.35209549523865291 0.37190500391828912 0 -0.37302608715873109 0.35758434449273291 0 -0.35209549523865291 0.37190500391828912 0 -0.33508210951592582 0.36870163953731322 0 -0.35209549523865291 0.37190500391828912 0 -0.34577529297467657 0.36353966338233001 0 -0.35209549523865291 0.37190500391828912 0 -0.34577529297467657 0.36353966338233001 0 -0.35209549523865291 0.37190500391828912 0 -0.34577529297467657 0.36353966338233001 0 -0.35541488053243109 0.35781034742230239 0 -0.34577529297467657 0.36353966338233001 0 -0.34447532111727192 0.34884924989517158 0 -0.35541488053243109 0.35781034742230239 0 -0.34447532111727192 0.34884924989517158 0 -0.35750778107934472 0.34402647380388779 0 -0.35541488053243109 0.35781034742230239 0 -0.35026082972236822 0.40458613969335172 0 -0.34862050747833878 0.38874946299455448 0 -0.33552343261133938 0.40009846525415782 0 -0.35026082972236822 0.40458613969335172 0 -0.34862050747833878 0.38874946299455448 0 -0.36671596826568531 0.39125647884893172 0 -0.35209549523865291 0.37190500391828912 0 -0.34862050747833878 0.38874946299455448 0 -0.33393211710626841 0.38433234248782061 0 -0.35209549523865291 0.37190500391828912 0 -0.34862050747833878 0.38874946299455448 0 -0.36671596826568531 0.39125647884893172 0 -0.35209549523865291 0.37190500391828912 0 -0.36671596826568531 0.39125647884893172 0 -0.37126589511329411 0.37377724987418581 0 -0.35209549523865291 0.37190500391828912 0 -0.36671596826568531 0.39125647884893172 0 -0.38133644129271771 0.41060795377957438 0 -0.36671596826568531 0.39125647884893172 0 -0.35026082972236822 0.40458613969335172 0 -0.36671596826568531 0.39125647884893172 0 -0.36333227490387549 0.41594406858258898 0 -0.38133644129271771 0.41060795377957438 0 -0.36671596826568531 0.39125647884893172 0 -0.36333227490387549 0.41594406858258898 0 -0.38133644129271771 0.41060795377957438 0 -0.36333227490387549 0.41594406858258898 0 -0.37388199021079188 0.43349662060099697 0 -0.36333227490387549 0.41594406858258898 0 -0.37388199021079188 0.43349662060099697 0 -0.35906691460358248 0.43302642702751659 0 -0.36333227490387549 0.41594406858258898 0 -0.35906691460358248 0.43302642702751659 0 -0.35160825139420282 0.41805423523185442 0 -0.35906691460358248 0.43302642702751659 0 -0.34586475289765162 0.42738691828786168 0 -0.34964894770477822 0.45067928662270329 0 -0.35906691460358248 0.43302642702751659 0 -0.34586475289765162 0.42738691828786168 0 -0.35160825139420282 0.41805423523185442 0 -0.35026082972236822 0.40458613969335172 0 -0.36333227490387549 0.41594406858258898 0 -0.35160825139420282 0.41805423523185442 0 -0.34586475289765162 0.42738691828786168 0 -0.35160825139420282 0.41805423523185442 0 -0.33955069738530769 0.4144169953609998 0 -0.35026082972236822 0.40458613969335172 0 -0.35160825139420282 0.41805423523185442 0 -0.33955069738530769 0.4144169953609998 0 -0.35026082972236822 0.40458613969335172 0 -0.33955069738530769 0.4144169953609998 0 -0.33552343261133938 0.40009846525415782 0 -0.33446828868340289 0.42659298183602629 0 -0.325081577553051 0.41169961094141633 0 -0.33955069738530769 0.4144169953609998 0 -0.33446828868340289 0.42659298183602629 0 -0.325081577553051 0.41169961094141633 0 -0.33955069738530769 0.4144169953609998 0 -0.325081577553051 0.41169961094141633 0 -0.33552343261133938 0.40009846525415782 0 -0.33446828868340289 0.42659298183602629 0 -0.32353211865850812 0.43458959004027897 0 -0.33054677899099522 0.44587833955602901 0 -0.34586475289765162 0.42738691828786168 0 -0.33446828868340289 0.42659298183602629 0 -0.34964894770477822 0.45067928662270329 0 -0.34586475289765162 0.42738691828786168 0 -0.33446828868340289 0.42659298183602629 0 -0.34586475289765162 0.42738691828786168 0 -0.33955069738530769 0.4144169953609998 0 -0.33446828868340289 0.42659298183602629 0 -0.33446828868340289 0.42659298183602629 0 -0.31463215430362917 0.42521109444957261 0 -0.33446828868340289 0.42659298183602629 0 -0.31463215430362917 0.42521109444957261 0 -0.32353211865850812 0.43458959004027897 0 -0.31463215430362917 0.42521109444957261 0 -0.32353211865850812 0.43458959004027897 0 -0.30632691414132052 0.4383163993433048 0 -0.325081577553051 0.41169961094141633 0 -0.31576873897388319 0.39675968105735149 0 -0.30808160252936673 0.4121977433748496 0 -0.31463215430362917 0.42521109444957261 0 -0.325081577553051 0.41169961094141633 0 -0.30808160252936673 0.4121977433748496 0 -0.33446828868340289 0.42659298183602629 0 -0.31463215430362917 0.42521109444957261 0 -0.325081577553051 0.41169961094141633 0 -0.325081577553051 0.41169961094141633 0 -0.31576873897388319 0.39675968105735149 0 -0.33552343261133938 0.40009846525415782 0 -0.325081577553051 0.41169961094141633 0 -0.31576873897388319 0.39675968105735149 0 -0.34862050747833878 0.38874946299455448 0 -0.33552343261133938 0.40009846525415782 0 -0.33393211710626841 0.38433234248782061 0 -0.31576873897388319 0.39675968105735149 0 -0.33552343261133938 0.40009846525415782 0 -0.33393211710626841 0.38433234248782061 0 -0.35209549523865291 0.37190500391828912 0 -0.33393211710626841 0.38433234248782061 0 -0.33508210951592582 0.36870163953731322 0 -0.33393211710626841 0.38433234248782061 0 -0.32091897818789411 0.37757395005697603 0 -0.31576873897388319 0.39675968105735149 0 -0.32091897818789411 0.37757395005697603 0 -0.30732872976294823 0.38353215772995369 0 -0.31576873897388319 0.39675968105735149 0 -0.33393211710626841 0.38433234248782061 0 -0.31576873897388319 0.39675968105735149 0 -0.33393211710626841 0.38433234248782061 0 -0.32091897818789411 0.37757395005697603 0 -0.31229554397435733 0.37005867265250031 0 -0.32091897818789411 0.37757395005697603 0 -0.30732872976294823 0.38353215772995369 0 -0.29896259310319367 0.37025807541310352 0 -0.30732872976294823 0.38353215772995369 0 -0.29700674132229032 0.39540516601558717 0 -0.29896259310319367 0.37025807541310352 0 -0.29700674132229032 0.39540516601558717 0 -0.31576873897388319 0.39675968105735149 0 -0.30732872976294823 0.38353215772995369 0 -0.29896259310319367 0.37025807541310352 0 -0.30732872976294823 0.38353215772995369 0 -0.29700674132229032 0.39540516601558717 0 -0.30259284054109448 0.40478096048040529 0 -0.29641605771867308 0.41403951143914192 0 -0.31576873897388319 0.39675968105735149 0 -0.29700674132229032 0.39540516601558717 0 -0.30259284054109448 0.40478096048040529 0 -0.31576873897388319 0.39675968105735149 0 -0.30732872976294823 0.38353215772995369 0 -0.29700674132229032 0.39540516601558717 0 -0.31576873897388319 0.39675968105735149 0 -0.30259284054109448 0.40478096048040529 0 -0.30808160252936673 0.4121977433748496 0 -0.29700674132229032 0.39540516601558717 0 -0.28209338532393202 0.38222600668133688 0 -0.27839968129949771 0.4031848713431353 0 -0.29896259310319367 0.37025807541310352 0 -0.29700674132229032 0.39540516601558717 0 -0.28209338532393202 0.38222600668133688 0 -0.27169383631612543 0.36953364855257259 0 -0.28209338532393202 0.38222600668133688 0 -0.26324903299479457 0.38988604216182182 0 -0.27839968129949771 0.4031848713431353 0 -0.26324903299479457 0.38988604216182182 0 -0.26044543261494202 0.40722350202507612 0 -0.28209338532393202 0.38222600668133688 0 -0.27839968129949771 0.4031848713431353 0 -0.26324903299479457 0.38988604216182182 0 -0.26324903299479457 0.38988604216182182 0 -0.26044543261494202 0.40722350202507612 0 -0.24448809762487089 0.40050868906775772 0 -0.25717133997193298 0.37426095615225607 0 -0.26324903299479457 0.38988604216182182 0 -0.24074374520667241 0.38242687998337299 0 -0.25717133997193298 0.37426095615225607 0 -0.27169383631612543 0.36953364855257259 0 -0.26324903299479457 0.38988604216182182 0 -0.25382358621835049 0.43542260228310259 0 -0.27015352040741047 0.42211248350195679 0 -0.2459368307481366 0.42042542405070832 0 -0.27015352040741047 0.42211248350195679 0 -0.2459368307481366 0.42042542405070832 0 -0.26044543261494202 0.40722350202507612 0 -0.2459368307481366 0.42042542405070832 0 -0.24448809762487089 0.40050868906775772 0 -0.26044543261494202 0.40722350202507612 0 -0.27015352040741047 0.42211248350195679 0 -0.2459368307481366 0.42042542405070832 0 -0.27839968129949771 0.4031848713431353 0 -0.26044543261494202 0.40722350202507612 0 -0.27015352040741047 0.42211248350195679 0 -0.27839968129949771 0.4031848713431353 0 -0.27015352040741047 0.42211248350195679 0 -0.2950508895413867 0.42055225661807089 0 -0.25382358621835049 0.43542260228310259 0 -0.27015352040741047 0.42211248350195679 0 -0.27451598641054692 0.44016370142941202 0 -0.27015352040741047 0.42211248350195679 0 -0.28251112199335982 0.43211478794536817 0 -0.27451598641054692 0.44016370142941202 0 -0.28251112199335982 0.43211478794536817 0 -0.29479601992385501 0.42382920706312738 0 -0.29069111349206073 0.44135124015641658 0 -0.29479601992385501 0.42382920706312738 0 -0.29069111349206073 0.44135124015641658 0 -0.27015352040741047 0.42211248350195679 0 -0.28251112199335982 0.43211478794536817 0 -0.29479601992385501 0.42382920706312738 0 -0.27015352040741047 0.42211248350195679 0 -0.29479601992385501 0.42382920706312738 0 -0.27015352040741047 0.42211248350195679 0 -0.29479601992385501 0.42382920706312738 0 -0.2950508895413867 0.42055225661807089 0 -0.29479601992385501 0.42382920706312738 0 -0.2950508895413867 0.42055225661807089 0 -0.29700674132229032 0.39540516601558717 0 -0.2950508895413867 0.42055225661807089 0 -0.29641605771867308 0.41403951143914192 0 -0.29700674132229032 0.39540516601558717 0 -0.27839968129949771 0.4031848713431353 0 -0.2950508895413867 0.42055225661807089 0 -0.29700674132229032 0.39540516601558717 0 -0.2950508895413867 0.42055225661807089 0 -0.2950508895413867 0.42055225661807089 0 -0.29641605771867308 0.41403951143914192 0 -0.31463215430362917 0.42521109444957261 0 -0.2950508895413867 0.42055225661807089 0 -0.30808160252936673 0.4121977433748496 0 -0.30259284054109448 0.40478096048040529 0 -0.29641605771867308 0.41403951143914192 0 -0.30808160252936673 0.4121977433748496 0 -0.2950508895413867 0.42055225661807089 0 -0.29641605771867308 0.41403951143914192 0 -0.30808160252936673 0.4121977433748496 0 -0.31463215430362917 0.42521109444957261 0 -0.29479601992385501 0.42382920706312738 0 -0.2950508895413867 0.42055225661807089 0 -0.31463215430362917 0.42521109444957261 0 -0.29479601992385501 0.42382920706312738 0 -0.30632691414132052 0.4383163993433048 0 -0.29479601992385501 0.42382920706312738 0 -0.30632691414132052 0.4383163993433048 0 -0.29069111349206073 0.44135124015641658 0 -0.31463215430362917 0.42521109444957261 0 -0.29479601992385501 0.42382920706312738 0 -0.30632691414132052 0.4383163993433048 0 -0.3106014077299023 0.45452137664490028 0 -0.31918078655937843 0.44538174228416588 0 -0.30632691414132052 0.4383163993433048 0 -0.29796494780926752 0.45236230629258078 0 -0.3106014077299023 0.45452137664490028 0 -0.30632691414132052 0.4383163993433048 0 -0.29796494780926752 0.45236230629258078 0 -0.29069111349206073 0.44135124015641658 0 -0.3106014077299023 0.45452137664490028 0 -0.30192672627001949 0.46374394226332799 0 -0.31684143562260331 0.46858494716702748 0 -0.30192672627001949 0.46374394226332799 0 -0.31684143562260331 0.46858494716702748 0 -0.29796494780926752 0.45236230629258078 0 -0.3106014077299023 0.45452137664490028 0 -0.30192672627001949 0.46374394226332799 0 -0.28701201691743577 0.45890293735962839 0 -0.28352738281579593 0.4755269213664215 0 -0.30192672627001949 0.46374394226332799 0 -0.28701201691743577 0.45890293735962839 0 -0.30030559437380339 0.47420586516231239 0 -0.30192672627001949 0.46374394226332799 0 -0.28701201691743577 0.45890293735962839 0 -0.29796494780926752 0.45236230629258078 0 -0.30192672627001949 0.46374394226332799 0 -0.28701201691743577 0.45890293735962839 0 -0.28701201691743577 0.45890293735962839 0 -0.29069111349206073 0.44135124015641658 0 -0.28701201691743577 0.45890293735962839 0 -0.29069111349206073 0.44135124015641658 0 -0.27451598641054692 0.44016370142941202 0 -0.29796494780926752 0.45236230629258078 0 -0.28701201691743577 0.45890293735962839 0 -0.29069111349206073 0.44135124015641658 0 -0.28251112199335982 0.43211478794536817 0 -0.29069111349206073 0.44135124015641658 0 -0.27451598641054692 0.44016370142941202 0 -0.28701201691743577 0.45890293735962839 0 -0.27451598641054692 0.44016370142941202 0 -0.2629045594346644 0.45107815732999917 0 -0.28701201691743577 0.45890293735962839 0 -0.2629045594346644 0.45107815732999917 0 -0.28701201691743577 0.45890293735962839 0 -0.27023974482395158 0.46466667776273851 0 -0.28352738281579593 0.4755269213664215 0 -0.28701201691743577 0.45890293735962839 0 -0.27023974482395158 0.46466667776273851 0 -0.2629045594346644 0.45107815732999917 0 -0.27023974482395158 0.46466667776273851 0 -0.2629045594346644 0.45107815732999917 0 -0.2489120775907421 0.45611132706247232 0 -0.27023974482395158 0.46466667776273851 0 -0.24576275637927339 0.47027392540463459 0 -0.2489120775907421 0.45611132706247232 0 -0.25382358621835049 0.43542260228310259 0 -0.2629045594346644 0.45107815732999917 0 -0.2387971019518931 0.44325337730036979 0 -0.2629045594346644 0.45107815732999917 0 -0.2387971019518931 0.44325337730036979 0 -0.2629045594346644 0.45107815732999917 0 -0.2387971019518931 0.44325337730036979 0 -0.2489120775907421 0.45611132706247232 0 -0.25382358621835049 0.43542260228310259 0 -0.27451598641054692 0.44016370142941202 0 -0.2629045594346644 0.45107815732999917 0 -0.26267046183496029 0.5 0 -0.26550391405888962 0.48189416376756322 0 -0.24740973726578031 0.48747235416832729 0 -0.26550391405888962 0.48189416376756322 0 -0.24576275637927339 0.47027392540463459 0 -0.24740973726578031 0.48747235416832729 0 -0.27023974482395158 0.46466667776273851 0 -0.26550391405888962 0.48189416376756322 0 -0.24576275637927339 0.47027392540463459 0 -0.27023974482395158 0.46466667776273851 0 -0.26550391405888962 0.48189416376756322 0 -0.28352738281579593 0.4755269213664215 0 -0.26550391405888962 0.48189416376756322 0 -0.28004274871415491 0.49215090537321432 0 -0.28352738281579593 0.4755269213664215 0 -0.26267046183496029 0.5 0 -0.26550391405888962 0.48189416376756322 0 -0.28004274871415491 0.49215090537321432 0 -0.26267046183496029 0.5 0 -0.28004274871415491 0.49215090537321432 0 -0.28977137280097909 0.5 0 -0.28004274871415491 0.49215090537321432 0 -0.29422506909847679 0.48481709335143458 0 -0.28977137280097909 0.5 0 -0.29422506909847679 0.48481709335143458 0 -0.28977137280097909 0.5 0 -0.30059562840125281 0.49523014277448563 0 -0.29422506909847679 0.48481709335143458 0 -0.28352738281579593 0.4755269213664215 0 -0.30030559437380339 0.47420586516231239 0 -0.28004274871415491 0.49215090537321432 0 -0.29422506909847679 0.48481709335143458 0 -0.28352738281579593 0.4755269213664215 0 -0.28701201691743577 0.45890293735962839 0 -0.28352738281579593 0.4755269213664215 0 -0.30030559437380339 0.47420586516231239 0 -0.28004274871415491 0.49215090537321432 0 -0.28352738281579593 0.4755269213664215 0 -0.30192672627001949 0.46374394226332799 0 -0.30030559437380339 0.47420586516231239 0 -0.31684143562260331 0.46858494716702748 0 -0.30030559437380339 0.47420586516231239 0 -0.3087338265938282 0.48140676030859753 0 -0.31684143562260331 0.46858494716702748 0 -0.29422506909847679 0.48481709335143458 0 -0.30030559437380339 0.47420586516231239 0 -0.3087338265938282 0.48140676030859753 0 -0.28977137280097909 0.5 0 -0.30059562840125281 0.49523014277448563 0 -0.31687228376699761 0.5 0 -0.3087338265938282 0.48140676030859753 0 -0.30059562840125281 0.49523014277448563 0 -0.32200695450955369 0.48840862565278359 0 -0.30059562840125281 0.49523014277448563 0 -0.32200695450955369 0.48840862565278359 0 -0.29422506909847679 0.48481709335143458 0 -0.3087338265938282 0.48140676030859753 0 -0.30059562840125281 0.49523014277448563 0 -0.30059562840125281 0.49523014277448563 0 -0.31687228376699761 0.5 0 -0.32200695450955369 0.48840862565278359 0 -0.31687228376699761 0.5 0 -0.32200695450955369 0.48840862565278359 0 -0.33307541777069588 0.49179723018598798 0 -0.32200695450955369 0.48840862565278359 0 -0.34341828061785462 0.48158710853108161 0 -0.32200695450955369 0.48840862565278359 0 -0.33307541777069588 0.49179723018598798 0 -0.34341828061785462 0.48158710853108161 0 -0.33307541777069588 0.49179723018598798 0 -0.34341828061785462 0.48158710853108161 0 -0.34397319473301619 0.5 0 -0.31687228376699761 0.5 0 -0.33307541777069588 0.49179723018598798 0 -0.34397319473301619 0.5 0 -0.32200695450955369 0.48840862565278359 0 -0.34341828061785462 0.48158710853108161 0 -0.32987443399239552 0.47516769423785971 0 -0.34341828061785462 0.48158710853108161 0 -0.32987443399239552 0.47516769423785971 0 -0.34602126269748001 0.46829680282094799 0 -0.32987443399239552 0.47516769423785971 0 -0.31870391104731738 0.47862303310617538 0 -0.31684143562260331 0.46858494716702748 0 -0.32200695450955369 0.48840862565278359 0 -0.32987443399239552 0.47516769423785971 0 -0.31870391104731738 0.47862303310617538 0 -0.3087338265938282 0.48140676030859753 0 -0.32200695450955369 0.48840862565278359 0 -0.31870391104731738 0.47862303310617538 0 -0.3087338265938282 0.48140676030859753 0 -0.31870391104731738 0.47862303310617538 0 -0.31684143562260331 0.46858494716702748 0 -0.31684143562260331 0.46858494716702748 0 -0.32297313966047753 0.4563916054492167 0 -0.33347739267942988 0.46163483110378051 0 -0.32987443399239552 0.47516769423785971 0 -0.31684143562260331 0.46858494716702748 0 -0.33347739267942988 0.46163483110378051 0 -0.3106014077299023 0.45452137664490028 0 -0.31684143562260331 0.46858494716702748 0 -0.32297313966047753 0.4563916054492167 0 -0.32353211865850812 0.43458959004027897 0 -0.30632691414132052 0.4383163993433048 0 -0.31918078655937843 0.44538174228416588 0 -0.3106014077299023 0.45452137664490028 0 -0.32297313966047753 0.4563916054492167 0 -0.31918078655937843 0.44538174228416588 0 -0.32297313966047753 0.4563916054492167 0 -0.31918078655937843 0.44538174228416588 0 -0.33054677899099522 0.44587833955602901 0 -0.32353211865850812 0.43458959004027897 0 -0.31918078655937843 0.44538174228416588 0 -0.33054677899099522 0.44587833955602901 0 -0.33054677899099522 0.44587833955602901 0 -0.33347739267942988 0.46163483110378051 0 -0.34964894770477822 0.45067928662270329 0 -0.33446828868340289 0.42659298183602629 0 -0.34964894770477822 0.45067928662270329 0 -0.33446828868340289 0.42659298183602629 0 -0.33054677899099522 0.44587833955602901 0 -0.34964894770477822 0.45067928662270329 0 -0.32297313966047753 0.4563916054492167 0 -0.33054677899099522 0.44587833955602901 0 -0.33347739267942988 0.46163483110378051 0 -0.33347739267942988 0.46163483110378051 0 -0.34602126269748001 0.46829680282094799 0 -0.34964894770477822 0.45067928662270329 0 -0.32987443399239552 0.47516769423785971 0 -0.33347739267942988 0.46163483110378051 0 -0.34602126269748001 0.46829680282094799 0 -0.34964894770477822 0.45067928662270329 0 -0.36482960672615539 0.47476559140937902 0 -0.34602126269748001 0.46829680282094799 0 -0.34964894770477822 0.45067928662270329 0 -0.36482960672615539 0.47476559140937902 0 -0.37388199021079188 0.43349662060099697 0 -0.35906691460358248 0.43302642702751659 0 -0.37006527051019528 0.45259743283909409 0 -0.35906691460358248 0.43302642702751659 0 -0.34964894770477822 0.45067928662270329 0 -0.37006527051019528 0.45259743283909409 0 -0.34964894770477822 0.45067928662270329 0 -0.37006527051019528 0.45259743283909409 0 -0.36482960672615539 0.47476559140937902 0 -0.39197467039505129 0.46611734068214988 0 -0.36580706476392733 0.47631646954851292 0 -0.36482960672615539 0.47476559140937902 0 -0.38413367002432852 0.48466820949397371 0 -0.36580706476392733 0.47631646954851292 0 -0.36922226322768142 0.48798439540463678 0 -0.36580706476392733 0.47631646954851292 0 -0.36482960672615539 0.47476559140937902 0 -0.36580706476392733 0.47631646954851292 0 -0.36011621247549508 0.48220740160321018 0 -0.36922226322768142 0.48798439540463678 0 -0.36580706476392733 0.47631646954851292 0 -0.36482960672615539 0.47476559140937902 0 -0.36011621247549508 0.48220740160321018 0 -0.38413367002432852 0.48466820949397371 0 -0.36922226322768142 0.48798439540463678 0 -0.37107410569903487 0.5 0 -0.36922226322768142 0.48798439540463678 0 -0.37107410569903487 0.5 0 -0.35730384704185653 0.49038344312244059 0 -0.36011621247549508 0.48220740160321018 0 -0.36922226322768142 0.48798439540463678 0 -0.35730384704185653 0.49038344312244059 0 -0.34341828061785462 0.48158710853108161 0 -0.36011621247549508 0.48220740160321018 0 -0.35730384704185653 0.49038344312244059 0 -0.37107410569903487 0.5 0 -0.35730384704185653 0.49038344312244059 0 -0.34397319473301619 0.5 0 -0.34341828061785462 0.48158710853108161 0 -0.35730384704185653 0.49038344312244059 0 -0.34397319473301619 0.5 0 -0.34341828061785462 0.48158710853108161 0 -0.36482960672615539 0.47476559140937902 0 -0.36011621247549508 0.48220740160321018 0 -0.34341828061785462 0.48158710853108161 0 -0.34602126269748001 0.46829680282094799 0 -0.36482960672615539 0.47476559140937902 0 -0.34341828061785462 0.48158710853108161 0 -0.36482960672615539 0.47476559140937902 0 -0.14108182703901029 0.47856052106912539 0 -0.15218575011213231 0.48928026053456308 0 -0.15838645381207381 0.47784012782054008 0 -0.14108182703901029 0.47856052106912539 0 -0.15141758041572639 0.46790752156545012 0 -0.15838645381207381 0.47784012782054008 0 -0.14108182703901029 0.47856052106912539 0 -0.15218575011213231 0.48928026053456308 0 -0.14103512141071931 0.48261116844817892 0 -0.14108182703901029 0.47856052106912539 0 -0.15218575011213231 0.48928026053456308 0 -0.14103512141071931 0.48261116844817892 0 -0.14108182703901029 0.47856052106912539 0 -0.15218575011213231 0.48928026053456308 0 -0.14247376316698551 0.5 0 -0.1632896731852537 0.50000000000000155 0 -0.15218575011213231 0.48928026053456308 0 -0.14247376316698551 0.5 0 -0.14194011071192181 0.49099964735320722 0 -0.14103512141071931 0.48261116844817892 0 -0.15218575011213231 0.48928026053456308 0 -0.14194011071192181 0.49099964735320722 0 -0.14247376316698551 0.5 0 -0.13206580815784999 0.49210716043008701 0 -0.1216578531487173 0.50000000000000155 0 -0.13206580815784999 0.49210716043008701 0 -0.1215246548466888 0.48036061179670092 0 -0.1216578531487173 0.50000000000000155 0 -0.14103512141071931 0.48261116844817892 0 -0.13206580815784999 0.49210716043008701 0 -0.1215246548466888 0.48036061179670092 0 -0.14103512141071931 0.48261116844817892 0 -0.14194011071192181 0.49099964735320722 0 -0.13206580815784999 0.49210716043008701 0 -0.14247376316698551 0.5 0 -0.14194011071192181 0.49099964735320722 0 -0.13206580815784999 0.49210716043008701 0 -0.14103512141071931 0.48261116844817892 0 -0.14108182703901029 0.47856052106912539 0 -0.1215246548466888 0.48036061179670092 0 -0.14108182703901029 0.47856052106912539 0 -0.11987972175203609 0.45809198546251739 0 -0.1215246548466888 0.48036061179670092 0 -0.14108182703901029 0.47856052106912539 0 -0.14131813266979709 0.45806640035822538 0 -0.11987972175203609 0.45809198546251739 0 -0.14108182703901029 0.47856052106912539 0 -0.11987972175203609 0.45809198546251739 0 -0.12509104342100061 0.44188941827772182 0 -0.14131813266979709 0.45806640035822538 0 -0.11987972175203609 0.45809198546251739 0 -0.12509104342100061 0.44188941827772182 0 -0.14155443830058789 0.43757227964732542 0 -0.14131813266979709 0.45806640035822538 0 -0.14155443830058789 0.43757227964732542 0 -0.1590732886589914 0.44456462379371309 0 -0.14157918638415079 0.43542594817740249 0 -0.1590732886589914 0.44456462379371309 0 -0.1665175895587078 0.4467511244817659 0 -0.14157918638415079 0.43542594817740249 0 -0.1665175895587078 0.4467511244817659 0 -0.15486041744653839 0.43233395996053492 0 -0.14157918638415079 0.43542594817740249 0 -0.14155443830058789 0.43757227964732542 0 -0.14890115189103559 0.44846787442591368 0 -0.1590732886589914 0.44456462379371309 0 -0.1665175895587078 0.4467511244817659 0 -0.14157918638415079 0.43542594817740249 0 -0.14155443830058789 0.43757227964732542 0 -0.14890115189103559 0.44846787442591368 0 -0.14131813266979709 0.45806640035822538 0 -0.14155443830058789 0.43757227964732542 0 -0.1590732886589914 0.44456462379371309 0 -0.14155443830058789 0.43757227964732542 0 -0.14131813266979709 0.45806640035822538 0 -0.14890115189103559 0.44846787442591368 0 -0.15489186999573309 0.45643812449532861 0 -0.1590732886589914 0.44456462379371309 0 -0.14108182703901029 0.47856052106912539 0 -0.14131813266979709 0.45806640035822538 0 -0.14108182703901029 0.47856052106912539 0 -0.14131813266979709 0.45806640035822538 0 -0.15141758041572639 0.46790752156545012 0 -0.14890115189103559 0.44846787442591368 0 -0.14131813266979709 0.45806640035822538 0 -0.15489186999573309 0.45643812449532861 0 -0.14131813266979709 0.45806640035822538 0 -0.15489186999573309 0.45643812449532861 0 -0.15141758041572639 0.46790752156545012 0 -0.15489186999573309 0.45643812449532861 0 -0.15141758041572639 0.46790752156545012 0 -0.1637083375647361 0.46571847743475431 0 -0.15489186999573309 0.45643812449532861 0 -0.1637083375647361 0.46571847743475431 0 -0.16576602081972819 0.45650349861697093 0 -0.1637083375647361 0.46571847743475431 0 -0.1745644688617857 0.46423929942095737 0 -0.17520348646433229 0.47613194070040032 0 -0.1637083375647361 0.46571847743475431 0 -0.16576602081972819 0.45650349861697093 0 -0.1745644688617857 0.46423929942095737 0 -0.1590732886589914 0.44456462379371309 0 -0.17659213901739471 0.45155696794010108 0 -0.1590732886589914 0.44456462379371309 0 -0.1665175895587078 0.4467511244817659 0 -0.17659213901739471 0.45155696794010108 0 -0.16576602081972819 0.45650349861697093 0 -0.1590732886589914 0.44456462379371309 0 -0.17659213901739471 0.45155696794010108 0 -0.1665175895587078 0.4467511244817659 0 -0.1659354897241099 0.43449929542802312 0 -0.15486041744653839 0.43233395996053492 0 -0.15489186999573309 0.45643812449532861 0 -0.16576602081972819 0.45650349861697093 0 -0.1590732886589914 0.44456462379371309 0 -0.1665175895587078 0.4467511244817659 0 -0.1740586998674569 0.43899754936367941 0 -0.1659354897241099 0.43449929542802312 0 -0.1740586998674569 0.43899754936367941 0 -0.17659213901739471 0.45155696794010108 0 -0.1868590329817707 0.43357197228301869 0 -0.1665175895587078 0.4467511244817659 0 -0.1740586998674569 0.43899754936367941 0 -0.17659213901739471 0.45155696794010108 0 -0.1745644688617857 0.46423929942095737 0 -0.18738907724301901 0.4651958722260251 0 -0.17520348646433229 0.47613194070040032 0 -0.17659213901739471 0.45155696794010108 0 -0.1745644688617857 0.46423929942095737 0 -0.18738907724301901 0.4651958722260251 0 -0.16576602081972819 0.45650349861697093 0 -0.17659213901739471 0.45155696794010108 0 -0.1745644688617857 0.46423929942095737 0 -0.17520348646433229 0.47613194070040032 0 -0.17737148462513211 0.4885994124146576 0 -0.1949767913905355 0.48049775525153071 0 -0.18738907724301901 0.4651958722260251 0 -0.17520348646433229 0.47613194070040032 0 -0.1949767913905355 0.48049775525153071 0 -0.17520348646433229 0.47613194070040032 0 -0.1660045063390565 0.48636736612135473 0 -0.17737148462513211 0.4885994124146576 0 -0.17520348646433229 0.47613194070040032 0 -0.15838645381207381 0.47784012782054008 0 -0.1660045063390565 0.48636736612135473 0 -0.1637083375647361 0.46571847743475431 0 -0.17520348646433229 0.47613194070040032 0 -0.15838645381207381 0.47784012782054008 0 -0.15141758041572639 0.46790752156545012 0 -0.1637083375647361 0.46571847743475431 0 -0.15838645381207381 0.47784012782054008 0 -0.15218575011213231 0.48928026053456308 0 -0.1632896731852537 0.50000000000000155 0 -0.15218575011213231 0.48928026053456308 0 -0.15838645381207381 0.47784012782054008 0 -0.1660045063390565 0.48636736612135473 0 -0.15218575011213231 0.48928026053456308 0 -0.1632896731852537 0.50000000000000155 0 -0.1660045063390565 0.48636736612135473 0 -0.1632896731852537 0.50000000000000155 0 -0.1660045063390565 0.48636736612135473 0 -0.17737148462513211 0.4885994124146576 0 -0.1632896731852537 0.50000000000000155 0 -0.18738296574648311 0.5 0 -0.17737148462513211 0.4885994124146576 0 -0.18738296574648311 0.5 0 -0.17737148462513211 0.4885994124146576 0 -0.1949767913905355 0.48049775525153071 0 -0.18738296574648311 0.5 0 -0.1949767913905355 0.48049775525153071 0 -0.21147625830771241 0.5 0 -0.1949767913905355 0.48049775525153071 0 -0.2193327115732171 0.47785732409434201 0 -0.2030958722774939 0.45571464818868052 0 -0.1949767913905355 0.48049775525153071 0 -0.21147625830771241 0.5 0 -0.2193327115732171 0.47785732409434201 0 -0.21147625830771241 0.5 0 -0.2193327115732171 0.47785732409434201 0 -0.23556955086894171 0.50000000000000278 0 -0.2193327115732171 0.47785732409434201 0 -0.24740973726578031 0.48747235416832729 0 -0.23556955086894171 0.50000000000000278 0 -0.2193327115732171 0.47785732409434201 0 -0.23556955086894171 0.50000000000000278 0 -0.2193327115732171 0.47785732409434201 0 -0.24576275637927339 0.47027392540463459 0 -0.24740973726578031 0.48747235416832729 0 -0.26267046183496029 0.5 0 -0.24740973726578031 0.48747235416832729 0 -0.23556955086894171 0.50000000000000278 0 -0.2387971019518931 0.44325337730036979 0 -0.2489120775907421 0.45611132706247232 0 -0.22784244863720851 0.45419089524536999 0 -0.24576275637927339 0.47027392540463459 0 -0.2489120775907421 0.45611132706247232 0 -0.22784244863720851 0.45419089524536999 0 -0.2193327115732171 0.47785732409434201 0 -0.24576275637927339 0.47027392540463459 0 -0.22784244863720851 0.45419089524536999 0 -0.2387971019518931 0.44325337730036979 0 -0.22784244863720851 0.45419089524536999 0 -0.22695118484456259 0.43760496865691229 0 -0.22784244863720851 0.45419089524536999 0 -0.22695118484456259 0.43760496865691229 0 -0.21077827595677989 0.43843038173964088 0 -0.2387971019518931 0.44325337730036979 0 -0.22695118484456259 0.43760496865691229 0 -0.23717077667227929 0.4322920750106754 0 -0.22784244863720851 0.45419089524536999 0 -0.21077827595677989 0.43843038173964088 0 -0.2030958722774939 0.45571464818868052 0 -0.2193327115732171 0.47785732409434201 0 -0.22784244863720851 0.45419089524536999 0 -0.2030958722774939 0.45571464818868052 0 -0.2193327115732171 0.47785732409434201 0 -0.2030958722774939 0.45571464818868052 0 -0.18738907724301901 0.4651958722260251 0 -0.1949767913905355 0.48049775525153071 0 -0.2030958722774939 0.45571464818868052 0 -0.17659213901739471 0.45155696794010108 0 -0.18738907724301901 0.4651958722260251 0 -0.2030958722774939 0.45571464818868052 0 -0.17659213901739471 0.45155696794010108 0 -0.2030958722774939 0.45571464818868052 0 -0.1868590329817707 0.43357197228301869 0 -0.21077827595677989 0.43843038173964088 0 -0.2030958722774939 0.45571464818868052 0 -0.1868590329817707 0.43357197228301869 0 -0.2030958722774939 0.45571464818868052 0 -0.1868590329817707 0.43357197228301869 0 -0.21077827595677989 0.43843038173964088 0 -0.20038953475864499 0.42285930103310698 0 -0.1868590329817707 0.43357197228301869 0 -0.20038953475864499 0.42285930103310698 0 -0.18865851951403981 0.41114723081592358 0 -0.1868590329817707 0.43357197228301869 0 -0.20038953475864499 0.42285930103310698 0 -0.18865851951403981 0.41114723081592358 0 -0.20316386533702549 0.40742415296633488 0 -0.20038953475864499 0.42285930103310698 0 -0.20316386533702549 0.40742415296633488 0 -0.22016732100465239 0.41985811398850509 0 -0.20316386533702549 0.40742415296633488 0 -0.22016732100465239 0.41985811398850509 0 -0.21769018938602511 0.40540249138439582 0 -0.20316386533702549 0.40742415296633488 0 -0.22016732100465239 0.41985811398850509 0 -0.21077827595677989 0.43843038173964088 0 -0.20038953475864499 0.42285930103310698 0 -0.22016732100465239 0.41985811398850509 0 -0.22695118484456259 0.43760496865691229 0 -0.22016732100465239 0.41985811398850509 0 -0.23717077667227929 0.4322920750106754 0 -0.22695118484456259 0.43760496865691229 0 -0.21077827595677989 0.43843038173964088 0 -0.22016732100465239 0.41985811398850509 0 -0.22016732100465239 0.41985811398850509 0 -0.23358788463652869 0.41983625247023992 0 -0.23717077667227929 0.4322920750106754 0 -0.22016732100465239 0.41985811398850509 0 -0.23717077667227929 0.4322920750106754 0 -0.22016732100465239 0.41985811398850509 0 -0.23115288141678619 0.40759276862782062 0 -0.21769018938602511 0.40540249138439582 0 -0.22016732100465239 0.41985811398850509 0 -0.23115288141678619 0.40759276862782062 0 -0.23358788463652869 0.41983625247023992 0 -0.23115288141678619 0.40759276862782062 0 -0.2459368307481366 0.42042542405070832 0 -0.24448809762487089 0.40050868906775772 0 -0.23115288141678619 0.40759276862782062 0 -0.23358788463652869 0.41983625247023992 0 -0.2459368307481366 0.42042542405070832 0 -0.25382358621835049 0.43542260228310259 0 -0.2459368307481366 0.42042542405070832 0 -0.23717077667227929 0.4322920750106754 0 -0.25382358621835049 0.43542260228310259 0 -0.2387971019518931 0.44325337730036979 0 -0.23717077667227929 0.4322920750106754 0 -0.23358788463652869 0.41983625247023992 0 -0.2459368307481366 0.42042542405070832 0 -0.23717077667227929 0.4322920750106754 0 -0.26324903299479457 0.38988604216182182 0 -0.24074374520667241 0.38242687998337299 0 -0.24448809762487089 0.40050868906775772 0 -0.24074374520667241 0.38242687998337299 0 -0.24448809762487089 0.40050868906775772 0 -0.22634736018434309 0.39356380059118778 0 -0.23115288141678619 0.40759276862782062 0 -0.24448809762487089 0.40050868906775772 0 -0.22634736018434309 0.39356380059118778 0 -0.23115288141678619 0.40759276862782062 0 -0.22634736018434309 0.39356380059118778 0 -0.21769018938602511 0.40540249138439582 0 -0.24074374520667241 0.38242687998337299 0 -0.22634736018434309 0.39356380059118778 0 -0.21798062289891881 0.38062313327343511 0 -0.24074374520667241 0.38242687998337299 0 -0.21798062289891881 0.38062313327343511 0 -0.22441740966967141 0.36662202833489849 0 -0.21798062289891881 0.38062313327343511 0 -0.2053182195646632 0.38898911660535768 0 -0.20402060209966261 0.36833430411321649 0 -0.22634736018434309 0.39356380059118778 0 -0.21798062289891881 0.38062313327343511 0 -0.2053182195646632 0.38898911660535768 0 -0.22634736018434309 0.39356380059118778 0 -0.2053182195646632 0.38898911660535768 0 -0.21769018938602511 0.40540249138439582 0 -0.20316386533702549 0.40742415296633488 0 -0.2053182195646632 0.38898911660535768 0 -0.21769018938602511 0.40540249138439582 0 -0.20316386533702549 0.40742415296633488 0 -0.2053182195646632 0.38898911660535768 0 -0.18616040966939809 0.39499019194416529 0 -0.20316386533702549 0.40742415296633488 0 -0.18616040966939809 0.39499019194416529 0 -0.18865851951403981 0.41114723081592358 0 -0.20316386533702549 0.40742415296633488 0 -0.18616040966939809 0.39499019194416529 0 -0.2053182195646632 0.38898911660535768 0 -0.1927326532436788 0.38193994064591369 0 -0.18616040966939809 0.39499019194416529 0 -0.2053182195646632 0.38898911660535768 0 -0.1927326532436788 0.38193994064591369 0 -0.20402060209966261 0.36833430411321649 0 -0.1927326532436788 0.38193994064591369 0 -0.18374665136976759 0.37937871402705908 0 -0.18616040966939809 0.39499019194416529 0 -0.1744309637910503 0.37769149803556362 0 -0.1642142843906749 0.3789418502636645 0 -0.1838985270783616 0.39091510453828221 0 -0.1642142843906749 0.3789418502636645 0 -0.18616040966939809 0.39499019194416529 0 -0.1838985270783616 0.39091510453828221 0 -0.1927326532436788 0.38193994064591369 0 -0.18374665136976759 0.37937871402705908 0 -0.18362379452965399 0.37004657989153639 0 -0.18374665136976759 0.37937871402705908 0 -0.1744309637910503 0.37769149803556362 0 -0.1838985270783616 0.39091510453828221 0 -0.1642142843906749 0.3789418502636645 0 -0.18616040966939809 0.39499019194416529 0 -0.18374665136976759 0.37937871402705908 0 -0.1744309637910503 0.37769149803556362 0 -0.18362379452965399 0.37004657989153639 0 -0.18374665136976759 0.37937871402705908 0 -0.18616040966939809 0.39499019194416529 0 -0.18374665136976759 0.37937871402705908 0 -0.1838985270783616 0.39091510453828221 0 -0.18374665136976759 0.37937871402705908 0 -0.18616040966939809 0.39499019194416529 0 -0.1838985270783616 0.39091510453828221 0 -0.1642142843906749 0.3789418502636645 0 -0.1639919076143399 0.3974747808383628 0 -0.1489802686125267 0.38257497248127392 0 -0.1642142843906749 0.3789418502636645 0 -0.1639919076143399 0.3974747808383628 0 -0.18616040966939809 0.39499019194416529 0 -0.1744309637910503 0.37769149803556362 0 -0.1642142843906749 0.3789418502636645 0 -0.15874130784498061 0.37213542046662212 0 -0.1639919076143399 0.3974747808383628 0 -0.17750104491285451 0.40432040146684922 0 -0.17119334285363949 0.41366940226894577 0 -0.18865851951403981 0.41114723081592358 0 -0.18616040966939809 0.39499019194416529 0 -0.18865851951403981 0.41114723081592358 0 -0.17750104491285451 0.40432040146684922 0 -0.18616040966939809 0.39499019194416529 0 -0.1639919076143399 0.3974747808383628 0 -0.17750104491285451 0.40432040146684922 0 -0.18616040966939809 0.39499019194416529 0 -0.18865851951403981 0.41114723081592358 0 -0.17750104491285451 0.40432040146684922 0 -0.17119334285363949 0.41366940226894577 0 -0.18865851951403981 0.41114723081592358 0 -0.17459283461559361 0.42601523789076512 0 -0.17119334285363949 0.41366940226894577 0 -0.18865851951403981 0.41114723081592358 0 -0.1868590329817707 0.43357197228301869 0 -0.17459283461559361 0.42601523789076512 0 -0.1740586998674569 0.43899754936367941 0 -0.1868590329817707 0.43357197228301869 0 -0.17459283461559361 0.42601523789076512 0 -0.1740586998674569 0.43899754936367941 0 -0.17459283461559361 0.42601523789076512 0 -0.1659354897241099 0.43449929542802312 0 -0.17459283461559361 0.42601523789076512 0 -0.1659354897241099 0.43449929542802312 0 -0.16085192275254509 0.42420597718500008 0 -0.1659354897241099 0.43449929542802312 0 -0.16085192275254509 0.42420597718500008 0 -0.15486041744653839 0.43233395996053492 0 -0.1639919076143399 0.3974747808383628 0 -0.17119334285363949 0.41366940226894577 0 -0.1558060921739825 0.41026488178479492 0 -0.17459283461559361 0.42601523789076512 0 -0.16085192275254509 0.42420597718500008 0 -0.17119334285363949 0.41366940226894577 0 -0.16085192275254509 0.42420597718500008 0 -0.17119334285363949 0.41366940226894577 0 -0.1558060921739825 0.41026488178479492 0 -0.1558060921739825 0.41026488178479492 0 -0.1418117271851779 0.41525834053060801 0 -0.14204426798620681 0.39509073288381358 0 -0.16085192275254509 0.42420597718500008 0 -0.1558060921739825 0.41026488178479492 0 -0.1418117271851779 0.41525834053060801 0 -0.1418117271851779 0.41525834053060801 0 -0.14157918638415079 0.43542594817740249 0 -0.16085192275254509 0.42420597718500008 0 -0.1418117271851779 0.41525834053060801 0 -0.15486041744653839 0.43233395996053492 0 -0.1418117271851779 0.41525834053060801 0 -0.15486041744653839 0.43233395996053492 0 -0.14157918638415079 0.43542594817740249 0 -0.14155443830058789 0.43757227964732542 0 -0.14157918638415079 0.43542594817740249 0 -0.14155443830058789 0.43757227964732542 0 -0.14157918638415079 0.43542594817740249 0 -0.12025274126089 0.42574105579372712 0 -0.14155443830058789 0.43757227964732542 0 -0.1161249595423428 0.42742254588607831 0 -0.14157918638415079 0.43542594817740249 0 -0.12025274126089 0.42574105579372712 0 -0.1418117271851779 0.41525834053060801 0 -0.14157918638415079 0.43542594817740249 0 -0.12025274126089 0.42574105579372712 0 -0.14155443830058789 0.43757227964732542 0 -0.12025274126089 0.42574105579372712 0 -0.1161249595423428 0.42742254588607831 0 -0.12509104342100061 0.44188941827772182 0 -0.14155443830058789 0.43757227964732542 0 -0.1161249595423428 0.42742254588607831 0 -0.1418117271851779 0.41525834053060801 0 -0.1277268958593005 0.40709158096490278 0 -0.12025274126089 0.42574105579372712 0 -0.1418117271851779 0.41525834053060801 0 -0.1277268958593005 0.40709158096490278 0 -0.14204426798620681 0.39509073288381358 0 -0.1277268958593005 0.40709158096490278 0 -0.14204426798620681 0.39509073288381358 0 -0.1224972888069677 0.39405447109156733 0 -0.13238272395945991 0.37847398983736519 0 -0.1224972888069677 0.39405447109156733 0 -0.13238272395945991 0.37847398983736519 0 -0.14204426798620681 0.39509073288381358 0 -0.1224972888069677 0.39405447109156733 0 -0.13238272395945991 0.37847398983736519 0 -0.1489802686125267 0.38257497248127392 0 -0.14204426798620681 0.39509073288381358 0 -0.1639919076143399 0.3974747808383628 0 -0.1558060921739825 0.41026488178479492 0 -0.14204426798620681 0.39509073288381358 0 -0.1639919076143399 0.3974747808383628 0 -0.1489802686125267 0.38257497248127392 0 -0.14204426798620681 0.39509073288381358 0 -0.1418117271851779 0.41525834053060801 0 -0.14204426798620681 0.39509073288381358 0 -0.15552397359905151 0.35856797270850038 0 -0.1422681591119519 0.36289350858316322 0 -0.15574239997404821 0.34165669361972989 0 -0.1422681591119519 0.36289350858316322 0 -0.15574239997404821 0.34165669361972989 0 -0.13774544015442541 0.3595862213862932 0 -0.1344905665345571 0.34689990383467079 0 -0.15574239997404821 0.34165669361972989 0 -0.1422681591119519 0.36289350858316322 0 -0.13774544015442541 0.3595862213862932 0 -0.15574239997404821 0.34165669361972989 0 -0.1642142843906749 0.3789418502636645 0 -0.1422681591119519 0.36289350858316322 0 -0.13238272395945991 0.37847398983736519 0 -0.1489802686125267 0.38257497248127392 0 -0.1422681591119519 0.36289350858316322 0 -0.1642142843906749 0.3789418502636645 0 -0.1422681591119519 0.36289350858316322 0 -0.15874130784498061 0.37213542046662212 0 -0.1642142843906749 0.3789418502636645 0 -0.1489802686125267 0.38257497248127392 0 -0.1422681591119519 0.36289350858316322 0 -0.15552397359905151 0.35856797270850038 0 -0.1422681591119519 0.36289350858316322 0 -0.15874130784498061 0.37213542046662212 0 -0.1422681591119519 0.36289350858316322 0 -0.13774544015442541 0.3595862213862932 0 -0.12881796099468981 0.36725667352730101 0 -0.13238272395945991 0.37847398983736519 0 -0.12881796099468981 0.36725667352730101 0 -0.114951385737499 0.37611001703161828 0 -0.1422681591119519 0.36289350858316322 0 -0.13774544015442541 0.3595862213862932 0 -0.13238272395945991 0.37847398983736519 0 -0.1422681591119519 0.36289350858316322 0 -0.13238272395945991 0.37847398983736519 0 -0.1422681591119519 0.36289350858316322 0 -0.12881796099468981 0.36725667352730101 0 -0.13774544015442541 0.3595862213862932 0 -0.12881796099468981 0.36725667352730101 0 -0.13085154266849261 0.35745626259395852 0 -0.12881796099468981 0.36725667352730101 0 -0.13085154266849261 0.35745626259395852 0 -0.1223522029902982 0.35608225162756879 0 -0.13085154266849261 0.35745626259395852 0 -0.1344905665345571 0.34689990383467079 0 -0.1223522029902982 0.35608225162756879 0 -0.1344905665345571 0.34689990383467079 0 -0.1215793900664241 0.33965542352680428 0 -0.1223522029902982 0.35608225162756879 0 -0.13774544015442541 0.3595862213862932 0 -0.13085154266849261 0.35745626259395852 0 -0.1344905665345571 0.34689990383467079 0 -0.13871584827508379 0.32805163350527011 0 -0.1213981112161233 0.32606083512094008 0 -0.1215793900664241 0.33965542352680428 0 -0.1344905665345571 0.34689990383467079 0 -0.13871584827508379 0.32805163350527011 0 -0.1215793900664241 0.33965542352680428 0 -0.13871584827508379 0.32805163350527011 0 -0.122665507124936 0.30739316482981133 0 -0.1213981112161233 0.32606083512094008 0 -0.13871584827508379 0.32805163350527011 0 -0.1433184724342442 0.30536206331891741 0 -0.122665507124936 0.30739316482981133 0 -0.13871584827508379 0.32805163350527011 0 -0.1692166408361446 0.32041987865629651 0 -0.1433184724342442 0.30536206331891741 0 -0.1344905665345571 0.34689990383467079 0 -0.13871584827508379 0.32805163350527011 0 -0.15574239997404821 0.34165669361972989 0 -0.13871584827508379 0.32805163350527011 0 -0.15574239997404821 0.34165669361972989 0 -0.1692166408361446 0.32041987865629651 0 -0.15574239997404821 0.34165669361972989 0 -0.16882657531294051 0.33343050367394028 0 -0.16727942812343491 0.34541839291957183 0 -0.16882657531294051 0.33343050367394028 0 -0.1740652221397718 0.31676208059972089 0 -0.17253785706623809 0.33742704001517521 0 -0.15574239997404821 0.34165669361972989 0 -0.1692166408361446 0.32041987865629651 0 -0.15574239997404821 0.34165669361972989 0 -0.16882657531294051 0.33343050367394028 0 -0.1692166408361446 0.32041987865629651 0 -0.17253785706623809 0.33742704001517521 0 -0.17248005025835489 0.34536210115862542 0 -0.16727942812343491 0.34541839291957183 0 -0.16882657531294051 0.33343050367394028 0 -0.17253785706623809 0.33742704001517521 0 -0.16727942812343491 0.34541839291957183 0 -0.16882657531294051 0.33343050367394028 0 -0.1692166408361446 0.32041987865629651 0 -0.1740652221397718 0.31676208059972089 0 -0.18300185264204469 0.32280423575908729 0 -0.1740652221397718 0.31676208059972089 0 -0.17819295282042311 0.34345902717413063 0 -0.18300185264204469 0.32280423575908729 0 -0.1740652221397718 0.31676208059972089 0 -0.18269088169824049 0.29918306369286279 0 -0.18300185264204469 0.32280423575908729 0 -0.17819295282042311 0.34345902717413063 0 -0.18331282358584941 0.34642540782531189 0 -0.1740652221397718 0.31676208059972089 0 -0.17819295282042311 0.34345902717413063 0 -0.1740652221397718 0.31676208059972089 0 -0.17253785706623809 0.33742704001517521 0 -0.17819295282042311 0.34345902717413063 0 -0.18300185264204469 0.32280423575908729 0 -0.18331282358584941 0.34642540782531189 0 -0.17253785706623809 0.33742704001517521 0 -0.17819295282042311 0.34345902717413063 0 -0.17248005025835489 0.34536210115862542 0 -0.17819295282042311 0.34345902717413063 0 -0.17266476351591969 0.35237730914779941 0 -0.18362379452965399 0.37004657989153639 0 -0.17819295282042311 0.34345902717413063 0 -0.18331282358584941 0.34642540782531189 0 -0.18362379452965399 0.37004657989153639 0 -0.17819295282042311 0.34345902717413063 0 -0.18362379452965399 0.37004657989153639 0 -0.18331282358584941 0.34642540782531189 0 -0.18362379452965399 0.37004657989153639 0 -0.19396205315185269 0.35773027909378607 0 -0.18331282358584941 0.34642540782531189 0 -0.18362379452965399 0.37004657989153639 0 -0.17819295282042311 0.34345902717413063 0 -0.17266476351591969 0.35237730914779941 0 -0.17248005025835489 0.34536210115862542 0 -0.17266476351591969 0.35237730914779941 0 -0.16727942812343491 0.34541839291957183 0 -0.16404697378228 0.35342911006401911 0 -0.15552397359905151 0.35856797270850038 0 -0.15574239997404821 0.34165669361972989 0 -0.16404697378228 0.35342911006401911 0 -0.17266476351591969 0.35237730914779941 0 -0.17248005025835489 0.34536210115862542 0 -0.16727942812343491 0.34541839291957183 0 -0.17266476351591969 0.35237730914779941 0 -0.1697011683865553 0.35883091161224728 0 -0.16404697378228 0.35342911006401911 0 -0.1697011683865553 0.35883091161224728 0 -0.16404697378228 0.35342911006401911 0 -0.1633701090946704 0.36372338037626623 0 -0.15552397359905151 0.35856797270850038 0 -0.16404697378228 0.35342911006401911 0 -0.1633701090946704 0.36372338037626623 0 -0.15574239997404821 0.34165669361972989 0 -0.16727942812343491 0.34541839291957183 0 -0.16404697378228 0.35342911006401911 0 -0.15874130784498061 0.37213542046662212 0 -0.18362379452965399 0.37004657989153639 0 -0.15874130784498061 0.37213542046662212 0 -0.1633701090946704 0.36372338037626623 0 -0.18362379452965399 0.37004657989153639 0 -0.15552397359905151 0.35856797270850038 0 -0.15874130784498061 0.37213542046662212 0 -0.1633701090946704 0.36372338037626623 0 -0.17266476351591969 0.35237730914779941 0 -0.1697011683865553 0.35883091161224728 0 -0.18362379452965399 0.37004657989153639 0 -0.1697011683865553 0.35883091161224728 0 -0.1633701090946704 0.36372338037626623 0 -0.18362379452965399 0.37004657989153639 0 -0.1744309637910503 0.37769149803556362 0 -0.15874130784498061 0.37213542046662212 0 -0.18362379452965399 0.37004657989153639 0 -0.18374665136976759 0.37937871402705908 0 -0.18362379452965399 0.37004657989153639 0 -0.1927326532436788 0.38193994064591369 0 -0.18362379452965399 0.37004657989153639 0 -0.20402060209966261 0.36833430411321649 0 -0.18362379452965399 0.37004657989153639 0 -0.20402060209966261 0.36833430411321649 0 -0.18362379452965399 0.37004657989153639 0 -0.19396205315185269 0.35773027909378607 0 -0.20402060209966261 0.36833430411321649 0 -0.19396205315185269 0.35773027909378607 0 -0.208999317395312 0.3446492875548014 0 -0.20402060209966261 0.36833430411321649 0 -0.18331282358584941 0.34642540782531189 0 -0.19396205315185269 0.35773027909378607 0 -0.208999317395312 0.3446492875548014 0 -0.208999317395312 0.3446492875548014 0 -0.20402060209966261 0.36833430411321649 0 -0.22441740966967141 0.36662202833489849 0 -0.20402060209966261 0.36833430411321649 0 -0.22441740966967141 0.36662202833489849 0 -0.21798062289891881 0.38062313327343511 0 -0.20402060209966261 0.36833430411321649 0 -0.22441740966967141 0.36662202833489849 0 -0.208999317395312 0.3446492875548014 0 -0.23479591562654789 0.35148704487088239 0 -0.2313273246892763 0.33558392302215828 0 -0.208999317395312 0.3446492875548014 0 -0.22441740966967141 0.36662202833489849 0 -0.23479591562654789 0.35148704487088239 0 -0.25002058798003007 0.3320526588471332 0 -0.26243222306204511 0.35090504016953772 0 -0.23479591562654789 0.35148704487088239 0 -0.26243222306204511 0.35090504016953772 0 -0.23479591562654789 0.35148704487088239 0 -0.24481421723968019 0.36490975255658048 0 -0.22441740966967141 0.36662202833489849 0 -0.24481421723968019 0.36490975255658048 0 -0.24074374520667241 0.38242687998337299 0 -0.22441740966967141 0.36662202833489849 0 -0.24481421723968019 0.36490975255658048 0 -0.22441740966967141 0.36662202833489849 0 -0.23479591562654789 0.35148704487088239 0 -0.24481421723968019 0.36490975255658048 0 -0.25717133997193298 0.37426095615225607 0 -0.24074374520667241 0.38242687998337299 0 -0.24481421723968019 0.36490975255658048 0 -0.25616918259472732 0.30236015827283808 0 -0.25002058798003007 0.3320526588471332 0 -0.23403114015321011 0.31709209002172778 0 -0.25002058798003007 0.3320526588471332 0 -0.23479591562654789 0.35148704487088239 0 -0.2313273246892763 0.33558392302215828 0 -0.25002058798003007 0.3320526588471332 0 -0.2313273246892763 0.33558392302215828 0 -0.23403114015321011 0.31709209002172778 0 -0.208999317395312 0.3446492875548014 0 -0.2313273246892763 0.33558392302215828 0 -0.21850591254547599 0.32628872173457818 0 -0.23403114015321011 0.31709209002172778 0 -0.21850591254547599 0.32628872173457818 0 -0.21603293622121081 0.30879617143541382 0 -0.2313273246892763 0.33558392302215828 0 -0.23403114015321011 0.31709209002172778 0 -0.21850591254547599 0.32628872173457818 0 -0.21850591254547599 0.32628872173457818 0 -0.20213884426837089 0.32532213663878978 0 -0.21603293622121081 0.30879617143541382 0 -0.20213884426837089 0.32532213663878978 0 -0.19725183072938909 0.30509230858372249 0 -0.21603293622121081 0.30879617143541382 0 -0.208999317395312 0.3446492875548014 0 -0.21850591254547599 0.32628872173457818 0 -0.20213884426837089 0.32532213663878978 0 -0.18331282358584941 0.34642540782531189 0 -0.208999317395312 0.3446492875548014 0 -0.20213884426837089 0.32532213663878978 0 -0.18300185264204469 0.32280423575908729 0 -0.18331282358584941 0.34642540782531189 0 -0.20213884426837089 0.32532213663878978 0 -0.18300185264204469 0.32280423575908729 0 -0.20213884426837089 0.32532213663878978 0 -0.19725183072938909 0.30509230858372249 0 -0.19725183072938909 0.30509230858372249 0 -0.1906964717749009 0.28656541518329992 0 -0.18269088169824049 0.29918306369286279 0 -0.18300185264204469 0.32280423575908729 0 -0.19725183072938909 0.30509230858372249 0 -0.18269088169824049 0.29918306369286279 0 -0.19725183072938909 0.30509230858372249 0 -0.1906964717749009 0.28656541518329992 0 -0.20894999777156681 0.28788282879288141 0 -0.1906964717749009 0.28656541518329992 0 -0.20894999777156681 0.28788282879288141 0 -0.19560748054403571 0.27391850694798181 0 -0.19725183072938909 0.30509230858372249 0 -0.20894999777156681 0.28788282879288141 0 -0.21603293622121081 0.30879617143541382 0 -0.20894999777156681 0.28788282879288141 0 -0.21603293622121081 0.30879617143541382 0 -0.23010937568771669 0.29589673977315029 0 -0.23403114015321011 0.31709209002172778 0 -0.21603293622121081 0.30879617143541382 0 -0.23010937568771669 0.29589673977315029 0 -0.20894999777156681 0.28788282879288141 0 -0.23010937568771669 0.29589673977315029 0 -0.2234747025956966 0.27824585991597089 0 -0.23010937568771669 0.29589673977315029 0 -0.24190471242523851 0.27972751922608308 0 -0.2234747025956966 0.27824585991597089 0 -0.25616918259472732 0.30236015827283808 0 -0.24190471242523851 0.27972751922608308 0 -0.25616918259472732 0.30236015827283808 0 -0.23010937568771669 0.29589673977315029 0 -0.24190471242523851 0.27972751922608308 0 -0.25616918259472732 0.30236015827283808 0 -0.23403114015321011 0.31709209002172778 0 -0.23010937568771669 0.29589673977315029 0 -0.24943129659764751 0.26000894523212309 0 -0.24190471242523851 0.27972751922608308 0 -0.22764024225575111 0.25709488017932702 0 -0.22764024225575111 0.25709488017932702 0 -0.2468893326351202 0.24329134098969171 0 -0.24943129659764751 0.26000894523212309 0 -0.22764024225575111 0.25709488017932702 0 -0.2468893326351202 0.24329134098969171 0 -0.24190471242523851 0.27972751922608308 0 -0.22764024225575111 0.25709488017932702 0 -0.24190471242523851 0.27972751922608308 0 -0.2234747025956966 0.27824585991597089 0 -0.22764024225575111 0.25709488017932702 0 -0.2234747025956966 0.27824585991597089 0 -0.22764024225575111 0.25709488017932702 0 -0.20876918483820989 0.27062733160841262 0 -0.22764024225575111 0.25709488017932702 0 -0.21239874098331929 0.25437807278244762 0 -0.20876918483820989 0.27062733160841262 0 -0.22764024225575111 0.25709488017932702 0 -0.20876918483820989 0.27062733160841262 0 -0.21239874098331929 0.25437807278244762 0 -0.20876918483820989 0.27062733160841262 0 -0.2025020270240801 0.26019521754276942 0 -0.21239874098331929 0.25437807278244762 0 -0.2025020270240801 0.26019521754276942 0 -0.2046840695697589 0.2451395929661444 0 -0.20894999777156681 0.28788282879288141 0 -0.2234747025956966 0.27824585991597089 0 -0.20876918483820989 0.27062733160841262 0 -0.20894999777156681 0.28788282879288141 0 -0.20876918483820989 0.27062733160841262 0 -0.19560748054403571 0.27391850694798181 0 -0.19560748054403571 0.27391850694798181 0 -0.18940688912330481 0.25610334311205268 0 -0.18232207730982461 0.27116889680334472 0 -0.20876918483820989 0.27062733160841262 0 -0.19560748054403571 0.27391850694798181 0 -0.2025020270240801 0.26019521754276942 0 -0.1906964717749009 0.28656541518329992 0 -0.19560748054403571 0.27391850694798181 0 -0.18232207730982461 0.27116889680334472 0 -0.19560748054403571 0.27391850694798181 0 -0.2025020270240801 0.26019521754276942 0 -0.18940688912330481 0.25610334311205268 0 -0.2025020270240801 0.26019521754276942 0 -0.18940688912330481 0.25610334311205268 0 -0.2046840695697589 0.2451395929661444 0 -0.18940688912330481 0.25610334311205268 0 -0.17508206900779469 0.25918785244088571 0 -0.18195408303730121 0.23534357450296481 0 -0.18940688912330481 0.25610334311205268 0 -0.17508206900779469 0.25918785244088571 0 -0.18232207730982461 0.27116889680334472 0 -0.16225317791305921 0.25358582624422438 0 -0.1601147340924314 0.27132493958040771 0 -0.14746997276257359 0.25293699741112718 0 -0.17508206900779469 0.25918785244088571 0 -0.16225317791305921 0.25358582624422438 0 -0.1601147340924314 0.27132493958040771 0 -0.1601147340924314 0.27132493958040771 0 -0.18232207730982461 0.27116889680334472 0 -0.1715163911286523 0.28419500503467149 0 -0.17508206900779469 0.25918785244088571 0 -0.1601147340924314 0.27132493958040771 0 -0.18232207730982461 0.27116889680334472 0 -0.1906964717749009 0.28656541518329992 0 -0.18232207730982461 0.27116889680334472 0 -0.18269088169824049 0.29918306369286279 0 -0.18232207730982461 0.27116889680334472 0 -0.18269088169824049 0.29918306369286279 0 -0.1715163911286523 0.28419500503467149 0 -0.18232207730982461 0.27116889680334472 0 -0.18269088169824049 0.29918306369286279 0 -0.1906964717749009 0.28656541518329992 0 -0.18269088169824049 0.29918306369286279 0 -0.18300185264204469 0.32280423575908729 0 -0.18269088169824049 0.29918306369286279 0 -0.1692166408361446 0.32041987865629651 0 -0.18269088169824049 0.29918306369286279 0 -0.1692166408361446 0.32041987865629651 0 -0.1740652221397718 0.31676208059972089 0 -0.18269088169824049 0.29918306369286279 0 -0.1692166408361446 0.32041987865629651 0 -0.16093787141411231 0.2951031200620709 0 -0.1433184724342442 0.30536206331891741 0 -0.1692166408361446 0.32041987865629651 0 -0.18269088169824049 0.29918306369286279 0 -0.16093787141411231 0.2951031200620709 0 -0.18269088169824049 0.29918306369286279 0 -0.1715163911286523 0.28419500503467149 0 -0.16093787141411231 0.2951031200620709 0 -0.1601147340924314 0.27132493958040771 0 -0.1715163911286523 0.28419500503467149 0 -0.16093787141411231 0.2951031200620709 0 -0.1601147340924314 0.27132493958040771 0 -0.16093787141411231 0.2951031200620709 0 -0.140940242444347 0.28770890845956881 0 -0.16093787141411231 0.2951031200620709 0 -0.140940242444347 0.28770890845956881 0 -0.16093787141411231 0.2951031200620709 0 -0.140940242444347 0.28770890845956881 0 -0.1433184724342442 0.30536206331891741 0 -0.1433184724342442 0.30536206331891741 0 -0.12743472451084159 0.29349567440048657 0 -0.122665507124936 0.30739316482981133 0 -0.140940242444347 0.28770890845956881 0 -0.1433184724342442 0.30536206331891741 0 -0.12743472451084159 0.29349567440048657 0 -0.140940242444347 0.28770890845956881 0 -0.1209426134745812 0.28031469685706822 0 -0.140940242444347 0.28770890845956881 0 -0.12743472451084159 0.29349567440048657 0 -0.1209426134745812 0.28031469685706822 0 -0.140940242444347 0.28770890845956881 0 -0.12748957136376979 0.2697364722205553 0 -0.1209426134745812 0.28031469685706822 0 -0.140940242444347 0.28770890845956881 0 -0.1385418352730507 0.26582091200169278 0 -0.12748957136376979 0.2697364722205553 0 -0.1385418352730507 0.26582091200169278 0 -0.1252623291810667 0.25912953992318971 0 -0.13357218109292621 0.2499317644564327 0 -0.1385418352730507 0.26582091200169278 0 -0.14746997276257359 0.25293699741112718 0 -0.13357218109292621 0.2499317644564327 0 -0.1385418352730507 0.26582091200169278 0 -0.12748957136376979 0.2697364722205553 0 -0.1252623291810667 0.25912953992318971 0 -0.1252623291810667 0.25912953992318971 0 -0.13357218109292621 0.2499317644564327 0 -0.1213089330464012 0.24626659804535689 0 -0.1601147340924314 0.27132493958040771 0 -0.1385418352730507 0.26582091200169278 0 -0.14746997276257359 0.25293699741112718 0 -0.1601147340924314 0.27132493958040771 0 -0.140940242444347 0.28770890845956881 0 -0.1385418352730507 0.26582091200169278 0 -0.095230237001734636 0.27080743213428882 0 -0.101831548476812 0.26048951589785008 0 -0.1165241005361865 0.26558405137515151 0 -0.095230237001734636 0.27080743213428882 0 -0.1209426134745812 0.28031469685706822 0 -0.095230237001734636 0.27080743213428882 0 -0.101831548476812 0.26048951589785008 0 -0.101831548476812 0.26048951589785008 0 -0.112097455783086 0.24444379951602521 0 -0.096974545082976191 0.25880538532589209 0 -0.101831548476812 0.26048951589785008 0 -0.112097455783086 0.24444379951602521 0 -0.095230237001734636 0.27080743213428882 0 -0.096974545082976191 0.25880538532589209 0 -0.101831548476812 0.26048951589785008 0 -0.096974545082976191 0.25880538532589209 0 -0.101831548476812 0.26048951589785008 0 -0.101831548476812 0.26048951589785008 0 -0.1165241005361865 0.26558405137515151 0 -0.101831548476812 0.26048951589785008 0 -0.11521273165378559 0.25497892835963998 0 -0.112097455783086 0.24444379951602521 0 -0.101831548476812 0.26048951589785008 0 -0.1165241005361865 0.26558405137515151 0 -0.11521273165378559 0.25497892835963998 0 -0.1252623291810667 0.25912953992318971 0 -0.11521273165378559 0.25497892835963998 0 -0.1213089330464012 0.24626659804535689 0 -0.12748957136376979 0.2697364722205553 0 -0.1252623291810667 0.25912953992318971 0 -0.1165241005361865 0.26558405137515151 0 -0.1252623291810667 0.25912953992318971 0 -0.1165241005361865 0.26558405137515151 0 -0.11521273165378559 0.25497892835963998 0 -0.12748957136376979 0.2697364722205553 0 -0.1165241005361865 0.26558405137515151 0 -0.11826192468166601 0.27279143104315778 0 -0.095230237001734636 0.27080743213428882 0 -0.1165241005361865 0.26558405137515151 0 -0.11826192468166601 0.27279143104315778 0 -0.095230237001734636 0.27080743213428882 0 -0.11826192468166601 0.27279143104315778 0 -0.1209426134745812 0.28031469685706822 0 -0.12748957136376979 0.2697364722205553 0 -0.11826192468166601 0.27279143104315778 0 -0.1209426134745812 0.28031469685706822 0 -0.1209426134745812 0.28031469685706822 0 -0.099156256926613839 0.29556062278638268 0 -0.12743472451084159 0.29349567440048657 0 -0.1209426134745812 0.28031469685706822 0 -0.099156256926613839 0.29556062278638268 0 -0.12743472451084159 0.29349567440048657 0 -0.122665507124936 0.30739316482981133 0 -0.099156256926613839 0.29556062278638268 0 -0.1041414057358224 0.31201579539373148 0 -0.099156256926613839 0.29556062278638268 0 -0.091673901452025128 0.31746800270450398 0 -0.122665507124936 0.30739316482981133 0 -0.1041414057358224 0.31201579539373148 0 -0.099156256926613839 0.29556062278638268 0 -0.095230237001734636 0.27080743213428882 0 -0.1209426134745812 0.28031469685706822 0 -0.099156256926613839 0.29556062278638268 0 -0.081993310338176556 0.29149688165626692 0 -0.071574905525993715 0.28647654560898889 0 -0.088307373389434785 0.26824767274871397 0 -0.095230237001734636 0.27080743213428882 0 -0.099156256926613839 0.29556062278638268 0 -0.081993310338176556 0.29149688165626692 0 -0.099156256926613839 0.29556062278638268 0 -0.0773699003786468 0.31080654871569757 0 -0.091673901452025128 0.31746800270450398 0 -0.099156256926613839 0.29556062278638268 0 -0.0773699003786468 0.31080654871569757 0 -0.081993310338176556 0.29149688165626692 0 -0.0773699003786468 0.31080654871569757 0 -0.099156256926613839 0.29556062278638268 0 -0.081993310338176556 0.29149688165626692 0 -0.0773699003786468 0.31080654871569757 0 -0.081993310338176556 0.29149688165626692 0 -0.0773699003786468 0.31080654871569757 0 -0.07000108740115632 0.31024084673351238 0 -0.081993310338176556 0.29149688165626692 0 -0.07000108740115632 0.31024084673351238 0 -0.07082691849754412 0.29686868922251758 0 -0.081993310338176556 0.29149688165626692 0 -0.07000108740115632 0.31024084673351238 0 -0.06406362287003417 0.30105685935529619 0 -0.07000108740115632 0.31024084673351238 0 -0.07082691849754412 0.29686868922251758 0 -0.06406362287003417 0.30105685935529619 0 -0.07000108740115632 0.31024084673351238 0 -0.05903493703298672 0.30842013861035528 0 -0.081993310338176556 0.29149688165626692 0 -0.071574905525993715 0.28647654560898889 0 -0.07082691849754412 0.29686868922251758 0 -0.071574905525993715 0.28647654560898889 0 -0.07082691849754412 0.29686868922251758 0 -0.064150197611200194 0.29028153745804169 0 -0.06406362287003417 0.30105685935529619 0 -0.07082691849754412 0.29686868922251758 0 -0.064150197611200194 0.29028153745804169 0 -0.071574905525993715 0.28647654560898889 0 -0.064150197611200194 0.29028153745804169 0 -0.066272470786091969 0.27951596978905408 0 -0.066272470786091969 0.27951596978905408 0 -0.064867048676514966 0.26815492676469338 0 -0.075116873927680253 0.27479103085629453 0 -0.066272470786091969 0.27951596978905408 0 -0.064867048676514966 0.26815492676469338 0 -0.056753075498150757 0.28085207326825551 0 -0.064867048676514966 0.26815492676469338 0 -0.075116873927680253 0.27479103085629453 0 -0.074399806026204385 0.26466482186588819 0 -0.075116873927680253 0.27479103085629453 0 -0.079975847673146208 0.26885948770409202 0 -0.074399806026204385 0.26466482186588819 0 -0.071574905525993715 0.28647654560898889 0 -0.066272470786091969 0.27951596978905408 0 -0.075116873927680253 0.27479103085629453 0 -0.095230237001734636 0.27080743213428882 0 -0.081993310338176556 0.29149688165626692 0 -0.095230237001734636 0.27080743213428882 0 -0.081993310338176556 0.29149688165626692 0 -0.088307373389434785 0.26824767274871397 0 -0.071574905525993715 0.28647654560898889 0 -0.088307373389434785 0.26824767274871397 0 -0.071574905525993715 0.28647654560898889 0 -0.075116873927680253 0.27479103085629453 0 -0.088307373389434785 0.26824767274871397 0 -0.079975847673146208 0.26885948770409202 0 -0.084329260359261832 0.26677674789216088 0 -0.074399806026204385 0.26466482186588819 0 -0.075116873927680253 0.27479103085629453 0 -0.079975847673146208 0.26885948770409202 0 -0.088307373389434785 0.26824767274871397 0 -0.079975847673146208 0.26885948770409202 0 -0.084329260359261832 0.26677674789216088 0 -0.088307373389434785 0.26824767274871397 0 -0.095230237001734636 0.27080743213428882 0 -0.096974545082976191 0.25880538532589209 0 -0.088307373389434785 0.26824767274871397 0 -0.084329260359261832 0.26677674789216088 0 -0.088307373389434785 0.26824767274871397 0 -0.095230237001734636 0.27080743213428882 0 -0.088307373389434785 0.26824767274871397 0 -0.096974545082976191 0.25880538532589209 0 -0.073553522625709841 0.25068431627396631 0 -0.088715331182393942 0.2449718195011524 0 -0.096974545082976191 0.25880538532589209 0 -0.084329260359261832 0.26677674789216088 0 -0.073553522625709841 0.25068431627396631 0 -0.096974545082976191 0.25880538532589209 0 -0.073553522625709841 0.25068431627396631 0 -0.096974545082976191 0.25880538532589209 0 -0.088307373389434785 0.26824767274871397 0 -0.096974545082976191 0.25880538532589209 0 -0.084329260359261832 0.26677674789216088 0 -0.088307373389434785 0.26824767274871397 0 -0.084329260359261832 0.26677674789216088 0 -0.073553522625709841 0.25068431627396631 0 -0.074399806026204385 0.26466482186588819 0 -0.064867048676514966 0.26815492676469338 0 -0.073553522625709841 0.25068431627396631 0 -0.050450936449665702 0.26047062327699849 0 -0.064867048676514966 0.26815492676469338 0 -0.073553522625709841 0.25068431627396631 0 -0.074399806026204385 0.26466482186588819 0 -0.073553522625709841 0.25068431627396631 0 -0.050450936449665702 0.26047062327699849 0 -0.050132500168443887 0.2425632472220397 0 -0.064867048676514966 0.26815492676469338 0 -0.050450936449665702 0.26047062327699849 0 -0.056753075498150757 0.28085207326825551 0 -0.050450936449665702 0.26047062327699849 0 -0.056753075498150757 0.28085207326825551 0 -0.041567118232982071 0.28155035039042642 0 -0.050450936449665702 0.26047062327699849 0 -0.032664289439585513 0.26886008103247921 0 -0.041567118232982071 0.28155035039042642 0 -0.032664289439585513 0.26886008103247921 0 -0.025724023578003428 0.28484302527062832 0 -0.041567118232982071 0.28155035039042642 0 -0.050450936449665702 0.26047062327699849 0 -0.032664289439585513 0.26886008103247921 0 -0.029881977245259539 0.25372898958001938 0 -0.050450936449665702 0.26047062327699849 0 -0.029881977245259539 0.25372898958001938 0 -0.050132500168443887 0.2425632472220397 0 -0.029881977245259539 0.25372898958001938 0 -0.019473314891880141 0.26767922737850353 0 -0.0082457657602449386 0.25246627485226031 0 -0.032664289439585513 0.26886008103247921 0 -0.029881977245259539 0.25372898958001938 0 -0.019473314891880141 0.26767922737850353 0 -0.019473314891880141 0.26767922737850353 0 -0.0042610585373493576 0.2771562680236046 0 -0.025724023578003428 0.28484302527062832 0 -0.032664289439585513 0.26886008103247921 0 -0.019473314891880141 0.26767922737850353 0 -0.025724023578003428 0.28484302527062832 0 -0.019473314891880141 0.26767922737850353 0 -0.0042610585373493576 0.2771562680236046 0 -0.0082457657602449386 0.25246627485226031 0 -0.0042610585373493576 0.2771562680236046 0 -0.0082457657602449386 0.25246627485226031 0 0.0071094060709509964 0.26564087220093879 0 -0.0069555348311276686 0.31079851600377723 0 -0.00058836015198596755 0.32088344941533808 0 0.0054341821912287152 0.30403492879740468 0 -0.013098506886936411 0.29875518722530359 0 -0.0069555348311276686 0.31079851600377723 0 0.0054341821912287152 0.30403492879740468 0 -0.013098506886936411 0.29875518722530359 0 -0.0069555348311276686 0.31079851600377723 0 -0.020687787070248039 0.31403805852116051 0 -0.0042610585373493576 0.2771562680236046 0 -0.013098506886936411 0.29875518722530359 0 -0.025724023578003428 0.28484302527062832 0 -0.0042610585373493576 0.2771562680236046 0 -0.013098506886936411 0.29875518722530359 0 0.0054341821912287152 0.30403492879740468 0 -0.013098506886936411 0.29875518722530359 0 -0.025724023578003428 0.28484302527062832 0 -0.02904570801181227 0.30414560716861699 0 -0.013098506886936411 0.29875518722530359 0 -0.02904570801181227 0.30414560716861699 0 -0.020687787070248039 0.31403805852116051 0 -0.02904570801181227 0.30414560716861699 0 -0.034308890996313193 0.31619803717231232 0 -0.020687787070248039 0.31403805852116051 0 -0.02904570801181227 0.30414560716861699 0 -0.04581664775108537 0.30961879620062571 0 -0.039958169045478269 0.29575445567546388 0 -0.02904570801181227 0.30414560716861699 0 -0.04581664775108537 0.30961879620062571 0 -0.034308890996313193 0.31619803717231232 0 -0.025724023578003428 0.28484302527062832 0 -0.02904570801181227 0.30414560716861699 0 -0.039958169045478269 0.29575445567546388 0 -0.025724023578003428 0.28484302527062832 0 -0.039958169045478269 0.29575445567546388 0 -0.041567118232982071 0.28155035039042642 0 -0.039958169045478269 0.29575445567546388 0 -0.041567118232982071 0.28155035039042642 0 -0.055410192489386563 0.29691908750413831 0 -0.056753075498150757 0.28085207326825551 0 -0.041567118232982071 0.28155035039042642 0 -0.055410192489386563 0.29691908750413831 0 -0.064150197611200194 0.29028153745804169 0 -0.056753075498150757 0.28085207326825551 0 -0.055410192489386563 0.29691908750413831 0 -0.06406362287003417 0.30105685935529619 0 -0.064150197611200194 0.29028153745804169 0 -0.055410192489386563 0.29691908750413831 0 -0.064150197611200194 0.29028153745804169 0 -0.066272470786091969 0.27951596978905408 0 -0.056753075498150757 0.28085207326825551 0 -0.04581664775108537 0.30961879620062571 0 -0.055410192489386563 0.29691908750413831 0 -0.05903493703298672 0.30842013861035528 0 -0.04581664775108537 0.30961879620062571 0 -0.039958169045478269 0.29575445567546388 0 -0.055410192489386563 0.29691908750413831 0 -0.06406362287003417 0.30105685935529619 0 -0.055410192489386563 0.29691908750413831 0 -0.05903493703298672 0.30842013861035528 0 -0.04581664775108537 0.30961879620062571 0 -0.05999398685661865 0.32296608029812152 0 -0.042756171354298787 0.3224483405388896 0 -0.05999398685661865 0.32296608029812152 0 -0.04261807333459134 0.33512561188054663 0 -0.042756171354298787 0.3224483405388896 0 -0.04581664775108537 0.30961879620062571 0 -0.05903493703298672 0.30842013861035528 0 -0.05999398685661865 0.32296608029812152 0 -0.05999398685661865 0.32296608029812152 0 -0.056804034856699187 0.33429177223338907 0 -0.04261807333459134 0.33512561188054663 0 -0.056804034856699187 0.33429177223338907 0 -0.046192251460743447 0.34598703554363702 0 -0.071259793987160716 0.33632540193228971 0 -0.046192251460743447 0.34598703554363702 0 -0.071259793987160716 0.33632540193228971 0 -0.05999398685661865 0.32296608029812152 0 -0.04261807333459134 0.33512561188054663 0 -0.05999398685661865 0.32296608029812152 0 -0.056804034856699187 0.33429177223338907 0 -0.064831017760781137 0.32924814232959693 0 -0.056804034856699187 0.33429177223338907 0 -0.04261807333459134 0.33512561188054663 0 -0.046192251460743447 0.34598703554363702 0 -0.04261807333459134 0.33512561188054663 0 -0.034276320251641283 0.34282206612864702 0 -0.046192251460743447 0.34598703554363702 0 -0.04261807333459134 0.33512561188054663 0 -0.034276320251641283 0.34282206612864702 0 -0.031043257832885369 0.32833317714284199 0 -0.04261807333459134 0.33512561188054663 0 -0.042756171354298787 0.3224483405388896 0 -0.031043257832885369 0.32833317714284199 0 -0.04581664775108537 0.30961879620062571 0 -0.042756171354298787 0.3224483405388896 0 -0.034308890996313193 0.31619803717231232 0 -0.042756171354298787 0.3224483405388896 0 -0.034308890996313193 0.31619803717231232 0 -0.031043257832885369 0.32833317714284199 0 -0.020687787070248039 0.31403805852116051 0 -0.031043257832885369 0.32833317714284199 0 -0.01426308592107553 0.32709781564023149 0 -0.034308890996313193 0.31619803717231232 0 -0.020687787070248039 0.31403805852116051 0 -0.031043257832885369 0.32833317714284199 0 -0.025032962324117471 0.33875149869244531 0 -0.01426308592107553 0.32709781564023149 0 -0.014716180493599089 0.34442071988127893 0 -0.031043257832885369 0.32833317714284199 0 -0.025032962324117471 0.33875149869244531 0 -0.01426308592107553 0.32709781564023149 0 -0.034276320251641283 0.34282206612864702 0 -0.025032962324117471 0.33875149869244531 0 -0.023787543000920942 0.34541073846433867 0 -0.034276320251641283 0.34282206612864702 0 -0.031043257832885369 0.32833317714284199 0 -0.025032962324117471 0.33875149869244531 0 -0.025032962324117471 0.33875149869244531 0 -0.014716180493599089 0.34442071988127893 0 -0.023787543000920942 0.34541073846433867 0 -0.0025616559074486049 0.3329031852911295 0 -0.01426308592107553 0.32709781564023149 0 -0.014716180493599089 0.34442071988127893 0 -0.0025616559074486049 0.3329031852911295 0 -0.002583240235104544 0.34489224502179239 0 -0.014716180493599089 0.34442071988127893 0 -0.0069555348311276686 0.31079851600377723 0 -0.020687787070248039 0.31403805852116051 0 -0.01426308592107553 0.32709781564023149 0 -0.0025616559074486049 0.3329031852911295 0 -0.00058836015198596755 0.32088344941533808 0 -0.01426308592107553 0.32709781564023149 0 -0.0069555348311276686 0.31079851600377723 0 -0.00058836015198596755 0.32088344941533808 0 -0.01426308592107553 0.32709781564023149 0 -0.012102714267097759 0.36590539057294968 0 -0.001064505034491721 0.37161458349227261 0 0.0039428335920915006 0.36531030276633031 0 -0.021124708934325921 0.35564866915498361 0 0.0039428335920915006 0.36531030276633031 0 -0.001064505034491721 0.37161458349227261 0 -0.017677659244944521 0.37122807787390621 0 -0.017803283764421592 0.37921609746689411 0 -0.012102714267097759 0.36590539057294968 0 -0.001064505034491721 0.37161458349227261 0 -0.017677659244944521 0.37122807787390621 0 -0.012102714267097759 0.36590539057294968 0 -0.021124708934325921 0.35564866915498361 0 0.0039428335920915006 0.36531030276633031 0 -0.0064988099748367559 0.35299106404641623 0 -0.021124708934325921 0.35564866915498361 0 0.0039428335920915006 0.36531030276633031 0 -0.0064988099748367559 0.35299106404641623 0 -0.002583240235104544 0.34489224502179239 0 0.0032447233134405931 0.35422125060834359 0 -0.0064988099748367559 0.35299106404641623 0 -0.002583240235104544 0.34489224502179239 0 -0.014716180493599089 0.34442071988127893 0 -0.0064988099748367559 0.35299106404641623 0 -0.014716180493599089 0.34442071988127893 0 -0.021124708934325921 0.35564866915498361 0 -0.021124708934325921 0.35564866915498361 0 -0.03312405361854439 0.36059385714354403 0 -0.039104805720823227 0.35618275869992938 0 -0.014716180493599089 0.34442071988127893 0 -0.021124708934325921 0.35564866915498361 0 -0.023787543000920942 0.34541073846433867 0 -0.034276320251641283 0.34282206612864702 0 -0.021124708934325921 0.35564866915498361 0 -0.023787543000920942 0.34541073846433867 0 -0.021124708934325921 0.35564866915498361 0 -0.0246585823330631 0.36616539344166837 0 -0.03312405361854439 0.36059385714354403 0 -0.0246585823330631 0.36616539344166837 0 -0.033447590357386023 0.36570071259042941 0 -0.03312405361854439 0.36059385714354403 0 -0.012102714267097759 0.36590539057294968 0 -0.021124708934325921 0.35564866915498361 0 -0.0246585823330631 0.36616539344166837 0 -0.017677659244944521 0.37122807787390621 0 -0.032897312064139907 0.37411907212457252 0 -0.017803283764421592 0.37921609746689411 0 -0.012102714267097759 0.36590539057294968 0 -0.0246585823330631 0.36616539344166837 0 -0.017677659244944521 0.37122807787390621 0 -0.0246585823330631 0.36616539344166837 0 -0.017677659244944521 0.37122807787390621 0 -0.032897312064139907 0.37411907212457252 0 -0.0246585823330631 0.36616539344166837 0 -0.032897312064139907 0.37411907212457252 0 -0.0246585823330631 0.36616539344166837 0 -0.032897312064139907 0.37411907212457252 0 -0.033447590357386023 0.36570071259042941 0 -0.032897312064139907 0.37411907212457252 0 -0.059723517795068168 0.36506026769318489 0 -0.032897312064139907 0.37411907212457252 0 -0.033447590357386023 0.36570071259042941 0 -0.04311041341379776 0.36192452765193173 0 -0.032897312064139907 0.37411907212457252 0 -0.046925961112427347 0.36446589286881009 0 -0.059723517795068168 0.36506026769318489 0 -0.032897312064139907 0.37411907212457252 0 -0.049098878804771373 0.3725140996878949 0 -0.043775979817191349 0.37615739516056462 0 -0.03312405361854439 0.36059385714354403 0 -0.04311041341379776 0.36192452765193173 0 -0.039104805720823227 0.35618275869992938 0 -0.033447590357386023 0.36570071259042941 0 -0.03312405361854439 0.36059385714354403 0 -0.04311041341379776 0.36192452765193173 0 -0.032897312064139907 0.37411907212457252 0 -0.04311041341379776 0.36192452765193173 0 -0.046925961112427347 0.36446589286881009 0 -0.034276320251641283 0.34282206612864702 0 -0.021124708934325921 0.35564866915498361 0 -0.046192251460743447 0.34598703554363702 0 -0.021124708934325921 0.35564866915498361 0 -0.039104805720823227 0.35618275869992938 0 -0.046192251460743447 0.34598703554363702 0 -0.021124708934325921 0.35564866915498361 0 -0.046192251460743447 0.34598703554363702 0 -0.039104805720823227 0.35618275869992938 0 -0.046192251460743447 0.34598703554363702 0 -0.051972601176704672 0.35675970400555063 0 -0.04311041341379776 0.36192452765193173 0 -0.039104805720823227 0.35618275869992938 0 -0.051972601176704672 0.35675970400555063 0 -0.046192251460743447 0.34598703554363702 0 -0.066911938965716039 0.35448421406914471 0 -0.071259793987160716 0.33632540193228971 0 -0.046192251460743447 0.34598703554363702 0 -0.051972601176704672 0.35675970400555063 0 -0.066911938965716039 0.35448421406914471 0 -0.051972601176704672 0.35675970400555063 0 -0.059723517795068168 0.36506026769318489 0 -0.066911938965716039 0.35448421406914471 0 -0.032897312064139907 0.37411907212457252 0 -0.049098878804771373 0.3725140996878949 0 -0.059723517795068168 0.36506026769318489 0 -0.049098878804771373 0.3725140996878949 0 -0.056089193364373929 0.37273715424054699 0 -0.050724207312953518 0.37700173675436199 0 -0.051972601176704672 0.35675970400555063 0 -0.046925961112427347 0.36446589286881009 0 -0.059723517795068168 0.36506026769318489 0 -0.04311041341379776 0.36192452765193173 0 -0.051972601176704672 0.35675970400555063 0 -0.046925961112427347 0.36446589286881009 0 -0.049098878804771373 0.3725140996878949 0 -0.059723517795068168 0.36506026769318489 0 -0.056089193364373929 0.37273715424054699 0 -0.059723517795068168 0.36506026769318489 0 -0.056089193364373929 0.37273715424054699 0 -0.062564083944274151 0.37264302620600032 0 -0.062075486208271788 0.37468365416042188 0 -0.062564083944274151 0.37264302620600032 0 -0.062075486208271788 0.37468365416042188 0 -0.062564083944274151 0.37264302620600032 0 -0.064607287490063475 0.3752877934920828 0 -0.069626031180744216 0.37451783031500979 0 -0.079039419043354958 0.3748493973737258 0 -0.082597891671162132 0.35089307241393791 0 -0.062564083944274151 0.37264302620600032 0 -0.066911938965716039 0.35448421406914471 0 -0.062564083944274151 0.37264302620600032 0 -0.069626031180744216 0.37451783031500979 0 -0.064607287490063475 0.3752877934920828 0 -0.062564083944274151 0.37264302620600032 0 -0.069626031180744216 0.37451783031500979 0 -0.082597891671162132 0.35089307241393791 0 -0.062564083944274151 0.37264302620600032 0 -0.082597891671162132 0.35089307241393791 0 -0.059723517795068168 0.36506026769318489 0 -0.062564083944274151 0.37264302620600032 0 -0.066911938965716039 0.35448421406914471 0 -0.090941745129797052 0.36956363188929697 0 -0.082597891671162132 0.35089307241393791 0 -0.097939085056313616 0.35825468271447503 0 -0.079039419043354958 0.3748493973737258 0 -0.090941745129797052 0.36956363188929697 0 -0.082597891671162132 0.35089307241393791 0 -0.082597891671162132 0.35089307241393791 0 -0.097939085056313616 0.35825468271447503 0 -0.099795521962392192 0.34663223796478099 0 -0.066911938965716039 0.35448421406914471 0 -0.071259793987160716 0.33632540193228971 0 -0.082597891671162132 0.35089307241393791 0 -0.066911938965716039 0.35448421406914471 0 -0.079003984513522238 0.34200566120660753 0 -0.066911938965716039 0.35448421406914471 0 -0.071259793987160716 0.33632540193228971 0 -0.079003984513522238 0.34200566120660753 0 -0.062564083944274151 0.37264302620600032 0 -0.082597891671162132 0.35089307241393791 0 -0.066911938965716039 0.35448421406914471 0 -0.056804034856699187 0.33429177223338907 0 -0.064831017760781137 0.32924814232959693 0 -0.071259793987160716 0.33632540193228971 0 -0.071259793987160716 0.33632540193228971 0 -0.079659291821908368 0.33308803351003258 0 -0.071259793987160716 0.33632540193228971 0 -0.079003984513522238 0.34200566120660753 0 -0.079659291821908368 0.33308803351003258 0 -0.0773699003786468 0.31080654871569757 0 -0.07000108740115632 0.31024084673351238 0 -0.05999398685661865 0.32296608029812152 0 -0.0773699003786468 0.31080654871569757 0 -0.071259793987160716 0.33632540193228971 0 -0.0773699003786468 0.31080654871569757 0 -0.071259793987160716 0.33632540193228971 0 -0.079659291821908368 0.33308803351003258 0 -0.0773699003786468 0.31080654871569757 0 -0.05999398685661865 0.32296608029812152 0 -0.0773699003786468 0.31080654871569757 0 -0.064831017760781137 0.32924814232959693 0 -0.071259793987160716 0.33632540193228971 0 -0.0773699003786468 0.31080654871569757 0 -0.05999398685661865 0.32296608029812152 0 -0.064831017760781137 0.32924814232959693 0 -0.07000108740115632 0.31024084673351238 0 -0.05903493703298672 0.30842013861035528 0 -0.05999398685661865 0.32296608029812152 0 -0.091673901452025128 0.31746800270450398 0 -0.079659291821908368 0.33308803351003258 0 -0.1026316993980491 0.32914311862187462 0 -0.0773699003786468 0.31080654871569757 0 -0.091673901452025128 0.31746800270450398 0 -0.079659291821908368 0.33308803351003258 0 -0.082597891671162132 0.35089307241393791 0 -0.1026316993980491 0.32914311862187462 0 -0.082597891671162132 0.35089307241393791 0 -0.079003984513522238 0.34200566120660753 0 -0.1026316993980491 0.32914311862187462 0 -0.079003984513522238 0.34200566120660753 0 -0.079659291821908368 0.33308803351003258 0 -0.1026316993980491 0.32914311862187462 0 -0.082597891671162132 0.35089307241393791 0 -0.1026316993980491 0.32914311862187462 0 -0.099795521962392192 0.34663223796478099 0 -0.1026316993980491 0.32914311862187462 0 -0.11309959964963499 0.35023802862820708 0 -0.099795521962392192 0.34663223796478099 0 -0.1041414057358224 0.31201579539373148 0 -0.091673901452025128 0.31746800270450398 0 -0.1026316993980491 0.32914311862187462 0 -0.122665507124936 0.30739316482981133 0 -0.1041414057358224 0.31201579539373148 0 -0.1026316993980491 0.32914311862187462 0 -0.122665507124936 0.30739316482981133 0 -0.1026316993980491 0.32914311862187462 0 -0.1213981112161233 0.32606083512094008 0 -0.122665507124936 0.30739316482981133 0 -0.1026316993980491 0.32914311862187462 0 -0.1026316993980491 0.32914311862187462 0 -0.1215793900664241 0.33965542352680428 0 -0.11309959964963499 0.35023802862820708 0 -0.1026316993980491 0.32914311862187462 0 -0.1213981112161233 0.32606083512094008 0 -0.1215793900664241 0.33965542352680428 0 -0.1215793900664241 0.33965542352680428 0 -0.11309959964963499 0.35023802862820708 0 -0.1223522029902982 0.35608225162756879 0 -0.11309959964963499 0.35023802862820708 0 -0.1223522029902982 0.35608225162756879 0 -0.1091573093543224 0.361674516205302 0 -0.12881796099468981 0.36725667352730101 0 -0.1223522029902982 0.35608225162756879 0 -0.11881971476920231 0.36528086459794751 0 -0.12881796099468981 0.36725667352730101 0 -0.11881971476920231 0.36528086459794751 0 -0.114951385737499 0.37611001703161828 0 -0.11881971476920231 0.36528086459794751 0 -0.1091573093543224 0.361674516205302 0 -0.114951385737499 0.37611001703161828 0 -0.1223522029902982 0.35608225162756879 0 -0.11881971476920231 0.36528086459794751 0 -0.1091573093543224 0.361674516205302 0 -0.1091573093543224 0.361674516205302 0 -0.1012990589455684 0.36953412384373102 0 -0.097939085056313616 0.35825468271447503 0 -0.1091573093543224 0.361674516205302 0 -0.1012990589455684 0.36953412384373102 0 -0.114951385737499 0.37611001703161828 0 -0.090941745129797052 0.36956363188929697 0 -0.1012990589455684 0.36953412384373102 0 -0.098890550417286477 0.38099249480062602 0 -0.090941745129797052 0.36956363188929697 0 -0.1012990589455684 0.36953412384373102 0 -0.097939085056313616 0.35825468271447503 0 -0.11309959964963499 0.35023802862820708 0 -0.097939085056313616 0.35825468271447503 0 -0.099795521962392192 0.34663223796478099 0 -0.11309959964963499 0.35023802862820708 0 -0.1091573093543224 0.361674516205302 0 -0.097939085056313616 0.35825468271447503 0 -0.094424665366596924 0.39634464281418252 0 -0.11202845405726 0.40531330452479791 0 -0.098926296137628822 0.41605616341005208 0 -0.1085605322944487 0.39079571404043828 0 -0.094424665366596924 0.39634464281418252 0 -0.11202845405726 0.40531330452479791 0 -0.1085605322944487 0.39079571404043828 0 -0.098890550417286477 0.38099249480062602 0 -0.114951385737499 0.37611001703161828 0 -0.1085605322944487 0.39079571404043828 0 -0.094424665366596924 0.39634464281418252 0 -0.098890550417286477 0.38099249480062602 0 -0.1012990589455684 0.36953412384373102 0 -0.098890550417286477 0.38099249480062602 0 -0.114951385737499 0.37611001703161828 0 -0.1085605322944487 0.39079571404043828 0 -0.114951385737499 0.37611001703161828 0 -0.1224972888069677 0.39405447109156733 0 -0.13238272395945991 0.37847398983736519 0 -0.114951385737499 0.37611001703161828 0 -0.1224972888069677 0.39405447109156733 0 -0.1277268958593005 0.40709158096490278 0 -0.1224972888069677 0.39405447109156733 0 -0.11202845405726 0.40531330452479791 0 -0.1085605322944487 0.39079571404043828 0 -0.1224972888069677 0.39405447109156733 0 -0.11202845405726 0.40531330452479791 0 -0.11202845405726 0.40531330452479791 0 -0.12025274126089 0.42574105579372712 0 -0.098926296137628822 0.41605616341005208 0 -0.12025274126089 0.42574105579372712 0 -0.098926296137628822 0.41605616341005208 0 -0.1277268958593005 0.40709158096490278 0 -0.11202845405726 0.40531330452479791 0 -0.12025274126089 0.42574105579372712 0 -0.12025274126089 0.42574105579372712 0 -0.1161249595423428 0.42742254588607831 0 -0.098926296137628822 0.41605616341005208 0 -0.12509104342100061 0.44188941827772182 0 -0.1161249595423428 0.42742254588607831 0 -0.098677616465060528 0.43762344985591101 0 -0.1161249595423428 0.42742254588607831 0 -0.090695480784097504 0.41727281212483158 0 -0.1161249595423428 0.42742254588607831 0 -0.090695480784097504 0.41727281212483158 0 -0.098677616465060528 0.43762344985591101 0 -0.1161249595423428 0.42742254588607831 0 -0.098926296137628822 0.41605616341005208 0 -0.090695480784097504 0.41727281212483158 0 -0.098926296137628822 0.41605616341005208 0 -0.077599851014367602 0.40637127102637732 0 -0.094424665366596924 0.39634464281418252 0 -0.098926296137628822 0.41605616341005208 0 -0.077599851014367602 0.40637127102637732 0 -0.098926296137628822 0.41605616341005208 0 -0.090695480784097504 0.41727281212483158 0 -0.077599851014367602 0.40637127102637732 0 -0.090695480784097504 0.41727281212483158 0 -0.077599851014367602 0.40637127102637732 0 -0.077475511178084946 0.4171549142493044 0 -0.077475511178084946 0.4171549142493044 0 -0.098677616465060528 0.43762344985591101 0 -0.090695480784097504 0.41727281212483158 0 -0.077475511178084946 0.4171549142493044 0 -0.098677616465060528 0.43762344985591101 0 -0.077475511178084946 0.4171549142493044 0 -0.078698858269308614 0.44343419105434712 0 -0.098677616465060528 0.43762344985591101 0 -0.077475511178084946 0.4171549142493044 0 -0.059178928229814701 0.4365201208845606 0 -0.055106871557328428 0.42305161159228227 0 -0.077475511178084946 0.4171549142493044 0 -0.059178928229814701 0.4365201208845606 0 -0.078698858269308614 0.44343419105434712 0 -0.077475511178084946 0.4171549142493044 0 -0.056273405891107527 0.39668637864269979 0 -0.077599851014367602 0.40637127102637732 0 -0.077475511178084946 0.4171549142493044 0 -0.056273405891107527 0.39668637864269979 0 -0.077599851014367602 0.40637127102637732 0 -0.056273405891107527 0.39668637864269979 0 -0.077599851014367602 0.40637127102637732 0 -0.078331801269405671 0.3911923311589619 0 -0.056273405891107527 0.39668637864269979 0 -0.094424665366596924 0.39634464281418252 0 -0.077599851014367602 0.40637127102637732 0 -0.078331801269405671 0.3911923311589619 0 -0.094424665366596924 0.39634464281418252 0 -0.078331801269405671 0.3911923311589619 0 -0.087166581823546807 0.38268142547449258 0 -0.079039419043354958 0.3748493973737258 0 -0.078331801269405671 0.3911923311589619 0 -0.087166581823546807 0.38268142547449258 0 -0.090941745129797052 0.36956363188929697 0 -0.098890550417286477 0.38099249480062602 0 -0.087166581823546807 0.38268142547449258 0 -0.094424665366596924 0.39634464281418252 0 -0.098890550417286477 0.38099249480062602 0 -0.087166581823546807 0.38268142547449258 0 -0.079039419043354958 0.3748493973737258 0 -0.090941745129797052 0.36956363188929697 0 -0.087166581823546807 0.38268142547449258 0 -0.078331801269405671 0.3911923311589619 0 -0.070241768304658683 0.38125320512289401 0 -0.062400115896225239 0.38328565763688038 0 -0.078331801269405671 0.3911923311589619 0 -0.047880784994249512 0.38858413326022379 0 -0.069626031180744216 0.37451783031500979 0 -0.079039419043354958 0.3748493973737258 0 -0.070241768304658683 0.38125320512289401 0 -0.078331801269405671 0.3911923311589619 0 -0.062400115896225239 0.38328565763688038 0 -0.047880784994249512 0.38858413326022379 0 -0.079039419043354958 0.3748493973737258 0 -0.078331801269405671 0.3911923311589619 0 -0.070241768304658683 0.38125320512289401 0 -0.070241768304658683 0.38125320512289401 0 -0.064210651178174066 0.37904237845721811 0 -0.062400115896225239 0.38328565763688038 0 -0.069626031180744216 0.37451783031500979 0 -0.070241768304658683 0.38125320512289401 0 -0.064210651178174066 0.37904237845721811 0 -0.069626031180744216 0.37451783031500979 0 -0.064210651178174066 0.37904237845721811 0 -0.064607287490063475 0.3752877934920828 0 -0.062075486208271788 0.37468365416042188 0 -0.064210651178174066 0.37904237845721811 0 -0.064607287490063475 0.3752877934920828 0 -0.062075486208271788 0.37468365416042188 0 -0.064210651178174066 0.37904237845721811 0 -0.059083848751135488 0.37840884602566088 0 -0.059083848751135488 0.37840884602566088 0 -0.062400115896225239 0.38328565763688038 0 -0.054293362626053041 0.38162223819359442 0 -0.062075486208271788 0.37468365416042188 0 -0.062564083944274151 0.37264302620600032 0 -0.059083848751135488 0.37840884602566088 0 -0.062564083944274151 0.37264302620600032 0 -0.054293362626053041 0.38162223819359442 0 -0.062564083944274151 0.37264302620600032 0 -0.059083848751135488 0.37840884602566088 0 -0.054293362626053041 0.38162223819359442 0 -0.056089193364373929 0.37273715424054699 0 -0.062564083944274151 0.37264302620600032 0 -0.054293362626053041 0.38162223819359442 0 -0.059083848751135488 0.37840884602566088 0 -0.054293362626053041 0.38162223819359442 0 -0.064210651178174066 0.37904237845721811 0 -0.059083848751135488 0.37840884602566088 0 -0.062400115896225239 0.38328565763688038 0 -0.062400115896225239 0.38328565763688038 0 -0.047880784994249512 0.38858413326022379 0 -0.054293362626053041 0.38162223819359442 0 -0.047880784994249512 0.38858413326022379 0 -0.054293362626053041 0.38162223819359442 0 -0.047880784994249512 0.38858413326022379 0 -0.054293362626053041 0.38162223819359442 0 -0.046254793771615982 0.3870143995575549 0 -0.047836657145122599 0.38128015361824008 0 -0.054293362626053041 0.38162223819359442 0 -0.046254793771615982 0.3870143995575549 0 -0.054293362626053041 0.38162223819359442 0 -0.046254793771615982 0.3870143995575549 0 -0.047880784994249512 0.38858413326022379 0 -0.046254793771615982 0.3870143995575549 0 -0.056089193364373929 0.37273715424054699 0 -0.050724207312953518 0.37700173675436199 0 -0.054293362626053041 0.38162223819359442 0 -0.049098878804771373 0.3725140996878949 0 -0.050724207312953518 0.37700173675436199 0 -0.043775979817191349 0.37615739516056462 0 -0.047836657145122599 0.38128015361824008 0 -0.050724207312953518 0.37700173675436199 0 -0.043775979817191349 0.37615739516056462 0 -0.047836657145122599 0.38128015361824008 0 -0.050724207312953518 0.37700173675436199 0 -0.054293362626053041 0.38162223819359442 0 -0.078331801269405671 0.3911923311589619 0 -0.047880784994249512 0.38858413326022379 0 -0.056273405891107527 0.39668637864269979 0 -0.047880784994249512 0.38858413326022379 0 -0.056273405891107527 0.39668637864269979 0 -0.045094078598563243 0.39160955589403151 0 -0.056273405891107527 0.39668637864269979 0 -0.048342871606355781 0.40097934792702961 0 -0.045094078598563243 0.39160955589403151 0 -0.047880784994249512 0.38858413326022379 0 -0.056273405891107527 0.39668637864269979 0 -0.056273405891107527 0.39668637864269979 0 -0.045094078598563243 0.39160955589403151 0 -0.056273405891107527 0.39668637864269979 0 -0.048342871606355781 0.40097934792702961 0 -0.051161828253680347 0.40954535298997258 0 -0.04342775431262437 0.39341862168501102 0 -0.028839939204686131 0.40925606551247828 0 -0.042973684961738069 0.41592643291826231 0 -0.048342871606355781 0.40097934792702961 0 -0.04342775431262437 0.39341862168501102 0 -0.042973684961738069 0.41592643291826231 0 -0.041701311968281377 0.39006881248802111 0 -0.02243782954129785 0.40299049140363558 0 -0.041701311968281377 0.39006881248802111 0 -0.03457878247319518 0.38683428693719679 0 -0.02243782954129785 0.40299049140363558 0 -0.04342775431262437 0.39341862168501102 0 -0.041701311968281377 0.39006881248802111 0 -0.02243782954129785 0.40299049140363558 0 -0.04342775431262437 0.39341862168501102 0 -0.028839939204686131 0.40925606551247828 0 -0.04342775431262437 0.39341862168501102 0 -0.042973684961738069 0.41592643291826231 0 -0.04342775431262437 0.39341862168501102 0 -0.02243782954129785 0.40299049140363558 0 -0.028839939204686131 0.40925606551247828 0 -0.048342871606355781 0.40097934792702961 0 -0.04342775431262437 0.39341862168501102 0 -0.045094078598563243 0.39160955589403151 0 -0.04342775431262437 0.39341862168501102 0 -0.045094078598563243 0.39160955589403151 0 -0.043479046219812342 0.39087612776318198 0 -0.04342775431262437 0.39341862168501102 0 -0.043479046219812342 0.39087612776318198 0 -0.045094078598563243 0.39160955589403151 0 -0.043479046219812342 0.39087612776318198 0 -0.045094078598563243 0.39160955589403151 0 -0.043479046219812342 0.39087612776318198 0 -0.045172553619539632 0.38973569244798251 0 -0.04342775431262437 0.39341862168501102 0 -0.045094078598563243 0.39160955589403151 0 -0.04342775431262437 0.39341862168501102 0 -0.043479046219812342 0.39087612776318198 0 -0.041701311968281377 0.39006881248802111 0 -0.047836657145122599 0.38128015361824008 0 -0.043775979817191349 0.37615739516056462 0 -0.043608491196287617 0.38445965616034072 0 -0.043775979817191349 0.37615739516056462 0 -0.043608491196287617 0.38445965616034072 0 -0.032897312064139907 0.37411907212457252 0 -0.043775979817191349 0.37615739516056462 0 -0.043608491196287617 0.38445965616034072 0 -0.047836657145122599 0.38128015361824008 0 -0.043608491196287617 0.38445965616034072 0 -0.046254793771615982 0.3870143995575549 0 -0.043542573639619581 0.38772713043400647 0 -0.041701311968281377 0.39006881248802111 0 -0.03457878247319518 0.38683428693719679 0 -0.043608491196287617 0.38445965616034072 0 -0.043542573639619581 0.38772713043400647 0 -0.03457878247319518 0.38683428693719679 0 -0.043608491196287617 0.38445965616034072 0 -0.046254793771615982 0.3870143995575549 0 -0.043608491196287617 0.38445965616034072 0 -0.046254793771615982 0.3870143995575549 0 -0.043542573639619581 0.38772713043400647 0 -0.043608491196287617 0.38445965616034072 0 -0.043542573639619581 0.38772713043400647 0 -0.047880784994249512 0.38858413326022379 0 -0.045094078598563243 0.39160955589403151 0 -0.047880784994249512 0.38858413326022379 0 -0.045094078598563243 0.39160955589403151 0 -0.045172553619539632 0.38973569244798251 0 -0.047880784994249512 0.38858413326022379 0 -0.045172553619539632 0.38973569244798251 0 -0.046254793771615982 0.3870143995575549 0 -0.045172553619539632 0.38973569244798251 0 -0.046254793771615982 0.3870143995575549 0 -0.043542573639619581 0.38772713043400647 0 -0.046254793771615982 0.3870143995575549 0 -0.043542573639619581 0.38772713043400647 0 -0.043479046219812342 0.39087612776318198 0 -0.045172553619539632 0.38973569244798251 0 -0.043542573639619581 0.38772713043400647 0 -0.043479046219812342 0.39087612776318198 0 -0.043542573639619581 0.38772713043400647 0 -0.043542573639619581 0.38772713043400647 0 -0.041701311968281377 0.39006881248802111 0 -0.043479046219812342 0.39087612776318198 0 -0.043542573639619581 0.38772713043400647 0 -0.041701311968281377 0.39006881248802111 0 -0.043479046219812342 0.39087612776318198 0 -0.041701311968281377 0.39006881248802111 0 -0.043542573639619581 0.38772713043400647 0 -0.03457878247319518 0.38683428693719679 0 -0.041701311968281377 0.39006881248802111 0 -0.03457878247319518 0.38683428693719679 0 -0.032897312064139907 0.37411907212457252 0 -0.043608491196287617 0.38445965616034072 0 -0.032897312064139907 0.37411907212457252 0 -0.043608491196287617 0.38445965616034072 0 -0.03457878247319518 0.38683428693719679 0 -0.03457878247319518 0.38683428693719679 0 -0.017803283764421592 0.37921609746689411 0 -0.03457878247319518 0.38683428693719679 0 -0.017803283764421592 0.37921609746689411 0 -0.019390911734903489 0.38532149046890818 0 -0.032897312064139907 0.37411907212457252 0 -0.017803283764421592 0.37921609746689411 0 -0.032897312064139907 0.37411907212457252 0 -0.03457878247319518 0.38683428693719679 0 -0.017803283764421592 0.37921609746689411 0 -0.03457878247319518 0.38683428693719679 0 -0.019390911734903489 0.38532149046890818 0 -0.019390911734903489 0.38532149046890818 0 -0.02243782954129785 0.40299049140363558 0 -0.0064316016559190746 0.3999483233353413 0 -0.03457878247319518 0.38683428693719679 0 -0.019390911734903489 0.38532149046890818 0 -0.02243782954129785 0.40299049140363558 0 -0.0064316016559190746 0.3999483233353413 0 -0.0042030409966118051 0.38380869400061962 0 0.010437450069317761 0.40463061763750507 0 -0.001064505034491721 0.37161458349227261 0 -0.017803283764421592 0.37921609746689411 0 -0.001064505034491721 0.37161458349227261 0 -0.017803283764421592 0.37921609746689411 0 -0.0042030409966118051 0.38380869400061962 0 -0.019390911734903489 0.38532149046890818 0 -0.0064316016559190746 0.3999483233353413 0 -0.0042030409966118051 0.38380869400061962 0 -0.017803283764421592 0.37921609746689411 0 -0.0042030409966118051 0.38380869400061962 0 -0.017803283764421592 0.37921609746689411 0 -0.019390911734903489 0.38532149046890818 0 -0.0042030409966118051 0.38380869400061962 0 -0.019390911734903489 0.38532149046890818 0 -0.0042030409966118051 0.38380869400061962 0 -0.014252124096747171 0.42509350933994478 0 0.0048617880261327502 0.44584476697033082 0 -0.014252124096747171 0.42509350933994478 0 -0.010454900682288101 0.44126855924159908 0 0.0048617880261327502 0.44584476697033082 0 -0.014252124096747171 0.42509350933994478 0 -0.0026301228576318379 0.42717885202372191 0 0.0048617880261327502 0.44584476697033082 0 -0.014252124096747171 0.42509350933994478 0 -0.0026301228576318379 0.42717885202372191 0 -0.003174347114314008 0.41591217031924949 0 -0.02243782954129785 0.40299049140363558 0 -0.0064316016559190746 0.3999483233353413 0 -0.003174347114314008 0.41591217031924949 0 -0.02243782954129785 0.40299049140363558 0 -0.003174347114314008 0.41591217031924949 0 -0.02243782954129785 0.40299049140363558 0 -0.014252124096747171 0.42509350933994478 0 -0.003174347114314008 0.41591217031924949 0 -0.014252124096747171 0.42509350933994478 0 -0.003174347114314008 0.41591217031924949 0 -0.014252124096747171 0.42509350933994478 0 -0.028839939204686131 0.40925606551247828 0 -0.02243782954129785 0.40299049140363558 0 -0.014252124096747171 0.42509350933994478 0 -0.028839939204686131 0.40925606551247828 0 -0.014252124096747171 0.42509350933994478 0 -0.028839939204686131 0.40925606551247828 0 -0.022470349574322469 0.43190483207895858 0 -0.014252124096747171 0.42509350933994478 0 -0.022470349574322469 0.43190483207895858 0 -0.010454900682288101 0.44126855924159908 0 -0.014252124096747171 0.42509350933994478 0 -0.022470349574322469 0.43190483207895858 0 -0.022470349574322469 0.43190483207895858 0 -0.010454900682288101 0.44126855924159908 0 -0.022470349574322469 0.43190483207895858 0 -0.042646571141636773 0.43214117214318359 0 -0.04231945732153318 0.44835591136810488 0 -0.022470349574322469 0.43190483207895858 0 -0.042646571141636773 0.43214117214318359 0 -0.042973684961738069 0.41592643291826231 0 -0.042646571141636773 0.43214117214318359 0 -0.042973684961738069 0.41592643291826231 0 -0.022470349574322469 0.43190483207895858 0 -0.042973684961738069 0.41592643291826231 0 -0.028839939204686131 0.40925606551247828 0 -0.022470349574322469 0.43190483207895858 0 -0.042973684961738069 0.41592643291826231 0 -0.077475511178084946 0.4171549142493044 0 -0.051161828253680347 0.40954535298997258 0 -0.055106871557328428 0.42305161159228227 0 -0.077475511178084946 0.4171549142493044 0 -0.056273405891107527 0.39668637864269979 0 -0.051161828253680347 0.40954535298997258 0 -0.048342871606355781 0.40097934792702961 0 -0.042973684961738069 0.41592643291826231 0 -0.051161828253680347 0.40954535298997258 0 -0.042973684961738069 0.41592643291826231 0 -0.051161828253680347 0.40954535298997258 0 -0.042973684961738069 0.41592643291826231 0 -0.051161828253680347 0.40954535298997258 0 -0.055106871557328428 0.42305161159228227 0 -0.042646571141636773 0.43214117214318359 0 -0.059178928229814701 0.4365201208845606 0 -0.055106871557328428 0.42305161159228227 0 -0.042646571141636773 0.43214117214318359 0 -0.042973684961738069 0.41592643291826231 0 -0.055106871557328428 0.42305161159228227 0 -0.042646571141636773 0.43214117214318359 0 -0.059178928229814701 0.4365201208845606 0 -0.049245987713513212 0.44319563894678482 0 -0.059178928229814701 0.4365201208845606 0 -0.050742244958162368 0.46439359559444437 0 -0.049245987713513212 0.44319563894678482 0 -0.050742244958162368 0.46439359559444437 0 -0.044608833217136261 0.45025336211807931 0 -0.059178928229814701 0.4365201208845606 0 -0.050742244958162368 0.46439359559444437 0 -0.065484051744298263 0.4513847118260722 0 -0.059178928229814701 0.4365201208845606 0 -0.049245987713513212 0.44319563894678482 0 -0.050742244958162368 0.46439359559444437 0 -0.050742244958162368 0.46439359559444437 0 -0.061707257777874093 0.47273252787991399 0 -0.073231504917427276 0.46237159316971249 0 -0.050742244958162368 0.46439359559444437 0 -0.073231504917427276 0.46237159316971249 0 -0.0419800222431604 0.46518140433549732 0 -0.04231945732153318 0.44835591136810488 0 -0.025697431038521311 0.45487791879973932 0 -0.0419800222431604 0.46518140433549732 0 -0.04231945732153318 0.44835591136810488 0 -0.0419800222431604 0.46518140433549732 0 -0.044608833217136261 0.45025336211807931 0 -0.04231945732153318 0.44835591136810488 0 -0.050742244958162368 0.46439359559444437 0 -0.0419800222431604 0.46518140433549732 0 -0.050742244958162368 0.46439359559444437 0 -0.0419800222431604 0.46518140433549732 0 -0.044608833217136261 0.45025336211807931 0 -0.022470349574322469 0.43190483207895858 0 -0.04231945732153318 0.44835591136810488 0 -0.042646571141636773 0.43214117214318359 0 -0.049245987713513212 0.44319563894678482 0 -0.04231945732153318 0.44835591136810488 0 -0.042646571141636773 0.43214117214318359 0 -0.04231945732153318 0.44835591136810488 0 -0.049245987713513212 0.44319563894678482 0 -0.044608833217136261 0.45025336211807931 0 -0.04231945732153318 0.44835591136810488 0 -0.044608833217136261 0.45025336211807931 0 -0.04231945732153318 0.44835591136810488 0 -0.022470349574322469 0.43190483207895858 0 -0.04231945732153318 0.44835591136810488 0 -0.022362297003099281 0.44511471557515531 0 -0.04231945732153318 0.44835591136810488 0 -0.022362297003099281 0.44511471557515531 0 -0.025697431038521311 0.45487791879973932 0 -0.022470349574322469 0.43190483207895858 0 -0.022362297003099281 0.44511471557515531 0 -0.010454900682288101 0.44126855924159908 0 -0.022362297003099281 0.44511471557515531 0 -0.025697431038521311 0.45487791879973932 0 -0.01311544116488466 0.453963754661173 0 -0.0419800222431604 0.46518140433549732 0 -0.025697431038521311 0.45487791879973932 0 -0.01345201465746383 0.46774634869629322 0 -0.0419800222431604 0.46518140433549732 0 -0.01345201465746383 0.46774634869629322 0 -0.025697431038521311 0.45487791879973932 0 -0.01311544116488466 0.453963754661173 0 -0.01345201465746383 0.46774634869629322 0 -0.0094095992007081283 0.46654139838691122 0 -0.010427957625441169 0.46801824073108461 0 0.0053167838454733218 0.46943384557929257 0 -0.0094095992007081283 0.46654139838691122 0 0.0015605482097463411 0.45063228640423969 0 -0.010427957625441169 0.46801824073108461 0 0.0053167838454733218 0.46943384557929257 0 -0.0094095992007081283 0.46654139838691122 0 0.0080738590363113663 0.46132998490476868 0 -0.01311544116488466 0.453963754661173 0 -0.0094095992007081283 0.46654139838691122 0 0.0015605482097463411 0.45063228640423969 0 -0.01311544116488466 0.453963754661173 0 -0.01345201465746383 0.46774634869629322 0 -0.0094095992007081283 0.46654139838691122 0 -0.01345201465746383 0.46774634869629322 0 -0.010427957625441169 0.46801824073108461 0 -0.01345201465746383 0.46774634869629322 0 -0.0094095992007081283 0.46654139838691122 0 -0.01345201465746383 0.46774634869629322 0 -0.0094095992007081283 0.46654139838691122 0 -0.010427957625441169 0.46801824073108461 0 -0.0094095992007081283 0.46654139838691122 0 -0.010427957625441169 0.46801824073108461 0 -0.01311544116488466 0.453963754661173 0 -0.010454900682288101 0.44126855924159908 0 0.0015605482097463411 0.45063228640423969 0 -0.010454900682288101 0.44126855924159908 0 0.0048617880261327502 0.44584476697033082 0 0.0015605482097463411 0.45063228640423969 0 -0.010454900682288101 0.44126855924159908 0 0.0015605482097463411 0.45063228640423969 0 -0.022362297003099281 0.44511471557515531 0 -0.01311544116488466 0.453963754661173 0 -0.010454900682288101 0.44126855924159908 0 -0.0067005321321746969 0.5 0 -0.003880604538310756 0.48346324919380129 0 -0.021454488019086362 0.48400912036554289 0 -0.01345201465746383 0.46774634869629322 0 -0.010427957625441169 0.46801824073108461 0 -0.021454488019086362 0.48400912036554289 0 -0.010427957625441169 0.46801824073108461 0 -0.003880604538310756 0.48346324919380129 0 -0.021454488019086362 0.48400912036554289 0 -0.010427957625441169 0.46801824073108461 0 -0.001026908195020756 0.47486914558720472 0 0.0053167838454733218 0.46943384557929257 0 -0.010427957625441169 0.46801824073108461 0 -0.003880604538310756 0.48346324919380129 0 -0.001026908195020756 0.47486914558720472 0 -0.010427957625441169 0.46801824073108461 0 -0.021454488019086362 0.48400912036554289 0 -0.01345201465746383 0.46774634869629322 0 -0.021454488019086362 0.48400912036554289 0 -0.032447842195153342 0.48378293317924542 0 -0.01345201465746383 0.46774634869629322 0 -0.032447842195153342 0.48378293317924542 0 -0.041758062999807367 0.47618372532725728 0 -0.01345201465746383 0.46774634869629322 0 -0.041758062999807367 0.47618372532725728 0 -0.021454488019086362 0.48400912036554289 0 -0.032481018412731863 0.50000000000000089 0 -0.033555046977316587 0.49207813668870121 0 -0.021454488019086362 0.48400912036554289 0 -0.032481018412731863 0.50000000000000089 0 -0.021454488019086362 0.48400912036554289 0 -0.033555046977316587 0.49207813668870121 0 -0.032447842195153342 0.48378293317924542 0 -0.0067005321321746969 0.5 0 -0.021454488019086362 0.48400912036554289 0 -0.032481018412731863 0.50000000000000089 0 -0.033555046977316587 0.49207813668870121 0 -0.039964975186860582 0.49999999999999872 0 -0.042139887415076342 0.49281443204190178 0 -0.032481018412731863 0.50000000000000089 0 -0.033555046977316587 0.49207813668870121 0 -0.039964975186860582 0.49999999999999872 0 -0.042139887415076342 0.49281443204190178 0 -0.041758062999807367 0.47618372532725728 0 -0.033555046977316587 0.49207813668870121 0 -0.042139887415076342 0.49281443204190178 0 -0.032447842195153342 0.48378293317924542 0 -0.042139887415076342 0.49281443204190178 0 -0.046725468384182907 0.47766439368476649 0 -0.039964975186860582 0.49999999999999872 0 -0.042139887415076342 0.49281443204190178 0 -0.053580454847170257 0.49193017513362319 0 -0.039964975186860582 0.49999999999999872 0 -0.042139887415076342 0.49281443204190178 0 -0.042139887415076342 0.49281443204190178 0 -0.046725468384182907 0.47766439368476649 0 -0.041758062999807367 0.47618372532725728 0 -0.0419800222431604 0.46518140433549732 0 -0.01345201465746383 0.46774634869629322 0 -0.041758062999807367 0.47618372532725728 0 -0.042139887415076342 0.49281443204190178 0 -0.032447842195153342 0.48378293317924542 0 -0.041758062999807367 0.47618372532725728 0 -0.046725468384182907 0.47766439368476649 0 -0.041758062999807367 0.47618372532725728 0 -0.0419800222431604 0.46518140433549732 0 -0.046725468384182907 0.47766439368476649 0 -0.041758062999807367 0.47618372532725728 0 -0.050742244958162368 0.46439359559444437 0 -0.0419800222431604 0.46518140433549732 0 -0.046725468384182907 0.47766439368476649 0 -0.0419800222431604 0.46518140433549732 0 -0.041758062999807367 0.47618372532725728 0 -0.046725468384182907 0.47766439368476649 0 -0.061707257777874093 0.47273252787991399 0 -0.071702929972361051 0.48510959578984503 0 -0.046725468384182907 0.47766439368476649 0 -0.071702929972361051 0.48510959578984503 0 -0.050742244958162368 0.46439359559444437 0 -0.046725468384182907 0.47766439368476649 0 -0.061707257777874093 0.47273252787991399 0 -0.050742244958162368 0.46439359559444437 0 -0.046725468384182907 0.47766439368476649 0 -0.046725468384182907 0.47766439368476649 0 -0.053580454847170257 0.49193017513362319 0 -0.071702929972361051 0.48510959578984503 0 -0.039964975186860582 0.49999999999999872 0 -0.053580454847170257 0.49193017513362319 0 -0.067195934507479516 0.5 0 -0.042139887415076342 0.49281443204190178 0 -0.046725468384182907 0.47766439368476649 0 -0.053580454847170257 0.49193017513362319 0 -0.053580454847170257 0.49193017513362319 0 -0.067195934507479516 0.5 0 -0.071702929972361051 0.48510959578984503 0 -0.067195934507479516 0.5 0 -0.071702929972361051 0.48510959578984503 0 -0.094426893828098324 0.5 0 -0.071702929972361051 0.48510959578984503 0 -0.096680391560538939 0.49255479789492401 0 -0.071702929972361051 0.48510959578984503 0 -0.094426893828098324 0.5 0 -0.096680391560538939 0.49255479789492401 0 -0.071702929972361051 0.48510959578984503 0 -0.094342239683345888 0.46564946071770819 0 -0.096680391560538939 0.49255479789492401 0 -0.071702929972361051 0.48510959578984503 0 -0.073231504917427276 0.46237159316971249 0 -0.094342239683345888 0.46564946071770819 0 -0.061707257777874093 0.47273252787991399 0 -0.071702929972361051 0.48510959578984503 0 -0.073231504917427276 0.46237159316971249 0 -0.050742244958162368 0.46439359559444437 0 -0.073231504917427276 0.46237159316971249 0 -0.065484051744298263 0.4513847118260722 0 -0.059178928229814701 0.4365201208845606 0 -0.065484051744298263 0.4513847118260722 0 -0.078698858269308614 0.44343419105434712 0 -0.073231504917427276 0.46237159316971249 0 -0.065484051744298263 0.4513847118260722 0 -0.078698858269308614 0.44343419105434712 0 -0.078698858269308614 0.44343419105434712 0 -0.094342239683345888 0.46564946071770819 0 -0.098677616465060528 0.43762344985591101 0 -0.073231504917427276 0.46237159316971249 0 -0.078698858269308614 0.44343419105434712 0 -0.094342239683345888 0.46564946071770819 0 -0.094342239683345888 0.46564946071770819 0 -0.098677616465060528 0.43762344985591101 0 -0.11987972175203609 0.45809198546251739 0 -0.098677616465060528 0.43762344985591101 0 -0.11987972175203609 0.45809198546251739 0 -0.12509104342100061 0.44188941827772182 0 -0.098677616465060528 0.43762344985591101 0 -0.11987972175203609 0.45809198546251739 0 -0.094342239683345888 0.46564946071770819 0 -0.11987972175203609 0.45809198546251739 0 -0.1215246548466888 0.48036061179670092 0 -0.1215246548466888 0.48036061179670092 0 -0.1216578531487173 0.50000000000000155 0 -0.096680391560538939 0.49255479789492401 0 -0.1216578531487173 0.50000000000000155 0 -0.094426893828098324 0.5 0 -0.096680391560538939 0.49255479789492401 0 -0.1216578531487173 0.50000000000000155 0 -0.096680391560538939 0.49255479789492401 0 -0.094342239683345888 0.46564946071770819 0 -0.1215246548466888 0.48036061179670092 0 -0.096680391560538939 0.49255479789492401 0 -0.16310986573530631 0.084156321085019567 0 -0.17544541039362899 0.09436804860009354 0 -0.15783765240444911 0.096274401630791262 0 -0.16310986573530631 0.084156321085019567 0 -0.15783765240444911 0.096274401630791262 0 -0.16310986573530631 0.084156321085019567 0 -0.1657815390990264 0.070802932860687437 0 -0.15463431661472629 0.07014553381523804 0 -0.16310986573530631 0.084156321085019567 0 -0.1657815390990264 0.070802932860687437 0 -0.17966236107341149 0.074300518116336353 0 -0.1657815390990264 0.070802932860687437 0 -0.17966236107341149 0.074300518116336353 0 -0.1657196129726615 0.054609358426155781 0 -0.1657815390990264 0.070802932860687437 0 -0.15463431661472629 0.07014553381523804 0 -0.1657196129726615 0.054609358426155781 0 -0.17966236107341149 0.074300518116336353 0 -0.1657196129726615 0.054609358426155781 0 -0.19326118210642521 0.060262893486061127 0 -0.17966236107341149 0.074300518116336353 0 -0.1657196129726615 0.054609358426155781 0 -0.16310986573530631 0.084156321085019567 0 -0.17966236107341149 0.074300518116336353 0 -0.17544541039362899 0.09436804860009354 0 -0.17966236107341149 0.074300518116336353 0 -0.17544541039362899 0.09436804860009354 0 -0.19360510917416149 0.093991677806516877 0 -0.17966236107341149 0.074300518116336353 0 -0.19360510917416149 0.093991677806516877 0 -0.17544541039362899 0.09436804860009354 0 -0.18934336527218601 0.1087413065502997 0 -0.19360510917416149 0.093991677806516877 0 -0.17544541039362899 0.09436804860009354 0 -0.16911410870225951 0.1087440664115976 0 -0.18934336527218601 0.1087413065502997 0 -0.18039056500006781 0.12121373119240569 0 -0.16911410870225951 0.1087440664115976 0 -0.18934336527218601 0.1087413065502997 0 -0.18039056500006781 0.12121373119240569 0 -0.16911410870225951 0.1087440664115976 0 -0.18039056500006781 0.12121373119240569 0 -0.16911410870225951 0.1087440664115976 0 -0.15507510040999009 0.1056512286087255 0 -0.18039056500006781 0.12121373119240569 0 -0.15507510040999009 0.1056512286087255 0 -0.1628447509754036 0.1248738178506951 0 -0.15507510040999009 0.1056512286087255 0 -0.15358711882774939 0.11801712706942639 0 -0.18039056500006781 0.12121373119240569 0 -0.1628447509754036 0.1248738178506951 0 -0.15507510040999009 0.1056512286087255 0 -0.17544541039362899 0.09436804860009354 0 -0.16911410870225951 0.1087440664115976 0 -0.15783765240444911 0.096274401630791262 0 -0.16911410870225951 0.1087440664115976 0 -0.15783765240444911 0.096274401630791262 0 -0.16911410870225951 0.1087440664115976 0 -0.15783765240444911 0.096274401630791262 0 -0.15507510040999009 0.1056512286087255 0 -0.15783765240444911 0.096274401630791262 0 -0.14455303356647331 0.096744639073681929 0 -0.15139402388202119 0.11108495737684999 0 -0.14455303356647331 0.096744639073681929 0 -0.15139402388202119 0.11108495737684999 0 -0.12991930243541749 0.1020465165188278 0 -0.15783765240444911 0.096274401630791262 0 -0.15507510040999009 0.1056512286087255 0 -0.15139402388202119 0.11108495737684999 0 -0.15783765240444911 0.096274401630791262 0 -0.15139402388202119 0.11108495737684999 0 -0.15139402388202119 0.11108495737684999 0 -0.12991930243541749 0.1020465165188278 0 -0.14495039535959489 0.12589551312290931 0 -0.1628447509754036 0.1248738178506951 0 -0.15358711882774939 0.11801712706942639 0 -0.14495039535959489 0.12589551312290931 0 -0.15358711882774939 0.11801712706942639 0 -0.15139402388202119 0.11108495737684999 0 -0.14495039535959489 0.12589551312290931 0 -0.15507510040999009 0.1056512286087255 0 -0.15358711882774939 0.11801712706942639 0 -0.15139402388202119 0.11108495737684999 0 -0.15139402388202119 0.11108495737684999 0 -0.14495039535959489 0.12589551312290931 0 -0.12991930243541749 0.1020465165188278 0 -0.14495039535959489 0.12589551312290931 0 -0.12991930243541749 0.1020465165188278 0 -0.14495039535959489 0.12589551312290931 0 -0.13028426483969929 0.13221647237215789 0 -0.14455303356647331 0.096744639073681929 0 -0.12991930243541749 0.1020465165188278 0 -0.13683438329036771 0.088098653177494879 0 -0.12991930243541749 0.1020465165188278 0 -0.13683438329036771 0.088098653177494879 0 -0.1248370695698198 0.083226530136874921 0 -0.13683438329036771 0.088098653177494879 0 -0.13729578978526799 0.073558919561796721 0 -0.1248370695698198 0.083226530136874921 0 -0.13683438329036771 0.088098653177494879 0 -0.14756672109485969 0.08491666059629295 0 -0.13729578978526799 0.073558919561796721 0 -0.14455303356647331 0.096744639073681929 0 -0.13683438329036771 0.088098653177494879 0 -0.14756672109485969 0.08491666059629295 0 -0.14756672109485969 0.08491666059629295 0 -0.13729578978526799 0.073558919561796721 0 -0.16310986573530631 0.084156321085019567 0 -0.14756672109485969 0.08491666059629295 0 -0.15463431661472629 0.07014553381523804 0 -0.16310986573530631 0.084156321085019567 0 -0.15783765240444911 0.096274401630791262 0 -0.14756672109485969 0.08491666059629295 0 -0.15783765240444911 0.096274401630791262 0 -0.14756672109485969 0.08491666059629295 0 -0.15783765240444911 0.096274401630791262 0 -0.14455303356647331 0.096744639073681929 0 -0.14756672109485969 0.08491666059629295 0 -0.14756672109485969 0.08491666059629295 0 -0.15463431661472629 0.07014553381523804 0 -0.13729578978526799 0.073558919561796721 0 -0.15463431661472629 0.07014553381523804 0 -0.13729578978526799 0.073558919561796721 0 -0.14428807100988511 0.057223156242914672 0 -0.13729578978526799 0.073558919561796721 0 -0.1311901693420546 0.060374133793646992 0 -0.14428807100988511 0.057223156242914672 0 -0.13729578978526799 0.073558919561796721 0 -0.12498233095038511 0.069533312171706482 0 -0.1248370695698198 0.083226530136874921 0 -0.13729578978526799 0.073558919561796721 0 -0.1311901693420546 0.060374133793646992 0 -0.12498233095038511 0.069533312171706482 0 -0.1311901693420546 0.060374133793646992 0 -0.1304591025064194 0.044551821316570157 0 -0.1169815729820268 0.057446916627697332 0 -0.1311901693420546 0.060374133793646992 0 -0.1304591025064194 0.044551821316570157 0 -0.14428807100988511 0.057223156242914672 0 -0.1304591025064194 0.044551821316570157 0 -0.1338093633065561 0.031702984145267947 0 -0.14718764802187309 0.041237794311798179 0 -0.1304591025064194 0.044551821316570157 0 -0.1338093633065561 0.031702984145267947 0 -0.120950474974805 0.030974477430810402 0 -0.14718764802187309 0.041237794311798179 0 -0.14507935476777459 0.024735833563247479 0 -0.16332082262574071 0.033969476032413119 0 -0.1338093633065561 0.031702984145267947 0 -0.14718764802187309 0.041237794311798179 0 -0.14507935476777459 0.024735833563247479 0 -0.1304591025064194 0.044551821316570157 0 -0.14718764802187309 0.041237794311798179 0 -0.14428807100988511 0.057223156242914672 0 -0.15463431661472629 0.07014553381523804 0 -0.14428807100988511 0.057223156242914672 0 -0.1657196129726615 0.054609358426155781 0 -0.14718764802187309 0.041237794311798179 0 -0.14428807100988511 0.057223156242914672 0 -0.1657196129726615 0.054609358426155781 0 -0.1273771369441013 0.0023450629401116992 0 -0.12537023626190849 0.01701499410391356 0 -0.14358534871595791 0.0085390787577918573 0 -0.14275634286812811 -0.006203461430080404 0 -0.1273771369441013 0.0023450629401116992 0 -0.14358534871595791 0.0085390787577918573 0 -0.1338093633065561 0.031702984145267947 0 -0.12537023626190849 0.01701499410391356 0 -0.14507935476777459 0.024735833563247479 0 -0.12537023626190849 0.01701499410391356 0 -0.14507935476777459 0.024735833563247479 0 -0.14358534871595791 0.0085390787577918573 0 -0.1338093633065561 0.031702984145267947 0 -0.12537023626190849 0.01701499410391356 0 -0.120950474974805 0.030974477430810402 0 -0.14507935476777459 0.024735833563247479 0 -0.14358534871595791 0.0085390787577918573 0 -0.1631610812614456 0.0141265482177085 0 -0.15796117991031841 -0.00029962151665172479 0 -0.14358534871595791 0.0085390787577918573 0 -0.1631610812614456 0.0141265482177085 0 -0.14275634286812811 -0.006203461430080404 0 -0.15796117991031841 -0.00029962151665172479 0 -0.14358534871595791 0.0085390787577918573 0 -0.15796117991031841 -0.00029962151665172479 0 -0.17967452986780849 -0.0030086181600807401 0 -0.1631610812614456 0.0141265482177085 0 -0.1631610812614456 0.0141265482177085 0 -0.18063081477410151 0.02444866588981499 0 -0.16332082262574071 0.033969476032413119 0 -0.14507935476777459 0.024735833563247479 0 -0.1631610812614456 0.0141265482177085 0 -0.16332082262574071 0.033969476032413119 0 -0.17967452986780849 -0.0030086181600807401 0 -0.1631610812614456 0.0141265482177085 0 -0.18063081477410151 0.02444866588981499 0 -0.17967452986780849 -0.0030086181600807401 0 -0.18063081477410151 0.02444866588981499 0 -0.19591489879339791 0.012499298725408061 0 -0.1657196129726615 0.054609358426155781 0 -0.16332082262574071 0.033969476032413119 0 -0.1853408533429271 0.041769259974547668 0 -0.14718764802187309 0.041237794311798179 0 -0.1657196129726615 0.054609358426155781 0 -0.16332082262574071 0.033969476032413119 0 -0.18063081477410151 0.02444866588981499 0 -0.16332082262574071 0.033969476032413119 0 -0.1853408533429271 0.041769259974547668 0 -0.1657196129726615 0.054609358426155781 0 -0.1853408533429271 0.041769259974547668 0 -0.19326118210642521 0.060262893486061127 0 -0.1853408533429271 0.041769259974547668 0 -0.19326118210642521 0.060262893486061127 0 -0.20638984228336041 0.047204147208118788 0 -0.18063081477410151 0.02444866588981499 0 -0.1853408533429271 0.041769259974547668 0 -0.2003712226561333 0.029120430419108619 0 -0.1853408533429271 0.041769259974547668 0 -0.20638984228336041 0.047204147208118788 0 -0.2003712226561333 0.029120430419108619 0 -0.20638984228336041 0.047204147208118788 0 -0.2003712226561333 0.029120430419108619 0 -0.21890969838457369 0.03387481538926377 0 -0.20638984228336041 0.047204147208118788 0 -0.2248274879423891 0.050626958701997932 0 -0.21890969838457369 0.03387481538926377 0 -0.20638984228336041 0.047204147208118788 0 -0.2248274879423891 0.050626958701997932 0 -0.21240822864659401 0.064474545157398255 0 -0.19326118210642521 0.060262893486061127 0 -0.20638984228336041 0.047204147208118788 0 -0.21240822864659401 0.064474545157398255 0 -0.17967452986780849 -0.0030086181600807401 0 -0.20680301002479959 -0.0020434230711429339 0 -0.19591489879339791 0.012499298725408061 0 -0.18063081477410151 0.02444866588981499 0 -0.19591489879339791 0.012499298725408061 0 -0.2003712226561333 0.029120430419108619 0 -0.2003712226561333 0.029120430419108619 0 -0.2150412283584397 0.01492639532749848 0 -0.21890969838457369 0.03387481538926377 0 -0.19591489879339791 0.012499298725408061 0 -0.2003712226561333 0.029120430419108619 0 -0.2150412283584397 0.01492639532749848 0 -0.20680301002479959 -0.0020434230711429339 0 -0.19591489879339791 0.012499298725408061 0 -0.2150412283584397 0.01492639532749848 0 -0.20680301002479959 -0.0020434230711429339 0 -0.2150412283584397 0.01492639532749848 0 -0.22850437187820721 0.00061554774341724197 0 -0.2150412283584397 0.01492639532749848 0 -0.22850437187820721 0.00061554774341724197 0 -0.23416676111704099 0.01917273774715204 0 -0.23416676111704099 0.01917273774715204 0 -0.21890969838457369 0.03387481538926377 0 -0.23451298379830759 0.036058925104307242 0 -0.2150412283584397 0.01492639532749848 0 -0.23416676111704099 0.01917273774715204 0 -0.21890969838457369 0.03387481538926377 0 -0.25132042997239518 0.0027134119798401068 0 -0.25642639863326749 0.02710060176493858 0 -0.23416676111704099 0.01917273774715204 0 -0.25642639863326749 0.02710060176493858 0 -0.23416676111704099 0.01917273774715204 0 -0.23451298379830759 0.036058925104307242 0 -0.25132042997239518 0.0027134119798401068 0 -0.22850437187820721 0.00061554774341724197 0 -0.23416676111704099 0.01917273774715204 0 -0.2248274879423891 0.050626958701997932 0 -0.234130504556473 0.067172247096954504 0 -0.21240822864659401 0.064474545157398255 0 -0.2248274879423891 0.050626958701997932 0 -0.21890969838457369 0.03387481538926377 0 -0.23451298379830759 0.036058925104307242 0 -0.25642639863326749 0.02710060176493858 0 -0.23451298379830759 0.036058925104307242 0 -0.24534917185526489 0.049526218608574313 0 -0.2248274879423891 0.050626958701997932 0 -0.23451298379830759 0.036058925104307242 0 -0.24534917185526489 0.049526218608574313 0 -0.26195798501385009 0.070226375813507561 0 -0.24534917185526489 0.049526218608574313 0 -0.234130504556473 0.067172247096954504 0 -0.2248274879423891 0.050626958701997932 0 -0.24534917185526489 0.049526218608574313 0 -0.234130504556473 0.067172247096954504 0 -0.26195798501385009 0.070226375813507561 0 -0.24382127576753621 0.084711863041238192 0 -0.234130504556473 0.067172247096954504 0 -0.24382127576753621 0.084711863041238192 0 -0.22568456652122221 0.099197350268968809 0 -0.24382127576753621 0.084711863041238192 0 -0.221160002309051 0.081738136999685213 0 -0.22568456652122221 0.099197350268968809 0 -0.221160002309051 0.081738136999685213 0 -0.20949418686790969 0.097522886253834359 0 -0.22568456652122221 0.099197350268968809 0 -0.24382127576753621 0.084711863041238192 0 -0.221160002309051 0.081738136999685213 0 -0.234130504556473 0.067172247096954504 0 -0.221160002309051 0.081738136999685213 0 -0.234130504556473 0.067172247096954504 0 -0.21240822864659401 0.064474545157398255 0 -0.221160002309051 0.081738136999685213 0 -0.21240822864659401 0.064474545157398255 0 -0.19789508720454749 0.077516785054754192 0 -0.221160002309051 0.081738136999685213 0 -0.19789508720454749 0.077516785054754192 0 -0.20949418686790969 0.097522886253834359 0 -0.17966236107341149 0.074300518116336353 0 -0.19789508720454749 0.077516785054754192 0 -0.19360510917416149 0.093991677806516877 0 -0.19789508720454749 0.077516785054754192 0 -0.19360510917416149 0.093991677806516877 0 -0.20949418686790969 0.097522886253834359 0 -0.19326118210642521 0.060262893486061127 0 -0.21240822864659401 0.064474545157398255 0 -0.19789508720454749 0.077516785054754192 0 -0.17966236107341149 0.074300518116336353 0 -0.19326118210642521 0.060262893486061127 0 -0.19789508720454749 0.077516785054754192 0 -0.20040659369392541 0.1193864456313013 0 -0.18934336527218601 0.1087413065502997 0 -0.2075478572749084 0.11368283749669961 0 -0.18039056500006781 0.12121373119240569 0 -0.20040659369392541 0.1193864456313013 0 -0.18934336527218601 0.1087413065502997 0 -0.19360510917416149 0.093991677806516877 0 -0.2075478572749084 0.11368283749669961 0 -0.18934336527218601 0.1087413065502997 0 -0.19360510917416149 0.093991677806516877 0 -0.2075478572749084 0.11368283749669961 0 -0.19360510917416149 0.093991677806516877 0 -0.20949418686790969 0.097522886253834359 0 -0.2075478572749084 0.11368283749669961 0 -0.2075478572749084 0.11368283749669961 0 -0.22568456652122221 0.099197350268968809 0 -0.20949418686790969 0.097522886253834359 0 -0.2075478572749084 0.11368283749669961 0 -0.22568456652122221 0.099197350268968809 0 -0.2075478572749084 0.11368283749669961 0 -0.22488407219564061 0.1186598638475915 0 -0.22370276663374011 0.1364982034250237 0 -0.20040659369392541 0.1193864456313013 0 -0.2075478572749084 0.11368283749669961 0 -0.20214902218410111 0.13458958866239301 0 -0.20040659369392541 0.1193864456313013 0 -0.2075478572749084 0.11368283749669961 0 -0.2075478572749084 0.11368283749669961 0 -0.22488407219564061 0.1186598638475915 0 -0.22568456652122221 0.099197350268968809 0 -0.22488407219564061 0.1186598638475915 0 -0.23975573915859391 0.1186480270080747 0 -0.23562440086935879 0.12869665656040569 0 -0.22488407219564061 0.1186598638475915 0 -0.22568456652122221 0.099197350268968809 0 -0.23888908650362611 0.1045060591559635 0 -0.24382127576753621 0.084711863041238192 0 -0.22568456652122221 0.099197350268968809 0 -0.23888908650362611 0.1045060591559635 0 -0.25364395357421121 0.10678394025260531 0 -0.24382127576753621 0.084711863041238192 0 -0.23888908650362611 0.1045060591559635 0 -0.25033803458298193 0.12914144363467839 0 -0.25364395357421121 0.10678394025260531 0 -0.23975573915859391 0.1186480270080747 0 -0.22488407219564061 0.1186598638475915 0 -0.23888908650362611 0.1045060591559635 0 -0.23975573915859391 0.1186480270080747 0 -0.25364395357421121 0.10678394025260531 0 -0.23888908650362611 0.1045060591559635 0 -0.23975573915859391 0.1186480270080747 0 -0.25033803458298193 0.12914144363467839 0 -0.23975573915859391 0.1186480270080747 0 -0.23562440086935879 0.12869665656040569 0 -0.25033803458298193 0.12914144363467839 0 -0.2394413917758374 0.14053574488666021 0 -0.23562440086935879 0.12869665656040569 0 -0.2394413917758374 0.14053574488666021 0 -0.23562440086935879 0.12869665656040569 0 -0.22370276663374011 0.1364982034250237 0 -0.22488407219564061 0.1186598638475915 0 -0.23562440086935879 0.12869665656040569 0 -0.22370276663374011 0.1364982034250237 0 -0.2394413917758374 0.14053574488666021 0 -0.22370276663374011 0.1364982034250237 0 -0.22390747936813421 0.14796544613238069 0 -0.22390747936813421 0.14796544613238069 0 -0.22774584105848089 0.15976823357977049 0 -0.2168312664826515 0.15850745189495519 0 -0.2394413917758374 0.14053574488666021 0 -0.22390747936813421 0.14796544613238069 0 -0.24566593655216731 0.1613413036023684 0 -0.22390747936813421 0.14796544613238069 0 -0.24566593655216731 0.1613413036023684 0 -0.26077588748637798 0.14053443996503889 0 -0.2394413917758374 0.14053574488666021 0 -0.24566593655216731 0.1613413036023684 0 -0.24566593655216731 0.1613413036023684 0 -0.2425545525554833 0.18325607046718431 0 -0.22457868183097049 0.171258732689378 0 -0.2425545525554833 0.18325607046718431 0 -0.2235130486054053 0.18492553164669809 0 -0.22457868183097049 0.171258732689378 0 -0.2425545525554833 0.18325607046718431 0 -0.2235130486054053 0.18492553164669809 0 -0.2315679775879351 0.19375458513227489 0 -0.2235130486054053 0.18492553164669809 0 -0.22457868183097049 0.171258732689378 0 -0.209750232499154 0.17791844316711489 0 -0.24566593655216731 0.1613413036023684 0 -0.22774584105848089 0.15976823357977049 0 -0.22457868183097049 0.171258732689378 0 -0.22390747936813421 0.14796544613238069 0 -0.24566593655216731 0.1613413036023684 0 -0.22774584105848089 0.15976823357977049 0 -0.22774584105848089 0.15976823357977049 0 -0.22457868183097049 0.171258732689378 0 -0.2168312664826515 0.15850745189495519 0 -0.2168312664826515 0.15850745189495519 0 -0.21186753860838101 0.16733255095299371 0 -0.20758447520558959 0.15683863127083711 0 -0.22457868183097049 0.171258732689378 0 -0.2168312664826515 0.15850745189495519 0 -0.21186753860838101 0.16733255095299371 0 -0.21186753860838101 0.16733255095299371 0 -0.209750232499154 0.17791844316711489 0 -0.20173639765426299 0.1643971743801825 0 -0.21186753860838101 0.16733255095299371 0 -0.20758447520558959 0.15683863127083711 0 -0.20173639765426299 0.1643971743801825 0 -0.20758447520558959 0.15683863127083711 0 -0.20173639765426299 0.1643971743801825 0 -0.20024290349544879 0.15519061181074151 0 -0.22457868183097049 0.171258732689378 0 -0.21186753860838101 0.16733255095299371 0 -0.209750232499154 0.17791844316711489 0 -0.19610042498268601 0.17522502183351021 0 -0.19038698318195549 0.16711234260031069 0 -0.17752183765376101 0.1775748035498933 0 -0.19610042498268601 0.17522502183351021 0 -0.19785886193094021 0.18900131099286041 0 -0.17752183765376101 0.1775748035498933 0 -0.19785886193094021 0.18900131099286041 0 -0.17752183765376101 0.1775748035498933 0 -0.209750232499154 0.17791844316711489 0 -0.19610042498268601 0.17522502183351021 0 -0.19785886193094021 0.18900131099286041 0 -0.209750232499154 0.17791844316711489 0 -0.19610042498268601 0.17522502183351021 0 -0.20173639765426299 0.1643971743801825 0 -0.20173639765426299 0.1643971743801825 0 -0.1927705130470404 0.15866088515044 0 -0.20024290349544879 0.15519061181074151 0 -0.19610042498268601 0.17522502183351021 0 -0.20173639765426299 0.1643971743801825 0 -0.19038698318195549 0.16711234260031069 0 -0.20173639765426299 0.1643971743801825 0 -0.19038698318195549 0.16711234260031069 0 -0.1927705130470404 0.15866088515044 0 -0.19038698318195549 0.16711234260031069 0 -0.1927705130470404 0.15866088515044 0 -0.18413510522225521 0.16259499244525211 0 -0.1927705130470404 0.15866088515044 0 -0.19507878308752141 0.1486405391940768 0 -0.1852646507768699 0.1545619776798173 0 -0.19507878308752141 0.1486405391940768 0 -0.18706065072040501 0.14468661846275019 0 -0.1852646507768699 0.1545619776798173 0 -0.19507878308752141 0.1486405391940768 0 -0.20024290349544879 0.15519061181074151 0 -0.20390252305447459 0.15036513687703029 0 -0.1927705130470404 0.15866088515044 0 -0.19507878308752141 0.1486405391940768 0 -0.20024290349544879 0.15519061181074151 0 -0.19507878308752141 0.1486405391940768 0 -0.202312374299252 0.1441640524023215 0 -0.19563802519160789 0.13807458821396759 0 -0.19507878308752141 0.1486405391940768 0 -0.202312374299252 0.1441640524023215 0 -0.20390252305447459 0.15036513687703029 0 -0.19507878308752141 0.1486405391940768 0 -0.19563802519160789 0.13807458821396759 0 -0.18706065072040501 0.14468661846275019 0 -0.18039056500006781 0.12121373119240569 0 -0.20214902218410111 0.13458958866239301 0 -0.18039056500006781 0.12121373119240569 0 -0.20040659369392541 0.1193864456313013 0 -0.20214902218410111 0.13458958866239301 0 -0.18039056500006781 0.12121373119240569 0 -0.19563802519160789 0.13807458821396759 0 -0.20214902218410111 0.13458958866239301 0 -0.18039056500006781 0.12121373119240569 0 -0.19563802519160789 0.13807458821396759 0 -0.202312374299252 0.1441640524023215 0 -0.19563802519160789 0.13807458821396759 0 -0.20214902218410111 0.13458958866239301 0 -0.2075478572749084 0.11368283749669961 0 -0.22370276663374011 0.1364982034250237 0 -0.20214902218410111 0.13458958866239301 0 -0.2075478572749084 0.11368283749669961 0 -0.22370276663374011 0.1364982034250237 0 -0.22370276663374011 0.1364982034250237 0 -0.22390747936813421 0.14796544613238069 0 -0.20214902218410111 0.13458958866239301 0 -0.22390747936813421 0.14796544613238069 0 -0.20214902218410111 0.13458958866239301 0 -0.22390747936813421 0.14796544613238069 0 -0.20214902218410111 0.13458958866239301 0 -0.20948943058945241 0.14863997276184041 0 -0.22390747936813421 0.14796544613238069 0 -0.2168312664826515 0.15850745189495519 0 -0.20948943058945241 0.14863997276184041 0 -0.2168312664826515 0.15850745189495519 0 -0.20758447520558959 0.15683863127083711 0 -0.20948943058945241 0.14863997276184041 0 -0.20758447520558959 0.15683863127083711 0 -0.20948943058945241 0.14863997276184041 0 -0.20390252305447459 0.15036513687703029 0 -0.20758447520558959 0.15683863127083711 0 -0.20024290349544879 0.15519061181074151 0 -0.20390252305447459 0.15036513687703029 0 -0.202312374299252 0.1441640524023215 0 -0.20214902218410111 0.13458958866239301 0 -0.20948943058945241 0.14863997276184041 0 -0.202312374299252 0.1441640524023215 0 -0.20948943058945241 0.14863997276184041 0 -0.20390252305447459 0.15036513687703029 0 -0.22764024225575111 0.25709488017932702 0 -0.2151106411052526 0.2372148610219694 0 -0.22764024225575111 0.25709488017932702 0 -0.2283272457552897 0.2411225242229286 0 -0.2468893326351202 0.24329134098969171 0 -0.22764024225575111 0.25709488017932702 0 -0.2283272457552897 0.2411225242229286 0 -0.2151106411052526 0.2372148610219694 0 -0.2283272457552897 0.2411225242229286 0 -0.22236430254422471 0.22707510271615991 0 -0.2151106411052526 0.2372148610219694 0 -0.2283272457552897 0.2411225242229286 0 -0.2468893326351202 0.24329134098969171 0 -0.2329273297721271 0.2301735095518313 0 -0.25250373055295899 0.22903132158689779 0 -0.2468893326351202 0.24329134098969171 0 -0.24260825180894061 0.22311859240920151 0 -0.2468893326351202 0.24329134098969171 0 -0.24260825180894061 0.22311859240920151 0 -0.2329273297721271 0.2301735095518313 0 -0.25326648915379463 0.21765104414027969 0 -0.25250373055295899 0.22903132158689779 0 -0.24260825180894061 0.22311859240920151 0 -0.24260825180894061 0.22311859240920151 0 -0.23239639752576971 0.22100751879425451 0 -0.2329273297721271 0.2301735095518313 0 -0.23239639752576971 0.22100751879425451 0 -0.2329273297721271 0.2301735095518313 0 -0.22236430254422471 0.22707510271615991 0 -0.2283272457552897 0.2411225242229286 0 -0.2329273297721271 0.2301735095518313 0 -0.22236430254422471 0.22707510271615991 0 -0.23239639752576971 0.22100751879425451 0 -0.22236430254422471 0.22707510271615991 0 -0.2228431611521535 0.2155973608413651 0 -0.2228431611521535 0.2155973608413651 0 -0.2385329104852989 0.2118543258787943 0 -0.21819588620811961 0.20042781843582741 0 -0.2385329104852989 0.2118543258787943 0 -0.21819588620811961 0.20042781843582741 0 -0.23239639752576971 0.22100751879425451 0 -0.2228431611521535 0.2155973608413651 0 -0.2385329104852989 0.2118543258787943 0 -0.2385329104852989 0.2118543258787943 0 -0.24039455529309961 0.2058142864805034 0 -0.21819588620811961 0.20042781843582741 0 -0.24260825180894061 0.22311859240920151 0 -0.23239639752576971 0.22100751879425451 0 -0.2385329104852989 0.2118543258787943 0 -0.25326648915379463 0.21765104414027969 0 -0.24039455529309961 0.2058142864805034 0 -0.25326648915379463 0.21765104414027969 0 -0.2385329104852989 0.2118543258787943 0 -0.24039455529309961 0.2058142864805034 0 -0.25326648915379463 0.21765104414027969 0 -0.24260825180894061 0.22311859240920151 0 -0.2385329104852989 0.2118543258787943 0 -0.25264776582176801 0.2054066783297176 0 -0.25326648915379463 0.21765104414027969 0 -0.24039455529309961 0.2058142864805034 0 -0.25846339158769432 0.19477026040294029 0 -0.2425545525554833 0.18325607046718431 0 -0.24512564856919611 0.1966003761625241 0 -0.24039455529309961 0.2058142864805034 0 -0.24512564856919611 0.1966003761625241 0 -0.2315679775879351 0.19375458513227489 0 -0.25264776582176801 0.2054066783297176 0 -0.24039455529309961 0.2058142864805034 0 -0.24512564856919611 0.1966003761625241 0 -0.2425545525554833 0.18325607046718431 0 -0.24512564856919611 0.1966003761625241 0 -0.2315679775879351 0.19375458513227489 0 -0.24039455529309961 0.2058142864805034 0 -0.2315679775879351 0.19375458513227489 0 -0.21819588620811961 0.20042781843582741 0 -0.2235130486054053 0.18492553164669809 0 -0.2315679775879351 0.19375458513227489 0 -0.21819588620811961 0.20042781843582741 0 -0.21819588620811961 0.20042781843582741 0 -0.19785886193094021 0.18900131099286041 0 -0.2235130486054053 0.18492553164669809 0 -0.209750232499154 0.17791844316711489 0 -0.21819588620811961 0.20042781843582741 0 -0.209750232499154 0.17791844316711489 0 -0.21819588620811961 0.20042781843582741 0 -0.19785886193094021 0.18900131099286041 0 -0.21819588620811961 0.20042781843582741 0 -0.20376966825666501 0.2022924765927995 0 -0.19785886193094021 0.18900131099286041 0 -0.19785886193094021 0.18900131099286041 0 -0.19005143880425829 0.1974548227072519 0 -0.17752183765376101 0.1775748035498933 0 -0.20376966825666501 0.2022924765927995 0 -0.19785886193094021 0.18900131099286041 0 -0.19005143880425829 0.1974548227072519 0 -0.19005143880425829 0.1974548227072519 0 -0.187650486280975 0.21451757224245291 0 -0.20258103995475549 0.21733484186461069 0 -0.19005143880425829 0.1974548227072519 0 -0.20258103995475549 0.21733484186461069 0 -0.20376966825666501 0.2022924765927995 0 -0.19005143880425829 0.1974548227072519 0 -0.20258103995475549 0.21733484186461069 0 -0.2228431611521535 0.2155973608413651 0 -0.21819588620811961 0.20042781843582741 0 -0.20258103995475549 0.21733484186461069 0 -0.21819588620811961 0.20042781843582741 0 -0.20376966825666501 0.2022924765927995 0 -0.20258103995475549 0.21733484186461069 0 -0.20258103995475549 0.21733484186461069 0 -0.19839606398960871 0.22991008851962841 0 -0.2151106411052526 0.2372148610219694 0 -0.22236430254422471 0.22707510271615991 0 -0.2228431611521535 0.2155973608413651 0 -0.20258103995475549 0.21733484186461069 0 -0.22236430254422471 0.22707510271615991 0 -0.20258103995475549 0.21733484186461069 0 -0.2151106411052526 0.2372148610219694 0 -0.20258103995475549 0.21733484186461069 0 -0.2151106411052526 0.2372148610219694 0 -0.187650486280975 0.21451757224245291 0 -0.20258103995475549 0.21733484186461069 0 -0.19839606398960871 0.22991008851962841 0 -0.187650486280975 0.21451757224245291 0 -0.19839606398960871 0.22991008851962841 0 -0.18195408303730121 0.23534357450296481 0 -0.18940688912330481 0.25610334311205268 0 -0.2046840695697589 0.2451395929661444 0 -0.18195408303730121 0.23534357450296481 0 -0.2046840695697589 0.2451395929661444 0 -0.18195408303730121 0.23534357450296481 0 -0.19839606398960871 0.22991008851962841 0 -0.2046840695697589 0.2451395929661444 0 -0.18195408303730121 0.23534357450296481 0 -0.21239874098331929 0.25437807278244762 0 -0.2046840695697589 0.2451395929661444 0 -0.2151106411052526 0.2372148610219694 0 -0.19839606398960871 0.22991008851962841 0 -0.2046840695697589 0.2451395929661444 0 -0.2151106411052526 0.2372148610219694 0 -0.22764024225575111 0.25709488017932702 0 -0.21239874098331929 0.25437807278244762 0 -0.2151106411052526 0.2372148610219694 0 -0.16225317791305921 0.25358582624422438 0 -0.18195408303730121 0.23534357450296481 0 -0.155242522585569 0.24016045739440639 0 -0.17508206900779469 0.25918785244088571 0 -0.16225317791305921 0.25358582624422438 0 -0.18195408303730121 0.23534357450296481 0 -0.187650486280975 0.21451757224245291 0 -0.18195408303730121 0.23534357450296481 0 -0.17144823439391829 0.2141895330645725 0 -0.18195408303730121 0.23534357450296481 0 -0.15922409650484359 0.2255475560397853 0 -0.18195408303730121 0.23534357450296481 0 -0.15922409650484359 0.2255475560397853 0 -0.155242522585569 0.24016045739440639 0 -0.18195408303730121 0.23534357450296481 0 -0.15922409650484359 0.2255475560397853 0 -0.17144823439391829 0.2141895330645725 0 -0.15922409650484359 0.2255475560397853 0 -0.15900733689739069 0.21062159977010589 0 -0.17144823439391829 0.2141895330645725 0 -0.15900733689739069 0.21062159977010589 0 -0.1653418357915476 0.2018213455952054 0 -0.15361129879784891 0.20139719057542019 0 -0.17144823439391829 0.2141895330645725 0 -0.17723797391968729 0.20390802022475071 0 -0.1653418357915476 0.2018213455952054 0 -0.15900733689739069 0.21062159977010589 0 -0.17144823439391829 0.2141895330645725 0 -0.1653418357915476 0.2018213455952054 0 -0.187650486280975 0.21451757224245291 0 -0.17144823439391829 0.2141895330645725 0 -0.17723797391968729 0.20390802022475071 0 -0.19005143880425829 0.1974548227072519 0 -0.187650486280975 0.21451757224245291 0 -0.17723797391968729 0.20390802022475071 0 -0.19005143880425829 0.1974548227072519 0 -0.17169787432773731 0.19155682751427069 0 -0.17752183765376101 0.1775748035498933 0 -0.19005143880425829 0.1974548227072519 0 -0.17723797391968729 0.20390802022475071 0 -0.17169787432773731 0.19155682751427069 0 -0.19005143880425829 0.1974548227072519 0 -0.17752183765376101 0.1775748035498933 0 -0.17169787432773731 0.19155682751427069 0 -0.1653418357915476 0.2018213455952054 0 -0.15791164184663151 0.19274793286901881 0 -0.17723797391968729 0.20390802022475071 0 -0.17169787432773731 0.19155682751427069 0 -0.1653418357915476 0.2018213455952054 0 -0.1653418357915476 0.2018213455952054 0 -0.15791164184663151 0.19274793286901881 0 -0.15361129879784891 0.20139719057542019 0 -0.17169787432773731 0.19155682751427069 0 -0.15791164184663151 0.19274793286901881 0 -0.16134243263699979 0.18146195783717889 0 -0.15791164184663151 0.19274793286901881 0 -0.15361129879784891 0.20139719057542019 0 -0.14754997702249989 0.19123102061556399 0 -0.15791164184663151 0.19274793286901881 0 -0.14754997702249989 0.19123102061556399 0 -0.15378055215212841 0.1853342336718547 0 -0.15361129879784891 0.20139719057542019 0 -0.144337775963609 0.20069921068637719 0 -0.14754997702249989 0.19123102061556399 0 -0.14754997702249989 0.19123102061556399 0 -0.13411435042981179 0.19106266128805069 0 -0.1463292802833521 0.18023770330257241 0 -0.144337775963609 0.20069921068637719 0 -0.14754997702249989 0.19123102061556399 0 -0.13411435042981179 0.19106266128805069 0 -0.13411435042981179 0.19106266128805069 0 -0.12967955466007261 0.2074258594294596 0 -0.1235431789710726 0.1969801993001162 0 -0.13411435042981179 0.19106266128805069 0 -0.13770187294137159 0.2043383794177894 0 -0.12967955466007261 0.2074258594294596 0 -0.144337775963609 0.20069921068637719 0 -0.13411435042981179 0.19106266128805069 0 -0.13770187294137159 0.2043383794177894 0 -0.13770187294137159 0.2043383794177894 0 -0.13855706597983281 0.21350408889879899 0 -0.14247480998137141 0.20718589651263181 0 -0.1364941099723872 0.21575153757660309 0 -0.120958802369795 0.22183359367242919 0 -0.11894773722242739 0.20818951851535461 0 -0.12967955466007261 0.2074258594294596 0 -0.1364941099723872 0.21575153757660309 0 -0.11894773722242739 0.20818951851535461 0 -0.13770187294137159 0.2043383794177894 0 -0.12967955466007261 0.2074258594294596 0 -0.13855706597983281 0.21350408889879899 0 -0.1364941099723872 0.21575153757660309 0 -0.11894773722242739 0.20818951851535461 0 -0.12967955466007261 0.2074258594294596 0 -0.1364941099723872 0.21575153757660309 0 -0.13855706597983281 0.21350408889879899 0 -0.1364941099723872 0.21575153757660309 0 -0.13855706597983281 0.21350408889879899 0 -0.15922409650484359 0.2255475560397853 0 -0.1364941099723872 0.21575153757660309 0 -0.13855706597983281 0.21350408889879899 0 -0.15922409650484359 0.2255475560397853 0 -0.13855706597983281 0.21350408889879899 0 -0.14930252504067221 0.21020190704756139 0 -0.13855706597983281 0.21350408889879899 0 -0.14247480998137141 0.20718589651263181 0 -0.14930252504067221 0.21020190704756139 0 -0.144337775963609 0.20069921068637719 0 -0.14247480998137141 0.20718589651263181 0 -0.14930252504067221 0.21020190704756139 0 -0.144337775963609 0.20069921068637719 0 -0.13770187294137159 0.2043383794177894 0 -0.14247480998137141 0.20718589651263181 0 -0.15900733689739069 0.21062159977010589 0 -0.15361129879784891 0.20139719057542019 0 -0.14930252504067221 0.21020190704756139 0 -0.15361129879784891 0.20139719057542019 0 -0.144337775963609 0.20069921068637719 0 -0.14930252504067221 0.21020190704756139 0 -0.15922409650484359 0.2255475560397853 0 -0.15900733689739069 0.21062159977010589 0 -0.14930252504067221 0.21020190704756139 0 -0.15922409650484359 0.2255475560397853 0 -0.13635804662702189 0.23039018670563211 0 -0.14207867318260539 0.23889574066385899 0 -0.15922409650484359 0.2255475560397853 0 -0.1364941099723872 0.21575153757660309 0 -0.13635804662702189 0.23039018670563211 0 -0.15922409650484359 0.2255475560397853 0 -0.1364941099723872 0.21575153757660309 0 -0.1364941099723872 0.21575153757660309 0 -0.13635804662702189 0.23039018670563211 0 -0.11673432752768111 0.2372784614512472 0 -0.1364941099723872 0.21575153757660309 0 -0.11673432752768111 0.2372784614512472 0 -0.13635804662702189 0.23039018670563211 0 -0.12961957513534 0.23973743310435161 0 -0.11673432752768111 0.2372784614512472 0 -0.13635804662702189 0.23039018670563211 0 -0.12961957513534 0.23973743310435161 0 -0.14207867318260539 0.23889574066385899 0 -0.12961957513534 0.23973743310435161 0 -0.13357218109292621 0.2499317644564327 0 -0.1213089330464012 0.24626659804535689 0 -0.12961957513534 0.23973743310435161 0 -0.13357218109292621 0.2499317644564327 0 -0.14207867318260539 0.23889574066385899 0 -0.14746997276257359 0.25293699741112718 0 -0.13357218109292621 0.2499317644564327 0 -0.14207867318260539 0.23889574066385899 0 -0.15922409650484359 0.2255475560397853 0 -0.14207867318260539 0.23889574066385899 0 -0.155242522585569 0.24016045739440639 0 -0.14746997276257359 0.25293699741112718 0 -0.14207867318260539 0.23889574066385899 0 -0.155242522585569 0.24016045739440639 0 -0.16225317791305921 0.25358582624422438 0 -0.14746997276257359 0.25293699741112718 0 -0.155242522585569 0.24016045739440639 0 -0.166988808872575 0.14091924592242799 0 -0.1736883691443292 0.1501381655411517 0 -0.1666646902223726 0.16034837340756511 0 -0.166988808872575 0.14091924592242799 0 -0.1666646902223726 0.16034837340756511 0 -0.15580754279098399 0.143121943265237 0 -0.1666646902223726 0.16034837340756511 0 -0.1549726550285947 0.15674585516748279 0 -0.15580754279098399 0.143121943265237 0 -0.1666646902223726 0.16034837340756511 0 -0.15580754279098399 0.143121943265237 0 -0.1628447509754036 0.1248738178506951 0 -0.166988808872575 0.14091924592242799 0 -0.17824709647023271 0.1379937977022469 0 -0.1628447509754036 0.1248738178506951 0 -0.166988808872575 0.14091924592242799 0 -0.15580754279098399 0.143121943265237 0 -0.18039056500006781 0.12121373119240569 0 -0.1628447509754036 0.1248738178506951 0 -0.17824709647023271 0.1379937977022469 0 -0.19563802519160789 0.13807458821396759 0 -0.17824709647023271 0.1379937977022469 0 -0.18706065072040501 0.14468661846275019 0 -0.18039056500006781 0.12121373119240569 0 -0.19563802519160789 0.13807458821396759 0 -0.17824709647023271 0.1379937977022469 0 -0.17824709647023271 0.1379937977022469 0 -0.18706065072040501 0.14468661846275019 0 -0.1811623126986891 0.14793864394101769 0 -0.166988808872575 0.14091924592242799 0 -0.17824709647023271 0.1379937977022469 0 -0.1736883691443292 0.1501381655411517 0 -0.17824709647023271 0.1379937977022469 0 -0.1811623126986891 0.14793864394101769 0 -0.1736883691443292 0.1501381655411517 0 -0.1811623126986891 0.14793864394101769 0 -0.1736883691443292 0.1501381655411517 0 -0.17666515903818969 0.15970684649729899 0 -0.1811623126986891 0.14793864394101769 0 -0.1852646507768699 0.1545619776798173 0 -0.17666515903818969 0.15970684649729899 0 -0.18706065072040501 0.14468661846275019 0 -0.1811623126986891 0.14793864394101769 0 -0.1852646507768699 0.1545619776798173 0 -0.17752183765376101 0.1775748035498933 0 -0.1666646902223726 0.16034837340756511 0 -0.1927705130470404 0.15866088515044 0 -0.1852646507768699 0.1545619776798173 0 -0.18413510522225521 0.16259499244525211 0 -0.17666515903818969 0.15970684649729899 0 -0.17752183765376101 0.1775748035498933 0 -0.1666646902223726 0.16034837340756511 0 -0.1852646507768699 0.1545619776798173 0 -0.18413510522225521 0.16259499244525211 0 -0.17666515903818969 0.15970684649729899 0 -0.18413510522225521 0.16259499244525211 0 -0.17666515903818969 0.15970684649729899 0 -0.17752183765376101 0.1775748035498933 0 -0.19038698318195549 0.16711234260031069 0 -0.18413510522225521 0.16259499244525211 0 -0.17752183765376101 0.1775748035498933 0 -0.1736883691443292 0.1501381655411517 0 -0.17666515903818969 0.15970684649729899 0 -0.1666646902223726 0.16034837340756511 0 -0.17169787432773731 0.19155682751427069 0 -0.17752183765376101 0.1775748035498933 0 -0.16134243263699979 0.18146195783717889 0 -0.17752183765376101 0.1775748035498933 0 -0.160166055014445 0.16782332876165751 0 -0.17752183765376101 0.1775748035498933 0 -0.16134243263699979 0.18146195783717889 0 -0.160166055014445 0.16782332876165751 0 -0.16134243263699979 0.18146195783717889 0 -0.160166055014445 0.16782332876165751 0 -0.1543363168372556 0.17604552304072019 0 -0.16134243263699979 0.18146195783717889 0 -0.15378055215212841 0.1853342336718547 0 -0.1543363168372556 0.17604552304072019 0 -0.15791164184663151 0.19274793286901881 0 -0.16134243263699979 0.18146195783717889 0 -0.15378055215212841 0.1853342336718547 0 -0.17752183765376101 0.1775748035498933 0 -0.1666646902223726 0.16034837340756511 0 -0.160166055014445 0.16782332876165751 0 -0.1666646902223726 0.16034837340756511 0 -0.160166055014445 0.16782332876165751 0 -0.1549726550285947 0.15674585516748279 0 -0.160166055014445 0.16782332876165751 0 -0.1549726550285947 0.15674585516748279 0 -0.14281027237512919 0.15807185397342149 0 -0.160166055014445 0.16782332876165751 0 -0.14281027237512919 0.15807185397342149 0 -0.160166055014445 0.16782332876165751 0 -0.1483000089644074 0.1706867490983929 0 -0.14281027237512919 0.15807185397342149 0 -0.160166055014445 0.16782332876165751 0 -0.1483000089644074 0.1706867490983929 0 -0.1543363168372556 0.17604552304072019 0 -0.1483000089644074 0.1706867490983929 0 -0.14281027237512919 0.15807185397342149 0 -0.13856119746919621 0.1732320213376258 0 -0.14754997702249989 0.19123102061556399 0 -0.15378055215212841 0.1853342336718547 0 -0.1463292802833521 0.18023770330257241 0 -0.15378055215212841 0.1853342336718547 0 -0.1543363168372556 0.17604552304072019 0 -0.1463292802833521 0.18023770330257241 0 -0.1483000089644074 0.1706867490983929 0 -0.1543363168372556 0.17604552304072019 0 -0.1463292802833521 0.18023770330257241 0 -0.1483000089644074 0.1706867490983929 0 -0.1463292802833521 0.18023770330257241 0 -0.13856119746919621 0.1732320213376258 0 -0.13411435042981179 0.19106266128805069 0 -0.13856119746919621 0.1732320213376258 0 -0.12609153575556739 0.16924223779836581 0 -0.13411435042981179 0.19106266128805069 0 -0.12609153575556739 0.16924223779836581 0 -0.1152399272795421 0.1851742901109647 0 -0.13411435042981179 0.19106266128805069 0 -0.1463292802833521 0.18023770330257241 0 -0.13856119746919621 0.1732320213376258 0 -0.14281027237512919 0.15807185397342149 0 -0.12609153575556739 0.16924223779836581 0 -0.135520965557581 0.14756887546063741 0 -0.12609153575556739 0.16924223779836581 0 -0.135520965557581 0.14756887546063741 0 -0.14281027237512919 0.15807185397342149 0 -0.13856119746919621 0.1732320213376258 0 -0.12609153575556739 0.16924223779836581 0 -0.135520965557581 0.14756887546063741 0 -0.13028426483969929 0.13221647237215789 0 -0.1192914655824909 0.15059360814623801 0 -0.12609153575556739 0.16924223779836581 0 -0.135520965557581 0.14756887546063741 0 -0.1192914655824909 0.15059360814623801 0 -0.1549726550285947 0.15674585516748279 0 -0.14281027237512919 0.15807185397342149 0 -0.14652630769324659 0.14708303210739521 0 -0.14281027237512919 0.15807185397342149 0 -0.135520965557581 0.14756887546063741 0 -0.14652630769324659 0.14708303210739521 0 -0.1549726550285947 0.15674585516748279 0 -0.14652630769324659 0.14708303210739521 0 -0.15580754279098399 0.143121943265237 0 -0.1628447509754036 0.1248738178506951 0 -0.15580754279098399 0.143121943265237 0 -0.14495039535959489 0.12589551312290931 0 -0.135520965557581 0.14756887546063741 0 -0.14652630769324659 0.14708303210739521 0 -0.14495039535959489 0.12589551312290931 0 -0.15580754279098399 0.143121943265237 0 -0.14495039535959489 0.12589551312290931 0 -0.14652630769324659 0.14708303210739521 0 -0.15580754279098399 0.143121943265237 0 -0.14495039535959489 0.12589551312290931 0 -0.135520965557581 0.14756887546063741 0 -0.14495039535959489 0.12589551312290931 0 -0.135520965557581 0.14756887546063741 0 -0.14495039535959489 0.12589551312290931 0 -0.13028426483969929 0.13221647237215789 0 -0.13028426483969929 0.13221647237215789 0 -0.1131006250587715 0.12959615498317961 0 -0.1192914655824909 0.15059360814623801 0 -0.1131006250587715 0.12959615498317961 0 -0.10078539792307099 0.15464240809582361 0 -0.092802426943272898 0.12960292979422991 0 -0.1131006250587715 0.12959615498317961 0 -0.10078539792307099 0.15464240809582361 0 -0.1192914655824909 0.15059360814623801 0 -0.10078539792307099 0.15464240809582361 0 -0.1192914655824909 0.15059360814623801 0 -0.10897534263953949 0.16967833346669081 0 -0.12609153575556739 0.16924223779836581 0 -0.1192914655824909 0.15059360814623801 0 -0.10897534263953949 0.16967833346669081 0 -0.12609153575556739 0.16924223779836581 0 -0.1152399272795421 0.1851742901109647 0 -0.10897534263953949 0.16967833346669081 0 -0.1152399272795421 0.1851742901109647 0 -0.098409264142157865 0.1851788001203086 0 -0.10897534263953949 0.16967833346669081 0 -0.098409264142157865 0.1851788001203086 0 -0.10897534263953949 0.16967833346669081 0 -0.082277471490505807 0.17420718144711089 0 -0.10078539792307099 0.15464240809582361 0 -0.10897534263953949 0.16967833346669081 0 -0.082277471490505807 0.17420718144711089 0 -0.10078539792307099 0.15464240809582361 0 -0.082277471490505807 0.17420718144711089 0 -0.082277471490505807 0.17420718144711089 0 -0.065615427061545384 0.16058384892905991 0 -0.074642854581774637 0.14147916649728479 0 -0.10078539792307099 0.15464240809582361 0 -0.082277471490505807 0.17420718144711089 0 -0.074642854581774637 0.14147916649728479 0 -0.098409264142157865 0.1851788001203086 0 -0.082277471490505807 0.17420718144711089 0 -0.084152214828733252 0.19620669612267311 0 -0.082277471490505807 0.17420718144711089 0 -0.063769545057940663 0.19377195479839809 0 -0.082277471490505807 0.17420718144711089 0 -0.063769545057940663 0.19377195479839809 0 -0.051824687549248197 0.17345858692208871 0 -0.082277471490505807 0.17420718144711089 0 -0.065615427061545384 0.16058384892905991 0 -0.051824687549248197 0.17345858692208871 0 -0.074642854581774637 0.14147916649728479 0 -0.055186524828957063 0.1281687789626855 0 -0.07438317581125764 0.1124407737129243 0 -0.074642854581774637 0.14147916649728479 0 -0.092802426943272898 0.12960292979422991 0 -0.07438317581125764 0.1124407737129243 0 -0.10078539792307099 0.15464240809582361 0 -0.074642854581774637 0.14147916649728479 0 -0.092802426943272898 0.12960292979422991 0 -0.10058650277722481 0.24229521027045481 0 -0.11673432752768111 0.2372784614512472 0 -0.1053270170515283 0.2324499666522013 0 -0.096974545082976191 0.25880538532589209 0 -0.10058650277722481 0.24229521027045481 0 -0.088715331182393942 0.2449718195011524 0 -0.096974545082976191 0.25880538532589209 0 -0.10058650277722481 0.24229521027045481 0 -0.11673432752768111 0.2372784614512472 0 -0.096974545082976191 0.25880538532589209 0 -0.112097455783086 0.24444379951602521 0 -0.11673432752768111 0.2372784614512472 0 -0.096974545082976191 0.25880538532589209 0 -0.11673432752768111 0.2372784614512472 0 -0.10058650277722481 0.24229521027045481 0 -0.091983872440322634 0.23323291704093771 0 -0.088715331182393942 0.2449718195011524 0 -0.10058650277722481 0.24229521027045481 0 -0.1053270170515283 0.2324499666522013 0 -0.091983872440322634 0.23323291704093771 0 -0.11521273165378559 0.25497892835963998 0 -0.112097455783086 0.24444379951602521 0 -0.1213089330464012 0.24626659804535689 0 -0.112097455783086 0.24444379951602521 0 -0.1213089330464012 0.24626659804535689 0 -0.11673432752768111 0.2372784614512472 0 -0.12961957513534 0.23973743310435161 0 -0.1213089330464012 0.24626659804535689 0 -0.11673432752768111 0.2372784614512472 0 -0.11673432752768111 0.2372784614512472 0 -0.111977792011399 0.2261119040305537 0 -0.1053270170515283 0.2324499666522013 0 -0.1364941099723872 0.21575153757660309 0 -0.11673432752768111 0.2372784614512472 0 -0.120958802369795 0.22183359367242919 0 -0.11673432752768111 0.2372784614512472 0 -0.120958802369795 0.22183359367242919 0 -0.111977792011399 0.2261119040305537 0 -0.120958802369795 0.22183359367242919 0 -0.111977792011399 0.2261119040305537 0 -0.11263418842693861 0.21654350143059611 0 -0.111977792011399 0.2261119040305537 0 -0.1027476190553803 0.22153268259517769 0 -0.11263418842693861 0.21654350143059611 0 -0.1027476190553803 0.22153268259517769 0 -0.088008266818085573 0.21525264443096179 0 -0.091983872440322634 0.23323291704093771 0 -0.111977792011399 0.2261119040305537 0 -0.1027476190553803 0.22153268259517769 0 -0.1053270170515283 0.2324499666522013 0 -0.1027476190553803 0.22153268259517769 0 -0.1053270170515283 0.2324499666522013 0 -0.091983872440322634 0.23323291704093771 0 -0.1027476190553803 0.22153268259517769 0 -0.1014013644724687 0.20062749945410349 0 -0.088008266818085573 0.21525264443096179 0 -0.1027476190553803 0.22153268259517769 0 -0.11263418842693861 0.21654350143059611 0 -0.1014013644724687 0.20062749945410349 0 -0.11263418842693861 0.21654350143059611 0 -0.11894773722242739 0.20818951851535461 0 -0.1014013644724687 0.20062749945410349 0 -0.11894773722242739 0.20818951851535461 0 -0.1014013644724687 0.20062749945410349 0 -0.120958802369795 0.22183359367242919 0 -0.11263418842693861 0.21654350143059611 0 -0.11894773722242739 0.20818951851535461 0 -0.12967955466007261 0.2074258594294596 0 -0.11894773722242739 0.20818951851535461 0 -0.1235431789710726 0.1969801993001162 0 -0.11894773722242739 0.20818951851535461 0 -0.1235431789710726 0.1969801993001162 0 -0.1014013644724687 0.20062749945410349 0 -0.13411435042981179 0.19106266128805069 0 -0.1152399272795421 0.1851742901109647 0 -0.1235431789710726 0.1969801993001162 0 -0.1152399272795421 0.1851742901109647 0 -0.1235431789710726 0.1969801993001162 0 -0.1014013644724687 0.20062749945410349 0 -0.1152399272795421 0.1851742901109647 0 -0.098409264142157865 0.1851788001203086 0 -0.1014013644724687 0.20062749945410349 0 -0.098409264142157865 0.1851788001203086 0 -0.1014013644724687 0.20062749945410349 0 -0.084152214828733252 0.19620669612267311 0 -0.084152214828733252 0.19620669612267311 0 -0.063769545057940663 0.19377195479839809 0 -0.072142849724606259 0.2099260872470029 0 -0.082277471490505807 0.17420718144711089 0 -0.084152214828733252 0.19620669612267311 0 -0.063769545057940663 0.19377195479839809 0 -0.072142849724606259 0.2099260872470029 0 -0.088008266818085573 0.21525264443096179 0 -0.068407602306599244 0.22780678473085289 0 -0.084152214828733252 0.19620669612267311 0 -0.072142849724606259 0.2099260872470029 0 -0.088008266818085573 0.21525264443096179 0 -0.1014013644724687 0.20062749945410349 0 -0.084152214828733252 0.19620669612267311 0 -0.088008266818085573 0.21525264443096179 0 -0.091983872440322634 0.23323291704093771 0 -0.068407602306599244 0.22780678473085289 0 -0.080478212985736569 0.23984126859451149 0 -0.088008266818085573 0.21525264443096179 0 -0.091983872440322634 0.23323291704093771 0 -0.068407602306599244 0.22780678473085289 0 -0.073553522625709841 0.25068431627396631 0 -0.068407602306599244 0.22780678473085289 0 -0.080478212985736569 0.23984126859451149 0 -0.073553522625709841 0.25068431627396631 0 -0.068407602306599244 0.22780678473085289 0 -0.050132500168443887 0.2425632472220397 0 -0.073553522625709841 0.25068431627396631 0 -0.080478212985736569 0.23984126859451149 0 -0.088715331182393942 0.2449718195011524 0 -0.091983872440322634 0.23323291704093771 0 -0.080478212985736569 0.23984126859451149 0 -0.088715331182393942 0.2449718195011524 0 -0.050132500168443887 0.2425632472220397 0 -0.026711477711177899 0.23444217817011309 0 -0.029881977245259539 0.25372898958001938 0 -0.050132500168443887 0.2425632472220397 0 -0.026711477711177899 0.23444217817011309 0 -0.050132500168443887 0.2425632472220397 0 -0.042100384295285467 0.22888272761933071 0 -0.026711477711177899 0.23444217817011309 0 -0.073553522625709841 0.25068431627396631 0 -0.050132500168443887 0.2425632472220397 0 -0.068407602306599244 0.22780678473085289 0 -0.050132500168443887 0.2425632472220397 0 -0.042100384295285467 0.22888272761933071 0 -0.068407602306599244 0.22780678473085289 0 -0.042100384295285467 0.22888272761933071 0 -0.045261618625375449 0.21333672814968549 0 -0.045261618625375449 0.21333672814968549 0 -0.02675369219281019 0.23290150150097291 0 -0.045261618625375449 0.21333672814968549 0 -0.02772339752401377 0.22169904798743939 0 -0.02675369219281019 0.23290150150097291 0 -0.042100384295285467 0.22888272761933071 0 -0.045261618625375449 0.21333672814968549 0 -0.02675369219281019 0.23290150150097291 0 -0.042100384295285467 0.22888272761933071 0 -0.02675369219281019 0.23290150150097291 0 -0.026711477711177899 0.23444217817011309 0 -0.045261618625375449 0.21333672814968549 0 -0.025983012380334781 0.2115930184476672 0 -0.02772339752401377 0.22169904798743939 0 -0.045261618625375449 0.21333672814968549 0 -0.029252980350323681 0.1977376245802884 0 -0.025983012380334781 0.2115930184476672 0 -0.063769545057940663 0.19377195479839809 0 -0.045261618625375449 0.21333672814968549 0 -0.063769545057940663 0.19377195479839809 0 -0.072142849724606259 0.2099260872470029 0 -0.045261618625375449 0.21333672814968549 0 -0.072142849724606259 0.2099260872470029 0 -0.068407602306599244 0.22780678473085289 0 -0.045261618625375449 0.21333672814968549 0 -0.063769545057940663 0.19377195479839809 0 -0.045261618625375449 0.21333672814968549 0 -0.041349789320347038 0.18749549167170951 0 -0.029252980350323681 0.1977376245802884 0 -0.041349789320347038 0.18749549167170951 0 -0.02440704960050057 0.1813667693045137 0 -0.045261618625375449 0.21333672814968549 0 -0.029252980350323681 0.1977376245802884 0 -0.041349789320347038 0.18749549167170951 0 -0.029252980350323681 0.1977376245802884 0 -0.01949536222664228 0.1923427933584827 0 -0.02440704960050057 0.1813667693045137 0 -0.029252980350323681 0.1977376245802884 0 -0.019383630886315679 0.20246845033521829 0 -0.01949536222664228 0.1923427933584827 0 -0.019383630886315679 0.20246845033521829 0 -0.01949536222664228 0.1923427933584827 0 -0.011799668219416901 0.19617813045667529 0 -0.01949536222664228 0.1923427933584827 0 -0.011799668219416901 0.19617813045667529 0 -0.0099503170468955675 0.185467411183286 0 -0.0047591026019954026 0.19332022418589959 0 -0.011799668219416901 0.19617813045667529 0 -0.0099503170468955675 0.185467411183286 0 -0.0047591026019954026 0.19332022418589959 0 -0.003081975793268537 0.18782002811878001 0 -0.0099503170468955675 0.185467411183286 0 -0.0047591026019954026 0.19332022418589959 0 -2.3422743153838069e-05 0.1988005567515452 0 0.0015327128313205251 0.1915709431207247 0 -0.0047591026019954026 0.19332022418589959 0 -0.003081975793268537 0.18782002811878001 0 0.0015327128313205251 0.1915709431207247 0 -2.3422743153838069e-05 0.1988005567515452 0 -0.0064134676939889088 0.1997865992100484 0 -0.0042090490499692894 0.20625736901624969 0 -0.0047591026019954026 0.19332022418589959 0 -2.3422743153838069e-05 0.1988005567515452 0 -0.0064134676939889088 0.1997865992100484 0 -0.0047591026019954026 0.19332022418589959 0 -0.0064134676939889088 0.1997865992100484 0 -0.011799668219416901 0.19617813045667529 0 -0.019383630886315679 0.20246845033521829 0 -0.011799668219416901 0.19617813045667529 0 -0.01127609585540912 0.20437671563987239 0 -0.0064134676939889088 0.1997865992100484 0 -0.011799668219416901 0.19617813045667529 0 -0.01127609585540912 0.20437671563987239 0 -0.019383630886315679 0.20246845033521829 0 -0.01127609585540912 0.20437671563987239 0 -0.015975625416527989 0.21106072298800291 0 -0.0098363755348389904 0.2097806401996784 0 -0.01127609585540912 0.20437671563987239 0 -0.015975625416527989 0.21106072298800291 0 -0.0098363755348389904 0.2097806401996784 0 -0.01127609585540912 0.20437671563987239 0 -0.0042090490499692894 0.20625736901624969 0 -0.0042090490499692894 0.20625736901624969 0 0.00083142932333707279 0.21381627434491049 0 0.0029581381265264858 0.20519393183106241 0 -0.0064134676939889088 0.1997865992100484 0 -0.01127609585540912 0.20437671563987239 0 -0.0042090490499692894 0.20625736901624969 0 -0.0098363755348389904 0.2097806401996784 0 -0.0042090490499692894 0.20625736901624969 0 -0.0060196598873338584 0.21321125444391051 0 -2.3422743153838069e-05 0.1988005567515452 0 -0.0042090490499692894 0.20625736901624969 0 0.0029581381265264858 0.20519393183106241 0 -0.0055559642639475869 0.21913689448513271 0 0.0001093474821353509 0.22215689039817851 0 0.00083142932333707279 0.21381627434491049 0 -0.0060196598873338584 0.21321125444391051 0 -0.0055559642639475869 0.21913689448513271 0 0.00083142932333707279 0.21381627434491049 0 -0.0042090490499692894 0.20625736901624969 0 -0.0060196598873338584 0.21321125444391051 0 0.00083142932333707279 0.21381627434491049 0 -0.0060196598873338584 0.21321125444391051 0 -0.01091493828254137 0.21625783395607551 0 -0.0055559642639475869 0.21913689448513271 0 -0.01091493828254137 0.21625783395607551 0 -0.015975625416527989 0.21106072298800291 0 -0.017588491814277241 0.22188462813269769 0 -0.0098363755348389904 0.2097806401996784 0 -0.0060196598873338584 0.21321125444391051 0 -0.01091493828254137 0.21625783395607551 0 -0.0098363755348389904 0.2097806401996784 0 -0.01091493828254137 0.21625783395607551 0 -0.015975625416527989 0.21106072298800291 0 -0.015975625416527989 0.21106072298800291 0 -0.025983012380334781 0.2115930184476672 0 -0.017588491814277241 0.22188462813269769 0 -0.019383630886315679 0.20246845033521829 0 -0.015975625416527989 0.21106072298800291 0 -0.025983012380334781 0.2115930184476672 0 -0.029252980350323681 0.1977376245802884 0 -0.019383630886315679 0.20246845033521829 0 -0.025983012380334781 0.2115930184476672 0 -0.025983012380334781 0.2115930184476672 0 -0.02772339752401377 0.22169904798743939 0 -0.017588491814277241 0.22188462813269769 0 -0.02772339752401377 0.22169904798743939 0 -0.02675369219281019 0.23290150150097291 0 -0.022352419066048221 0.22652947853539249 0 -0.02675369219281019 0.23290150150097291 0 -0.017344094733091689 0.22963273652046001 0 -0.01246950101347712 0.23792538229425519 0 -0.02675369219281019 0.23290150150097291 0 -0.017344094733091689 0.22963273652046001 0 -0.022352419066048221 0.22652947853539249 0 -0.017344094733091689 0.22963273652046001 0 -0.017588491814277241 0.22188462813269769 0 -0.01350500053265637 0.2263729039251991 0 -0.017344094733091689 0.22963273652046001 0 -0.022352419066048221 0.22652947853539249 0 -0.017588491814277241 0.22188462813269769 0 -0.02772339752401377 0.22169904798743939 0 -0.022352419066048221 0.22652947853539249 0 -0.017588491814277241 0.22188462813269769 0 -0.01091493828254137 0.21625783395607551 0 -0.017588491814277241 0.22188462813269769 0 -0.01009356448405245 0.2229710377255022 0 -0.017588491814277241 0.22188462813269769 0 -0.01350500053265637 0.2263729039251991 0 -0.01009356448405245 0.2229710377255022 0 -0.01091493828254137 0.21625783395607551 0 -0.01009356448405245 0.2229710377255022 0 -0.0055559642639475869 0.21913689448513271 0 -0.01009356448405245 0.2229710377255022 0 -0.0055559642639475869 0.21913689448513271 0 -0.0046023563546483629 0.22639127835839259 0 -0.0055559642639475869 0.21913689448513271 0 -0.0046023563546483629 0.22639127835839259 0 0.0001093474821353509 0.22215689039817851 0 -0.0046023563546483629 0.22639127835839259 0 0.0010433620948100131 0.23240638127880581 0 0.0001093474821353509 0.22215689039817851 0 -0.0046023563546483629 0.22639127835839259 0 -0.0089938510992040935 0.23100321332213661 0 0.0010433620948100131 0.23240638127880581 0 -0.017344094733091689 0.22963273652046001 0 -0.0089938510992040935 0.23100321332213661 0 -0.01246950101347712 0.23792538229425519 0 -0.01009356448405245 0.2229710377255022 0 -0.0046023563546483629 0.22639127835839259 0 -0.0089938510992040935 0.23100321332213661 0 -0.017344094733091689 0.22963273652046001 0 -0.01350500053265637 0.2263729039251991 0 -0.0089938510992040935 0.23100321332213661 0 -0.01350500053265637 0.2263729039251991 0 -0.01009356448405245 0.2229710377255022 0 -0.0089938510992040935 0.23100321332213661 0 -0.0089938510992040935 0.23100321332213661 0 -0.001965278602122185 0.24182690426762959 0 0.0010433620948100131 0.23240638127880581 0 -0.0089938510992040935 0.23100321332213661 0 -0.01246950101347712 0.23792538229425519 0 -0.001965278602122185 0.24182690426762959 0 -0.0082457657602449386 0.25246627485226031 0 -0.01246950101347712 0.23792538229425519 0 -0.001965278602122185 0.24182690426762959 0 -0.0082457657602449386 0.25246627485226031 0 -0.02675369219281019 0.23290150150097291 0 -0.01246950101347712 0.23792538229425519 0 -0.029881977245259539 0.25372898958001938 0 -0.0082457657602449386 0.25246627485226031 0 -0.026711477711177899 0.23444217817011309 0 -0.0082457657602449386 0.25246627485226031 0 -0.02675369219281019 0.23290150150097291 0 -0.026711477711177899 0.23444217817011309 0 -0.0082457657602449386 0.25246627485226031 0 -0.02675369219281019 0.23290150150097291 0 -0.046893106203257602 0.1507880314475378 0 -0.033582854738693747 0.16530128627528251 0 -0.03096555907766051 0.14775731769023701 0 -0.035508455794597132 0.13046501110523001 0 -0.046893106203257602 0.1507880314475378 0 -0.03096555907766051 0.14775731769023701 0 -0.035508455794597132 0.13046501110523001 0 -0.046893106203257602 0.1507880314475378 0 -0.035508455794597132 0.13046501110523001 0 -0.055186524828957063 0.1281687789626855 0 -0.046893106203257602 0.1507880314475378 0 -0.035508455794597132 0.13046501110523001 0 -0.055186524828957063 0.1281687789626855 0 -0.04045215309894238 0.1165912735558266 0 -0.074642854581774637 0.14147916649728479 0 -0.055186524828957063 0.1281687789626855 0 -0.046893106203257602 0.1507880314475378 0 -0.065615427061545384 0.16058384892905991 0 -0.074642854581774637 0.14147916649728479 0 -0.046893106203257602 0.1507880314475378 0 -0.065615427061545384 0.16058384892905991 0 -0.046893106203257602 0.1507880314475378 0 -0.051824687549248197 0.17345858692208871 0 -0.063769545057940663 0.19377195479839809 0 -0.051824687549248197 0.17345858692208871 0 -0.041349789320347038 0.18749549167170951 0 -0.041349789320347038 0.18749549167170951 0 -0.033582854738693747 0.16530128627528251 0 -0.02440704960050057 0.1813667693045137 0 -0.051824687549248197 0.17345858692208871 0 -0.041349789320347038 0.18749549167170951 0 -0.033582854738693747 0.16530128627528251 0 -0.046893106203257602 0.1507880314475378 0 -0.051824687549248197 0.17345858692208871 0 -0.033582854738693747 0.16530128627528251 0 -0.033582854738693747 0.16530128627528251 0 -0.022139091883514501 0.16815071126606429 0 -0.02440704960050057 0.1813667693045137 0 -0.033582854738693747 0.16530128627528251 0 -0.022139091883514501 0.16815071126606429 0 -0.016648491277264341 0.15771365056650341 0 -0.033582854738693747 0.16530128627528251 0 -0.016648491277264341 0.15771365056650341 0 -0.03096555907766051 0.14775731769023701 0 -0.022139091883514501 0.16815071126606429 0 -0.02440704960050057 0.1813667693045137 0 -0.01283771780100665 0.17547196173435681 0 -0.01949536222664228 0.1923427933584827 0 -0.02440704960050057 0.1813667693045137 0 -0.0099503170468955675 0.185467411183286 0 -0.02440704960050057 0.1813667693045137 0 -0.0099503170468955675 0.185467411183286 0 -0.01283771780100665 0.17547196173435681 0 -0.0099503170468955675 0.185467411183286 0 -0.01283771780100665 0.17547196173435681 0 -0.00450206117857799 0.17688747855202069 0 -0.01283771780100665 0.17547196173435681 0 -0.00450206117857799 0.17688747855202069 0 -0.0026654791677323511 0.16604552865166611 0 -0.00450206117857799 0.17688747855202069 0 -0.0026654791677323511 0.16604552865166611 0 0.0024081860720475369 0.17557227428335351 0 -0.00450206117857799 0.17688747855202069 0 0.00053502205069707774 0.18188021690744111 0 0.0024081860720475369 0.17557227428335351 0 -0.0099503170468955675 0.185467411183286 0 -0.00450206117857799 0.17688747855202069 0 0.00053502205069707774 0.18188021690744111 0 -0.003081975793268537 0.18782002811878001 0 -0.0099503170468955675 0.185467411183286 0 0.00053502205069707774 0.18188021690744111 0 -0.022139091883514501 0.16815071126606429 0 -0.016648491277264341 0.15771365056650341 0 -0.0026654791677323511 0.16604552865166611 0 -0.022139091883514501 0.16815071126606429 0 -0.01283771780100665 0.17547196173435681 0 -0.0026654791677323511 0.16604552865166611 0 -0.016648491277264341 0.15771365056650341 0 -0.0026654791677323511 0.16604552865166611 0 0.00151890392611572 0.15456094484017679 0 -0.016648491277264341 0.15771365056650341 0 -0.0026654791677323511 0.16604552865166611 0 -0.0082797250895681185 0.13474448294352481 0 0.00151890392611572 0.15456094484017679 0 -0.016648491277264341 0.15771365056650341 0 -0.0082797250895681185 0.13474448294352481 0 0.00151890392611572 0.15456094484017679 0 -0.016648491277264341 0.15771365056650341 0 -0.03096555907766051 0.14775731769023701 0 -0.022194887374489752 0.13451860905663129 0 -0.016648491277264341 0.15771365056650341 0 -0.022194887374489752 0.13451860905663129 0 -0.0082797250895681185 0.13474448294352481 0 -0.035508455794597132 0.13046501110523001 0 -0.03096555907766051 0.14775731769023701 0 -0.022194887374489752 0.13451860905663129 0 -0.035508455794597132 0.13046501110523001 0 -0.022194887374489752 0.13451860905663129 0 -0.02222625157844095 0.1227088344756834 0 -0.022194887374489752 0.13451860905663129 0 -0.012678773622269129 0.1213748672570316 0 -0.02222625157844095 0.1227088344756834 0 -0.022194887374489752 0.13451860905663129 0 -0.0082797250895681185 0.13474448294352481 0 -0.012678773622269129 0.1213748672570316 0 -0.0082797250895681185 0.13474448294352481 0 -0.012678773622269129 0.1213748672570316 0 0.0010393500416724941 0.12595831854165979 0 -0.012678773622269129 0.1213748672570316 0 -0.0069683050282923539 0.11495619240176071 0 0.0010393500416724941 0.12595831854165979 0 -0.0069683050282923539 0.11495619240176071 0 0.00039794405216867472 0.112072386291362 0 0.0010393500416724941 0.12595831854165979 0 -0.012678773622269129 0.1213748672570316 0 -0.012248850971573841 0.1125208075020822 0 -0.01744198128355802 0.11503771634109559 0 -0.012678773622269129 0.1213748672570316 0 -0.012248850971573841 0.1125208075020822 0 -0.0069683050282923539 0.11495619240176071 0 -0.012248850971573841 0.1125208075020822 0 -0.0069683050282923539 0.11495619240176071 0 -0.0083997351711877014 0.10895079227570641 0 -0.0069683050282923539 0.11495619240176071 0 -0.0083997351711877014 0.10895079227570641 0 0.00039794405216867472 0.112072386291362 0 -0.011506603279544361 0.087618711973773578 0 0.0058206420146291954 0.1114089238878985 0 0.00039794405216867472 0.112072386291362 0 -0.015837719346710199 0.095350294128549784 0 -0.011506603279544361 0.087618711973773578 0 0.00039794405216867472 0.112072386291362 0 -0.011506603279544361 0.087618711973773578 0 0.0058206420146291954 0.1114089238878985 0 -0.015837719346710199 0.095350294128549784 0 0.00039794405216867472 0.112072386291362 0 -0.0083997351711877014 0.10895079227570641 0 -0.015837719346710199 0.095350294128549784 0 0.00039794405216867472 0.112072386291362 0 -0.011506603279544361 0.087618711973773578 0 0.0017142141577850001 0.096485027642689541 0 0.0058206420146291954 0.1114089238878985 0 -0.0083997351711877014 0.10895079227570641 0 -0.013221823848225379 0.1065091018144344 0 -0.015837719346710199 0.095350294128549784 0 -0.012248850971573841 0.1125208075020822 0 -0.0083997351711877014 0.10895079227570641 0 -0.013221823848225379 0.1065091018144344 0 -0.012248850971573841 0.1125208075020822 0 -0.013221823848225379 0.1065091018144344 0 -0.017997844109414411 0.1087655018954708 0 -0.017997844109414411 0.1087655018954708 0 -0.015837719346710199 0.095350294128549784 0 -0.024123805385937312 0.11014199076292169 0 -0.013221823848225379 0.1065091018144344 0 -0.017997844109414411 0.1087655018954708 0 -0.015837719346710199 0.095350294128549784 0 -0.024123805385937312 0.11014199076292169 0 -0.032300333499350402 0.090057470672271281 0 -0.015837719346710199 0.095350294128549784 0 -0.024123805385937312 0.11014199076292169 0 -0.032300333499350402 0.090057470672271281 0 -0.015837719346710199 0.095350294128549784 0 -0.024123805385937312 0.11014199076292169 0 -0.035508455794597132 0.13046501110523001 0 -0.024123805385937312 0.11014199076292169 0 -0.023307159817290739 0.1121479686184283 0 -0.035508455794597132 0.13046501110523001 0 -0.02222625157844095 0.1227088344756834 0 -0.023307159817290739 0.1121479686184283 0 -0.035508455794597132 0.13046501110523001 0 -0.024123805385937312 0.11014199076292169 0 -0.024123805385937312 0.11014199076292169 0 -0.023307159817290739 0.1121479686184283 0 -0.012678773622269129 0.1213748672570316 0 -0.02222625157844095 0.1227088344756834 0 -0.01744198128355802 0.11503771634109559 0 -0.02222625157844095 0.1227088344756834 0 -0.01744198128355802 0.11503771634109559 0 -0.023307159817290739 0.1121479686184283 0 -0.012248850971573841 0.1125208075020822 0 -0.017997844109414411 0.1087655018954708 0 -0.01744198128355802 0.11503771634109559 0 -0.017997844109414411 0.1087655018954708 0 -0.024123805385937312 0.11014199076292169 0 -0.023307159817290739 0.1121479686184283 0 -0.017997844109414411 0.1087655018954708 0 -0.01744198128355802 0.11503771634109559 0 -0.023307159817290739 0.1121479686184283 0 -0.0046988296279310846 0.075465987257500103 0 -0.004471055932428975 0.061346262570306953 0 0.0079626054049135586 0.052863747179962457 0 -0.0093767874180366029 0.073051079923104223 0 -0.014915188529848109 0.07157527628023079 0 -0.011506603279544361 0.087618711973773578 0 -0.0096267601800840239 0.066065855624376196 0 -0.01690032334888349 0.065021557104339434 0 -0.015766095144715799 0.059221925757037469 0 -0.0096267601800840239 0.066065855624376196 0 -0.014915188529848109 0.07157527628023079 0 -0.01690032334888349 0.065021557104339434 0 -0.0096267601800840239 0.066065855624376196 0 -0.0093767874180366029 0.073051079923104223 0 -0.014915188529848109 0.07157527628023079 0 -0.0096267601800840239 0.066065855624376196 0 -0.0046988296279310846 0.075465987257500103 0 -0.004471055932428975 0.061346262570306953 0 -0.0046988296279310846 0.075465987257500103 0 -0.0093767874180366029 0.073051079923104223 0 -0.0096267601800840239 0.066065855624376196 0 -0.0046988296279310846 0.075465987257500103 0 -0.0093767874180366029 0.073051079923104223 0 -0.0046988296279310846 0.075465987257500103 0 -0.011506603279544361 0.087618711973773578 0 -0.0046988296279310846 0.075465987257500103 0 -0.0093767874180366029 0.073051079923104223 0 -0.011506603279544361 0.087618711973773578 0 -0.0046988296279310846 0.075465987257500103 0 -0.011506603279544361 0.087618711973773578 0 0.00056903788424511365 0.086682396089073327 0 -0.011506603279544361 0.087618711973773578 0 0.00056903788424511365 0.086682396089073327 0 0.0017142141577850001 0.096485027642689541 0 -0.015837719346710199 0.095350294128549784 0 -0.011506603279544361 0.087618711973773578 0 -0.011506603279544361 0.087618711973773578 0 -0.028157290479737571 0.082661622355085798 0 -0.027165468422692102 0.066119176775560506 0 -0.015837719346710199 0.095350294128549784 0 -0.011506603279544361 0.087618711973773578 0 -0.028157290479737571 0.082661622355085798 0 -0.015837719346710199 0.095350294128549784 0 -0.028157290479737571 0.082661622355085798 0 -0.032300333499350402 0.090057470672271281 0 -0.015837719346710199 0.095350294128549784 0 -0.028157290479737571 0.082661622355085798 0 -0.014915188529848109 0.07157527628023079 0 -0.011506603279544361 0.087618711973773578 0 -0.027165468422692102 0.066119176775560506 0 -0.011506603279544361 0.087618711973773578 0 -0.027165468422692102 0.066119176775560506 0 -0.027165468422692102 0.066119176775560506 0 -0.01690032334888349 0.065021557104339434 0 -0.021155304748881689 0.062203044053262727 0 -0.014915188529848109 0.07157527628023079 0 -0.027165468422692102 0.066119176775560506 0 -0.01690032334888349 0.065021557104339434 0 -0.027165468422692102 0.066119176775560506 0 -0.040476861612764189 0.069972950581621118 0 -0.047888547298180387 0.051767161035057033 0 -0.028157290479737571 0.082661622355085798 0 -0.027165468422692102 0.066119176775560506 0 -0.040476861612764189 0.069972950581621118 0 -0.040476861612764189 0.069972950581621118 0 -0.049934811086014087 0.07186746235717667 0 -0.047859912164240369 0.063897566148078455 0 -0.028157290479737571 0.082661622355085798 0 -0.040476861612764189 0.069972950581621118 0 -0.040476861612764189 0.069972950581621118 0 -0.032300333499350402 0.090057470672271281 0 -0.028157290479737571 0.082661622355085798 0 -0.040476861612764189 0.069972950581621118 0 -0.032300333499350402 0.090057470672271281 0 -0.032300333499350402 0.090057470672271281 0 -0.052294403454901703 0.081174947256086191 0 -0.05578440732887191 0.096170589739797752 0 -0.040476861612764189 0.069972950581621118 0 -0.032300333499350402 0.090057470672271281 0 -0.052294403454901703 0.081174947256086191 0 -0.052294403454901703 0.081174947256086191 0 -0.05578440732887191 0.096170589739797752 0 -0.071620526940906107 0.087533684005701329 0 -0.052294403454901703 0.081174947256086191 0 -0.071620526940906107 0.087533684005701329 0 -0.062515526400001881 0.068377579792855414 0 -0.040476861612764189 0.069972950581621118 0 -0.052294403454901703 0.081174947256086191 0 -0.049934811086014087 0.07186746235717667 0 -0.052294403454901703 0.081174947256086191 0 -0.049934811086014087 0.07186746235717667 0 -0.062515526400001881 0.068377579792855414 0 -0.049934811086014087 0.07186746235717667 0 -0.052204780428632629 0.062945341387988421 0 -0.062515526400001881 0.068377579792855414 0 -0.052204780428632629 0.062945341387988421 0 -0.062515526400001881 0.068377579792855414 0 -0.055379183454653792 0.058514889464143828 0 -0.049934811086014087 0.07186746235717667 0 -0.052204780428632629 0.062945341387988421 0 -0.047859912164240369 0.063897566148078455 0 -0.024123805385937312 0.11014199076292169 0 -0.04045215309894238 0.1165912735558266 0 -0.041170092212669533 0.1046411265361262 0 -0.035508455794597132 0.13046501110523001 0 -0.024123805385937312 0.11014199076292169 0 -0.04045215309894238 0.1165912735558266 0 -0.04045215309894238 0.1165912735558266 0 -0.041170092212669533 0.1046411265361262 0 -0.052159737415513489 0.1112025467171566 0 -0.032300333499350402 0.090057470672271281 0 -0.041170092212669533 0.1046411265361262 0 -0.05578440732887191 0.096170589739797752 0 -0.024123805385937312 0.11014199076292169 0 -0.032300333499350402 0.090057470672271281 0 -0.041170092212669533 0.1046411265361262 0 -0.05578440732887191 0.096170589739797752 0 -0.052159737415513489 0.1112025467171566 0 -0.07438317581125764 0.1124407737129243 0 -0.041170092212669533 0.1046411265361262 0 -0.05578440732887191 0.096170589739797752 0 -0.052159737415513489 0.1112025467171566 0 -0.055186524828957063 0.1281687789626855 0 -0.04045215309894238 0.1165912735558266 0 -0.052159737415513489 0.1112025467171566 0 -0.055186524828957063 0.1281687789626855 0 -0.052159737415513489 0.1112025467171566 0 -0.07438317581125764 0.1124407737129243 0 -0.092802426943272898 0.12960292979422991 0 -0.07438317581125764 0.1124407737129243 0 -0.10110008134148971 0.1098561456819369 0 -0.07438317581125764 0.1124407737129243 0 -0.086834659998143784 0.098004038152668241 0 -0.10110008134148971 0.1098561456819369 0 -0.07438317581125764 0.1124407737129243 0 -0.086834659998143784 0.098004038152668241 0 -0.071620526940906107 0.087533684005701329 0 -0.05578440732887191 0.096170589739797752 0 -0.07438317581125764 0.1124407737129243 0 -0.071620526940906107 0.087533684005701329 0 -0.071620526940906107 0.087533684005701329 0 -0.062515526400001881 0.068377579792855414 0 -0.077633089280774809 0.070659037798975324 0 -0.062515526400001881 0.068377579792855414 0 -0.077633089280774809 0.070659037798975324 0 -0.069862538744371955 0.057777113150521288 0 -0.077633089280774809 0.070659037798975324 0 -0.081860045586377939 0.060182951188062161 0 -0.069862538744371955 0.057777113150521288 0 -0.077633089280774809 0.070659037798975324 0 -0.09054666164713164 0.067286880848174316 0 -0.081860045586377939 0.060182951188062161 0 -0.077633089280774809 0.070659037798975324 0 -0.09054666164713164 0.067286880848174316 0 -0.091096470542610469 0.082323341280698709 0 -0.071620526940906107 0.087533684005701329 0 -0.077633089280774809 0.070659037798975324 0 -0.091096470542610469 0.082323341280698709 0 -0.086834659998143784 0.098004038152668241 0 -0.071620526940906107 0.087533684005701329 0 -0.091096470542610469 0.082323341280698709 0 -0.086834659998143784 0.098004038152668241 0 -0.091096470542610469 0.082323341280698709 0 -0.1074822184466613 0.088136729408796272 0 -0.091096470542610469 0.082323341280698709 0 -0.1074822184466613 0.088136729408796272 0 -0.10104646070399111 0.074349611526457776 0 -0.1074822184466613 0.088136729408796272 0 -0.10104646070399111 0.074349611526457776 0 -0.1134486320906168 0.071653759806922179 0 -0.09054666164713164 0.067286880848174316 0 -0.10104646070399111 0.074349611526457776 0 -0.1026583207929353 0.062347346287697412 0 -0.09054666164713164 0.067286880848174316 0 -0.091096470542610469 0.082323341280698709 0 -0.10104646070399111 0.074349611526457776 0 -0.10104646070399111 0.074349611526457776 0 -0.1134486320906168 0.071653759806922179 0 -0.1026583207929353 0.062347346287697412 0 -0.1134486320906168 0.071653759806922179 0 -0.1169815729820268 0.057446916627697332 0 -0.1026583207929353 0.062347346287697412 0 -0.1134486320906168 0.071653759806922179 0 -0.12498233095038511 0.069533312171706482 0 -0.1248370695698198 0.083226530136874921 0 -0.1134486320906168 0.071653759806922179 0 -0.12498233095038511 0.069533312171706482 0 -0.1169815729820268 0.057446916627697332 0 -0.1074822184466613 0.088136729408796272 0 -0.1134486320906168 0.071653759806922179 0 -0.1248370695698198 0.083226530136874921 0 -0.12991930243541749 0.1020465165188278 0 -0.1074822184466613 0.088136729408796272 0 -0.1248370695698198 0.083226530136874921 0 -0.12991930243541749 0.1020465165188278 0 -0.1074822184466613 0.088136729408796272 0 -0.10110008134148971 0.1098561456819369 0 -0.12991930243541749 0.1020465165188278 0 -0.1131006250587715 0.12959615498317961 0 -0.10110008134148971 0.1098561456819369 0 -0.12991930243541749 0.1020465165188278 0 -0.13028426483969929 0.13221647237215789 0 -0.1131006250587715 0.12959615498317961 0 -0.1131006250587715 0.12959615498317961 0 -0.092802426943272898 0.12960292979422991 0 -0.10110008134148971 0.1098561456819369 0 -0.086834659998143784 0.098004038152668241 0 -0.1074822184466613 0.088136729408796272 0 -0.10110008134148971 0.1098561456819369 0 -0.1061587232064081 0.029080734372794698 0 -0.094449021505079139 0.018227913303066591 0 -0.1094215753963574 0.0115277712725063 0 -0.1061587232064081 0.029080734372794698 0 -0.094924595462104619 0.030399760044886301 0 -0.094449021505079139 0.018227913303066591 0 -0.094449021505079139 0.018227913303066591 0 -0.097507665945787692 0.0040820149966005574 0 -0.1094215753963574 0.0115277712725063 0 -0.097507665945787692 0.0040820149966005574 0 -0.1058521268010089 0.00073384547527136773 0 -0.1094215753963574 0.0115277712725063 0 -0.1152652699767374 -0.0044733142422073097 0 -0.1273771369441013 0.0023450629401116992 0 -0.1094215753963574 0.0115277712725063 0 -0.1152652699767374 -0.0044733142422073097 0 -0.1058521268010089 0.00073384547527136773 0 -0.1094215753963574 0.0115277712725063 0 -0.1273771369441013 0.0023450629401116992 0 -0.12537023626190849 0.01701499410391356 0 -0.1094215753963574 0.0115277712725063 0 -0.12537023626190849 0.01701499410391356 0 -0.1094215753963574 0.0115277712725063 0 -0.1154752524598698 0.02214949429500624 0 -0.12537023626190849 0.01701499410391356 0 -0.1154752524598698 0.02214949429500624 0 -0.120950474974805 0.030974477430810402 0 -0.1061587232064081 0.029080734372794698 0 -0.1094215753963574 0.0115277712725063 0 -0.1154752524598698 0.02214949429500624 0 -0.1061587232064081 0.029080734372794698 0 -0.1154752524598698 0.02214949429500624 0 -0.120950474974805 0.030974477430810402 0 -0.1304591025064194 0.044551821316570157 0 -0.120950474974805 0.030974477430810402 0 -0.112428546201817 0.041955624634692393 0 -0.1061587232064081 0.029080734372794698 0 -0.120950474974805 0.030974477430810402 0 -0.112428546201817 0.041955624634692393 0 -0.1304591025064194 0.044551821316570157 0 -0.112428546201817 0.041955624634692393 0 -0.1169815729820268 0.057446916627697332 0 -0.1311901693420546 0.060374133793646992 0 -0.12498233095038511 0.069533312171706482 0 -0.1169815729820268 0.057446916627697332 0 -0.112428546201817 0.041955624634692393 0 -0.1169815729820268 0.057446916627697332 0 -0.10210071185166431 0.050014029354961582 0 -0.1169815729820268 0.057446916627697332 0 -0.1026583207929353 0.062347346287697412 0 -0.10210071185166431 0.050014029354961582 0 -0.10210071185166431 0.050014029354961582 0 -0.091201579857211959 0.041080799774458047 0 -0.091131717688311603 0.055225201160547438 0 -0.1026583207929353 0.062347346287697412 0 -0.10210071185166431 0.050014029354961582 0 -0.091131717688311603 0.055225201160547438 0 -0.09054666164713164 0.067286880848174316 0 -0.1026583207929353 0.062347346287697412 0 -0.091131717688311603 0.055225201160547438 0 -0.1061587232064081 0.029080734372794698 0 -0.112428546201817 0.041955624634692393 0 -0.1016080011228369 0.039407166226836883 0 -0.112428546201817 0.041955624634692393 0 -0.10210071185166431 0.050014029354961582 0 -0.1016080011228369 0.039407166226836883 0 -0.10210071185166431 0.050014029354961582 0 -0.1016080011228369 0.039407166226836883 0 -0.091201579857211959 0.041080799774458047 0 -0.1061587232064081 0.029080734372794698 0 -0.094924595462104619 0.030399760044886301 0 -0.1016080011228369 0.039407166226836883 0 -0.094924595462104619 0.030399760044886301 0 -0.1016080011228369 0.039407166226836883 0 -0.091201579857211959 0.041080799774458047 0 -0.094924595462104619 0.030399760044886301 0 -0.091201579857211959 0.041080799774458047 0 -0.083613433652756419 0.02825823648094046 0 -0.091201579857211959 0.041080799774458047 0 -0.080163505572120847 0.038728335950810322 0 -0.0801262205712997 0.049966522982092462 0 -0.091201579857211959 0.041080799774458047 0 -0.080163505572120847 0.038728335950810322 0 -0.083613433652756419 0.02825823648094046 0 -0.080163505572120847 0.038728335950810322 0 -0.075199828102842814 0.032505994045140242 0 -0.083613433652756419 0.02825823648094046 0 -0.09054666164713164 0.067286880848174316 0 -0.091131717688311603 0.055225201160547438 0 -0.081860045586377939 0.060182951188062161 0 -0.091201579857211959 0.041080799774458047 0 -0.091131717688311603 0.055225201160547438 0 -0.0801262205712997 0.049966522982092462 0 -0.091131717688311603 0.055225201160547438 0 -0.0801262205712997 0.049966522982092462 0 -0.081860045586377939 0.060182951188062161 0 -0.0801262205712997 0.049966522982092462 0 -0.069862538744371955 0.057777113150521288 0 -0.06901267431079619 0.039797487593251017 0 -0.069862538744371955 0.057777113150521288 0 -0.06901267431079619 0.039797487593251017 0 -0.058907879691800273 0.050969475640674493 0 -0.062515526400001881 0.068377579792855414 0 -0.069862538744371955 0.057777113150521288 0 -0.058907879691800273 0.050969475640674493 0 -0.0801262205712997 0.049966522982092462 0 -0.081860045586377939 0.060182951188062161 0 -0.069862538744371955 0.057777113150521288 0 -0.06901267431079619 0.039797487593251017 0 -0.068009698875697827 0.023239916155559141 0 -0.055300232983598208 0.033561371488493641 0 -0.075199828102842814 0.032505994045140242 0 -0.06901267431079619 0.039797487593251017 0 -0.068009698875697827 0.023239916155559141 0 -0.080163505572120847 0.038728335950810322 0 -0.075199828102842814 0.032505994045140242 0 -0.06901267431079619 0.039797487593251017 0 -0.080163505572120847 0.038728335950810322 0 -0.0801262205712997 0.049966522982092462 0 -0.06901267431079619 0.039797487593251017 0 -0.068009698875697827 0.023239916155559141 0 -0.066123158358303874 0.0069763394170788487 0 -0.055300232983598208 0.033561371488493641 0 -0.068009698875697827 0.023239916155559141 0 -0.083613433652756419 0.02825823648094046 0 -0.080050012301679602 0.015705407900093959 0 -0.068009698875697827 0.023239916155559141 0 -0.080050012301679602 0.015705407900093959 0 -0.07274845615251338 0.0135364418571977 0 -0.075199828102842814 0.032505994045140242 0 -0.068009698875697827 0.023239916155559141 0 -0.083613433652756419 0.02825823648094046 0 -0.094449021505079139 0.018227913303066591 0 -0.083613433652756419 0.02825823648094046 0 -0.080050012301679602 0.015705407900093959 0 -0.094924595462104619 0.030399760044886301 0 -0.094449021505079139 0.018227913303066591 0 -0.083613433652756419 0.02825823648094046 0 -0.089124004628701792 -0.0040277377021705899 0 -0.097507665945787692 0.0040820149966005574 0 -0.086098134196158846 0.0059583430860626887 0 -0.094449021505079139 0.018227913303066591 0 -0.080050012301679602 0.015705407900093959 0 -0.086098134196158846 0.0059583430860626887 0 -0.094449021505079139 0.018227913303066591 0 -0.097507665945787692 0.0040820149966005574 0 -0.086098134196158846 0.0059583430860626887 0 -0.080050012301679602 0.015705407900093959 0 -0.086098134196158846 0.0059583430860626887 0 -0.076810955074372203 0.0082241039560588727 0 -0.079764572027605563 -0.001208843295517239 0 -0.086098134196158846 0.0059583430860626887 0 -0.076810955074372203 0.0082241039560588727 0 -0.079764572027605563 -0.001208843295517239 0 -0.089124004628701792 -0.0040277377021705899 0 -0.086098134196158846 0.0059583430860626887 0 -0.079764572027605563 -0.001208843295517239 0 -0.076810955074372203 0.0082241039560588727 0 -0.066123158358303874 0.0069763394170788487 0 -0.068009698875697827 0.023239916155559141 0 -0.07274845615251338 0.0135364418571977 0 -0.066123158358303874 0.0069763394170788487 0 -0.076810955074372203 0.0082241039560588727 0 -0.07274845615251338 0.0135364418571977 0 -0.066123158358303874 0.0069763394170788487 0 -0.080050012301679602 0.015705407900093959 0 -0.076810955074372203 0.0082241039560588727 0 -0.07274845615251338 0.0135364418571977 0 -0.047617207273071643 -0.0035118018543059538 0 -0.059664616745900671 -0.0040500510012267867 0 -0.050798470683601923 0.01183886002179501 0 -0.059664616745900671 -0.0040500510012267867 0 -0.066123158358303874 0.0069763394170788487 0 -0.050798470683601923 0.01183886002179501 0 -0.059664616745900671 -0.0040500510012267867 0 -0.050798470683601923 0.01183886002179501 0 -0.047617207273071643 -0.0035118018543059538 0 -0.050798470683601923 0.01183886002179501 0 -0.050798470683601923 0.01183886002179501 0 -0.055300232983598208 0.033561371488493641 0 -0.04692109718252771 0.035386244484329407 0 -0.066123158358303874 0.0069763394170788487 0 -0.055300232983598208 0.033561371488493641 0 -0.066123158358303874 0.0069763394170788487 0 -0.050798470683601923 0.01183886002179501 0 -0.055300232983598208 0.033561371488493641 0 -0.050798470683601923 0.01183886002179501 0 -0.055300232983598208 0.033561371488493641 0 -0.050798470683601923 0.01183886002179501 0 -0.034391162446891957 0.018187238464497092 0 -0.037793901381418679 0.035144188298954319 0 -0.034391162446891957 0.018187238464497092 0 -0.037793901381418679 0.035144188298954319 0 -0.022455882408961961 0.026825405924253771 0 -0.050798470683601923 0.01183886002179501 0 -0.037793901381418679 0.035144188298954319 0 -0.050798470683601923 0.01183886002179501 0 -0.04692109718252771 0.035386244484329407 0 -0.037793901381418679 0.035144188298954319 0 -0.050798470683601923 0.01183886002179501 0 -0.034391162446891957 0.018187238464497092 0 -0.03671052455766443 0.0037031618858211421 0 -0.034391162446891957 0.018187238464497092 0 -0.03671052455766443 0.0037031618858211421 0 -0.022890364083827771 0.01081673007749915 0 -0.047617207273071643 -0.0035118018543059538 0 -0.050798470683601923 0.01183886002179501 0 -0.03671052455766443 0.0037031618858211421 0 -0.062515526400001881 0.068377579792855414 0 -0.058907879691800273 0.050969475640674493 0 -0.062515526400001881 0.068377579792855414 0 -0.055379183454653792 0.058514889464143828 0 -0.058907879691800273 0.050969475640674493 0 -0.052204780428632629 0.062945341387988421 0 -0.047859912164240369 0.063897566148078455 0 -0.047888547298180387 0.051767161035057033 0 -0.052204780428632629 0.062945341387988421 0 -0.055379183454653792 0.058514889464143828 0 -0.047888547298180387 0.051767161035057033 0 -0.055379183454653792 0.058514889464143828 0 -0.058907879691800273 0.050969475640674493 0 -0.047888547298180387 0.051767161035057033 0 -0.06901267431079619 0.039797487593251017 0 -0.058907879691800273 0.050969475640674493 0 -0.055300232983598208 0.033561371488493641 0 -0.047888547298180387 0.051767161035057033 0 -0.055300232983598208 0.033561371488493641 0 -0.04692109718252771 0.035386244484329407 0 -0.058907879691800273 0.050969475640674493 0 -0.047888547298180387 0.051767161035057033 0 -0.055300232983598208 0.033561371488493641 0 -0.047888547298180387 0.051767161035057033 0 -0.055300232983598208 0.033561371488493641 0 -0.058907879691800273 0.050969475640674493 0 -0.055300232983598208 0.033561371488493641 0 -0.037793901381418679 0.035144188298954319 0 -0.024789332079235359 0.058449516576113518 0 -0.047888547298180387 0.051767161035057033 0 -0.04692109718252771 0.035386244484329407 0 -0.042824333565839388 0.044619641577347061 0 -0.037793901381418679 0.035144188298954319 0 -0.042824333565839388 0.044619641577347061 0 -0.024789332079235359 0.058449516576113518 0 -0.04692109718252771 0.035386244484329407 0 -0.037793901381418679 0.035144188298954319 0 -0.042824333565839388 0.044619641577347061 0 -0.027165468422692102 0.066119176775560506 0 -0.047888547298180387 0.051767161035057033 0 -0.042824333565839388 0.044619641577347061 0 -0.040476861612764189 0.069972950581621118 0 -0.047859912164240369 0.063897566148078455 0 -0.047888547298180387 0.051767161035057033 0 -0.040476861612764189 0.069972950581621118 0 -0.047888547298180387 0.051767161035057033 0 -0.027165468422692102 0.066119176775560506 0 -0.042824333565839388 0.044619641577347061 0 -0.027165468422692102 0.066119176775560506 0 -0.042824333565839388 0.044619641577347061 0 -0.024789332079235359 0.058449516576113518 0 -0.015766095144715799 0.059221925757037469 0 -0.024789332079235359 0.058449516576113518 0 -0.0190365636870411 0.05257699221554326 0 -0.015766095144715799 0.059221925757037469 0 -0.021155304748881689 0.062203044053262727 0 -0.024789332079235359 0.058449516576113518 0 -0.01690032334888349 0.065021557104339434 0 -0.015766095144715799 0.059221925757037469 0 -0.021155304748881689 0.062203044053262727 0 -0.027165468422692102 0.066119176775560506 0 -0.021155304748881689 0.062203044053262727 0 -0.024789332079235359 0.058449516576113518 0 -0.024789332079235359 0.058449516576113518 0 -0.0190365636870411 0.05257699221554326 0 -0.02501616098884394 0.043295095323351421 0 -0.0190365636870411 0.05257699221554326 0 -0.02501616098884394 0.043295095323351421 0 -0.010574666535369299 0.049341431205670631 0 -0.037793901381418679 0.035144188298954319 0 -0.024789332079235359 0.058449516576113518 0 -0.02501616098884394 0.043295095323351421 0 -0.037793901381418679 0.035144188298954319 0 -0.02501616098884394 0.043295095323351421 0 -0.022455882408961961 0.026825405924253771 0 -0.02501616098884394 0.043295095323351421 0 -0.01174883101074616 0.035626247072063598 0 -0.022455882408961961 0.026825405924253771 0 -0.02501616098884394 0.043295095323351421 0 -0.01174883101074616 0.035626247072063598 0 -0.010574666535369299 0.049341431205670631 0 -0.01174883101074616 0.035626247072063598 0 -0.010574666535369299 0.049341431205670631 0 0.0050554059078342702 0.036817447586302399 0 -0.010574666535369299 0.049341431205670631 0 -0.004471055932428975 0.061346262570306953 0 0.0079626054049135586 0.052863747179962457 0 -0.015766095144715799 0.059221925757037469 0 -0.0190365636870411 0.05257699221554326 0 -0.010574666535369299 0.049341431205670631 0 -0.015766095144715799 0.059221925757037469 0 -0.010574666535369299 0.049341431205670631 0 -0.004471055932428975 0.061346262570306953 0 -0.0096267601800840239 0.066065855624376196 0 -0.015766095144715799 0.059221925757037469 0 -0.004471055932428975 0.061346262570306953 0 -0.025670282478897081 -0.0054027298625421993 0 -0.03671052455766443 0.0037031618858211421 0 -0.022890364083827771 0.01081673007749915 0 -0.025670282478897081 -0.0054027298625421993 0 -0.022890364083827771 0.01081673007749915 0 -0.010105069976996849 0.0023765649732562961 0 -0.022890364083827771 0.01081673007749915 0 -0.022455882408961961 0.026825405924253771 0 -0.0028948745420432241 0.01788293630915707 0 -0.034391162446891957 0.018187238464497092 0 -0.022890364083827771 0.01081673007749915 0 -0.022455882408961961 0.026825405924253771 0 -0.01174883101074616 0.035626247072063598 0 -0.022455882408961961 0.026825405924253771 0 -0.0028948745420432241 0.01788293630915707 0 -0.01174883101074616 0.035626247072063598 0 -0.0028948745420432241 0.01788293630915707 0 0.0050554059078342702 0.036817447586302399 0 -0.022890364083827771 0.01081673007749915 0 -0.0028948745420432241 0.01788293630915707 0 -0.010105069976996849 0.0023765649732562961 0 -0.0028948745420432241 0.01788293630915707 0 -0.010105069976996849 0.0023765649732562961 0 0.0047038114401232534 -0.001040937293712483 0 -0.0028948745420432241 0.01788293630915707 0 0.020415517075116841 0.0076517724901667356 0 0.0047038114401232534 -0.001040937293712483 0 -0.0028948745420432241 0.01788293630915707 0 0.020342672512877309 0.02491627604112644 0 0.020415517075116841 0.0076517724901667356 0 -0.0028948745420432241 0.01788293630915707 0 0.020342672512877309 0.02491627604112644 0 0.0050554059078342702 0.036817447586302399 0 0.020342672512877309 0.02491627604112644 0 0.020415517075116841 0.0076517724901667356 0 0.04034715667016759 0.018897687307637179 0 0.020342672512877309 0.02491627604112644 0 0.02507841675544124 0.048354097280414877 0 0.04034715667016759 0.018897687307637179 0 0.0079626054049135586 0.052863747179962457 0 0.02507841675544124 0.048354097280414877 0 0.010722424996073881 0.068121568230846891 0 -0.010574666535369299 0.049341431205670631 0 0.0079626054049135586 0.052863747179962457 0 0.0050554059078342702 0.036817447586302399 0 0.0079626054049135586 0.052863747179962457 0 0.0050554059078342702 0.036817447586302399 0 0.02507841675544124 0.048354097280414877 0 0.020342672512877309 0.02491627604112644 0 0.0050554059078342702 0.036817447586302399 0 0.02507841675544124 0.048354097280414877 0 0.02507841675544124 0.048354097280414877 0 0.050251726499931808 0.044842678424317363 0 0.039807943620716157 0.068946520475498749 0 0.050251726499931808 0.044842678424317363 0 0.039807943620716157 0.068946520475498749 0 0.02507841675544124 0.048354097280414877 0 0.050251726499931808 0.044842678424317363 0 0.04034715667016759 0.018897687307637179 0 0.050251726499931808 0.044842678424317363 0 0.060695509379147472 0.02073883637313596 0 0.066628286533047365 0.040173783681243101 0 0.050251726499931808 0.044842678424317363 0 0.060695509379147472 0.02073883637313596 0 0.050251726499931808 0.044842678424317363 0 0.066628286533047365 0.040173783681243101 0 0.063756980967503582 0.059761195325569103 0 0.050251726499931808 0.044842678424317363 0 0.063756980967503582 0.059761195325569103 0 0.039807943620716157 0.068946520475498749 0 0.020415517075116841 0.0076517724901667356 0 0.04034715667016759 0.018897687307637179 0 0.039787151186370009 -0.0039594854922263374 0 0.04034715667016759 0.018897687307637179 0 0.053306813386582982 0.0056008818424343951 0 0.039787151186370009 -0.0039594854922263374 0 0.050251726499931808 0.044842678424317363 0 0.04034715667016759 0.018897687307637179 0 0.060695509379147472 0.02073883637313596 0 0.04034715667016759 0.018897687307637179 0 0.060695509379147472 0.02073883637313596 0 0.053306813386582982 0.0056008818424343951 0 0.060695509379147472 0.02073883637313596 0 0.053306813386582982 0.0056008818424343951 0 0.065940651683257009 0.0024831850618150888 0 0.060695509379147472 0.02073883637313596 0 0.065940651683257009 0.0024831850618150888 0 0.07992851590561921 0.0082161523869754144 0 0.065940651683257009 0.0024831850618150888 0 0.07992851590561921 0.0082161523869754144 0 0.074177093133044117 -0.010507922444979889 0 0.07992851590561921 0.0082161523869754144 0 0.1009244284881298 0.0078078577834924806 0 0.09649789417263642 -0.0037639840011086311 0 0.07992851590561921 0.0082161523869754144 0 0.1009244284881298 0.0078078577834924806 0 0.09893654195113713 0.02570505514797651 0 0.07992851590561921 0.0082161523869754144 0 0.08516149451907469 0.032589503251719387 0 0.07992851590561921 0.0082161523869754144 0 0.08516149451907469 0.032589503251719387 0 0.09893654195113713 0.02570505514797651 0 0.060695509379147472 0.02073883637313596 0 0.07992851590561921 0.0082161523869754144 0 0.08516149451907469 0.032589503251719387 0 0.060695509379147472 0.02073883637313596 0 0.066628286533047365 0.040173783681243101 0 0.08516149451907469 0.032589503251719387 0 0.066628286533047365 0.040173783681243101 0 0.076734924211177571 0.049535316522237388 0 0.08516149451907469 0.032589503251719387 0 0.066628286533047365 0.040173783681243101 0 0.063756980967503582 0.059761195325569103 0 0.076734924211177571 0.049535316522237388 0 0.063756980967503582 0.059761195325569103 0 0.076734924211177571 0.049535316522237388 0 0.078896317813284711 0.063130005487330554 0 0.076734924211177571 0.049535316522237388 0 0.090394473132530156 0.056962854116463339 0 0.078896317813284711 0.063130005487330554 0 0.090394473132530156 0.056962854116463339 0 0.08516149451907469 0.032589503251719387 0 0.076734924211177571 0.049535316522237388 0 0.090394473132530156 0.056962854116463339 0 0.08516149451907469 0.032589503251719387 0 0.090394473132530156 0.056962854116463339 0 0.08516149451907469 0.032589503251719387 0 0.096764564946639139 0.043178279343160431 0 0.08516149451907469 0.032589503251719387 0 0.096764564946639139 0.043178279343160431 0 0.09893654195113713 0.02570505514797651 0 0.096764564946639139 0.043178279343160431 0 0.10666951487556919 0.040720151324231749 0 0.09893654195113713 0.02570505514797651 0 0.096764564946639139 0.043178279343160431 0 0.10666951487556919 0.040720151324231749 0 0.10388747543703999 0.053358399551525167 0 0.10666951487556919 0.040720151324231749 0 0.1142736493139349 0.03087626799389703 0 0.09893654195113713 0.02570505514797651 0 0.10388747543703999 0.053358399551525167 0 0.11892469151436 0.060175562481194378 0 0.096340815718618328 0.066677421107029802 0 0.090394473132530156 0.056962854116463339 0 0.10388747543703999 0.053358399551525167 0 0.096340815718618328 0.066677421107029802 0 0.090394473132530156 0.056962854116463339 0 0.096764564946639139 0.043178279343160431 0 0.10388747543703999 0.053358399551525167 0 0.10666951487556919 0.040720151324231749 0 0.10388747543703999 0.053358399551525167 0 0.1137328545953389 0.049471119462924477 0 0.1137328545953389 0.049471119462924477 0 0.11892469151436 0.060175562481194378 0 0.12367169586596689 0.04413069599522032 0 0.10388747543703999 0.053358399551525167 0 0.1137328545953389 0.049471119462924477 0 0.11892469151436 0.060175562481194378 0 0.10666951487556919 0.040720151324231749 0 0.12367169586596689 0.04413069599522032 0 0.1142736493139349 0.03087626799389703 0 0.12367169586596689 0.04413069599522032 0 0.1142736493139349 0.03087626799389703 0 0.13034027439662041 0.028127834929059549 0 0.10666951487556919 0.040720151324231749 0 0.1137328545953389 0.049471119462924477 0 0.12367169586596689 0.04413069599522032 0 0.1142736493139349 0.03087626799389703 0 0.111750219480381 0.015697602572997061 0 0.13034027439662041 0.028127834929059549 0 0.11917198148314 0.002581966002757949 0 0.13034027439662041 0.028127834929059549 0 0.111750219480381 0.015697602572997061 0 0.11917198148314 0.002581966002757949 0 0.13034027439662041 0.028127834929059549 0 0.11917198148314 0.002581966002757949 0 0.1309849453148588 0.01811654968683717 0 0.1228376310831711 -0.00076623140119310329 0 0.11917198148314 0.002581966002757949 0 0.1228376310831711 -0.00076623140119310329 0 0.11917198148314 0.002581966002757949 0 0.1133629416093747 0.002418872237081233 0 0.1105415625726717 -0.0014271332550589229 0 0.11917198148314 0.002581966002757949 0 0.1133629416093747 0.002418872237081233 0 0.11092652002007269 0.0067640166461111727 0 0.1133629416093747 0.002418872237081233 0 0.1078625722471533 0.0022823866337398822 0 0.1105415625726717 -0.0014271332550589229 0 0.1133629416093747 0.002418872237081233 0 0.11092652002007269 0.0067640166461111727 0 0.1078625722471533 0.0022823866337398822 0 0.111750219480381 0.015697602572997061 0 0.11917198148314 0.002581966002757949 0 0.11092652002007269 0.0067640166461111727 0 0.111750219480381 0.015697602572997061 0 0.11092652002007269 0.0067640166461111727 0 0.1009244284881298 0.0078078577834924806 0 0.1078625722471533 0.0022823866337398822 0 0.1009244284881298 0.0078078577834924806 0 0.1039166904039584 -0.0028966343462391718 0 0.11092652002007269 0.0067640166461111727 0 0.1078625722471533 0.0022823866337398822 0 0.1009244284881298 0.0078078577834924806 0 0.1009244284881298 0.0078078577834924806 0 0.1039166904039584 -0.0028966343462391718 0 0.09649789417263642 -0.0037639840011086311 0 0.111750219480381 0.015697602572997061 0 0.1009244284881298 0.0078078577834924806 0 0.09893654195113713 0.02570505514797651 0 0.1142736493139349 0.03087626799389703 0 0.111750219480381 0.015697602572997061 0 0.09893654195113713 0.02570505514797651 0 0.10086043035944101 0.1057095558459509 0 0.088353675930770217 0.1090445403681379 0 0.098136173783193614 0.12855261503670501 0 0.10086043035944101 0.1057095558459509 0 0.11707998843366239 0.12090166170324231 0 0.098136173783193614 0.12855261503670501 0 0.10086043035944101 0.1057095558459509 0 0.11707998843366239 0.12090166170324231 0 0.12018819637303869 0.10164151191590461 0 0.11707998843366239 0.12090166170324231 0 0.12018819637303869 0.10164151191590461 0 0.1368974078767736 0.107501873099266 0 0.10086043035944101 0.1057095558459509 0 0.12018819637303869 0.10164151191590461 0 0.11039993896964689 0.089589601033300492 0 0.12018819637303869 0.10164151191590461 0 0.1225478872688979 0.090713611373926736 0 0.11039993896964689 0.089589601033300492 0 0.1225478872688979 0.090713611373926736 0 0.1210037722340596 0.082520495593825793 0 0.11039993896964689 0.089589601033300492 0 0.1210037722340596 0.082520495593825793 0 0.11039993896964689 0.089589601033300492 0 0.1079674466630436 0.07575227550831827 0 0.1243405792371938 0.066503547411893488 0 0.1152310018430296 0.068591719667449438 0 0.13121537104960351 0.072689189806444385 0 0.1152310018430296 0.068591719667449438 0 0.1079674466630436 0.07575227550831827 0 0.13121537104960351 0.072689189806444385 0 0.11892469151436 0.060175562481194378 0 0.1152310018430296 0.068591719667449438 0 0.096340815718618328 0.066677421107029802 0 0.1210037722340596 0.082520495593825793 0 0.1079674466630436 0.07575227550831827 0 0.13121537104960351 0.072689189806444385 0 0.1079674466630436 0.07575227550831827 0 0.13121537104960351 0.072689189806444385 0 0.11892469151436 0.060175562481194378 0 0.1243405792371938 0.066503547411893488 0 0.1152310018430296 0.068591719667449438 0 0.090394473132530156 0.056962854116463339 0 0.096340815718618328 0.066677421107029802 0 0.095627451745985609 0.081336204981207194 0 0.11892469151436 0.060175562481194378 0 0.096340815718618328 0.066677421107029802 0 0.1152310018430296 0.068591719667449438 0 0.1079674466630436 0.07575227550831827 0 0.096340815718618328 0.066677421107029802 0 0.1079674466630436 0.07575227550831827 0 0.096340815718618328 0.066677421107029802 0 0.095627451745985609 0.081336204981207194 0 0.10086043035944101 0.1057095558459509 0 0.095627451745985609 0.081336204981207194 0 0.10086043035944101 0.1057095558459509 0 0.095627451745985609 0.081336204981207194 0 0.085469831166676849 0.087436677031336632 0 0.10086043035944101 0.1057095558459509 0 0.11039993896964689 0.089589601033300492 0 0.095627451745985609 0.081336204981207194 0 0.11039993896964689 0.089589601033300492 0 0.1079674466630436 0.07575227550831827 0 0.095627451745985609 0.081336204981207194 0 0.095627451745985609 0.081336204981207194 0 0.085469831166676849 0.087436677031336632 0 0.085588317529406169 0.073238424790440806 0 0.085469831166676849 0.087436677031336632 0 0.085588317529406169 0.073238424790440806 0 0.076873554133312927 0.079435143693455501 0 0.085469831166676849 0.087436677031336632 0 0.070098818600398835 0.095008337279511162 0 0.081838863589211913 0.097859807548057495 0 0.085588317529406169 0.073238424790440806 0 0.078896317813284711 0.063130005487330554 0 0.076873554133312927 0.079435143693455501 0 0.090394473132530156 0.056962854116463339 0 0.095627451745985609 0.081336204981207194 0 0.090394473132530156 0.056962854116463339 0 0.095627451745985609 0.081336204981207194 0 0.085588317529406169 0.073238424790440806 0 0.090394473132530156 0.056962854116463339 0 0.085588317529406169 0.073238424790440806 0 0.078896317813284711 0.063130005487330554 0 0.063756980967503582 0.059761195325569103 0 0.076873554133312927 0.079435143693455501 0 0.058428932400687923 0.080576723114904505 0 0.063756980967503582 0.059761195325569103 0 0.078896317813284711 0.063130005487330554 0 0.076873554133312927 0.079435143693455501 0 0.076873554133312927 0.079435143693455501 0 0.070098818600398835 0.095008337279511162 0 0.058428932400687923 0.080576723114904505 0 0.085469831166676849 0.087436677031336632 0 0.076873554133312927 0.079435143693455501 0 0.070098818600398835 0.095008337279511162 0 0.076873554133312927 0.079435143693455501 0 0.070098818600398835 0.095008337279511162 0 0.070098818600398835 0.095008337279511162 0 0.063324083067484813 0.1105815308655668 0 0.056772327777908818 0.093355456469435216 0 0.070098818600398835 0.095008337279511162 0 0.073686861685182473 0.1058294153104071 0 0.063324083067484813 0.1105815308655668 0 0.070098818600398835 0.095008337279511162 0 0.063324083067484813 0.1105815308655668 0 0.070098818600398835 0.095008337279511162 0 0.073686861685182473 0.1058294153104071 0 0.081838863589211913 0.097859807548057495 0 0.10086043035944101 0.1057095558459509 0 0.088353675930770217 0.1090445403681379 0 0.081838863589211913 0.097859807548057495 0 0.10086043035944101 0.1057095558459509 0 0.085469831166676849 0.087436677031336632 0 0.081838863589211913 0.097859807548057495 0 0.073686861685182473 0.1058294153104071 0 0.081838863589211913 0.097859807548057495 0 0.081058066011519173 0.11973636453468819 0 0.081838863589211913 0.097859807548057495 0 0.081058066011519173 0.11973636453468819 0 0.088353675930770217 0.1090445403681379 0 0.081838863589211913 0.097859807548057495 0 0.081058066011519173 0.11973636453468819 0 0.081058066011519173 0.11973636453468819 0 0.098136173783193614 0.12855261503670501 0 0.088353675930770217 0.1090445403681379 0 0.081058066011519173 0.11973636453468819 0 0.098136173783193614 0.12855261503670501 0 0.081058066011519173 0.11973636453468819 0 0.063324083067484813 0.1105815308655668 0 0.068402942841081005 0.12865021266463919 0 0.081058066011519173 0.11973636453468819 0 0.063324083067484813 0.1105815308655668 0 0.073686861685182473 0.1058294153104071 0 0.081058066011519173 0.11973636453468819 0 0.063324083067484813 0.1105815308655668 0 0.063324083067484813 0.1105815308655668 0 0.047212646671147621 0.11637508280246631 0 0.046344121904492837 0.10181594669612309 0 0.063324083067484813 0.1105815308655668 0 0.047212646671147621 0.11637508280246631 0 0.054704645729867107 0.1303951701743557 0 0.063324083067484813 0.1105815308655668 0 0.054704645729867107 0.1303951701743557 0 0.068402942841081005 0.12865021266463919 0 0.063324083067484813 0.1105815308655668 0 0.054704645729867107 0.1303951701743557 0 0.063324083067484813 0.1105815308655668 0 0.046344121904492837 0.10181594669612309 0 0.056772327777908818 0.093355456469435216 0 0.063324083067484813 0.1105815308655668 0 0.046344121904492837 0.10181594669612309 0 0.046344121904492837 0.10181594669612309 0 0.056772327777908818 0.093355456469435216 0 0.045320775007697253 0.087378911453508054 0 0.046344121904492837 0.10181594669612309 0 0.0293641607415005 0.093050362526680058 0 0.027539824430943272 0.097260859315675907 0 0.046344121904492837 0.10181594669612309 0 0.0293641607415005 0.093050362526680058 0 0.046344121904492837 0.10181594669612309 0 0.045320775007697253 0.087378911453508054 0 0.0293641607415005 0.093050362526680058 0 0.046344121904492837 0.10181594669612309 0 0.034802580128522533 0.108370238657299 0 0.027539824430943272 0.097260859315675907 0 0.047212646671147621 0.11637508280246631 0 0.046344121904492837 0.10181594669612309 0 0.034802580128522533 0.108370238657299 0 0.034802580128522533 0.108370238657299 0 0.02295827912300942 0.1143792008990337 0 0.036209801575650402 0.12755429465012871 0 0.047212646671147621 0.11637508280246631 0 0.054704645729867107 0.1303951701743557 0 0.036209801575650402 0.12755429465012871 0 0.047212646671147621 0.11637508280246631 0 0.034802580128522533 0.108370238657299 0 0.036209801575650402 0.12755429465012871 0 0.063756980967503582 0.059761195325569103 0 0.058428932400687923 0.080576723114904505 0 0.039807943620716157 0.068946520475498749 0 0.058428932400687923 0.080576723114904505 0 0.045320775007697253 0.087378911453508054 0 0.039807943620716157 0.068946520475498749 0 0.070098818600398835 0.095008337279511162 0 0.058428932400687923 0.080576723114904505 0 0.056772327777908818 0.093355456469435216 0 0.058428932400687923 0.080576723114904505 0 0.056772327777908818 0.093355456469435216 0 0.045320775007697253 0.087378911453508054 0 0.039807943620716157 0.068946520475498749 0 0.02523443473854358 0.074793540318702806 0 0.0293641607415005 0.093050362526680058 0 0.045320775007697253 0.087378911453508054 0 0.039807943620716157 0.068946520475498749 0 0.0293641607415005 0.093050362526680058 0 0.039807943620716157 0.068946520475498749 0 0.0293641607415005 0.093050362526680058 0 0.02507841675544124 0.048354097280414877 0 0.039807943620716157 0.068946520475498749 0 0.02523443473854358 0.074793540318702806 0 0.02523443473854358 0.074793540318702806 0 0.01233266555678463 0.084258174892090337 0 0.010722424996073881 0.068121568230846891 0 0.02507841675544124 0.048354097280414877 0 0.02523443473854358 0.074793540318702806 0 0.010722424996073881 0.068121568230846891 0 0.0293641607415005 0.093050362526680058 0 0.01233266555678463 0.084258174892090337 0 0.0293641607415005 0.093050362526680058 0 0.01233266555678463 0.084258174892090337 0 0.019584721545335231 0.095933386042030777 0 0.02523443473854358 0.074793540318702806 0 0.0293641607415005 0.093050362526680058 0 0.01233266555678463 0.084258174892090337 0 -0.0046988296279310846 0.075465987257500103 0 0.01233266555678463 0.084258174892090337 0 -0.0046988296279310846 0.075465987257500103 0 0.00056903788424511365 0.086682396089073327 0 0.01233266555678463 0.084258174892090337 0 0.01233266555678463 0.084258174892090337 0 0.019584721545335231 0.095933386042030777 0 0.0096773837387348072 0.094713106344260181 0 0.00056903788424511365 0.086682396089073327 0 0.0096773837387348072 0.094713106344260181 0 0.0017142141577850001 0.096485027642689541 0 0.00056903788424511365 0.086682396089073327 0 0.01233266555678463 0.084258174892090337 0 0.0096773837387348072 0.094713106344260181 0 -0.0046988296279310846 0.075465987257500103 0 0.0079626054049135586 0.052863747179962457 0 -0.0046988296279310846 0.075465987257500103 0 0.01233266555678463 0.084258174892090337 0 0.010722424996073881 0.068121568230846891 0 -0.0046988296279310846 0.075465987257500103 0 0.0079626054049135586 0.052863747179962457 0 0.010722424996073881 0.068121568230846891 0 0.02295827912300942 0.1143792008990337 0 0.016633607451047409 0.12879447845417449 0 0.036209801575650402 0.12755429465012871 0 0.02295827912300942 0.1143792008990337 0 0.02320798257890765 0.1047443639128517 0 0.017264926825327171 0.1093249123190818 0 0.02295827912300942 0.1143792008990337 0 0.017264926825327171 0.1093249123190818 0 0.01360187540002143 0.11722717171449371 0 0.02295827912300942 0.1143792008990337 0 0.01360187540002143 0.11722717171449371 0 0.016633607451047409 0.12879447845417449 0 0.034802580128522533 0.108370238657299 0 0.027539824430943272 0.097260859315675907 0 0.02320798257890765 0.1047443639128517 0 0.034802580128522533 0.108370238657299 0 0.02295827912300942 0.1143792008990337 0 0.02320798257890765 0.1047443639128517 0 0.0293641607415005 0.093050362526680058 0 0.027539824430943272 0.097260859315675907 0 0.019584721545335231 0.095933386042030777 0 0.027539824430943272 0.097260859315675907 0 0.019584721545335231 0.095933386042030777 0 0.02320798257890765 0.1047443639128517 0 0.0293641607415005 0.093050362526680058 0 0.027539824430943272 0.097260859315675907 0 0.019584721545335231 0.095933386042030777 0 0.02320798257890765 0.1047443639128517 0 0.01504081682007688 0.10253598369847031 0 0.02320798257890765 0.1047443639128517 0 0.017264926825327171 0.1093249123190818 0 0.01504081682007688 0.10253598369847031 0 0.0088228464681819972 0.10238366970120689 0 0.01151568020462046 0.1077378413705596 0 0.0058206420146291954 0.1114089238878985 0 0.017264926825327171 0.1093249123190818 0 0.01504081682007688 0.10253598369847031 0 0.01151568020462046 0.1077378413705596 0 0.01504081682007688 0.10253598369847031 0 0.0088228464681819972 0.10238366970120689 0 0.01151568020462046 0.1077378413705596 0 0.019584721545335231 0.095933386042030777 0 0.01504081682007688 0.10253598369847031 0 0.0096773837387348072 0.094713106344260181 0 0.01504081682007688 0.10253598369847031 0 0.0088228464681819972 0.10238366970120689 0 0.0096773837387348072 0.094713106344260181 0 0.0088228464681819972 0.10238366970120689 0 0.0096773837387348072 0.094713106344260181 0 0.0017142141577850001 0.096485027642689541 0 0.0088228464681819972 0.10238366970120689 0 0.0017142141577850001 0.096485027642689541 0 0.0058206420146291954 0.1114089238878985 0 0.0058206420146291954 0.1114089238878985 0 0.00039794405216867472 0.112072386291362 0 0.01360187540002143 0.11722717171449371 0 0.00039794405216867472 0.112072386291362 0 0.016633607451047409 0.12879447845417449 0 0.00039794405216867472 0.112072386291362 0 0.01360187540002143 0.11722717171449371 0 0.016633607451047409 0.12879447845417449 0 0.00039794405216867472 0.112072386291362 0 0.0010393500416724941 0.12595831854165979 0 0.016633607451047409 0.12879447845417449 0 0.01151568020462046 0.1077378413705596 0 0.0058206420146291954 0.1114089238878985 0 0.01360187540002143 0.11722717171449371 0 0.017264926825327171 0.1093249123190818 0 0.01151568020462046 0.1077378413705596 0 0.01360187540002143 0.11722717171449371 0 -0.0082797250895681185 0.13474448294352481 0 0.0010393500416724941 0.12595831854165979 0 0.01291562537333717 0.14373886088149129 0 0.0010393500416724941 0.12595831854165979 0 0.016633607451047409 0.12879447845417449 0 0.01291562537333717 0.14373886088149129 0 0.016633607451047409 0.12879447845417449 0 0.030096440749716711 0.14309687622970299 0 0.036209801575650402 0.12755429465012871 0 0.016633607451047409 0.12879447845417449 0 0.030096440749716711 0.14309687622970299 0 0.01291562537333717 0.14373886088149129 0 0.030096440749716711 0.14309687622970299 0 0.01291562537333717 0.14373886088149129 0 0.026789162612504271 0.15663130254031199 0 0.01291562537333717 0.14373886088149129 0 0.015650655317666261 0.15865613344587939 0 0.026789162612504271 0.15663130254031199 0 0.01291562537333717 0.14373886088149129 0 0.00151890392611572 0.15456094484017679 0 0.015650655317666261 0.15865613344587939 0 -0.0082797250895681185 0.13474448294352481 0 0.01291562537333717 0.14373886088149129 0 0.00151890392611572 0.15456094484017679 0 0.00151890392611572 0.15456094484017679 0 0.01131753294179963 0.17437740673682869 0 0.00151890392611572 0.15456094484017679 0 0.012386788017382491 0.1641388541230504 0 0.01131753294179963 0.17437740673682869 0 -0.0026654791677323511 0.16604552865166611 0 0.00151890392611572 0.15456094484017679 0 0.01131753294179963 0.17437740673682869 0 -0.0026654791677323511 0.16604552865166611 0 0.01131753294179963 0.17437740673682869 0 0.012386788017382491 0.1641388541230504 0 0.01131753294179963 0.17437740673682869 0 0.021060059883948341 0.16896093146931659 0 0.00151890392611572 0.15456094484017679 0 0.012386788017382491 0.1641388541230504 0 0.015650655317666261 0.15865613344587939 0 0.0072367552089822543 0.1840346549744645 0 0.003085550936940849 0.18695469644268639 0 0.007927604969267173 0.18944813828794729 0 0.0072367552089822543 0.1840346549744645 0 0.003085550936940849 0.18695469644268639 0 0.00053502205069707774 0.18188021690744111 0 -0.003081975793268537 0.18782002811878001 0 0.003085550936940849 0.18695469644268639 0 0.00053502205069707774 0.18188021690744111 0 0.0072367552089822543 0.1840346549744645 0 0.00053502205069707774 0.18188021690744111 0 0.0082701590199136289 0.17900500476799119 0 -0.0026654791677323511 0.16604552865166611 0 0.0024081860720475369 0.17557227428335351 0 0.01131753294179963 0.17437740673682869 0 0.0024081860720475369 0.17557227428335351 0 0.01131753294179963 0.17437740673682869 0 0.0082701590199136289 0.17900500476799119 0 0.00053502205069707774 0.18188021690744111 0 0.0024081860720475369 0.17557227428335351 0 0.0082701590199136289 0.17900500476799119 0 0.01131753294179963 0.17437740673682869 0 0.013543000689093809 0.1790660034635034 0 0.021389494149062459 0.18037885708243739 0 0.01131753294179963 0.17437740673682869 0 0.013543000689093809 0.1790660034635034 0 0.01131753294179963 0.17437740673682869 0 0.013543000689093809 0.1790660034635034 0 0.0082701590199136289 0.17900500476799119 0 0.013543000689093809 0.1790660034635034 0 0.0115175493401282 0.18523262863701309 0 0.016985704636488509 0.19275209946522329 0 0.0072367552089822543 0.1840346549744645 0 0.0082701590199136289 0.17900500476799119 0 0.0115175493401282 0.18523262863701309 0 0.013543000689093809 0.1790660034635034 0 0.0082701590199136289 0.17900500476799119 0 0.0115175493401282 0.18523262863701309 0 0.0072367552089822543 0.1840346549744645 0 0.0115175493401282 0.18523262863701309 0 0.007927604969267173 0.18944813828794729 0 0.021389494149062459 0.18037885708243739 0 0.039453436217199322 0.18340126598870379 0 0.013543000689093809 0.1790660034635034 0 0.021389494149062459 0.18037885708243739 0 0.02230428843080948 0.19662630733770359 0 0.013543000689093809 0.1790660034635034 0 0.021389494149062459 0.18037885708243739 0 0.01131753294179963 0.17437740673682869 0 0.021389494149062459 0.18037885708243739 0 0.01131753294179963 0.17437740673682869 0 0.021389494149062459 0.18037885708243739 0 0.021060059883948341 0.16896093146931659 0 0.021389494149062459 0.18037885708243739 0 0.021060059883948341 0.16896093146931659 0 0.034487576316221548 0.17006964541133651 0 0.021389494149062459 0.18037885708243739 0 0.036772518206031037 0.18954494233072339 0 0.012386788017382491 0.1641388541230504 0 0.015650655317666261 0.15865613344587939 0 0.021060059883948341 0.16896093146931659 0 0.015650655317666261 0.15865613344587939 0 0.021060059883948341 0.16896093146931659 0 0.026789162612504271 0.15663130254031199 0 0.021060059883948341 0.16896093146931659 0 0.026789162612504271 0.15663130254031199 0 0.034487576316221548 0.17006964541133651 0 0.026789162612504271 0.15663130254031199 0 0.034487576316221548 0.17006964541133651 0 0.046085208392249437 0.15020880948314461 0 0.034487576316221548 0.17006964541133651 0 0.049790080527993393 0.16878629006039211 0 0.046085208392249437 0.15020880948314461 0 0.021389494149062459 0.18037885708243739 0 0.039453436217199322 0.18340126598870379 0 0.036772518206031037 0.18954494233072339 0 0.021389494149062459 0.18037885708243739 0 0.034487576316221548 0.17006964541133651 0 0.039453436217199322 0.18340126598870379 0 0.034487576316221548 0.17006964541133651 0 0.039453436217199322 0.18340126598870379 0 0.049790080527993393 0.16878629006039211 0 0.039453436217199322 0.18340126598870379 0 0.057517378285335978 0.18642367489497111 0 0.049790080527993393 0.16878629006039211 0 0.057517378285335978 0.18642367489497111 0 0.06670876632053821 0.16536039993208129 0 0.039453436217199322 0.18340126598870379 0 0.057517378285335978 0.18642367489497111 0 0.039453436217199322 0.18340126598870379 0 0.057517378285335978 0.18642367489497111 0 0.046621016020550923 0.1898787739154234 0 0.057517378285335978 0.18642367489497111 0 0.049790080527993393 0.16878629006039211 0 0.06670876632053821 0.16536039993208129 0 0.056759789081437029 0.15816783404816359 0 0.049790080527993393 0.16878629006039211 0 0.06670876632053821 0.16536039993208129 0 0.056759789081437029 0.15816783404816359 0 0.049790080527993393 0.16878629006039211 0 0.046085208392249437 0.15020880948314461 0 0.056759789081437029 0.15816783404816359 0 0.046085208392249437 0.15020880948314461 0 0.06445510108496709 0.14831583671703669 0 0.054704645729867107 0.1303951701743557 0 0.046085208392249437 0.15020880948314461 0 0.06445510108496709 0.14831583671703669 0 0.054704645729867107 0.1303951701743557 0 0.046085208392249437 0.15020880948314461 0 0.054704645729867107 0.1303951701743557 0 0.036209801575650402 0.12755429465012871 0 0.046085208392249437 0.15020880948314461 0 0.030096440749716711 0.14309687622970299 0 0.036209801575650402 0.12755429465012871 0 0.046085208392249437 0.15020880948314461 0 0.030096440749716711 0.14309687622970299 0 0.026789162612504271 0.15663130254031199 0 0.046085208392249437 0.15020880948314461 0 0.02117589590128718 0.2395927914801684 0 0.012156823249103331 0.25259817100369902 0 0.030652172791378579 0.25229956247347313 0 0.02117589590128718 0.2395927914801684 0 0.034188277432347557 0.23988537883147459 0 0.030652172791378579 0.25229956247347313 0 0.02117589590128718 0.2395927914801684 0 0.030323397599499081 0.22959965211839081 0 0.034188277432347557 0.23988537883147459 0 -0.0082457657602449386 0.25246627485226031 0 -0.001965278602122185 0.24182690426762959 0 0.012156823249103331 0.25259817100369902 0 0.02117589590128718 0.2395927914801684 0 0.008579196815527634 0.23953031834541311 0 0.012156823249103331 0.25259817100369902 0 -0.001965278602122185 0.24182690426762959 0 0.008579196815527634 0.23953031834541311 0 0.012156823249103331 0.25259817100369902 0 -0.001965278602122185 0.24182690426762959 0 0.008579196815527634 0.23953031834541311 0 0.0010433620948100131 0.23240638127880581 0 0.02117589590128718 0.2395927914801684 0 0.008579196815527634 0.23953031834541311 0 0.01115565641706814 0.2303537873583584 0 0.008579196815527634 0.23953031834541311 0 0.01115565641706814 0.2303537873583584 0 0.0010433620948100131 0.23240638127880581 0 0.01115565641706814 0.2303537873583584 0 0.0010433620948100131 0.23240638127880581 0 0.0091084557899102862 0.2202403998025296 0 0.0010433620948100131 0.23240638127880581 0 0.0001093474821353509 0.22215689039817851 0 0.0091084557899102862 0.2202403998025296 0 0.01115565641706814 0.2303537873583584 0 0.0091084557899102862 0.2202403998025296 0 0.016496999093422449 0.223541986747673 0 0.0091084557899102862 0.2202403998025296 0 0.016496999093422449 0.223541986747673 0 0.01612020317490017 0.2152275371535412 0 0.016496999093422449 0.223541986747673 0 0.02147394042148347 0.23028557103733549 0 0.024626739663750161 0.22160263838659999 0 0.016496999093422449 0.223541986747673 0 0.024626739663750161 0.22160263838659999 0 0.01612020317490017 0.2152275371535412 0 0.01115565641706814 0.2303537873583584 0 0.016496999093422449 0.223541986747673 0 0.02147394042148347 0.23028557103733549 0 0.02117589590128718 0.2395927914801684 0 0.01115565641706814 0.2303537873583584 0 0.02147394042148347 0.23028557103733549 0 0.02147394042148347 0.23028557103733549 0 0.030323397599499081 0.22959965211839081 0 0.024626739663750161 0.22160263838659999 0 0.02117589590128718 0.2395927914801684 0 0.02147394042148347 0.23028557103733549 0 0.030323397599499081 0.22959965211839081 0 0.024626739663750161 0.22160263838659999 0 0.027508903383077599 0.21474836631904051 0 0.034268755792753257 0.2207932912834846 0 0.030323397599499081 0.22959965211839081 0 0.024626739663750161 0.22160263838659999 0 0.034268755792753257 0.2207932912834846 0 0.027508903383077599 0.21474836631904051 0 0.023943201944243639 0.1999111919537408 0 0.034268755792753257 0.2207932912834846 0 0.023943201944243639 0.1999111919537408 0 0.034268755792753257 0.2207932912834846 0 0.027508903383077599 0.21474836631904051 0 0.023922045305692211 0.20684028787671799 0 0.022699459496289199 0.2141990688659105 0 0.024626739663750161 0.22160263838659999 0 0.027508903383077599 0.21474836631904051 0 0.022699459496289199 0.2141990688659105 0 0.027508903383077599 0.21474836631904051 0 0.023922045305692211 0.20684028787671799 0 0.023943201944243639 0.1999111919537408 0 0.01896544066016782 0.20973745132843891 0 0.01612020317490017 0.2152275371535412 0 0.013247665380499421 0.20734461508933349 0 0.023922045305692211 0.20684028787671799 0 0.01896544066016782 0.20973745132843891 0 0.022699459496289199 0.2141990688659105 0 0.023922045305692211 0.20684028787671799 0 0.021734838082019509 0.20302577286306159 0 0.023943201944243639 0.1999111919537408 0 0.023922045305692211 0.20684028787671799 0 0.018650848458870179 0.20436341187488569 0 0.021734838082019509 0.20302577286306159 0 0.023922045305692211 0.20684028787671799 0 0.018650848458870179 0.20436341187488569 0 0.01896544066016782 0.20973745132843891 0 0.018650848458870179 0.20436341187488569 0 0.01896544066016782 0.20973745132843891 0 0.013247665380499421 0.20734461508933349 0 0.024626739663750161 0.22160263838659999 0 0.022699459496289199 0.2141990688659105 0 0.01612020317490017 0.2152275371535412 0 0.01896544066016782 0.20973745132843891 0 0.022699459496289199 0.2141990688659105 0 0.01612020317490017 0.2152275371535412 0 0.01612020317490017 0.2152275371535412 0 0.0085100262700745465 0.21094865931476009 0 0.013247665380499421 0.20734461508933349 0 0.0091084557899102862 0.2202403998025296 0 0.01612020317490017 0.2152275371535412 0 0.0085100262700745465 0.21094865931476009 0 0.0001093474821353509 0.22215689039817851 0 0.0091084557899102862 0.2202403998025296 0 0.00083142932333707279 0.21381627434491049 0 0.0091084557899102862 0.2202403998025296 0 0.0085100262700745465 0.21094865931476009 0 0.00083142932333707279 0.21381627434491049 0 0.0085100262700745465 0.21094865931476009 0 0.00083142932333707279 0.21381627434491049 0 0.0029581381265264858 0.20519393183106241 0 0.0085100262700745465 0.21094865931476009 0 0.0029581381265264858 0.20519393183106241 0 0.0087942658252738396 0.20386919766718339 0 0.0029581381265264858 0.20519393183106241 0 0.0087942658252738396 0.20386919766718339 0 0.0056326315351633537 0.2004899601979887 0 0.0085100262700745465 0.21094865931476009 0 0.0087942658252738396 0.20386919766718339 0 0.013247665380499421 0.20734461508933349 0 0.0087942658252738396 0.20386919766718339 0 0.013247665380499421 0.20734461508933349 0 0.013927284278231049 0.2027684573698135 0 0.018650848458870179 0.20436341187488569 0 0.013247665380499421 0.20734461508933349 0 0.013927284278231049 0.2027684573698135 0 0.013927284278231049 0.2027684573698135 0 0.010260103200158849 0.1991700010832006 0 0.016231602148303749 0.1987520895161983 0 0.010260103200158849 0.1991700010832006 0 0.01183675088797494 0.19419665586736051 0 0.016231602148303749 0.1987520895161983 0 0.010260103200158849 0.1991700010832006 0 0.0061740732670114221 0.19541611365695169 0 0.01183675088797494 0.19419665586736051 0 0.0087942658252738396 0.20386919766718339 0 0.010260103200158849 0.1991700010832006 0 0.0056326315351633537 0.2004899601979887 0 0.0087942658252738396 0.20386919766718339 0 0.013927284278231049 0.2027684573698135 0 0.010260103200158849 0.1991700010832006 0 0.010260103200158849 0.1991700010832006 0 0.0056326315351633537 0.2004899601979887 0 0.0061740732670114221 0.19541611365695169 0 -2.3422743153838069e-05 0.1988005567515452 0 0.0056326315351633537 0.2004899601979887 0 0.0061740732670114221 0.19541611365695169 0 -2.3422743153838069e-05 0.1988005567515452 0 0.0029581381265264858 0.20519393183106241 0 0.0056326315351633537 0.2004899601979887 0 -0.003081975793268537 0.18782002811878001 0 0.003085550936940849 0.18695469644268639 0 0.0015327128313205251 0.1915709431207247 0 -2.3422743153838069e-05 0.1988005567515452 0 0.0061740732670114221 0.19541611365695169 0 0.0015327128313205251 0.1915709431207247 0 0.0061740732670114221 0.19541611365695169 0 0.0015327128313205251 0.1915709431207247 0 0.007927604969267173 0.18944813828794729 0 0.003085550936940849 0.18695469644268639 0 0.0015327128313205251 0.1915709431207247 0 0.007927604969267173 0.18944813828794729 0 0.007927604969267173 0.18944813828794729 0 0.01183675088797494 0.19419665586736051 0 0.012456110925155389 0.1902446129755902 0 0.0115175493401282 0.18523262863701309 0 0.007927604969267173 0.18944813828794729 0 0.012456110925155389 0.1902446129755902 0 0.0061740732670114221 0.19541611365695169 0 0.007927604969267173 0.18944813828794729 0 0.01183675088797494 0.19419665586736051 0 0.01183675088797494 0.19419665586736051 0 0.012456110925155389 0.1902446129755902 0 0.016985704636488509 0.19275209946522329 0 0.01183675088797494 0.19419665586736051 0 0.016985704636488509 0.19275209946522329 0 0.016231602148303749 0.1987520895161983 0 0.0115175493401282 0.18523262863701309 0 0.012456110925155389 0.1902446129755902 0 0.016985704636488509 0.19275209946522329 0 0.021389494149062459 0.18037885708243739 0 0.02230428843080948 0.19662630733770359 0 0.036772518206031037 0.18954494233072339 0 0.013543000689093809 0.1790660034635034 0 0.02230428843080948 0.19662630733770359 0 0.013543000689093809 0.1790660034635034 0 0.016985704636488509 0.19275209946522329 0 0.02230428843080948 0.19662630733770359 0 0.016985704636488509 0.19275209946522329 0 0.019428477636303031 0.19812266709439569 0 0.016231602148303749 0.1987520895161983 0 0.019428477636303031 0.19812266709439569 0 0.016231602148303749 0.1987520895161983 0 0.020423256619271999 0.20098819974690199 0 0.018650848458870179 0.20436341187488569 0 0.016231602148303749 0.1987520895161983 0 0.020423256619271999 0.20098819974690199 0 0.018650848458870179 0.20436341187488569 0 0.013927284278231049 0.2027684573698135 0 0.016231602148303749 0.1987520895161983 0 0.019428477636303031 0.19812266709439569 0 0.020423256619271999 0.20098819974690199 0 0.023943201944243639 0.1999111919537408 0 0.018650848458870179 0.20436341187488569 0 0.020423256619271999 0.20098819974690199 0 0.021734838082019509 0.20302577286306159 0 0.020423256619271999 0.20098819974690199 0 0.021734838082019509 0.20302577286306159 0 0.023943201944243639 0.1999111919537408 0 0.016985704636488509 0.19275209946522329 0 0.02230428843080948 0.19662630733770359 0 0.023943201944243639 0.1999111919537408 0 0.016985704636488509 0.19275209946522329 0 0.019428477636303031 0.19812266709439569 0 0.023943201944243639 0.1999111919537408 0 0.02230428843080948 0.19662630733770359 0 0.023943201944243639 0.1999111919537408 0 0.02230428843080948 0.19662630733770359 0 0.023943201944243639 0.1999111919537408 0 0.035957366435008513 0.20647473970990701 0 0.02230428843080948 0.19662630733770359 0 0.050897121833006063 0.20159486356051531 0 0.035957366435008513 0.20647473970990701 0 0.02230428843080948 0.19662630733770359 0 0.036772518206031037 0.18954494233072339 0 0.050897121833006063 0.20159486356051531 0 0.02230428843080948 0.19662630733770359 0 0.050897121833006063 0.20159486356051531 0 0.036772518206031037 0.18954494233072339 0 0.050897121833006063 0.20159486356051531 0 0.052155542262999663 0.1987110275790093 0 0.036772518206031037 0.18954494233072339 0 0.052155542262999663 0.1987110275790093 0 0.036772518206031037 0.18954494233072339 0 0.046621016020550923 0.1898787739154234 0 0.052155542262999663 0.1987110275790093 0 0.039453436217199322 0.18340126598870379 0 0.036772518206031037 0.18954494233072339 0 0.046621016020550923 0.1898787739154234 0 0.057517378285335978 0.18642367489497111 0 0.046621016020550923 0.1898787739154234 0 0.052155542262999663 0.1987110275790093 0 0.057517378285335978 0.18642367489497111 0 0.052155542262999663 0.1987110275790093 0 0.057517378285335978 0.18642367489497111 0 0.057090951257530269 0.197109929087698 0 0.052155542262999663 0.1987110275790093 0 0.057517378285335978 0.18642367489497111 0 0.060667890749981898 0.1933513013873914 0 0.057090951257530269 0.197109929087698 0 0.060667890749981898 0.1933513013873914 0 0.057090951257530269 0.197109929087698 0 0.058031923789004708 0.2022125116707813 0 0.060667890749981898 0.1933513013873914 0 0.058031923789004708 0.2022125116707813 0 0.060667890749981898 0.1933513013873914 0 0.058031923789004708 0.2022125116707813 0 0.059673977213942478 0.20319094098477611 0 0.058031923789004708 0.2022125116707813 0 0.059673977213942478 0.20319094098477611 0 0.057090951257530269 0.197109929087698 0 0.058031923789004708 0.2022125116707813 0 0.052155542262999663 0.1987110275790093 0 0.058031923789004708 0.2022125116707813 0 0.052155542262999663 0.1987110275790093 0 0.058031923789004708 0.2022125116707813 0 0.050897121833006063 0.20159486356051531 0 0.052155542262999663 0.1987110275790093 0 0.058031923789004708 0.2022125116707813 0 0.050897121833006063 0.20159486356051531 0 0.050897121833006063 0.20159486356051531 0 0.052155542262999663 0.1987110275790093 0 0.050897121833006063 0.20159486356051531 0 0.042542699632676838 0.22074012119599501 0 0.053005439111290922 0.21910981667301421 0 0.058031923789004708 0.2022125116707813 0 0.050897121833006063 0.20159486356051531 0 0.053005439111290922 0.21910981667301421 0 0.058031923789004708 0.2022125116707813 0 0.053005439111290922 0.21910981667301421 0 0.058031923789004708 0.2022125116707813 0 0.061718375040706958 0.21244198365854619 0 0.053005439111290922 0.21910981667301421 0 0.058031923789004708 0.2022125116707813 0 0.059673977213942478 0.20319094098477611 0 0.061718375040706958 0.21244198365854619 0 0.061718375040706958 0.21244198365854619 0 0.053005439111290922 0.21910981667301421 0 0.062081063031912492 0.22413796841031719 0 0.050897121833006063 0.20159486356051531 0 0.042542699632676838 0.22074012119599501 0 0.023943201944243639 0.1999111919537408 0 0.035957366435008513 0.20647473970990701 0 0.034268755792753257 0.2207932912834846 0 0.050897121833006063 0.20159486356051531 0 0.038363073609551428 0.21412918370060571 0 0.042542699632676838 0.22074012119599501 0 0.050897121833006063 0.20159486356051531 0 0.035957366435008513 0.20647473970990701 0 0.038363073609551428 0.21412918370060571 0 0.038363073609551428 0.21412918370060571 0 0.034268755792753257 0.2207932912834846 0 0.042542699632676838 0.22074012119599501 0 0.035957366435008513 0.20647473970990701 0 0.038363073609551428 0.21412918370060571 0 0.034268755792753257 0.2207932912834846 0 0.042542699632676838 0.22074012119599501 0 0.034188277432347557 0.23988537883147459 0 0.042542699632676838 0.22074012119599501 0 0.04817080422001134 0.23536218897101929 0 0.044937254539659167 0.2379713478153713 0 0.030323397599499081 0.22959965211839081 0 0.042542699632676838 0.22074012119599501 0 0.034188277432347557 0.23988537883147459 0 0.042542699632676838 0.22074012119599501 0 0.044937254539659167 0.2379713478153713 0 0.034188277432347557 0.23988537883147459 0 0.030323397599499081 0.22959965211839081 0 0.034268755792753257 0.2207932912834846 0 0.042542699632676838 0.22074012119599501 0 0.053005439111290922 0.21910981667301421 0 0.04817080422001134 0.23536218897101929 0 0.053005439111290922 0.21910981667301421 0 0.062081063031912492 0.22413796841031719 0 0.04817080422001134 0.23536218897101929 0 0.062081063031912492 0.22413796841031719 0 0.04817080422001134 0.23536218897101929 0 0.059531729096570118 0.24099028160929839 0 0.042542699632676838 0.22074012119599501 0 0.053005439111290922 0.21910981667301421 0 0.04817080422001134 0.23536218897101929 0 0.062081063031912492 0.22413796841031719 0 0.04817080422001134 0.23536218897101929 0 0.04817080422001134 0.23536218897101929 0 0.052294646587479003 0.2493466198794505 0 0.04073495957405681 0.26035892983227987 0 0.04817080422001134 0.23536218897101929 0 0.059531729096570118 0.24099028160929839 0 0.052294646587479003 0.2493466198794505 0 0.059531729096570118 0.24099028160929839 0 0.067445722382230539 0.24771064348785149 0 0.06034442261467237 0.25120339486286308 0 0.059531729096570118 0.24099028160929839 0 0.052294646587479003 0.2493466198794505 0 0.06034442261467237 0.25120339486286308 0 0.04817080422001134 0.23536218897101929 0 0.04073495957405681 0.26035892983227987 0 0.04817080422001134 0.23536218897101929 0 0.044937254539659167 0.2379713478153713 0 0.04073495957405681 0.26035892983227987 0 0.04817080422001134 0.23536218897101929 0 0.044937254539659167 0.2379713478153713 0 0.044937254539659167 0.2379713478153713 0 0.034188277432347557 0.23988537883147459 0 0.030652172791378579 0.25229956247347313 0 0.085975255819246227 0.24304742420893821 0 0.091760355399887042 0.24149966876957779 0 0.085886262968569133 0.25948379364412733 0 0.091760355399887042 0.24149966876957779 0 0.10166443252893551 0.23659000017624271 0 0.085886262968569133 0.25948379364412733 0 0.085975255819246227 0.24304742420893821 0 0.091760355399887042 0.24149966876957779 0 0.090327239942362525 0.2312920649275291 0 0.085975255819246227 0.24304742420893821 0 0.075396639696560977 0.24390878816167419 0 0.077103558767455421 0.230534611802553 0 0.085975255819246227 0.24304742420893821 0 0.077103558767455421 0.230534611802553 0 0.090327239942362525 0.2312920649275291 0 0.085975255819246227 0.24304742420893821 0 0.075396639696560977 0.24390878816167419 0 0.080478695998155714 0.25165019938018113 0 0.075396639696560977 0.24390878816167419 0 0.074707437689247702 0.25389633834412328 0 0.080478695998155714 0.25165019938018113 0 0.075396639696560977 0.24390878816167419 0 0.067445722382230539 0.24771064348785149 0 0.068934414955804643 0.23628801399858909 0 0.075396639696560977 0.24390878816167419 0 0.067445722382230539 0.24771064348785149 0 0.074707437689247702 0.25389633834412328 0 0.059531729096570118 0.24099028160929839 0 0.067445722382230539 0.24771064348785149 0 0.068934414955804643 0.23628801399858909 0 0.075396639696560977 0.24390878816167419 0 0.068934414955804643 0.23628801399858909 0 0.077103558767455421 0.230534611802553 0 0.062081063031912492 0.22413796841031719 0 0.059531729096570118 0.24099028160929839 0 0.068934414955804643 0.23628801399858909 0 0.062081063031912492 0.22413796841031719 0 0.077103558767455421 0.230534611802553 0 0.077696208689423979 0.21392961690810641 0 0.077103558767455421 0.230534611802553 0 0.077696208689423979 0.21392961690810641 0 0.062081063031912492 0.22413796841031719 0 0.068934414955804643 0.23628801399858909 0 0.077103558767455421 0.230534611802553 0 0.077103558767455421 0.230534611802553 0 0.086723057100410644 0.21930832929599969 0 0.077696208689423979 0.21392961690810641 0 0.077103558767455421 0.230534611802553 0 0.090327239942362525 0.2312920649275291 0 0.086723057100410644 0.21930832929599969 0 0.090327239942362525 0.2312920649275291 0 0.086723057100410644 0.21930832929599969 0 0.099258091607832458 0.22228701345730209 0 0.08282365066700062 0.20740072564839451 0 0.1001331263781514 0.21054846617837791 0 0.08282365066700062 0.20740072564839451 0 0.0830920941513177 0.21288940176841251 0 0.1001331263781514 0.21054846617837791 0 0.086723057100410644 0.21930832929599969 0 0.0830920941513177 0.21288940176841251 0 0.1001331263781514 0.21054846617837791 0 0.08282365066700062 0.20740072564839451 0 0.077960793866212394 0.2065164116634538 0 0.08282365066700062 0.20740072564839451 0 0.07778409662064556 0.21146715366449201 0 0.077960793866212394 0.2065164116634538 0 0.08282365066700062 0.20740072564839451 0 0.0830920941513177 0.21288940176841251 0 0.07778409662064556 0.21146715366449201 0 0.08282365066700062 0.20740072564839451 0 0.07778409662064556 0.21146715366449201 0 0.086723057100410644 0.21930832929599969 0 0.077696208689423979 0.21392961690810641 0 0.086723057100410644 0.21930832929599969 0 0.0830920941513177 0.21288940176841251 0 0.077696208689423979 0.21392961690810641 0 0.0830920941513177 0.21288940176841251 0 0.07778409662064556 0.21146715366449201 0 0.077696208689423979 0.21392961690810641 0 0.059673977213942478 0.20319094098477611 0 0.077960793866212394 0.2065164116634538 0 0.062081063031912492 0.22413796841031719 0 0.077696208689423979 0.21392961690810641 0 0.075991321843812007 0.21291374784961289 0 0.059673977213942478 0.20319094098477611 0 0.075991321843812007 0.21291374784961289 0 0.059673977213942478 0.20319094098477611 0 0.061718375040706958 0.21244198365854619 0 0.075991321843812007 0.21291374784961289 0 0.059673977213942478 0.20319094098477611 0 0.075991321843812007 0.21291374784961289 0 0.077960793866212394 0.2065164116634538 0 0.07778409662064556 0.21146715366449201 0 0.077696208689423979 0.21392961690810641 0 0.075991321843812007 0.21291374784961289 0 0.07778409662064556 0.21146715366449201 0 0.077696208689423979 0.21392961690810641 0 0.07778409662064556 0.21146715366449201 0 0.075991321843812007 0.21291374784961289 0 0.077696208689423979 0.21392961690810641 0 0.075991321843812007 0.21291374784961289 0 0.062081063031912492 0.22413796841031719 0 0.075991321843812007 0.21291374784961289 0 0.061718375040706958 0.21244198365854619 0 0.062081063031912492 0.22413796841031719 0 0.075991321843812007 0.21291374784961289 0 0.07778409662064556 0.21146715366449201 0 0.075991321843812007 0.21291374784961289 0 0.077960793866212394 0.2065164116634538 0 0.07778409662064556 0.21146715366449201 0 0.077960793866212394 0.2065164116634538 0 0.060667890749981898 0.1933513013873914 0 0.069391780603767286 0.1985353247034998 0 0.078552310067739675 0.1899431815963343 0 0.059673977213942478 0.20319094098477611 0 0.077960793866212394 0.2065164116634538 0 0.069391780603767286 0.1985353247034998 0 0.057517378285335978 0.18642367489497111 0 0.060667890749981898 0.1933513013873914 0 0.078552310067739675 0.1899431815963343 0 0.077960793866212394 0.2065164116634538 0 0.069391780603767286 0.1985353247034998 0 0.078552310067739675 0.1899431815963343 0 0.057517378285335978 0.18642367489497111 0 0.078552310067739675 0.1899431815963343 0 0.060667890749981898 0.1933513013873914 0 0.059673977213942478 0.20319094098477611 0 0.069391780603767286 0.1985353247034998 0 0.077960793866212394 0.2065164116634538 0 0.078552310067739675 0.1899431815963343 0 0.08282365066700062 0.20740072564839451 0 0.078552310067739675 0.1899431815963343 0 0.1000095862482286 0.19353335379614581 0 0.08282365066700062 0.20740072564839451 0 0.077960793866212394 0.2065164116634538 0 0.078552310067739675 0.1899431815963343 0 0.08282365066700062 0.20740072564839451 0 0.1000095862482286 0.19353335379614581 0 0.078552310067739675 0.1899431815963343 0 0.1000095862482286 0.19353335379614581 0 0.1000095862482286 0.19353335379614581 0 0.1119621855324581 0.18388877331391679 0 0.1119621855324581 0.18388877331391679 0 0.12809949413598259 0.1982332796183166 0 0.12623709760602039 0.18867627876683751 0 0.1000095862482286 0.19353335379614581 0 0.12809949413598259 0.1982332796183166 0 0.1000095862482286 0.19353335379614581 0 0.1174426020893027 0.21369620670835879 0 0.12809949413598259 0.1982332796183166 0 0.1000095862482286 0.19353335379614581 0 0.1119621855324581 0.18388877331391679 0 0.12809949413598259 0.1982332796183166 0 0.1174426020893027 0.21369620670835879 0 0.12809949413598259 0.1982332796183166 0 0.1174426020893027 0.21369620670835879 0 0.13079881134157489 0.21612504290720769 0 0.1174426020893027 0.21369620670835879 0 0.1001331263781514 0.21054846617837791 0 0.1000095862482286 0.19353335379614581 0 0.1174426020893027 0.21369620670835879 0 0.1001331263781514 0.21054846617837791 0 0.08282365066700062 0.20740072564839451 0 0.1000095862482286 0.19353335379614581 0 0.1001331263781514 0.21054846617837791 0 0.1174426020893027 0.21369620670835879 0 0.1001331263781514 0.21054846617837791 0 0.099258091607832458 0.22228701345730209 0 0.086723057100410644 0.21930832929599969 0 0.1001331263781514 0.21054846617837791 0 0.099258091607832458 0.22228701345730209 0 0.1174426020893027 0.21369620670835879 0 0.099258091607832458 0.22228701345730209 0 0.10166443252893551 0.23659000017624271 0 0.090327239942362525 0.2312920649275291 0 0.099258091607832458 0.22228701345730209 0 0.10166443252893551 0.23659000017624271 0 0.11193009187841341 0.23778907333103991 0 0.1233060832280653 0.2372070654073864 0 0.13079881134157489 0.21612504290720769 0 0.1174426020893027 0.21369620670835879 0 0.11193009187841341 0.23778907333103991 0 0.10166443252893551 0.23659000017624271 0 0.1174426020893027 0.21369620670835879 0 0.11193009187841341 0.23778907333103991 0 0.13079881134157489 0.21612504290720769 0 0.11193009187841341 0.23778907333103991 0 0.13079881134157489 0.21612504290720769 0 0.1174426020893027 0.21369620670835879 0 0.10166443252893551 0.23659000017624271 0 0.11193009187841341 0.23778907333103991 0 0.1233060832280653 0.2372070654073864 0 0.1152979079485152 0.2467056018988516 0 0.1233060832280653 0.2372070654073864 0 0.1152979079485152 0.2467056018988516 0 0.1250676346401875 0.24796443701554319 0 0.11193009187841341 0.23778907333103991 0 0.1152979079485152 0.2467056018988516 0 0.10650461767427161 0.25132517155921902 0 0.11193009187841341 0.23778907333103991 0 0.10166443252893551 0.23659000017624271 0 0.093061372415253377 0.25945310375487363 0 0.10166443252893551 0.23659000017624271 0 0.085886262968569133 0.25948379364412733 0 0.11193009187841341 0.23778907333103991 0 0.093061372415253377 0.25945310375487363 0 0.11193009187841341 0.23778907333103991 0 0.093061372415253377 0.25945310375487363 0 0.10650461767427161 0.25132517155921902 0 0.091760355399887042 0.24149966876957779 0 0.090327239942362525 0.2312920649275291 0 0.10166443252893551 0.23659000017624271 0 0.08022281403025916 0.14313863688857029 0 0.093167312330706492 0.16073073013935579 0 0.097579150219516186 0.1459852772673329 0 0.08022281403025916 0.14313863688857029 0 0.079387562048995053 0.16654090924245221 0 0.08022281403025916 0.14313863688857029 0 0.097579150219516186 0.1459852772673329 0 0.098136173783193614 0.12855261503670501 0 0.081058066011519173 0.11973636453468819 0 0.08022281403025916 0.14313863688857029 0 0.081058066011519173 0.11973636453468819 0 0.08022281403025916 0.14313863688857029 0 0.098136173783193614 0.12855261503670501 0 0.054704645729867107 0.1303951701743557 0 0.068402942841081005 0.12865021266463919 0 0.06445510108496709 0.14831583671703669 0 0.081058066011519173 0.11973636453468819 0 0.08022281403025916 0.14313863688857029 0 0.068402942841081005 0.12865021266463919 0 0.08022281403025916 0.14313863688857029 0 0.068402942841081005 0.12865021266463919 0 0.06445510108496709 0.14831583671703669 0 0.08022281403025916 0.14313863688857029 0 0.06445510108496709 0.14831583671703669 0 0.079387562048995053 0.16654090924245221 0 0.06445510108496709 0.14831583671703669 0 0.06670876632053821 0.16536039993208129 0 0.079387562048995053 0.16654090924245221 0 0.056759789081437029 0.15816783404816359 0 0.06445510108496709 0.14831583671703669 0 0.06670876632053821 0.16536039993208129 0 0.06670876632053821 0.16536039993208129 0 0.071220178094475839 0.177519435916074 0 0.079387562048995053 0.16654090924245221 0 0.078552310067739675 0.1899431815963343 0 0.071220178094475839 0.177519435916074 0 0.079387562048995053 0.16654090924245221 0 0.057517378285335978 0.18642367489497111 0 0.078552310067739675 0.1899431815963343 0 0.071220178094475839 0.177519435916074 0 0.057517378285335978 0.18642367489497111 0 0.06670876632053821 0.16536039993208129 0 0.071220178094475839 0.177519435916074 0 0.078552310067739675 0.1899431815963343 0 0.079387562048995053 0.16654090924245221 0 0.078552310067739675 0.1899431815963343 0 0.079387562048995053 0.16654090924245221 0 0.094656188726405799 0.1772984468475671 0 0.078552310067739675 0.1899431815963343 0 0.1000095862482286 0.19353335379614581 0 0.094656188726405799 0.1772984468475671 0 0.079387562048995053 0.16654090924245221 0 0.093167312330706492 0.16073073013935579 0 0.094656188726405799 0.1772984468475671 0 0.08022281403025916 0.14313863688857029 0 0.079387562048995053 0.16654090924245221 0 0.093167312330706492 0.16073073013935579 0 0.093167312330706492 0.16073073013935579 0 0.1051682117550992 0.16863341283049499 0 0.094656188726405799 0.1772984468475671 0 0.093167312330706492 0.16073073013935579 0 0.1051682117550992 0.16863341283049499 0 0.10738037989590581 0.15691718048007991 0 0.1051682117550992 0.16863341283049499 0 0.094656188726405799 0.1772984468475671 0 0.1119621855324581 0.18388877331391679 0 0.1000095862482286 0.19353335379614581 0 0.094656188726405799 0.1772984468475671 0 0.1119621855324581 0.18388877331391679 0 0.1051682117550992 0.16863341283049499 0 0.1119621855324581 0.18388877331391679 0 0.1176573055604207 0.16965843036111 0 0.1119621855324581 0.18388877331391679 0 0.1176573055604207 0.16965843036111 0 0.12502668500631101 0.18003223183350331 0 0.1119621855324581 0.18388877331391679 0 0.12502668500631101 0.18003223183350331 0 0.12623709760602039 0.18867627876683751 0 0.10738037989590581 0.15691718048007991 0 0.1176573055604207 0.16965843036111 0 0.1263510041100718 0.15412713222648239 0 0.1051682117550992 0.16863341283049499 0 0.10738037989590581 0.15691718048007991 0 0.1176573055604207 0.16965843036111 0 0.10738037989590581 0.15691718048007991 0 0.1089890710575158 0.14058722379195329 0 0.1263510041100718 0.15412713222648239 0 0.1089890710575158 0.14058722379195329 0 0.1243116374868449 0.136850619307404 0 0.1263510041100718 0.15412713222648239 0 0.10738037989590581 0.15691718048007991 0 0.097579150219516186 0.1459852772673329 0 0.1089890710575158 0.14058722379195329 0 0.093167312330706492 0.16073073013935579 0 0.10738037989590581 0.15691718048007991 0 0.097579150219516186 0.1459852772673329 0 0.097579150219516186 0.1459852772673329 0 0.1089890710575158 0.14058722379195329 0 0.098136173783193614 0.12855261503670501 0 0.11707998843366239 0.12090166170324231 0 0.1089890710575158 0.14058722379195329 0 0.098136173783193614 0.12855261503670501 0 0.11707998843366239 0.12090166170324231 0 0.1089890710575158 0.14058722379195329 0 0.1243116374868449 0.136850619307404 0 0.11707998843366239 0.12090166170324231 0 0.1243116374868449 0.136850619307404 0 0.14061487869327599 0.12738787364596069 0 0.1243116374868449 0.136850619307404 0 0.14061487869327599 0.12738787364596069 0 0.1450893294801871 0.15084825440961219 0 0.14061487869327599 0.12738787364596069 0 0.1450893294801871 0.15084825440961219 0 0.16208469833826319 0.13464304631642149 0 0.1450893294801871 0.15084825440961219 0 0.16208469833826319 0.13464304631642149 0 0.1243116374868449 0.136850619307404 0 0.1450893294801871 0.15084825440961219 0 0.1263510041100718 0.15412713222648239 0 0.1450893294801871 0.15084825440961219 0 0.1263510041100718 0.15412713222648239 0 0.13434892063135129 0.1709012650253654 0 0.1176573055604207 0.16965843036111 0 0.1263510041100718 0.15412713222648239 0 0.13434892063135129 0.1709012650253654 0 0.1176573055604207 0.16965843036111 0 0.13434892063135129 0.1709012650253654 0 0.12502668500631101 0.18003223183350331 0 0.12502668500631101 0.18003223183350331 0 0.13317066441191511 0.18549658195139779 0 0.12623709760602039 0.18867627876683751 0 0.13434892063135129 0.1709012650253654 0 0.12502668500631101 0.18003223183350331 0 0.13317066441191511 0.18549658195139779 0 0.13434892063135129 0.1709012650253654 0 0.13317066441191511 0.18549658195139779 0 0.14289571148574401 0.18421669799074539 0 0.13434892063135129 0.1709012650253654 0 0.14289571148574401 0.18421669799074539 0 0.15014598838012391 0.16812378435884931 0 0.14289571148574401 0.18421669799074539 0 0.15014598838012391 0.16812378435884931 0 0.16340295837154781 0.17869074671240681 0 0.1450893294801871 0.15084825440961219 0 0.15014598838012391 0.16812378435884931 0 0.17025484901730581 0.156442106610301 0 0.1450893294801871 0.15084825440961219 0 0.13434892063135129 0.1709012650253654 0 0.15014598838012391 0.16812378435884931 0 0.15014598838012391 0.16812378435884931 0 0.17025484901730581 0.156442106610301 0 0.16340295837154781 0.17869074671240681 0 0.17025484901730581 0.156442106610301 0 0.16340295837154781 0.17869074671240681 0 0.18344157371591241 0.18406997535271 0 0.17025484901730581 0.156442106610301 0 0.18344157371591241 0.18406997535271 0 0.1981233639171355 0.16578679509823521 0 0.17025484901730581 0.156442106610301 0 0.1886017155567373 0.14211231666073301 0 0.1981233639171355 0.16578679509823521 0 0.17025484901730581 0.156442106610301 0 0.16208469833826319 0.13464304631642149 0 0.1886017155567373 0.14211231666073301 0 0.1886017155567373 0.14211231666073301 0 0.1790800671963392 0.1184378382232308 0 0.16208469833826319 0.13464304631642149 0 0.1886017155567373 0.14211231666073301 0 0.1790800671963392 0.1184378382232308 0 0.19325819231563421 0.12959887947710741 0 0.1886017155567373 0.14211231666073301 0 0.1790800671963392 0.1184378382232308 0 0.16208469833826319 0.13464304631642149 0 0.1790800671963392 0.1184378382232308 0 0.1450893294801871 0.15084825440961219 0 0.17025484901730581 0.156442106610301 0 0.16208469833826319 0.13464304631642149 0 0.1514273965657848 0.24085309905483679 0 0.13478444466321229 0.23767678351231611 0 0.14386495534927929 0.22895205141331151 0 0.1514273965657848 0.24085309905483679 0 0.13478444466321229 0.23767678351231611 0 0.1384713120865835 0.25773302092121009 0 0.1250676346401875 0.24796443701554319 0 0.13478444466321229 0.23767678351231611 0 0.1384713120865835 0.25773302092121009 0 0.1233060832280653 0.2372070654073864 0 0.1250676346401875 0.24796443701554319 0 0.13478444466321229 0.23767678351231611 0 0.1233060832280653 0.2372070654073864 0 0.13478444466321229 0.23767678351231611 0 0.13079881134157489 0.21612504290720769 0 0.13478444466321229 0.23767678351231611 0 0.14386495534927929 0.22895205141331151 0 0.13079881134157489 0.21612504290720769 0 0.14386495534927929 0.22895205141331151 0 0.13079881134157489 0.21612504290720769 0 0.15844916882654519 0.22115328017888419 0 0.1514273965657848 0.24085309905483679 0 0.14386495534927929 0.22895205141331151 0 0.15844916882654519 0.22115328017888419 0 0.13079881134157489 0.21612504290720769 0 0.15844916882654519 0.22115328017888419 0 0.13079881134157489 0.21612504290720769 0 0.14405659807402271 0.2009031781863346 0 0.15844916882654519 0.22115328017888419 0 0.13079881134157489 0.21612504290720769 0 0.12809949413598259 0.1982332796183166 0 0.14405659807402271 0.2009031781863346 0 0.1174426020893027 0.21369620670835879 0 0.13079881134157489 0.21612504290720769 0 0.12809949413598259 0.1982332796183166 0 0.13079881134157489 0.21612504290720769 0 0.14405659807402271 0.2009031781863346 0 0.12809949413598259 0.1982332796183166 0 0.14405659807402271 0.2009031781863346 0 0.12809949413598259 0.1982332796183166 0 0.1377541084679488 0.19338203871321119 0 0.14405659807402271 0.2009031781863346 0 0.12809949413598259 0.1982332796183166 0 0.13022991801334199 0.19514207920620891 0 0.1377541084679488 0.19338203871321119 0 0.12809949413598259 0.1982332796183166 0 0.13022991801334199 0.19514207920620891 0 0.12809949413598259 0.1982332796183166 0 0.12623709760602039 0.18867627876683751 0 0.13022991801334199 0.19514207920620891 0 0.13317066441191511 0.18549658195139779 0 0.12623709760602039 0.18867627876683751 0 0.13022991801334199 0.19514207920620891 0 0.13317066441191511 0.18549658195139779 0 0.14289571148574401 0.18421669799074539 0 0.1377541084679488 0.19338203871321119 0 0.13317066441191511 0.18549658195139779 0 0.13022991801334199 0.19514207920620891 0 0.1377541084679488 0.19338203871321119 0 0.14289571148574401 0.18421669799074539 0 0.1377541084679488 0.19338203871321119 0 0.14405659807402271 0.2009031781863346 0 0.14405659807402271 0.2009031781863346 0 0.1684266189286579 0.20498070278197239 0 0.14289571148574401 0.18421669799074539 0 0.16340295837154781 0.17869074671240681 0 0.14405659807402271 0.2009031781863346 0 0.16340295837154781 0.17869074671240681 0 0.14405659807402271 0.2009031781863346 0 0.16340295837154781 0.17869074671240681 0 0.18344157371591241 0.18406997535271 0 0.1684266189286579 0.20498070278197239 0 0.16340295837154781 0.17869074671240681 0 0.14405659807402271 0.2009031781863346 0 0.1684266189286579 0.20498070278197239 0 0.18344157371591241 0.18406997535271 0 0.1684266189286579 0.20498070278197239 0 0.19279663978329381 0.20905822737760699 0 0.1684266189286579 0.20498070278197239 0 0.19279663978329381 0.20905822737760699 0 0.17869659642439559 0.21414630976549021 0 0.1684266189286579 0.20498070278197239 0 0.19279663978329381 0.20905822737760699 0 0.17869659642439559 0.21414630976549021 0 0.18609952631151591 0.22618151745055959 0 0.19279663978329381 0.20905822737760699 0 0.14405659807402271 0.2009031781863346 0 0.1684266189286579 0.20498070278197239 0 0.15844916882654519 0.22115328017888419 0 0.17869659642439559 0.21414630976549021 0 0.1684266189286579 0.20498070278197239 0 0.15844916882654519 0.22115328017888419 0 0.1514273965657848 0.24085309905483679 0 0.15844916882654519 0.22115328017888419 0 0.1691493644934341 0.23606856512045299 0 0.15844916882654519 0.22115328017888419 0 0.18609952631151591 0.22618151745055959 0 0.1691493644934341 0.23606856512045299 0 0.17869659642439559 0.21414630976549021 0 0.15844916882654519 0.22115328017888419 0 0.18609952631151591 0.22618151745055959 0 0.15844916882654519 0.22115328017888419 0 0.18609952631151591 0.22618151745055959 0 0.18609952631151591 0.22618151745055959 0 0.1971008006350988 0.24422433182354611 0 0.17660728565697029 0.25284173787090108 0 0.18609952631151591 0.22618151745055959 0 0.1691493644934341 0.23606856512045299 0 0.17660728565697029 0.25284173787090108 0 0.1514273965657848 0.24085309905483679 0 0.17660728565697029 0.25284173787090108 0 0.1514273965657848 0.24085309905483679 0 0.1691493644934341 0.23606856512045299 0 0.17660728565697029 0.25284173787090108 0 0.1971008006350988 0.24422433182354611 0 0.21374988379648621 0.2312097547222359 0 0.2257125065402284 0.25431107802280528 0 0.18609952631151591 0.22618151745055959 0 0.19919001424274069 0.21902366269476331 0 0.2102140220753515 0.22438156273492879 0 0.18609952631151591 0.22618151745055959 0 0.1971008006350988 0.24422433182354611 0 0.21374988379648621 0.2312097547222359 0 0.18609952631151591 0.22618151745055959 0 0.21374988379648621 0.2312097547222359 0 0.18609952631151591 0.22618151745055959 0 0.2102140220753515 0.22438156273492879 0 0.21374988379648621 0.2312097547222359 0 0.19919001424274069 0.21902366269476331 0 0.2102140220753515 0.22438156273492879 0 0.22326984787173351 0.22831062181695069 0 0.19919001424274069 0.21902366269476331 0 0.21716666063792969 0.21313575197324039 0 0.22326984787173351 0.22831062181695069 0 0.19919001424274069 0.21902366269476331 0 0.22326984787173351 0.22831062181695069 0 0.2102140220753515 0.22438156273492879 0 0.21374988379648621 0.2312097547222359 0 0.2102140220753515 0.22438156273492879 0 0.21374988379648621 0.2312097547222359 0 0.22326984787173351 0.22831062181695069 0 0.21716666063792969 0.21313575197324039 0 0.19279663978329381 0.20905822737760699 0 0.20764501227753371 0.18946127353573741 0 0.21716666063792969 0.21313575197324039 0 0.19279663978329381 0.20905822737760699 0 0.19919001424274069 0.21902366269476331 0 0.21716666063792969 0.21313575197324039 0 0.19279663978329381 0.20905822737760699 0 0.18609952631151591 0.22618151745055959 0 0.19919001424274069 0.21902366269476331 0 0.19279663978329381 0.20905822737760699 0 0.18344157371591241 0.18406997535271 0 0.19279663978329381 0.20905822737760699 0 0.20764501227753371 0.18946127353573741 0 0.21716666063792969 0.21313575197324039 0 0.20764501227753371 0.18946127353573741 0 0.21716666063792969 0.21313575197324039 0 0.20764501227753371 0.18946127353573741 0 0.22349524510262589 0.1882929917077163 0 0.21716666063792969 0.21313575197324039 0 0.22349524510262589 0.1882929917077163 0 0.23482300448504159 0.1984970970255906 0 0.22349524510262589 0.1882929917077163 0 0.23482300448504159 0.1984970970255906 0 0.23800281531175979 0.18073324988006281 0 0.23482300448504159 0.1984970970255906 0 0.24828008483854189 0.20295934428596721 0 0.25113643024109478 0.19094495075723769 0 0.23482300448504159 0.1984970970255906 0 0.23800281531175979 0.18073324988006281 0 0.25113643024109478 0.19094495075723769 0 0.23482300448504159 0.1984970970255906 0 0.24828008483854189 0.20295934428596721 0 0.24332195560292991 0.2175119837032847 0 0.21716666063792969 0.21313575197324039 0 0.23482300448504159 0.1984970970255906 0 0.24332195560292991 0.2175119837032847 0 0.21716666063792969 0.21313575197324039 0 0.24332195560292991 0.2175119837032847 0 0.22527908084694109 0.23330634744632109 0 0.22326984787173351 0.22831062181695069 0 0.2459873280094696 0.23707215699401071 0 0.21716666063792969 0.21313575197324039 0 0.24332195560292991 0.2175119837032847 0 0.22326984787173351 0.22831062181695069 0 0.21716666063792969 0.21313575197324039 0 0.22326984787173351 0.22831062181695069 0 0.21374988379648621 0.2312097547222359 0 0.22527908084694109 0.23330634744632109 0 0.22326984787173351 0.22831062181695069 0 0.21374988379648621 0.2312097547222359 0 0.22527908084694109 0.23330634744632109 0 0.22527908084694109 0.23330634744632109 0 0.22326984787173351 0.22831062181695069 0 0.22326984787173351 0.22831062181695069 0 0.2459873280094696 0.23707215699401071 0 0.24332195560292991 0.2175119837032847 0 0.22326984787173351 0.22831062181695069 0 0.2459873280094696 0.23707215699401071 0 0.22527908084694109 0.23330634744632109 0 0.2459873280094696 0.23707215699401071 0 0.22527908084694109 0.23330634744632109 0 0.2459873280094696 0.23707215699401071 0 0.23435940432808119 0.2558835225658645 0 0.22527908084694109 0.23330634744632109 0 0.23435940432808119 0.2558835225658645 0 0.21374988379648621 0.2312097547222359 0 0.2257125065402284 0.25431107802280528 0 0.21374988379648621 0.2312097547222359 0 0.22527908084694109 0.23330634744632109 0 0.2257125065402284 0.25431107802280528 0 0.22527908084694109 0.23330634744632109 0 0.2257125065402284 0.25431107802280528 0 0.23435940432808119 0.2558835225658645 0 0.207677409848747 0.15265436726913009 0 0.20799191400454739 0.1375227668896451 0 0.22134903716669199 0.14708536363501609 0 0.20799191400454739 0.1375227668896451 0 0.22703691245497479 0.13189098412415109 0 0.21251029914637609 0.1192952894197942 0 0.20799191400454739 0.1375227668896451 0 0.19325819231563421 0.12959887947710741 0 0.21251029914637609 0.1192952894197942 0 0.20799191400454739 0.1375227668896451 0 0.19325819231563421 0.12959887947710741 0 0.1886017155567373 0.14211231666073301 0 0.1886017155567373 0.14211231666073301 0 0.1981233639171355 0.16578679509823521 0 0.207677409848747 0.15265436726913009 0 0.20799191400454739 0.1375227668896451 0 0.1886017155567373 0.14211231666073301 0 0.207677409848747 0.15265436726913009 0 0.1886017155567373 0.14211231666073301 0 0.1981233639171355 0.16578679509823521 0 0.20764501227753371 0.18946127353573741 0 0.1981233639171355 0.16578679509823521 0 0.18344157371591241 0.18406997535271 0 0.20764501227753371 0.18946127353573741 0 0.1981233639171355 0.16578679509823521 0 0.20764501227753371 0.18946127353573741 0 0.1981233639171355 0.16578679509823521 0 0.22193333897365611 0.16940236618161161 0 0.20764501227753371 0.18946127353573741 0 0.22349524510262589 0.1882929917077163 0 0.22193333897365611 0.16940236618161161 0 0.207677409848747 0.15265436726913009 0 0.1981233639171355 0.16578679509823521 0 0.22193333897365611 0.16940236618161161 0 0.207677409848747 0.15265436726913009 0 0.22193333897365611 0.16940236618161161 0 0.22134903716669199 0.14708536363501609 0 0.22349524510262589 0.1882929917077163 0 0.22193333897365611 0.16940236618161161 0 0.23800281531175979 0.18073324988006281 0 0.23800281531175979 0.18073324988006281 0 0.24342118736862761 0.16410875332904781 0 0.25421457754785548 0.17528354573505059 0 0.23800281531175979 0.18073324988006281 0 0.25421457754785548 0.17528354573505059 0 0.25113643024109478 0.19094495075723769 0 0.22193333897365611 0.16940236618161161 0 0.23800281531175979 0.18073324988006281 0 0.24342118736862761 0.16410875332904781 0 0.22193333897365611 0.16940236618161161 0 0.24342118736862761 0.16410875332904781 0 0.2381959797174126 0.14809141417820801 0 0.2381959797174126 0.14809141417820801 0 0.2471064899150823 0.133463067737116 0 0.25227113898158787 0.14916335431643429 0 0.24342118736862761 0.16410875332904781 0 0.2381959797174126 0.14809141417820801 0 0.25227113898158787 0.14916335431643429 0 0.2381959797174126 0.14809141417820801 0 0.22134903716669199 0.14708536363501609 0 0.22703691245497479 0.13189098412415109 0 0.22193333897365611 0.16940236618161161 0 0.2381959797174126 0.14809141417820801 0 0.22134903716669199 0.14708536363501609 0 0.20799191400454739 0.1375227668896451 0 0.22134903716669199 0.14708536363501609 0 0.22703691245497479 0.13189098412415109 0 0.22703691245497479 0.13189098412415109 0 0.2471064899150823 0.133463067737116 0 0.2348532799323845 0.1126728752525727 0 0.2381959797174126 0.14809141417820801 0 0.22703691245497479 0.13189098412415109 0 0.2471064899150823 0.133463067737116 0 0.2471064899150823 0.133463067737116 0 0.2496952397761337 0.1160329650041991 0 0.2348532799323845 0.1126728752525727 0 0.2348532799323845 0.1126728752525727 0 0.23238347446995899 0.09878858498409393 0 0.25089272908716931 0.092982859712809007 0 0.2496952397761337 0.1160329650041991 0 0.2348532799323845 0.1126728752525727 0 0.25089272908716931 0.092982859712809007 0 0.23238347446995899 0.09878858498409393 0 0.21965336389696419 0.1029970115124081 0 0.22413452496331809 0.086501593458585962 0 0.2348532799323845 0.1126728752525727 0 0.23238347446995899 0.09878858498409393 0 0.21965336389696419 0.1029970115124081 0 0.2348532799323845 0.1126728752525727 0 0.21965336389696419 0.1029970115124081 0 0.21251029914637609 0.1192952894197942 0 0.22703691245497479 0.13189098412415109 0 0.2348532799323845 0.1126728752525727 0 0.21251029914637609 0.1192952894197942 0 0.21965336389696419 0.1029970115124081 0 0.21251029914637609 0.1192952894197942 0 0.20714728240524249 0.10617251279081751 0 0.21251029914637609 0.1192952894197942 0 0.20714728240524249 0.10617251279081751 0 0.2007454095485067 0.1153730887768626 0 0.21965336389696419 0.1029970115124081 0 0.21155544327336909 0.093494818701204518 0 0.22413452496331809 0.086501593458585962 0 0.21965336389696419 0.1029970115124081 0 0.20714728240524249 0.10617251279081751 0 0.21155544327336909 0.093494818701204518 0 0.20029711589946361 0.098207227624031723 0 0.20055037116402991 0.091606906531847498 0 0.21155544327336909 0.093494818701204518 0 0.20714728240524249 0.10617251279081751 0 0.20029711589946361 0.098207227624031723 0 0.21155544327336909 0.093494818701204518 0 0.19812206266677551 0.107667640710604 0 0.20029711589946361 0.098207227624031723 0 0.1885688884481975 0.1093901779912298 0 0.20714728240524249 0.10617251279081751 0 0.19812206266677551 0.107667640710604 0 0.20029711589946361 0.098207227624031723 0 0.20029711589946361 0.098207227624031723 0 0.1929726046438287 0.094705252597794665 0 0.20055037116402991 0.091606906531847498 0 0.1929726046438287 0.094705252597794665 0 0.1885688884481975 0.1093901779912298 0 0.1832996600419958 0.1003897382564244 0 0.20029711589946361 0.098207227624031723 0 0.1929726046438287 0.094705252597794665 0 0.1885688884481975 0.1093901779912298 0 0.20029711589946361 0.098207227624031723 0 0.1885688884481975 0.1093901779912298 0 0.1929726046438287 0.094705252597794665 0 0.1885688884481975 0.1093901779912298 0 0.19812206266677551 0.107667640710604 0 0.19247123508700151 0.1156451737142033 0 0.1885688884481975 0.1093901779912298 0 0.19247123508700151 0.1156451737142033 0 0.1885688884481975 0.1093901779912298 0 0.1858372065203453 0.1184994265274882 0 0.19325819231563421 0.12959887947710741 0 0.21251029914637609 0.1192952894197942 0 0.2007454095485067 0.1153730887768626 0 0.19325819231563421 0.12959887947710741 0 0.19247123508700151 0.1156451737142033 0 0.1858372065203453 0.1184994265274882 0 0.19325819231563421 0.12959887947710741 0 0.19247123508700151 0.1156451737142033 0 0.2007454095485067 0.1153730887768626 0 0.20714728240524249 0.10617251279081751 0 0.19812206266677551 0.107667640710604 0 0.2007454095485067 0.1153730887768626 0 0.19812206266677551 0.107667640710604 0 0.19247123508700151 0.1156451737142033 0 0.2007454095485067 0.1153730887768626 0 0.20238686903042469 0.063311819413239129 0 0.1973763208394673 0.08002032720436178 0 0.18079222374313991 0.066157073385880324 0 0.20238686903042469 0.063311819413239129 0 0.18079222374313991 0.066157073385880324 0 0.1973763208394673 0.08002032720436178 0 0.17868141559437861 0.075492121278057239 0 0.20238686903042469 0.063311819413239129 0 0.1973763208394673 0.08002032720436178 0 0.1929726046438287 0.094705252597794665 0 0.1973763208394673 0.08002032720436178 0 0.1929726046438287 0.094705252597794665 0 0.1973763208394673 0.08002032720436178 0 0.18493574174144031 0.087819629641268118 0 0.1929726046438287 0.094705252597794665 0 0.20055037116402991 0.091606906531847498 0 0.1973763208394673 0.08002032720436178 0 0.1973763208394673 0.08002032720436178 0 0.22413452496331809 0.086501593458585962 0 0.1973763208394673 0.08002032720436178 0 0.21155544327336909 0.093494818701204518 0 0.22413452496331809 0.086501593458585962 0 0.1973763208394673 0.08002032720436178 0 0.21581045027983861 0.072515516379325212 0 0.22413452496331809 0.086501593458585962 0 0.20055037116402991 0.091606906531847498 0 0.1973763208394673 0.08002032720436178 0 0.21155544327336909 0.093494818701204518 0 0.20238686903042469 0.063311819413239129 0 0.21581045027983861 0.072515516379325212 0 0.22639199231908241 0.060148967164815811 0 0.20238686903042469 0.063311819413239129 0 0.1973763208394673 0.08002032720436178 0 0.21581045027983861 0.072515516379325212 0 0.21581045027983861 0.072515516379325212 0 0.22413452496331809 0.086501593458585962 0 0.23571274181676019 0.070187616308315881 0 0.21581045027983861 0.072515516379325212 0 0.23571274181676019 0.070187616308315881 0 0.22639199231908241 0.060148967164815811 0 0.23571274181676019 0.070187616308315881 0 0.23935269316475091 0.05797056278501677 0 0.22639199231908241 0.060148967164815811 0 0.22413452496331809 0.086501593458585962 0 0.25089272908716931 0.092982859712809007 0 0.22413452496331809 0.086501593458585962 0 0.23571274181676019 0.070187616308315881 0 0.25089272908716931 0.092982859712809007 0 0.23238347446995899 0.09878858498409393 0 0.22413452496331809 0.086501593458585962 0 0.25089272908716931 0.092982859712809007 0 0.23571274181676019 0.070187616308315881 0 0.25089272908716931 0.092982859712809007 0 0.23571274181676019 0.070187616308315881 0 0.25282536794073712 0.073272794188635415 0 0.25089272908716931 0.092982859712809007 0 0.23935269316475091 0.05797056278501677 0 0.25425538404847059 0.057624927133231481 0 0.25282536794073712 0.073272794188635415 0 0.23571274181676019 0.070187616308315881 0 0.23935269316475091 0.05797056278501677 0 0.25282536794073712 0.073272794188635415 0 0.2368345322212535 0.044434942105003657 0 0.25425538404847059 0.057624927133231481 0 0.23935269316475091 0.05797056278501677 0 0.2368345322212535 0.044434942105003657 0 0.25425538404847059 0.057624927133231481 0 0.23935269316475091 0.05797056278501677 0 0.2368345322212535 0.044434942105003657 0 0.23127016951469481 0.052559852354376588 0 0.2368345322212535 0.044434942105003657 0 0.25291178968964928 0.037547667281027097 0 0.25425538404847059 0.057624927133231481 0 0.2368345322212535 0.044434942105003657 0 0.24190969492169709 0.024768393557462999 0 0.25291178968964928 0.037547667281027097 0 0.2368345322212535 0.044434942105003657 0 0.21941368039403211 0.031244957076781411 0 0.2368345322212535 0.044434942105003657 0 0.22121604545690071 0.040326540279582428 0 0.22250146035369231 0.047684937362670127 0 0.2368345322212535 0.044434942105003657 0 0.22121604545690071 0.040326540279582428 0 0.21941368039403211 0.031244957076781411 0 0.2368345322212535 0.044434942105003657 0 0.24190969492169709 0.024768393557462999 0 0.21941368039403211 0.031244957076781411 0 0.22121604545690071 0.040326540279582428 0 0.22250146035369231 0.047684937362670127 0 0.2151241054634794 0.043140718643033253 0 0.22250146035369231 0.047684937362670127 0 0.22639199231908241 0.060148967164815811 0 0.21464985550632831 0.05254647609126252 0 0.23935269316475091 0.05797056278501677 0 0.22639199231908241 0.060148967164815811 0 0.23127016951469481 0.052559852354376588 0 0.2368345322212535 0.044434942105003657 0 0.22250146035369231 0.047684937362670127 0 0.23127016951469481 0.052559852354376588 0 0.22250146035369231 0.047684937362670127 0 0.22639199231908241 0.060148967164815811 0 0.23127016951469481 0.052559852354376588 0 0.23517440673197429 0.0051848507458196356 0 0.24190969492169709 0.024768393557462999 0 0.22860778246280219 0.01441509204728152 0 0.23517440673197429 0.0051848507458196356 0 0.2485551203034157 0.0102848256948572 0 0.24190969492169709 0.024768393557462999 0 0.23517440673197429 0.0051848507458196356 0 0.2429424487767215 0.0026164120279975069 0 0.24005113852307369 -0.0027355710512556022 0 0.23517440673197429 0.0051848507458196356 0 0.2429424487767215 0.0026164120279975069 0 0.2485551203034157 0.0102848256948572 0 0.2429424487767215 0.0026164120279975069 0 0.2485551203034157 0.0102848256948572 0 0.2479891295484222 -0.0022684572774312019 0 0.2237082671027216 0.020648212041472009 0 0.22100796739575951 0.001216664300799794 0 0.21337432104441539 0.026672329963493752 0 0.24190969492169709 0.024768393557462999 0 0.21941368039403211 0.031244957076781411 0 0.24190969492169709 0.024768393557462999 0 0.21941368039403211 0.031244957076781411 0 0.2237082671027216 0.020648212041472009 0 0.24190969492169709 0.024768393557462999 0 0.2237082671027216 0.020648212041472009 0 0.22860778246280219 0.01441509204728152 0 0.21941368039403211 0.031244957076781411 0 0.2237082671027216 0.020648212041472009 0 0.21337432104441539 0.026672329963493752 0 0.2237082671027216 0.020648212041472009 0 0.22860778246280219 0.01441509204728152 0 0.22100796739575951 0.001216664300799794 0 0.23517440673197429 0.0051848507458196356 0 0.22860778246280219 0.01441509204728152 0 0.22100796739575951 0.001216664300799794 0 0.22100796739575951 0.001216664300799794 0 0.21337432104441539 0.026672329963493752 0 0.22100796739575951 0.001216664300799794 0 0.21213365429295861 0.01041237886839381 0 0.21337432104441539 0.026672329963493752 0 0.20938161325362409 0.0025060029461209908 0 0.21213365429295861 0.01041237886839381 0 0.19981118715584381 0.0070254328827108366 0 0.20938161325362409 0.0025060029461209908 0 0.19981118715584381 0.0070254328827108366 0 0.20239897911060981 -0.0049616950454924097 0 0.22100796739575951 0.001216664300799794 0 0.21476518088515931 0.0026345493870347861 0 0.21213365429295861 0.01041237886839381 0 0.20938161325362409 0.0025060029461209908 0 0.21476518088515931 0.0026345493870347861 0 0.21653748859829491 -0.0035968485671754561 0 0.20938161325362409 0.0025060029461209908 0 0.21476518088515931 0.0026345493870347861 0 0.21213365429295861 0.01041237886839381 0 0.22100796739575951 0.001216664300799794 0 0.21476518088515931 0.0026345493870347861 0 0.21653748859829491 -0.0035968485671754561 0 0.21213365429295861 0.01041237886839381 0 0.20775643638324501 0.022418817258943329 0 0.19981118715584381 0.0070254328827108366 0 0.20775643638324501 0.022418817258943329 0 0.19981118715584381 0.0070254328827108366 0 0.21213365429295861 0.01041237886839381 0 0.20775643638324501 0.022418817258943329 0 0.21337432104441539 0.026672329963493752 0 0.20775643638324501 0.022418817258943329 0 0.21337432104441539 0.026672329963493752 0 0.21211661331991941 0.030866365927793071 0 0.21941368039403211 0.031244957076781411 0 0.21337432104441539 0.026672329963493752 0 0.21211661331991941 0.030866365927793071 0 0.21941368039403211 0.031244957076781411 0 0.21337432104441539 0.026672329963493752 0 0.21337432104441539 0.026672329963493752 0 0.21211661331991941 0.030866365927793071 0 0.20775643638324501 0.022418817258943329 0 0.21211661331991941 0.030866365927793071 0 0.2008624239423544 0.027751844864101351 0 0.21211661331991941 0.030866365927793071 0 0.2008624239423544 0.027751844864101351 0 0.21130283169949521 0.033580056331867662 0 0.20775643638324501 0.022418817258943329 0 0.21211661331991941 0.030866365927793071 0 0.20775643638324501 0.022418817258943329 0 0.21337432104441539 0.026672329963493752 0 0.2008624239423544 0.027751844864101351 0 0.1914807756371078 0.039286791852227318 0 0.1874867753674215 0.0231110496262097 0 0.2008624239423544 0.027751844864101351 0 0.19503111124693581 0.017247988187571551 0 0.1874867753674215 0.0231110496262097 0 0.19503111124693581 0.017247988187571551 0 0.18734518720319909 0.015281891910368059 0 0.1874867753674215 0.0231110496262097 0 0.20775643638324501 0.022418817258943329 0 0.2008624239423544 0.027751844864101351 0 0.19503111124693581 0.017247988187571551 0 0.20775643638324501 0.022418817258943329 0 0.19503111124693581 0.017247988187571551 0 0.18660242445042999 0.0064023156866817926 0 0.20775643638324501 0.022418817258943329 0 0.18660242445042999 0.0064023156866817926 0 0.20775643638324501 0.022418817258943329 0 0.1894192936343001 0.0060385698470956234 0 0.19981118715584381 0.0070254328827108366 0 0.20775643638324501 0.022418817258943329 0 0.1894192936343001 0.0060385698470956234 0 0.18660242445042999 0.0064023156866817926 0 0.19503111124693581 0.017247988187571551 0 0.18832376542685261 0.012450231659139751 0 0.18660242445042999 0.0064023156866817926 0 0.19503111124693581 0.017247988187571551 0 0.18832376542685261 0.012450231659139751 0 0.18734518720319909 0.015281891910368059 0 0.1894192936343001 0.0060385698470956234 0 0.19981118715584381 0.0070254328827108366 0 0.1918659379284415 -0.0083679514935210662 0 0.20238686903042469 0.063311819413239129 0 0.22639199231908241 0.060148967164815811 0 0.21464985550632831 0.05254647609126252 0 0.20238686903042469 0.063311819413239129 0 0.22639199231908241 0.060148967164815811 0 0.20238686903042469 0.063311819413239129 0 0.20684485036496281 0.04844593787255428 0 0.21464985550632831 0.05254647609126252 0 0.20238686903042469 0.063311819413239129 0 0.20684485036496281 0.04844593787255428 0 0.20684485036496281 0.04844593787255428 0 0.21464985550632831 0.05254647609126252 0 0.2151241054634794 0.043140718643033253 0 0.22250146035369231 0.047684937362670127 0 0.21464985550632831 0.05254647609126252 0 0.2151241054634794 0.043140718643033253 0 0.20684485036496281 0.04844593787255428 0 0.2151241054634794 0.043140718643033253 0 0.21130283169949521 0.033580056331867662 0 0.20684485036496281 0.04844593787255428 0 0.21130283169949521 0.033580056331867662 0 0.1914807756371078 0.039286791852227318 0 0.2151241054634794 0.043140718643033253 0 0.21130283169949521 0.033580056331867662 0 0.21323078658658201 0.03302500146766809 0 0.22121604545690071 0.040326540279582428 0 0.2151241054634794 0.043140718643033253 0 0.21323078658658201 0.03302500146766809 0 0.22121604545690071 0.040326540279582428 0 0.21941368039403211 0.031244957076781411 0 0.21323078658658201 0.03302500146766809 0 0.21941368039403211 0.031244957076781411 0 0.21211661331991941 0.030866365927793071 0 0.21323078658658201 0.03302500146766809 0 0.21941368039403211 0.031244957076781411 0 0.21323078658658201 0.03302500146766809 0 0.21130283169949521 0.033580056331867662 0 0.21323078658658201 0.03302500146766809 0 0.21211661331991941 0.030866365927793071 0 0.21130283169949521 0.033580056331867662 0 0.21323078658658201 0.03302500146766809 0 0.21211661331991941 0.030866365927793071 0 0.21130283169949521 0.033580056331867662 0 0.21211661331991941 0.030866365927793071 0 0.21323078658658201 0.03302500146766809 0 0.20684485036496281 0.04844593787255428 0 0.21130283169949521 0.033580056331867662 0 0.20684485036496281 0.04844593787255428 0 0.1914807756371078 0.039286791852227318 0 0.1906326876700713 0.052439029979298252 0 0.21130283169949521 0.033580056331867662 0 0.1914807756371078 0.039286791852227318 0 0.2008624239423544 0.027751844864101351 0 0.21130283169949521 0.033580056331867662 0 0.1914807756371078 0.039286791852227318 0 0.20238686903042469 0.063311819413239129 0 0.20684485036496281 0.04844593787255428 0 0.1906326876700713 0.052439029979298252 0 0.20238686903042469 0.063311819413239129 0 0.1906326876700713 0.052439029979298252 0 0.18079222374313991 0.066157073385880324 0 0.1906326876700713 0.052439029979298252 0 0.1716587195747214 0.044993527372590117 0 0.18079222374313991 0.066157073385880324 0 0.1914807756371078 0.039286791852227318 0 0.17895959729017549 0.03270519686463521 0 0.1874867753674215 0.0231110496262097 0 0.1914807756371078 0.039286791852227318 0 0.1906326876700713 0.052439029979298252 0 0.1716587195747214 0.044993527372590117 0 0.1914807756371078 0.039286791852227318 0 0.1716587195747214 0.044993527372590117 0 0.1914807756371078 0.039286791852227318 0 0.17895959729017549 0.03270519686463521 0 0.1716587195747214 0.044993527372590117 0 0.17895959729017549 0.03270519686463521 0 0.1716587195747214 0.044993527372590117 0 0.1692336025848987 0.033942773786365128 0 0.1716587195747214 0.044993527372590117 0 0.1692336025848987 0.033942773786365128 0 0.1566962317421734 0.039838803654011962 0 0.1716587195747214 0.044993527372590117 0 0.1566962317421734 0.039838803654011962 0 0.15183666351233449 0.050700262892952028 0 0.1692336025848987 0.033942773786365128 0 0.1566962317421734 0.039838803654011962 0 0.158601754226253 0.030081739901262169 0 0.1716587195747214 0.044993527372590117 0 0.15183666351233449 0.050700262892952028 0 0.15919757845585511 0.069002327358520896 0 0.1716587195747214 0.044993527372590117 0 0.18079222374313991 0.066157073385880324 0 0.15919757845585511 0.069002327358520896 0 0.1716587195747214 0.044993527372590117 0 0.15183666351233449 0.050700262892952028 0 0.17227434920368959 0.00081991249798677823 0 0.17658810010716819 0.0040568459827444014 0 0.17786282304025339 -0.001583287003114023 0 0.17227434920368959 0.00081991249798677823 0 0.17658810010716819 0.0040568459827444014 0 0.17233771352019589 0.0083561011481188656 0 0.17658810010716819 0.0040568459827444014 0 0.18177514670000741 0.0039010391453388991 0 0.17943453638861959 0.0091511058078182841 0 0.17658810010716819 0.0040568459827444014 0 0.17943453638861959 0.0091511058078182841 0 0.17233771352019589 0.0083561011481188656 0 0.17658810010716819 0.0040568459827444014 0 0.18177514670000741 0.0039010391453388991 0 0.17786282304025339 -0.001583287003114023 0 0.18177514670000741 0.0039010391453388991 0 0.18580903226614379 -0.0011502469314075439 0 0.17786282304025339 -0.001583287003114023 0 0.1894192936343001 0.0060385698470956234 0 0.18660242445042999 0.0064023156866817926 0 0.18580903226614379 -0.0011502469314075439 0 0.18177514670000741 0.0039010391453388991 0 0.18660242445042999 0.0064023156866817926 0 0.18580903226614379 -0.0011502469314075439 0 0.18177514670000741 0.0039010391453388991 0 0.18660242445042999 0.0064023156866817926 0 0.18303211158647559 0.0075807978729441382 0 0.18177514670000741 0.0039010391453388991 0 0.18303211158647559 0.0075807978729441382 0 0.17943453638861959 0.0091511058078182841 0 0.18303211158647559 0.0075807978729441382 0 0.18431633880684531 0.01086873085193758 0 0.17943453638861959 0.0091511058078182841 0 0.18660242445042999 0.0064023156866817926 0 0.18303211158647559 0.0075807978729441382 0 0.18431633880684531 0.01086873085193758 0 0.18832376542685261 0.012450231659139751 0 0.18660242445042999 0.0064023156866817926 0 0.18431633880684531 0.01086873085193758 0 0.18431633880684531 0.01086873085193758 0 0.18734518720319909 0.015281891910368059 0 0.18195036267736389 0.015275800378046231 0 0.18832376542685261 0.012450231659139751 0 0.18431633880684531 0.01086873085193758 0 0.18734518720319909 0.015281891910368059 0 0.18431633880684531 0.01086873085193758 0 0.18195036267736389 0.015275800378046231 0 0.17943453638861959 0.0091511058078182841 0 0.18195036267736389 0.015275800378046231 0 0.1761571917665653 0.013806221612761949 0 0.17943453638861959 0.0091511058078182841 0 0.1761571917665653 0.013806221612761949 0 0.17943453638861959 0.0091511058078182841 0 0.17233771352019589 0.0083561011481188656 0 0.1761571917665653 0.013806221612761949 0 0.17233771352019589 0.0083561011481188656 0 0.1709247624247007 0.01466984692398882 0 0.1761571917665653 0.013806221612761949 0 0.17493811328672779 0.022191841685783802 0 0.1709247624247007 0.01466984692398882 0 0.18195036267736389 0.015275800378046231 0 0.1761571917665653 0.013806221612761949 0 0.17493811328672779 0.022191841685783802 0 0.18734518720319909 0.015281891910368059 0 0.18195036267736389 0.015275800378046231 0 0.1874867753674215 0.0231110496262097 0 0.18195036267736389 0.015275800378046231 0 0.17493811328672779 0.022191841685783802 0 0.1874867753674215 0.0231110496262097 0 0.17895959729017549 0.03270519686463521 0 0.17493811328672779 0.022191841685783802 0 0.1874867753674215 0.0231110496262097 0 0.17895959729017549 0.03270519686463521 0 0.1692336025848987 0.033942773786365128 0 0.17493811328672779 0.022191841685783802 0 0.1692336025848987 0.033942773786365128 0 0.1660519956958274 0.025200646889517071 0 0.158601754226253 0.030081739901262169 0 0.1692336025848987 0.033942773786365128 0 0.17493811328672779 0.022191841685783802 0 0.1660519956958274 0.025200646889517071 0 0.1660519956958274 0.025200646889517071 0 0.158601754226253 0.030081739901262169 0 0.15656323758401319 0.020842958383828041 0 0.15656323758401319 0.020842958383828041 0 0.1655425680131333 0.017645951334422452 0 0.15799820797772829 0.01069464001977203 0 0.1660519956958274 0.025200646889517071 0 0.15656323758401319 0.020842958383828041 0 0.1655425680131333 0.017645951334422452 0 0.17493811328672779 0.022191841685783802 0 0.1660519956958274 0.025200646889517071 0 0.1655425680131333 0.017645951334422452 0 0.17493811328672779 0.022191841685783802 0 0.1655425680131333 0.017645951334422452 0 0.1709247624247007 0.01466984692398882 0 0.17233771352019589 0.0083561011481188656 0 0.1709247624247007 0.01466984692398882 0 0.16528784937855559 0.0099045707114697821 0 0.1655425680131333 0.017645951334422452 0 0.1709247624247007 0.01466984692398882 0 0.16528784937855559 0.0099045707114697821 0 0.1655425680131333 0.017645951334422452 0 0.16528784937855559 0.0099045707114697821 0 0.15799820797772829 0.01069464001977203 0 0.16528784937855559 0.0099045707114697821 0 0.15830422717032419 0.0026668804518291322 0 0.16550177429739321 0.001625335581948511 0 0.16528784937855559 0.0099045707114697821 0 0.15799820797772829 0.01069464001977203 0 0.15830422717032419 0.0026668804518291322 0 0.17233771352019589 0.0083561011481188656 0 0.16528784937855559 0.0099045707114697821 0 0.16550177429739321 0.001625335581948511 0 0.17227434920368959 0.00081991249798677823 0 0.17233771352019589 0.0083561011481188656 0 0.16550177429739321 0.001625335581948511 0 0.14127976741107601 0.00215554095495248 0 0.15230472087545879 0.0045339035350271751 0 0.14873370341600839 0.01190124285016711 0 0.15799820797772829 0.01069464001977203 0 0.15830422717032419 0.0026668804518291322 0 0.15230472087545879 0.0045339035350271751 0 0.14127976741107601 0.00215554095495248 0 0.15230472087545879 0.0045339035350271751 0 0.1552076984021574 -0.0047487866015848753 0 0.15830422717032419 0.0026668804518291322 0 0.15230472087545879 0.0045339035350271751 0 0.1552076984021574 -0.0047487866015848753 0 0.15656323758401319 0.020842958383828041 0 0.15799820797772829 0.01069464001977203 0 0.14873370341600839 0.01190124285016711 0 0.15799820797772829 0.01069464001977203 0 0.15230472087545879 0.0045339035350271751 0 0.14873370341600839 0.01190124285016711 0 0.14873370341600839 0.01190124285016711 0 0.1458857290053831 0.021389540043380069 0 0.13967636330765321 0.013174792475989121 0 0.14127976741107601 0.00215554095495248 0 0.14873370341600839 0.01190124285016711 0 0.13967636330765321 0.013174792475989121 0 0.1458857290053831 0.021389540043380069 0 0.13916191736165201 0.019633136795163032 0 0.13967636330765321 0.013174792475989121 0 0.1458857290053831 0.021389540043380069 0 0.14010063181871271 0.02585166497444577 0 0.13916191736165201 0.019633136795163032 0 0.15656323758401319 0.020842958383828041 0 0.1458857290053831 0.021389540043380069 0 0.15175299049851881 0.02729842449465077 0 0.15656323758401319 0.020842958383828041 0 0.14873370341600839 0.01190124285016711 0 0.1458857290053831 0.021389540043380069 0 0.158601754226253 0.030081739901262169 0 0.15656323758401319 0.020842958383828041 0 0.15175299049851881 0.02729842449465077 0 0.158601754226253 0.030081739901262169 0 0.15175299049851881 0.02729842449465077 0 0.15159127196488009 0.032471007951428398 0 0.15175299049851881 0.02729842449465077 0 0.14523576613563741 0.02976945682372012 0 0.15159127196488009 0.032471007951428398 0 0.1458857290053831 0.021389540043380069 0 0.14523576613563741 0.02976945682372012 0 0.14010063181871271 0.02585166497444577 0 0.14523576613563741 0.02976945682372012 0 0.14010063181871271 0.02585166497444577 0 0.1391322595465444 0.03699933077486834 0 0.1458857290053831 0.021389540043380069 0 0.15175299049851881 0.02729842449465077 0 0.14523576613563741 0.02976945682372012 0 0.1309849453148588 0.01811654968683717 0 0.1391322595465444 0.03699933077486834 0 0.14010063181871271 0.02585166497444577 0 0.1309849453148588 0.01811654968683717 0 0.1391322595465444 0.03699933077486834 0 0.11917198148314 0.002581966002757949 0 0.13034027439662041 0.028127834929059549 0 0.1309849453148588 0.01811654968683717 0 0.13034027439662041 0.028127834929059549 0 0.1309849453148588 0.01811654968683717 0 0.1391322595465444 0.03699933077486834 0 0.1309849453148588 0.01811654968683717 0 0.13916191736165201 0.019633136795163032 0 0.13967636330765321 0.013174792475989121 0 0.14010063181871271 0.02585166497444577 0 0.1309849453148588 0.01811654968683717 0 0.13916191736165201 0.019633136795163032 0 0.14127976741107601 0.00215554095495248 0 0.13362755423293271 0.0080562160832345926 0 0.1228376310831711 -0.00076623140119310329 0 0.1309849453148588 0.01811654968683717 0 0.13362755423293271 0.0080562160832345926 0 0.1228376310831711 -0.00076623140119310329 0 0.1309849453148588 0.01811654968683717 0 0.1228376310831711 -0.00076623140119310329 0 0.1309849453148588 0.01811654968683717 0 0.13362755423293271 0.0080562160832345926 0 0.13967636330765321 0.013174792475989121 0 0.14127976741107601 0.00215554095495248 0 0.13362755423293271 0.0080562160832345926 0 0.13967636330765321 0.013174792475989121 0 0.15183666351233449 0.050700262892952028 0 0.15919757845585511 0.069002327358520896 0 0.15048711395973299 0.060532750562707877 0 0.15183666351233449 0.050700262892952028 0 0.15919757845585511 0.069002327358520896 0 0.14215194880052681 0.055145346777992182 0 0.15048711395973299 0.060532750562707877 0 0.13253998066004699 0.064315925604492674 0 0.1415085673101022 0.053673703855360522 0 0.14215194880052681 0.055145346777992182 0 0.15183666351233449 0.050700262892952028 0 0.1415085673101022 0.053673703855360522 0 0.15183666351233449 0.050700262892952028 0 0.1415085673101022 0.053673703855360522 0 0.15183666351233449 0.050700262892952028 0 0.14453550543306221 0.044729731242042367 0 0.1415085673101022 0.053673703855360522 0 0.14215194880052681 0.055145346777992182 0 0.14215194880052681 0.055145346777992182 0 0.15048711395973299 0.060532750562707877 0 0.15183666351233449 0.050700262892952028 0 0.1415085673101022 0.053673703855360522 0 0.14453550543306221 0.044729731242042367 0 0.1391322595465444 0.03699933077486834 0 0.15183666351233449 0.050700262892952028 0 0.14566961722181801 0.035366614883496988 0 0.1566962317421734 0.039838803654011962 0 0.15183666351233449 0.050700262892952028 0 0.14566961722181801 0.035366614883496988 0 0.1566962317421734 0.039838803654011962 0 0.15159127196488009 0.032471007951428398 0 0.14566961722181801 0.035366614883496988 0 0.1566962317421734 0.039838803654011962 0 0.158601754226253 0.030081739901262169 0 0.15159127196488009 0.032471007951428398 0 0.14566961722181801 0.035366614883496988 0 0.14453550543306221 0.044729731242042367 0 0.1391322595465444 0.03699933077486834 0 0.14523576613563741 0.02976945682372012 0 0.15159127196488009 0.032471007951428398 0 0.14566961722181801 0.035366614883496988 0 0.14523576613563741 0.02976945682372012 0 0.14566961722181801 0.035366614883496988 0 0.1391322595465444 0.03699933077486834 0 0.15183666351233449 0.050700262892952028 0 0.14566961722181801 0.035366614883496988 0 0.14453550543306221 0.044729731242042367 0 0.13034027439662041 0.028127834929059549 0 0.1415085673101022 0.053673703855360522 0 0.13034027439662041 0.028127834929059549 0 0.1415085673101022 0.053673703855360522 0 0.1391322595465444 0.03699933077486834 0 0.12367169586596689 0.04413069599522032 0 0.13034027439662041 0.028127834929059549 0 0.1415085673101022 0.053673703855360522 0 0.11892469151436 0.060175562481194378 0 0.12367169586596689 0.04413069599522032 0 0.1415085673101022 0.053673703855360522 0 0.11892469151436 0.060175562481194378 0 0.1415085673101022 0.053673703855360522 0 0.11892469151436 0.060175562481194378 0 0.1415085673101022 0.053673703855360522 0 0.13253998066004699 0.064315925604492674 0 0.1415085673101022 0.053673703855360522 0 0.14215194880052681 0.055145346777992182 0 0.13253998066004699 0.064315925604492674 0 0.13253998066004699 0.064315925604492674 0 0.13121537104960351 0.072689189806444385 0 0.15446329543616341 0.069626104104570485 0 0.1243405792371938 0.066503547411893488 0 0.13253998066004699 0.064315925604492674 0 0.13121537104960351 0.072689189806444385 0 0.11892469151436 0.060175562481194378 0 0.1243405792371938 0.066503547411893488 0 0.13253998066004699 0.064315925604492674 0 0.13121537104960351 0.072689189806444385 0 0.14336397744542301 0.076431171561807093 0 0.13288821721910599 0.083857800247139097 0 0.15048711395973299 0.060532750562707877 0 0.13253998066004699 0.064315925604492674 0 0.15446329543616341 0.069626104104570485 0 0.13121537104960351 0.072689189806444385 0 0.15446329543616341 0.069626104104570485 0 0.13121537104960351 0.072689189806444385 0 0.14336397744542301 0.076431171561807093 0 0.15446329543616341 0.069626104104570485 0 0.13253998066004699 0.064315925604492674 0 0.15446329543616341 0.069626104104570485 0 0.14336397744542301 0.076431171561807093 0 0.15145508435945571 0.07730097997971673 0 0.15446329543616341 0.069626104104570485 0 0.15145508435945571 0.07730097997971673 0 0.15998651034928929 0.070963915351755544 0 0.15635019231632599 0.084708360937410687 0 0.15145508435945571 0.07730097997971673 0 0.15446329543616341 0.069626104104570485 0 0.15998651034928929 0.070963915351755544 0 0.15048711395973299 0.060532750562707877 0 0.15446329543616341 0.069626104104570485 0 0.15919757845585511 0.069002327358520896 0 0.1449478564828334 0.088262465871273704 0 0.15304430801011831 0.09759233646353245 0 0.15635019231632599 0.084708360937410687 0 0.15145508435945571 0.07730097997971673 0 0.1449478564828334 0.088262465871273704 0 0.15635019231632599 0.084708360937410687 0 0.14336397744542301 0.076431171561807093 0 0.15145508435945571 0.07730097997971673 0 0.1449478564828334 0.088262465871273704 0 0.1449478564828334 0.088262465871273704 0 0.13288821721910599 0.083857800247139097 0 0.1333435253298102 0.095432768439741328 0 0.14336397744542301 0.076431171561807093 0 0.1449478564828334 0.088262465871273704 0 0.13288821721910599 0.083857800247139097 0 0.1225478872688979 0.090713611373926736 0 0.1210037722340596 0.082520495593825793 0 0.13288821721910599 0.083857800247139097 0 0.1210037722340596 0.082520495593825793 0 0.13121537104960351 0.072689189806444385 0 0.13288821721910599 0.083857800247139097 0 0.1225478872688979 0.090713611373926736 0 0.13288821721910599 0.083857800247139097 0 0.1333435253298102 0.095432768439741328 0 0.1449478564828334 0.088262465871273704 0 0.1368974078767736 0.107501873099266 0 0.1333435253298102 0.095432768439741328 0 0.12018819637303869 0.10164151191590461 0 0.1368974078767736 0.107501873099266 0 0.1333435253298102 0.095432768439741328 0 0.12018819637303869 0.10164151191590461 0 0.1225478872688979 0.090713611373926736 0 0.1333435253298102 0.095432768439741328 0 0.11707998843366239 0.12090166170324231 0 0.14061487869327599 0.12738787364596069 0 0.1368974078767736 0.107501873099266 0 0.14061487869327599 0.12738787364596069 0 0.1368974078767736 0.107501873099266 0 0.1574927946018469 0.1127881056222175 0 0.14061487869327599 0.12738787364596069 0 0.16208469833826319 0.13464304631642149 0 0.1574927946018469 0.1127881056222175 0 0.1368974078767736 0.107501873099266 0 0.15304430801011831 0.09759233646353245 0 0.1574927946018469 0.1127881056222175 0 0.1449478564828334 0.088262465871273704 0 0.1368974078767736 0.107501873099266 0 0.15304430801011831 0.09759233646353245 0 0.15304430801011831 0.09759233646353245 0 0.1695332887728116 0.094700876787494351 0 0.1574927946018469 0.1127881056222175 0 0.1695332887728116 0.094700876787494351 0 0.1574927946018469 0.1127881056222175 0 0.1790800671963392 0.1184378382232308 0 0.16208469833826319 0.13464304631642149 0 0.1574927946018469 0.1127881056222175 0 0.1790800671963392 0.1184378382232308 0 0.1885688884481975 0.1093901779912298 0 0.1790800671963392 0.1184378382232308 0 0.1832996600419958 0.1003897382564244 0 0.1885688884481975 0.1093901779912298 0 0.1790800671963392 0.1184378382232308 0 0.1858372065203453 0.1184994265274882 0 0.1885688884481975 0.1093901779912298 0 0.1858372065203453 0.1184994265274882 0 0.1885688884481975 0.1093901779912298 0 0.1790800671963392 0.1184378382232308 0 0.19325819231563421 0.12959887947710741 0 0.1790800671963392 0.1184378382232308 0 0.1858372065203453 0.1184994265274882 0 0.1695332887728116 0.094700876787494351 0 0.1790800671963392 0.1184378382232308 0 0.1695332887728116 0.094700876787494351 0 0.1790800671963392 0.1184378382232308 0 0.1832996600419958 0.1003897382564244 0 0.1695332887728116 0.094700876787494351 0 0.1832996600419958 0.1003897382564244 0 0.18493574174144031 0.087819629641268118 0 0.1929726046438287 0.094705252597794665 0 0.1832996600419958 0.1003897382564244 0 0.18493574174144031 0.087819629641268118 0 0.1973763208394673 0.08002032720436178 0 0.18493574174144031 0.087819629641268118 0 0.17868141559437861 0.075492121278057239 0 0.1695332887728116 0.094700876787494351 0 0.18493574174144031 0.087819629641268118 0 0.17868141559437861 0.075492121278057239 0 0.1973763208394673 0.08002032720436178 0 0.17868141559437861 0.075492121278057239 0 0.18079222374313991 0.066157073385880324 0 0.17868141559437861 0.075492121278057239 0 0.18079222374313991 0.066157073385880324 0 0.15998651034928929 0.070963915351755544 0 0.18079222374313991 0.066157073385880324 0 0.15919757845585511 0.069002327358520896 0 0.18079222374313991 0.066157073385880324 0 0.15919757845585511 0.069002327358520896 0 0.15998651034928929 0.070963915351755544 0 0.17868141559437861 0.075492121278057239 0 0.15998651034928929 0.070963915351755544 0 0.15446329543616341 0.069626104104570485 0 0.15919757845585511 0.069002327358520896 0 0.15998651034928929 0.070963915351755544 0 0.15446329543616341 0.069626104104570485 0 0.15919757845585511 0.069002327358520896 0 0.15446329543616341 0.069626104104570485 0 0.15998651034928929 0.070963915351755544 0 0.15919757845585511 0.069002327358520896 0 0.15998651034928929 0.070963915351755544 0 0.1695332887728116 0.094700876787494351 0 0.17868141559437861 0.075492121278057239 0 0.15998651034928929 0.070963915351755544 0 0.15304430801011831 0.09759233646353245 0 0.1695332887728116 0.094700876787494351 0 0.15635019231632599 0.084708360937410687 0 0.1695332887728116 0.094700876787494351 0 0.15998651034928929 0.070963915351755544 0 0.1695332887728116 0.094700876787494351 0 0.15998651034928929 0.070963915351755544 0 0.15635019231632599 0.084708360937410687 0 0.097740131103692757 0.47211576306312553 0 0.10228396963995549 0.48764264937867408 0 0.092199203719590395 0.48872928857719472 0 0.097740131103692757 0.47211576306312553 0 0.1146358595090817 0.48605788153156299 0 0.097740131103692757 0.47211576306312553 0 0.10228396963995549 0.48764264937867408 0 0.1146358595090817 0.48605788153156299 0 0.1038255785689283 0.5 0 0.10228396963995549 0.48764264937867408 0 0.092199203719590395 0.48872928857719472 0 0.1038255785689283 0.5 0 0.10228396963995549 0.48764264937867408 0 0.1146358595090817 0.48605788153156299 0 0.1146358595090817 0.48605788153156299 0 0.13153158791447089 0.50000000000000033 0 0.1038255785689283 0.5 0 0.1146358595090817 0.48605788153156299 0 0.13153158791447089 0.50000000000000033 0 0.097740131103692757 0.47211576306312553 0 0.1146358595090817 0.48605788153156299 0 0.1160915578241386 0.4641835533930308 0 0.1146358595090817 0.48605788153156299 0 0.1160915578241386 0.4641835533930308 0 0.13792901651589951 0.46760966493884959 0 0.1160915578241386 0.4641835533930308 0 0.1237280261196836 0.44463014715047522 0 0.10202961426548091 0.45002724093957291 0 0.1237280261196836 0.44463014715047522 0 0.1057649319772677 0.43759517983083812 0 0.10202961426548091 0.45002724093957291 0 0.1057649319772677 0.43759517983083812 0 0.10202961426548091 0.45002724093957291 0 0.08764391112498858 0.43163178618934439 0 0.097740131103692757 0.47211576306312553 0 0.1160915578241386 0.4641835533930308 0 0.10202961426548091 0.45002724093957291 0 0.080844402698305312 0.45817364459468618 0 0.076730675362011974 0.47423156549521001 0 0.097740131103692757 0.47211576306312553 0 0.080844402698305312 0.45817364459468618 0 0.097740131103692757 0.47211576306312553 0 0.10202961426548091 0.45002724093957291 0 0.080844402698305312 0.45817364459468618 0 0.097740131103692757 0.47211576306312553 0 0.080844402698305312 0.45817364459468618 0 0.076730675362011974 0.47423156549521001 0 0.080844402698305312 0.45817364459468618 0 0.08764391112498858 0.43163178618934439 0 0.10202961426548091 0.45002724093957291 0 0.080844402698305312 0.45817364459468618 0 0.08764391112498858 0.43163178618934439 0 0.080844402698305312 0.45817364459468618 0 0.07540768018483697 0.44030754071393319 0 0.08764391112498858 0.43163178618934439 0 0.080844402698305312 0.45817364459468618 0 0.07540768018483697 0.44030754071393319 0 0.061556592319121653 0.44225761358074578 0 0.080844402698305312 0.45817364459468618 0 0.061556592319121653 0.44225761358074578 0 0.080844402698305312 0.45817364459468618 0 0.067859653170709522 0.45426422462270638 0 0.061556592319121653 0.44225761358074578 0 0.080844402698305312 0.45817364459468618 0 0.064346854003363874 0.46736183993319841 0 0.076730675362011974 0.47423156549521001 0 0.064346854003363874 0.46736183993319841 0 0.067859653170709522 0.45426422462270638 0 0.056076759981020123 0.44443419347066321 0 0.080844402698305312 0.45817364459468618 0 0.064346854003363874 0.46736183993319841 0 0.067859653170709522 0.45426422462270638 0 0.076730675362011974 0.47423156549521001 0 0.072616948025712127 0.490289486395732 0 0.064346854003363874 0.46736183993319841 0 0.072616948025712127 0.490289486395732 0 0.058055043786226751 0.49051055052906067 0 0.064346854003363874 0.46736183993319841 0 0.072616948025712127 0.490289486395732 0 0.064346854003363874 0.46736183993319841 0 0.076730675362011974 0.47423156549521001 0 0.072616948025712127 0.490289486395732 0 0.076730675362011974 0.47423156549521001 0 0.082075002421626492 0.48449271935339733 0 0.072616948025712127 0.490289486395732 0 0.097740131103692757 0.47211576306312553 0 0.076730675362011974 0.47423156549521001 0 0.082075002421626492 0.48449271935339733 0 0.097740131103692757 0.47211576306312553 0 0.092199203719590395 0.48872928857719472 0 0.082075002421626492 0.48449271935339733 0 0.1038255785689283 0.5 0 0.092199203719590395 0.48872928857719472 0 0.076119569223385697 0.50000000000000089 0 0.092199203719590395 0.48872928857719472 0 0.082075002421626492 0.48449271935339733 0 0.076119569223385697 0.50000000000000089 0 0.072616948025712127 0.490289486395732 0 0.07012930311136284 0.49999999999999661 0 0.076119569223385697 0.50000000000000089 0 0.072616948025712127 0.490289486395732 0 0.07012930311136284 0.49999999999999661 0 0.076119569223385697 0.50000000000000089 0 0.072616948025712127 0.490289486395732 0 0.082075002421626492 0.48449271935339733 0 0.076119569223385697 0.50000000000000089 0 0.072616948025712127 0.490289486395732 0 0.072616948025712127 0.490289486395732 0 0.07012930311136284 0.49999999999999661 0 0.058055043786226751 0.49051055052906067 0 0.058055043786226751 0.49051055052906067 0 0.046280597366186747 0.47957307303049429 0 0.044860440428939378 0.4999999999999995 0 0.07012930311136284 0.49999999999999661 0 0.058055043786226751 0.49051055052906067 0 0.044860440428939378 0.4999999999999995 0 0.064346854003363874 0.46736183993319841 0 0.058055043786226751 0.49051055052906067 0 0.046280597366186747 0.47957307303049429 0 0.046280597366186747 0.47957307303049429 0 0.047700754303434179 0.45914614606098908 0 0.046280597366186747 0.47957307303049429 0 0.029897162037545319 0.4839753813588808 0 0.03521852719449324 0.46736449501777538 0 0.044860440428939378 0.4999999999999995 0 0.01907995414838232 0.5 0 0.029897162037545319 0.4839753813588808 0 0.046280597366186747 0.47957307303049429 0 0.044860440428939378 0.4999999999999995 0 0.046280597366186747 0.47957307303049429 0 0.044860440428939378 0.4999999999999995 0 0.029897162037545319 0.4839753813588808 0 0.01907995414838232 0.5 0 0.029897162037545319 0.4839753813588808 0 0.01223017135109394 0.48399563131022733 0 0.029897162037545319 0.4839753813588808 0 0.02313076419329519 0.4718947066398041 0 0.01223017135109394 0.48399563131022733 0 0.029897162037545319 0.4839753813588808 0 0.02313076419329519 0.4718947066398041 0 0.03521852719449324 0.46736449501777538 0 0.02313076419329519 0.4718947066398041 0 0.01223017135109394 0.48399563131022733 0 0.01319884020628341 0.47022233111689332 0 -0.003880604538310756 0.48346324919380129 0 0.01223017135109394 0.48399563131022733 0 0.0050866533922729329 0.47701524235381432 0 0.01223017135109394 0.48399563131022733 0 0.01319884020628341 0.47022233111689332 0 0.0050866533922729329 0.47701524235381432 0 0.01319884020628341 0.47022233111689332 0 0.0053167838454733218 0.46943384557929257 0 0.0050866533922729329 0.47701524235381432 0 -0.001026908195020756 0.47486914558720472 0 0.0053167838454733218 0.46943384557929257 0 0.0050866533922729329 0.47701524235381432 0 -0.003880604538310756 0.48346324919380129 0 -0.001026908195020756 0.47486914558720472 0 0.0050866533922729329 0.47701524235381432 0 -0.0067005321321746969 0.5 0 0.01907995414838232 0.5 0 0.01223017135109394 0.48399563131022733 0 -0.0067005321321746969 0.5 0 -0.003880604538310756 0.48346324919380129 0 0.01223017135109394 0.48399563131022733 0 0.0094816941431487278 0.45086042579757712 0 0.01399183751309625 0.44462120914047132 0 0.0048617880261327502 0.44584476697033082 0 0.0094816941431487278 0.45086042579757712 0 0.01399183751309625 0.44462120914047132 0 0.016302396861864351 0.45114502888407948 0 0.01049598620797234 0.43767394788706171 0 0.01399183751309625 0.44462120914047132 0 0.0048617880261327502 0.44584476697033082 0 0.01049598620797234 0.43767394788706171 0 0.01399183751309625 0.44462120914047132 0 0.020379531913139331 0.43685778481219928 0 0.01049598620797234 0.43767394788706171 0 0.0048617880261327502 0.44584476697033082 0 0.01049598620797234 0.43767394788706171 0 0.0048617880261327502 0.44584476697033082 0 0.0065189226172944724 0.43188650626448272 0 0.0094816941431487278 0.45086042579757712 0 0.0048617880261327502 0.44584476697033082 0 0.0015605482097463411 0.45063228640423969 0 0.0048617880261327502 0.44584476697033082 0 0.0015605482097463411 0.45063228640423969 0 0.0094816941431487278 0.45086042579757712 0 0.0048617880261327502 0.44584476697033082 0 0.0015605482097463411 0.45063228640423969 0 0.0080738590363113663 0.46132998490476868 0 0.01222090350615627 0.45893997922115709 0 0.0015605482097463411 0.45063228640423969 0 0.01222090350615627 0.45893997922115709 0 -0.0094095992007081283 0.46654139838691122 0 0.0053167838454733218 0.46943384557929257 0 0.0080738590363113663 0.46132998490476868 0 0.0094816941431487278 0.45086042579757712 0 0.0015605482097463411 0.45063228640423969 0 0.01222090350615627 0.45893997922115709 0 -0.0094095992007081283 0.46654139838691122 0 0.0015605482097463411 0.45063228640423969 0 0.0080738590363113663 0.46132998490476868 0 0.0080738590363113663 0.46132998490476868 0 0.01222090350615627 0.45893997922115709 0 0.025557317273330941 0.45611857142262657 0 0.01319884020628341 0.47022233111689332 0 0.0080738590363113663 0.46132998490476868 0 0.025557317273330941 0.45611857142262657 0 0.01319884020628341 0.47022233111689332 0 0.0053167838454733218 0.46943384557929257 0 0.0080738590363113663 0.46132998490476868 0 0.0094816941431487278 0.45086042579757712 0 0.01222090350615627 0.45893997922115709 0 0.016302396861864351 0.45114502888407948 0 0.01222090350615627 0.45893997922115709 0 0.025557317273330941 0.45611857142262657 0 0.016302396861864351 0.45114502888407948 0 0.0080738590363113663 0.46132998490476868 0 0.025557317273330941 0.45611857142262657 0 0.02313076419329519 0.4718947066398041 0 0.01319884020628341 0.47022233111689332 0 0.025557317273330941 0.45611857142262657 0 0.02313076419329519 0.4718947066398041 0 0.025557317273330941 0.45611857142262657 0 0.03521852719449324 0.46736449501777538 0 0.025557317273330941 0.45611857142262657 0 0.029497972404799989 0.4465970104894148 0 0.021231693005787571 0.44530579808828252 0 0.025557317273330941 0.45611857142262657 0 0.016302396861864351 0.45114502888407948 0 0.021231693005787571 0.44530579808828252 0 0.01399183751309625 0.44462120914047132 0 0.016302396861864351 0.45114502888407948 0 0.021231693005787571 0.44530579808828252 0 0.01399183751309625 0.44462120914047132 0 0.021231693005787571 0.44530579808828252 0 0.020379531913139331 0.43685778481219928 0 0.029497972404799989 0.4465970104894148 0 0.021231693005787571 0.44530579808828252 0 0.030311313049230751 0.43763339856834432 0 0.021231693005787571 0.44530579808828252 0 0.030311313049230751 0.43763339856834432 0 0.020379531913139331 0.43685778481219928 0 0.038697605999956301 0.44825738244890739 0 0.047700754303434179 0.45914614606098908 0 0.049120911240681603 0.43871921909148398 0 0.029497972404799989 0.4465970104894148 0 0.038697605999956301 0.44825738244890739 0 0.040333793699140981 0.43958103258297831 0 0.029497972404799989 0.4465970104894148 0 0.030311313049230751 0.43763339856834432 0 0.040333793699140981 0.43958103258297831 0 0.025557317273330941 0.45611857142262657 0 0.029497972404799989 0.4465970104894148 0 0.038697605999956301 0.44825738244890739 0 0.038697605999956301 0.44825738244890739 0 0.040333793699140981 0.43958103258297831 0 0.049120911240681603 0.43871921909148398 0 0.046280597366186747 0.47957307303049429 0 0.03521852719449324 0.46736449501777538 0 0.047700754303434179 0.45914614606098908 0 0.025557317273330941 0.45611857142262657 0 0.038697605999956301 0.44825738244890739 0 0.03521852719449324 0.46736449501777538 0 0.038697605999956301 0.44825738244890739 0 0.03521852719449324 0.46736449501777538 0 0.047700754303434179 0.45914614606098908 0 0.064346854003363874 0.46736183993319841 0 0.056076759981020123 0.44443419347066321 0 0.064346854003363874 0.46736183993319841 0 0.046280597366186747 0.47957307303049429 0 0.047700754303434179 0.45914614606098908 0 0.064346854003363874 0.46736183993319841 0 0.047700754303434179 0.45914614606098908 0 0.056076759981020123 0.44443419347066321 0 0.047700754303434179 0.45914614606098908 0 0.049120911240681603 0.43871921909148398 0 0.056076759981020123 0.44443419347066321 0 0.047700754303434179 0.45914614606098908 0 0.049120911240681603 0.43871921909148398 0 0.067859653170709522 0.45426422462270638 0 0.056076759981020123 0.44443419347066321 0 0.061556592319121653 0.44225761358074578 0 0.056076759981020123 0.44443419347066321 0 0.061556592319121653 0.44225761358074578 0 0.059201111644200437 0.43099696977894508 0 0.056076759981020123 0.44443419347066321 0 0.047806665958676359 0.42150654700812801 0 0.049120911240681603 0.43871921909148398 0 0.056076759981020123 0.44443419347066321 0 0.047806665958676359 0.42150654700812801 0 0.056076759981020123 0.44443419347066321 0 0.059201111644200437 0.43099696977894508 0 0.047806665958676359 0.42150654700812801 0 0.059201111644200437 0.43099696977894508 0 0.058979725365252707 0.4176193763442323 0 0.047806665958676359 0.42150654700812801 0 0.058979725365252707 0.4176193763442323 0 0.039536571936328653 0.39857890054559408 0 0.063240005814886313 0.40658319209587829 0 0.058979725365252707 0.4176193763442323 0 0.047806665958676359 0.42150654700812801 0 0.039536571936328653 0.39857890054559408 0 0.035113551011259521 0.41687403621696922 0 0.02872917033170445 0.40503675834663061 0 0.039536571936328653 0.39857890054559408 0 0.047806665958676359 0.42150654700812801 0 0.039536571936328653 0.39857890054559408 0 0.047806665958676359 0.42150654700812801 0 0.035113551011259521 0.41687403621696922 0 0.039536571936328653 0.39857890054559408 0 0.049120911240681603 0.43871921909148398 0 0.047806665958676359 0.42150654700812801 0 0.039708047704291503 0.4306454839277386 0 0.040333793699140981 0.43958103258297831 0 0.049120911240681603 0.43871921909148398 0 0.039708047704291503 0.4306454839277386 0 0.047806665958676359 0.42150654700812801 0 0.035113551011259521 0.41687403621696922 0 0.039708047704291503 0.4306454839277386 0 0.035113551011259521 0.41687403621696922 0 0.039708047704291503 0.4306454839277386 0 0.028741688689164512 0.42811504149697438 0 0.030311313049230751 0.43763339856834432 0 0.039708047704291503 0.4306454839277386 0 0.028741688689164512 0.42811504149697438 0 0.030311313049230751 0.43763339856834432 0 0.040333793699140981 0.43958103258297831 0 0.039708047704291503 0.4306454839277386 0 0.030311313049230751 0.43763339856834432 0 0.020379531913139331 0.43685778481219928 0 0.028741688689164512 0.42811504149697438 0 0.01049598620797234 0.43767394788706171 0 0.020379531913139331 0.43685778481219928 0 0.01750467301358458 0.42779731369206181 0 0.020379531913139331 0.43685778481219928 0 0.01750467301358458 0.42779731369206181 0 0.028741688689164512 0.42811504149697438 0 0.01750467301358458 0.42779731369206181 0 0.028741688689164512 0.42811504149697438 0 0.02615916144738779 0.41736148597675132 0 0.035113551011259521 0.41687403621696922 0 0.028741688689164512 0.42811504149697438 0 0.02615916144738779 0.41736148597675132 0 0.02615916144738779 0.41736148597675132 0 0.010437450069317761 0.40463061763750507 0 0.02872917033170445 0.40503675834663061 0 0.02615916144738779 0.41736148597675132 0 0.01517065216307991 0.41806138940930709 0 0.010437450069317761 0.40463061763750507 0 0.035113551011259521 0.41687403621696922 0 0.02615916144738779 0.41736148597675132 0 0.02872917033170445 0.40503675834663061 0 0.01750467301358458 0.42779731369206181 0 0.02615916144738779 0.41736148597675132 0 0.01517065216307991 0.41806138940930709 0 -0.003174347114314008 0.41591217031924949 0 0.0065813241220295041 0.42245614033091039 0 0.010437450069317761 0.40463061763750507 0 -0.0064316016559190746 0.3999483233353413 0 -0.003174347114314008 0.41591217031924949 0 0.010437450069317761 0.40463061763750507 0 0.01517065216307991 0.41806138940930709 0 0.0065813241220295041 0.42245614033091039 0 0.010437450069317761 0.40463061763750507 0 -0.003174347114314008 0.41591217031924949 0 0.010437450069317761 0.40463061763750507 0 -0.003174347114314008 0.41591217031924949 0 0.0065813241220295041 0.42245614033091039 0 -0.0026301228576318379 0.42717885202372191 0 -0.003174347114314008 0.41591217031924949 0 0.0065813241220295041 0.42245614033091039 0 -0.0026301228576318379 0.42717885202372191 0 0.0065813241220295041 0.42245614033091039 0 0.0065189226172944724 0.43188650626448272 0 -0.0026301228576318379 0.42717885202372191 0 0.0048617880261327502 0.44584476697033082 0 0.0065189226172944724 0.43188650626448272 0 0.01049598620797234 0.43767394788706171 0 0.01750467301358458 0.42779731369206181 0 0.0065189226172944724 0.43188650626448272 0 0.01750467301358458 0.42779731369206181 0 0.0065813241220295041 0.42245614033091039 0 0.0065189226172944724 0.43188650626448272 0 0.01750467301358458 0.42779731369206181 0 0.01517065216307991 0.41806138940930709 0 0.0065813241220295041 0.42245614033091039 0 -0.0042030409966118051 0.38380869400061962 0 0.01009735409817194 0.38238429504652488 0 0.02404924725294803 0.393349064955759 0 -0.0042030409966118051 0.38380869400061962 0 0.02404924725294803 0.393349064955759 0 0.01009735409817194 0.38238429504652488 0 0.0197357255374827 0.37571737083264412 0 0.011110712074150059 0.37343232972227269 0 -0.001064505034491721 0.37161458349227261 0 0.01009735409817194 0.38238429504652488 0 0.011110712074150059 0.37343232972227269 0 -0.001064505034491721 0.37161458349227261 0 -0.0042030409966118051 0.38380869400061962 0 0.01009735409817194 0.38238429504652488 0 -0.0042030409966118051 0.38380869400061962 0 0.01009735409817194 0.38238429504652488 0 -0.0042030409966118051 0.38380869400061962 0 0.010437450069317761 0.40463061763750507 0 0.02404924725294803 0.393349064955759 0 0.010437450069317761 0.40463061763750507 0 0.02872917033170445 0.40503675834663061 0 0.02404924725294803 0.393349064955759 0 0.010437450069317761 0.40463061763750507 0 0.02404924725294803 0.393349064955759 0 0.02872917033170445 0.40503675834663061 0 0.02404924725294803 0.393349064955759 0 0.039536571936328653 0.39857890054559408 0 0.02404924725294803 0.393349064955759 0 0.034519904376963118 0.38467091111880503 0 0.02404924725294803 0.393349064955759 0 0.0197357255374827 0.37571737083264412 0 0.034519904376963118 0.38467091111880503 0 0.01009735409817194 0.38238429504652488 0 0.02404924725294803 0.393349064955759 0 0.0197357255374827 0.37571737083264412 0 0.034519904376963118 0.38467091111880503 0 0.050307067216076778 0.37158640017128619 0 0.034519904376963118 0.38467091111880503 0 0.039536571936328653 0.39857890054559408 0 0.056773536515482913 0.38908479613358171 0 0.02404924725294803 0.393349064955759 0 0.039536571936328653 0.39857890054559408 0 0.034519904376963118 0.38467091111880503 0 0.039536571936328653 0.39857890054559408 0 0.02404924725294803 0.393349064955759 0 0.034519904376963118 0.38467091111880503 0 0.039536571936328653 0.39857890054559408 0 0.039536571936328653 0.39857890054559408 0 0.063240005814886313 0.40658319209587829 0 0.039536571936328653 0.39857890054559408 0 0.056773536515482913 0.38908479613358171 0 0.063240005814886313 0.40658319209587829 0 0.056773536515482913 0.38908479613358171 0 0.063240005814886313 0.40658319209587829 0 0.056773536515482913 0.38908479613358171 0 0.059721524030669819 0.37431687333309788 0 0.050307067216076778 0.37158640017128619 0 0.056773536515482913 0.38908479613358171 0 0.050307067216076778 0.37158640017128619 0 0.034519904376963118 0.38467091111880503 0 0.056773536515482913 0.38908479613358171 0 0.050307067216076778 0.37158640017128619 0 0.056773536515482913 0.38908479613358171 0 0.069041936002645535 0.37820082441249081 0 0.059721524030669819 0.37431687333309788 0 0.056773536515482913 0.38908479613358171 0 0.069041936002645535 0.37820082441249081 0 0.068225210254675303 0.39186969982647402 0 0.069041936002645535 0.37820082441249081 0 0.078928226936330073 0.3918395352538776 0 0.068225210254675303 0.39186969982647402 0 0.069041936002645535 0.37820082441249081 0 0.087739402474845588 0.37833299208434412 0 0.078928226936330073 0.3918395352538776 0 0.087739402474845588 0.37833299208434412 0 0.078928226936330073 0.3918395352538776 0 0.094443419551670932 0.40508992778400232 0 0.078928226936330073 0.3918395352538776 0 0.080832552055978585 0.40498983155533402 0 0.094443419551670932 0.40508992778400232 0 0.080832552055978585 0.40498983155533402 0 0.073695702888484968 0.40005040040525608 0 0.075088081656536507 0.41058410832735293 0 0.078928226936330073 0.3918395352538776 0 0.080832552055978585 0.40498983155533402 0 0.073695702888484968 0.40005040040525608 0 0.056773536515482913 0.38908479613358171 0 0.068225210254675303 0.39186969982647402 0 0.063240005814886313 0.40658319209587829 0 0.073695702888484968 0.40005040040525608 0 0.063240005814886313 0.40658319209587829 0 0.075088081656536507 0.41058410832735293 0 0.078928226936330073 0.3918395352538776 0 0.073695702888484968 0.40005040040525608 0 0.068225210254675303 0.39186969982647402 0 0.073695702888484968 0.40005040040525608 0 0.068225210254675303 0.39186969982647402 0 0.063240005814886313 0.40658319209587829 0 0.058979725365252707 0.4176193763442323 0 0.063240005814886313 0.40658319209587829 0 0.071585814596931419 0.42916711849095618 0 0.063240005814886313 0.40658319209587829 0 0.075088081656536507 0.41058410832735293 0 0.071585814596931419 0.42916711849095618 0 0.063240005814886313 0.40658319209587829 0 0.071585814596931419 0.42916711849095618 0 0.063240005814886313 0.40658319209587829 0 0.075088081656536507 0.41058410832735293 0 0.075088081656536507 0.41058410832735293 0 0.071585814596931419 0.42916711849095618 0 0.082007329246870417 0.41738518600618091 0 0.061556592319121653 0.44225761358074578 0 0.059201111644200437 0.43099696977894508 0 0.071585814596931419 0.42916711849095618 0 0.07540768018483697 0.44030754071393319 0 0.061556592319121653 0.44225761358074578 0 0.071585814596931419 0.42916711849095618 0 0.059201111644200437 0.43099696977894508 0 0.058979725365252707 0.4176193763442323 0 0.071585814596931419 0.42916711849095618 0 0.07540768018483697 0.44030754071393319 0 0.071585814596931419 0.42916711849095618 0 0.08764391112498858 0.43163178618934439 0 0.071585814596931419 0.42916711849095618 0 0.08764391112498858 0.43163178618934439 0 0.082007329246870417 0.41738518600618091 0 0.08764391112498858 0.43163178618934439 0 0.082007329246870417 0.41738518600618091 0 0.094443419551670932 0.40508992778400232 0 0.08764391112498858 0.43163178618934439 0 0.094443419551670932 0.40508992778400232 0 0.080832552055978585 0.40498983155533402 0 0.075088081656536507 0.41058410832735293 0 0.082007329246870417 0.41738518600618091 0 0.080832552055978585 0.40498983155533402 0 0.082007329246870417 0.41738518600618091 0 0.094443419551670932 0.40508992778400232 0 0.08764391112498858 0.43163178618934439 0 0.1096581763989177 0.42409154504396013 0 0.094443419551670932 0.40508992778400232 0 0.1096581763989177 0.42409154504396013 0 0.11163148259572971 0.40863234267508453 0 0.094443419551670932 0.40508992778400232 0 0.1057649319772677 0.43759517983083812 0 0.08764391112498858 0.43163178618934439 0 0.1096581763989177 0.42409154504396013 0 0.1237280261196836 0.44463014715047522 0 0.1096581763989177 0.42409154504396013 0 0.13502200614688589 0.42010390008240672 0 0.1237280261196836 0.44463014715047522 0 0.1057649319772677 0.43759517983083812 0 0.1096581763989177 0.42409154504396013 0 0.11163148259572971 0.40863234267508453 0 0.1236499924648251 0.3984302041169589 0 0.13502200614688589 0.42010390008240672 0 0.1096581763989177 0.42409154504396013 0 0.11163148259572971 0.40863234267508453 0 0.13502200614688589 0.42010390008240672 0 0.11163148259572971 0.40863234267508453 0 0.1236499924648251 0.3984302041169589 0 0.10863659533572551 0.39290197353284961 0 0.10863659533572551 0.39290197353284961 0 0.114060711710889 0.37342974127053702 0 0.12550685613774351 0.37951055496914998 0 0.1236499924648251 0.3984302041169589 0 0.10863659533572551 0.39290197353284961 0 0.12550685613774351 0.37951055496914998 0 0.1012429279783533 0.37854806937866009 0 0.10863659533572551 0.39290197353284961 0 0.114060711710889 0.37342974127053702 0 0.087739402474845588 0.37833299208434412 0 0.1012429279783533 0.37854806937866009 0 0.094443419551670932 0.40508992778400232 0 0.11163148259572971 0.40863234267508453 0 0.10863659533572551 0.39290197353284961 0 0.094443419551670932 0.40508992778400232 0 0.1012429279783533 0.37854806937866009 0 0.094443419551670932 0.40508992778400232 0 0.1012429279783533 0.37854806937866009 0 0.10863659533572551 0.39290197353284961 0 0.094443419551670932 0.40508992778400232 0 0.10055213054656729 0.36013865237867942 0 0.1100489009895301 0.33374314175173209 0 0.10055213054656729 0.36013865237867942 0 0.1100489009895301 0.33374314175173209 0 0.08625589277749264 0.346999797836966 0 0.1069344999541316 0.36147573913557879 0 0.10055213054656729 0.36013865237867942 0 0.1165634558871128 0.3492406052842485 0 0.10055213054656729 0.36013865237867942 0 0.1165634558871128 0.3492406052842485 0 0.1100489009895301 0.33374314175173209 0 0.087739402474845588 0.37833299208434412 0 0.1012429279783533 0.37854806937866009 0 0.1069344999541316 0.36147573913557879 0 0.1012429279783533 0.37854806937866009 0 0.1069344999541316 0.36147573913557879 0 0.114060711710889 0.37342974127053702 0 0.1069344999541316 0.36147573913557879 0 0.10055213054656729 0.36013865237867942 0 0.081229983254247365 0.36650003300062722 0 0.1069344999541316 0.36147573913557879 0 0.081229983254247365 0.36650003300062722 0 0.114060711710889 0.37342974127053702 0 0.1326390166540157 0.35645144527053041 0 0.12550685613774351 0.37951055496914998 0 0.1069344999541316 0.36147573913557879 0 0.114060711710889 0.37342974127053702 0 0.1326390166540157 0.35645144527053041 0 0.1069344999541316 0.36147573913557879 0 0.1165634558871128 0.3492406052842485 0 0.1326390166540157 0.35645144527053041 0 0.1069344999541316 0.36147573913557879 0 0.1326390166540157 0.35645144527053041 0 0.1165634558871128 0.3492406052842485 0 0.1100489009895301 0.33374314175173209 0 0.13264273129131951 0.33439404788472138 0 0.1100489009895301 0.33374314175173209 0 0.099713977183769634 0.31807175575135088 0 0.11954567143249289 0.30734763112478491 0 0.1100489009895301 0.33374314175173209 0 0.11954567143249289 0.30734763112478491 0 0.13264273129131951 0.33439404788472138 0 0.1100489009895301 0.33374314175173209 0 0.11954567143249289 0.30734763112478491 0 0.1100489009895301 0.33374314175173209 0 0.099713977183769634 0.31807175575135088 0 0.083894735805945045 0.32735700357097808 0 0.1100489009895301 0.33374314175173209 0 0.083894735805945045 0.32735700357097808 0 0.08625589277749264 0.346999797836966 0 0.083894735805945045 0.32735700357097808 0 0.068148884279383815 0.34110740296781622 0 0.08625589277749264 0.346999797836966 0 0.099713977183769634 0.31807175575135088 0 0.083894735805945045 0.32735700357097808 0 0.079241751540062577 0.3091409184095229 0 0.083894735805945045 0.32735700357097808 0 0.067542665246266162 0.32227296773822012 0 0.079241751540062577 0.3091409184095229 0 0.067542665246266162 0.32227296773822012 0 0.068148884279383815 0.34110740296781622 0 0.052098030758102709 0.32848813316288678 0 0.083894735805945045 0.32735700357097808 0 0.067542665246266162 0.32227296773822012 0 0.068148884279383815 0.34110740296781622 0 0.068148884279383815 0.34110740296781622 0 0.072981575438615956 0.35429511825148829 0 0.08625589277749264 0.346999797836966 0 0.068148884279383815 0.34110740296781622 0 0.072981575438615956 0.35429511825148829 0 0.059971533893319953 0.35265308331869138 0 0.072981575438615956 0.35429511825148829 0 0.066555082361941326 0.36578627017444021 0 0.059971533893319953 0.35265308331869138 0 0.10055213054656729 0.36013865237867942 0 0.08625589277749264 0.346999797836966 0 0.081229983254247365 0.36650003300062722 0 0.072981575438615956 0.35429511825148829 0 0.08625589277749264 0.346999797836966 0 0.081229983254247365 0.36650003300062722 0 0.087739402474845588 0.37833299208434412 0 0.1069344999541316 0.36147573913557879 0 0.081229983254247365 0.36650003300062722 0 0.069041936002645535 0.37820082441249081 0 0.087739402474845588 0.37833299208434412 0 0.081229983254247365 0.36650003300062722 0 0.069041936002645535 0.37820082441249081 0 0.081229983254247365 0.36650003300062722 0 0.066555082361941326 0.36578627017444021 0 0.072981575438615956 0.35429511825148829 0 0.081229983254247365 0.36650003300062722 0 0.066555082361941326 0.36578627017444021 0 0.069041936002645535 0.37820082441249081 0 0.066555082361941326 0.36578627017444021 0 0.059721524030669819 0.37431687333309788 0 0.055929998057201551 0.36692607577369102 0 0.050307067216076778 0.37158640017128619 0 0.041108453413194898 0.34669476624024848 0 0.066555082361941326 0.36578627017444021 0 0.059721524030669819 0.37431687333309788 0 0.055929998057201551 0.36692607577369102 0 0.059721524030669819 0.37431687333309788 0 0.055929998057201551 0.36692607577369102 0 0.050307067216076778 0.37158640017128619 0 0.066555082361941326 0.36578627017444021 0 0.055929998057201551 0.36692607577369102 0 0.059971533893319953 0.35265308331869138 0 0.055929998057201551 0.36692607577369102 0 0.050307067216076778 0.37158640017128619 0 0.055929998057201551 0.36692607577369102 0 0.059971533893319953 0.35265308331869138 0 0.041108453413194898 0.34669476624024848 0 0.059971533893319953 0.35265308331869138 0 0.041108453413194898 0.34669476624024848 0 0.053731959496234848 0.34189436452501393 0 0.068148884279383815 0.34110740296781622 0 0.059971533893319953 0.35265308331869138 0 0.053731959496234848 0.34189436452501393 0 0.050307067216076778 0.37158640017128619 0 0.041108453413194898 0.34669476624024848 0 0.036325720293778493 0.35734230210966361 0 0.050307067216076778 0.37158640017128619 0 0.041108453413194898 0.34669476624024848 0 0.041108453413194898 0.34669476624024848 0 0.036325720293778493 0.35734230210966361 0 0.028822601092593811 0.34272768621728472 0 0.034519904376963118 0.38467091111880503 0 0.036565816098641138 0.36791040757449411 0 0.02482466364838485 0.35779225034500489 0 0.034519904376963118 0.38467091111880503 0 0.050307067216076778 0.37158640017128619 0 0.036565816098641138 0.36791040757449411 0 0.050307067216076778 0.37158640017128619 0 0.036325720293778493 0.35734230210966361 0 0.036565816098641138 0.36791040757449411 0 0.036325720293778493 0.35734230210966361 0 0.036565816098641138 0.36791040757449411 0 0.02482466364838485 0.35779225034500489 0 0.034519904376963118 0.38467091111880503 0 0.02482466364838485 0.35779225034500489 0 0.0197357255374827 0.37571737083264412 0 0.034519904376963118 0.38467091111880503 0 0.02482466364838485 0.35779225034500489 0 0.0197357255374827 0.37571737083264412 0 0.015674273695437339 0.36401306951764911 0 0.02482466364838485 0.35779225034500489 0 0.015674273695437339 0.36401306951764911 0 0.02482466364838485 0.35779225034500489 0 0.015768167676543349 0.35713923686247862 0 0.02482466364838485 0.35779225034500489 0 0.01512942291980679 0.33091358957120492 0 0.02482466364838485 0.35779225034500489 0 0.01512942291980679 0.33091358957120492 0 0.028822601092593811 0.34272768621728472 0 0.036325720293778493 0.35734230210966361 0 0.02482466364838485 0.35779225034500489 0 0.028822601092593811 0.34272768621728472 0 0.02482466364838485 0.35779225034500489 0 0.012196298529549159 0.34905700984651278 0 0.01512942291980679 0.33091358957120492 0 0.02482466364838485 0.35779225034500489 0 0.015768167676543349 0.35713923686247862 0 0.012196298529549159 0.34905700984651278 0 0.01037743483280206 0.35769461774074762 0 0.012196298529549159 0.34905700984651278 0 0.0032447233134405931 0.35422125060834359 0 0.015768167676543349 0.35713923686247862 0 0.01037743483280206 0.35769461774074762 0 0.012196298529549159 0.34905700984651278 0 -0.002583240235104544 0.34489224502179239 0 0.012196298529549159 0.34905700984651278 0 0.0065182143906638264 0.33911035096943482 0 -0.002583240235104544 0.34489224502179239 0 0.012196298529549159 0.34905700984651278 0 0.0032447233134405931 0.35422125060834359 0 0.01037743483280206 0.35769461774074762 0 0.0032447233134405931 0.35422125060834359 0 0.0039428335920915006 0.36531030276633031 0 -0.0064988099748367559 0.35299106404641623 0 0.0032447233134405931 0.35422125060834359 0 0.0039428335920915006 0.36531030276633031 0 -0.001064505034491721 0.37161458349227261 0 0.015674273695437339 0.36401306951764911 0 0.0039428335920915006 0.36531030276633031 0 -0.001064505034491721 0.37161458349227261 0 0.015674273695437339 0.36401306951764911 0 0.011110712074150059 0.37343232972227269 0 -0.001064505034491721 0.37161458349227261 0 0.015674273695437339 0.36401306951764911 0 0.0197357255374827 0.37571737083264412 0 0.015674273695437339 0.36401306951764911 0 0.011110712074150059 0.37343232972227269 0 0.015674273695437339 0.36401306951764911 0 0.01037743483280206 0.35769461774074762 0 0.0039428335920915006 0.36531030276633031 0 0.015674273695437339 0.36401306951764911 0 0.015768167676543349 0.35713923686247862 0 0.01037743483280206 0.35769461774074762 0 -0.00058836015198596755 0.32088344941533808 0 0.01512942291980679 0.33091358957120492 0 0.0054341821912287152 0.30403492879740468 0 0.01512942291980679 0.33091358957120492 0 0.0054341821912287152 0.30403492879740468 0 0.01512942291980679 0.33091358957120492 0 0.018796167632194181 0.3134157872639986 0 0.0054341821912287152 0.30403492879740468 0 0.012196298529549159 0.34905700984651278 0 0.01512942291980679 0.33091358957120492 0 0.0065182143906638264 0.33911035096943482 0 -0.0025616559074486049 0.3329031852911295 0 -0.00058836015198596755 0.32088344941533808 0 0.01512942291980679 0.33091358957120492 0 -0.0025616559074486049 0.3329031852911295 0 0.01512942291980679 0.33091358957120492 0 0.0065182143906638264 0.33911035096943482 0 -0.0025616559074486049 0.3329031852911295 0 -0.002583240235104544 0.34489224502179239 0 0.0065182143906638264 0.33911035096943482 0 0.01512942291980679 0.33091358957120492 0 0.028822601092593811 0.34272768621728472 0 0.031909839610312053 0.3218031323092112 0 0.01512942291980679 0.33091358957120492 0 0.018796167632194181 0.3134157872639986 0 0.031909839610312053 0.3218031323092112 0 0.031909839610312053 0.3218031323092112 0 0.052098030758102709 0.32848813316288678 0 0.054329923847836643 0.30527138057989611 0 0.041108453413194898 0.34669476624024848 0 0.031909839610312053 0.3218031323092112 0 0.041108453413194898 0.34669476624024848 0 0.028822601092593811 0.34272768621728472 0 0.031909839610312053 0.3218031323092112 0 0.041108453413194898 0.34669476624024848 0 0.031909839610312053 0.3218031323092112 0 0.052098030758102709 0.32848813316288678 0 0.041108453413194898 0.34669476624024848 0 0.052098030758102709 0.32848813316288678 0 0.053731959496234848 0.34189436452501393 0 0.068148884279383815 0.34110740296781622 0 0.052098030758102709 0.32848813316288678 0 0.053731959496234848 0.34189436452501393 0 0.067542665246266162 0.32227296773822012 0 0.052098030758102709 0.32848813316288678 0 0.054329923847836643 0.30527138057989611 0 0.054329923847836643 0.30527138057989611 0 0.058643640903709077 0.2841886380467647 0 0.070108093408202884 0.28237758711201172 0 0.054329923847836643 0.30527138057989611 0 0.058643640903709077 0.2841886380467647 0 0.046708945964444748 0.28470371633566799 0 0.054329923847836643 0.30527138057989611 0 0.070108093408202884 0.28237758711201172 0 0.033299114928103571 0.2853556706935409 0 0.038381760441483573 0.30030485014671859 0 0.022711225807429191 0.29691149837817382 0 0.054329923847836643 0.30527138057989611 0 0.046708945964444748 0.28470371633566799 0 0.038381760441483573 0.30030485014671859 0 0.046708945964444748 0.28470371633566799 0 0.033299114928103571 0.2853556706935409 0 0.038381760441483573 0.30030485014671859 0 0.031909839610312053 0.3218031323092112 0 0.054329923847836643 0.30527138057989611 0 0.038381760441483573 0.30030485014671859 0 0.031909839610312053 0.3218031323092112 0 0.022711225807429191 0.29691149837817382 0 0.018796167632194181 0.3134157872639986 0 0.031909839610312053 0.3218031323092112 0 0.022711225807429191 0.29691149837817382 0 0.018796167632194181 0.3134157872639986 0 0.022711225807429191 0.29691149837817382 0 0.0054341821912287152 0.30403492879740468 0 0.031909839610312053 0.3218031323092112 0 0.038381760441483573 0.30030485014671859 0 0.022711225807429191 0.29691149837817382 0 0.022711225807429191 0.29691149837817382 0 0.0097135815956244098 0.28932323485025419 0 0.01496997692118909 0.27919024420183391 0 0.033299114928103571 0.2853556706935409 0 0.022711225807429191 0.29691149837817382 0 0.01496997692118909 0.27919024420183391 0 -0.0042610585373493576 0.2771562680236046 0 0.0097135815956244098 0.28932323485025419 0 0.01496997692118909 0.27919024420183391 0 -0.0042610585373493576 0.2771562680236046 0 0.0097135815956244098 0.28932323485025419 0 0.0054341821912287152 0.30403492879740468 0 0.022711225807429191 0.29691149837817382 0 0.0097135815956244098 0.28932323485025419 0 0.0054341821912287152 0.30403492879740468 0 -0.0042610585373493576 0.2771562680236046 0 0.0054341821912287152 0.30403492879740468 0 0.012156823249103331 0.25259817100369902 0 0.0071094060709509964 0.26564087220093879 0 0.023079021189564172 0.26593697868694532 0 -0.0082457657602449386 0.25246627485226031 0 0.012156823249103331 0.25259817100369902 0 0.0071094060709509964 0.26564087220093879 0 0.0071094060709509964 0.26564087220093879 0 0.01496997692118909 0.27919024420183391 0 0.023079021189564172 0.26593697868694532 0 -0.0042610585373493576 0.2771562680236046 0 0.0071094060709509964 0.26564087220093879 0 0.01496997692118909 0.27919024420183391 0 0.033299114928103571 0.2853556706935409 0 0.01496997692118909 0.27919024420183391 0 0.023079021189564172 0.26593697868694532 0 0.012156823249103331 0.25259817100369902 0 0.023079021189564172 0.26593697868694532 0 0.030652172791378579 0.25229956247347313 0 0.023079021189564172 0.26593697868694532 0 0.030652172791378579 0.25229956247347313 0 0.04073495957405681 0.26035892983227987 0 0.044937254539659167 0.2379713478153713 0 0.030652172791378579 0.25229956247347313 0 0.04073495957405681 0.26035892983227987 0 0.033299114928103571 0.2853556706935409 0 0.023079021189564172 0.26593697868694532 0 0.04073495957405681 0.26035892983227987 0 0.033299114928103571 0.2853556706935409 0 0.04073495957405681 0.26035892983227987 0 0.046708945964444748 0.28470371633566799 0 0.033299114928103571 0.2853556706935409 0 0.04073495957405681 0.26035892983227987 0 0.046708945964444748 0.28470371633566799 0 0.04073495957405681 0.26035892983227987 0 0.054656664038459993 0.27221644551962948 0 0.058643640903709077 0.2841886380467647 0 0.046708945964444748 0.28470371633566799 0 0.054656664038459993 0.27221644551962948 0 0.054656664038459993 0.27221644551962948 0 0.05595459183600883 0.25980758553240452 0 0.063151913248908592 0.26702092668087168 0 0.054656664038459993 0.27221644551962948 0 0.063151913248908592 0.26702092668087168 0 0.062868354845155253 0.27542318723842002 0 0.058643640903709077 0.2841886380467647 0 0.054656664038459993 0.27221644551962948 0 0.062868354845155253 0.27542318723842002 0 0.058643640903709077 0.2841886380467647 0 0.062868354845155253 0.27542318723842002 0 0.06481936793225318 0.27971168374165578 0 0.052294646587479003 0.2493466198794505 0 0.04073495957405681 0.26035892983227987 0 0.05595459183600883 0.25980758553240452 0 0.04073495957405681 0.26035892983227987 0 0.054656664038459993 0.27221644551962948 0 0.05595459183600883 0.25980758553240452 0 0.05595459183600883 0.25980758553240452 0 0.066495423171073403 0.25816184380531082 0 0.063151913248908592 0.26702092668087168 0 0.052294646587479003 0.2493466198794505 0 0.05595459183600883 0.25980758553240452 0 0.06034442261467237 0.25120339486286308 0 0.05595459183600883 0.25980758553240452 0 0.06034442261467237 0.25120339486286308 0 0.066495423171073403 0.25816184380531082 0 0.067445722382230539 0.24771064348785149 0 0.066495423171073403 0.25816184380531082 0 0.074707437689247702 0.25389633834412328 0 0.067445722382230539 0.24771064348785149 0 0.06034442261467237 0.25120339486286308 0 0.066495423171073403 0.25816184380531082 0 0.066495423171073403 0.25816184380531082 0 0.070468357435777063 0.2657419037057816 0 0.063151913248908592 0.26702092668087168 0 0.066495423171073403 0.25816184380531082 0 0.074357597956477339 0.26064435546358339 0 0.070468357435777063 0.2657419037057816 0 0.074357597956477339 0.26064435546358339 0 0.075194191089397802 0.26640127341757941 0 0.070468357435777063 0.2657419037057816 0 0.074357597956477339 0.26064435546358339 0 0.080427883817154544 0.25791465254204288 0 0.078852294536213494 0.26175012096666261 0 0.074357597956477339 0.26064435546358339 0 0.078852294536213494 0.26175012096666261 0 0.075194191089397802 0.26640127341757941 0 0.066495423171073403 0.25816184380531082 0 0.074357597956477339 0.26064435546358339 0 0.074707437689247702 0.25389633834412328 0 0.074357597956477339 0.26064435546358339 0 0.074707437689247702 0.25389633834412328 0 0.080427883817154544 0.25791465254204288 0 0.085975255819246227 0.24304742420893821 0 0.080478695998155714 0.25165019938018113 0 0.085886262968569133 0.25948379364412733 0 0.080478695998155714 0.25165019938018113 0 0.080427883817154544 0.25791465254204288 0 0.085886262968569133 0.25948379364412733 0 0.10166443252893551 0.23659000017624271 0 0.085886262968569133 0.25948379364412733 0 0.093061372415253377 0.25945310375487363 0 0.074707437689247702 0.25389633834412328 0 0.080478695998155714 0.25165019938018113 0 0.080427883817154544 0.25791465254204288 0 0.078852294536213494 0.26175012096666261 0 0.085886262968569133 0.25948379364412733 0 0.075194191089397802 0.26640127341757941 0 0.080427883817154544 0.25791465254204288 0 0.078852294536213494 0.26175012096666261 0 0.085886262968569133 0.25948379364412733 0 0.093061372415253377 0.25945310375487363 0 0.088669334409182038 0.27365465257629329 0 0.074192652952093263 0.28111713417870732 0 0.093061372415253377 0.25945310375487363 0 0.074192652952093263 0.28111713417870732 0 0.085886262968569133 0.25948379364412733 0 0.093061372415253377 0.25945310375487363 0 0.074192652952093263 0.28111713417870732 0 0.088669334409182038 0.27365465257629329 0 0.090629520296699906 0.27989165378522829 0 0.096617072050330918 0.27420358010706619 0 0.088669334409182038 0.27365465257629329 0 0.090629520296699906 0.27989165378522829 0 0.083300485689734874 0.28178689503457671 0 0.093061372415253377 0.25945310375487363 0 0.088669334409182038 0.27365465257629329 0 0.097208854645582696 0.26674380090640232 0 0.088669334409182038 0.27365465257629329 0 0.074192652952093263 0.28111713417870732 0 0.083300485689734874 0.28178689503457671 0 0.085886262968569133 0.25948379364412733 0 0.072732619288592745 0.27411268144752271 0 0.070108093408202884 0.28237758711201172 0 0.085886262968569133 0.25948379364412733 0 0.074192652952093263 0.28111713417870732 0 0.070108093408202884 0.28237758711201172 0 0.085886262968569133 0.25948379364412733 0 0.070108093408202884 0.28237758711201172 0 0.085886262968569133 0.25948379364412733 0 0.072732619288592745 0.27411268144752271 0 0.075194191089397802 0.26640127341757941 0 0.072732619288592745 0.27411268144752271 0 0.075194191089397802 0.26640127341757941 0 0.068678803079962825 0.27092621584326698 0 0.075194191089397802 0.26640127341757941 0 0.070468357435777063 0.2657419037057816 0 0.068678803079962825 0.27092621584326698 0 0.068678803079962825 0.27092621584326698 0 0.063151913248908592 0.26702092668087168 0 0.062868354845155253 0.27542318723842002 0 0.070468357435777063 0.2657419037057816 0 0.068678803079962825 0.27092621584326698 0 0.063151913248908592 0.26702092668087168 0 0.072732619288592745 0.27411268144752271 0 0.067657382571945521 0.27685732256942691 0 0.070108093408202884 0.28237758711201172 0 0.067657382571945521 0.27685732256942691 0 0.06481936793225318 0.27971168374165578 0 0.070108093408202884 0.28237758711201172 0 0.072732619288592745 0.27411268144752271 0 0.068678803079962825 0.27092621584326698 0 0.067657382571945521 0.27685732256942691 0 0.067657382571945521 0.27685732256942691 0 0.062868354845155253 0.27542318723842002 0 0.06481936793225318 0.27971168374165578 0 0.068678803079962825 0.27092621584326698 0 0.067657382571945521 0.27685732256942691 0 0.062868354845155253 0.27542318723842002 0 0.058643640903709077 0.2841886380467647 0 0.06481936793225318 0.27971168374165578 0 0.070108093408202884 0.28237758711201172 0 0.054329923847836643 0.30527138057989611 0 0.070108093408202884 0.28237758711201172 0 0.07616196246918229 0.29401120062856562 0 0.070108093408202884 0.28237758711201172 0 0.07616196246918229 0.29401120062856562 0 0.077305327314718786 0.28670206069564769 0 0.074192652952093263 0.28111713417870732 0 0.070108093408202884 0.28237758711201172 0 0.077305327314718786 0.28670206069564769 0 0.054329923847836643 0.30527138057989611 0 0.07616196246918229 0.29401120062856562 0 0.079241751540062577 0.3091409184095229 0 0.067542665246266162 0.32227296773822012 0 0.054329923847836643 0.30527138057989611 0 0.079241751540062577 0.3091409184095229 0 0.07616196246918229 0.29401120062856562 0 0.079241751540062577 0.3091409184095229 0 0.093760017070794913 0.30048783451418309 0 0.099713977183769634 0.31807175575135088 0 0.079241751540062577 0.3091409184095229 0 0.093760017070794913 0.30048783451418309 0 0.07616196246918229 0.29401120062856562 0 0.086675975183887061 0.28808357667035972 0 0.093760017070794913 0.30048783451418309 0 0.074192652952093263 0.28111713417870732 0 0.077305327314718786 0.28670206069564769 0 0.083300485689734874 0.28178689503457671 0 0.077305327314718786 0.28670206069564769 0 0.083300485689734874 0.28178689503457671 0 0.086675975183887061 0.28808357667035972 0 0.07616196246918229 0.29401120062856562 0 0.077305327314718786 0.28670206069564769 0 0.086675975183887061 0.28808357667035972 0 0.090629520296699906 0.27989165378522829 0 0.083300485689734874 0.28178689503457671 0 0.086675975183887061 0.28808357667035972 0 0.090629520296699906 0.27989165378522829 0 0.086675975183887061 0.28808357667035972 0 0.1012207646153751 0.28627192450051492 0 0.086675975183887061 0.28808357667035972 0 0.1012207646153751 0.28627192450051492 0 0.093760017070794913 0.30048783451418309 0 0.099713977183769634 0.31807175575135088 0 0.093760017070794913 0.30048783451418309 0 0.11954567143249289 0.30734763112478491 0 0.1012207646153751 0.28627192450051492 0 0.093760017070794913 0.30048783451418309 0 0.11954567143249289 0.30734763112478491 0 0.11954567143249289 0.30734763112478491 0 0.1141818460752707 0.27714397317686529 0 0.12904244187545569 0.2809521204978378 0 0.1012207646153751 0.28627192450051492 0 0.11954567143249289 0.30734763112478491 0 0.1141818460752707 0.27714397317686529 0 0.11954567143249289 0.30734763112478491 0 0.12904244187545569 0.2809521204978378 0 0.1141818460752707 0.27714397317686529 0 0.11615378911320511 0.26032519799560372 0 0.1048644735931679 0.26655228778042589 0 0.1141818460752707 0.27714397317686529 0 0.11615378911320511 0.26032519799560372 0 0.12904244187545569 0.2809521204978378 0 0.1152979079485152 0.2467056018988516 0 0.1250676346401875 0.24796443701554319 0 0.11615378911320511 0.26032519799560372 0 0.1152979079485152 0.2467056018988516 0 0.11615378911320511 0.26032519799560372 0 0.10650461767427161 0.25132517155921902 0 0.11615378911320511 0.26032519799560372 0 0.1028320207599793 0.25985538031335248 0 0.1048644735931679 0.26655228778042589 0 0.1028320207599793 0.25985538031335248 0 0.097208854645582696 0.26674380090640232 0 0.1048644735931679 0.26655228778042589 0 0.11615378911320511 0.26032519799560372 0 0.1028320207599793 0.25985538031335248 0 0.10650461767427161 0.25132517155921902 0 0.093061372415253377 0.25945310375487363 0 0.1028320207599793 0.25985538031335248 0 0.10650461767427161 0.25132517155921902 0 0.093061372415253377 0.25945310375487363 0 0.1028320207599793 0.25985538031335248 0 0.097208854645582696 0.26674380090640232 0 0.088669334409182038 0.27365465257629329 0 0.097208854645582696 0.26674380090640232 0 0.096617072050330918 0.27420358010706619 0 0.097208854645582696 0.26674380090640232 0 0.096617072050330918 0.27420358010706619 0 0.1048644735931679 0.26655228778042589 0 0.1141818460752707 0.27714397317686529 0 0.096617072050330918 0.27420358010706619 0 0.1048644735931679 0.26655228778042589 0 0.1012207646153751 0.28627192450051492 0 0.1141818460752707 0.27714397317686529 0 0.096617072050330918 0.27420358010706619 0 0.090629520296699906 0.27989165378522829 0 0.1012207646153751 0.28627192450051492 0 0.096617072050330918 0.27420358010706619 0 0.1384713120865835 0.25773302092121009 0 0.12904244187545569 0.2809521204978378 0 0.15915390062653459 0.27760612704708998 0 0.1514273965657848 0.24085309905483679 0 0.1384713120865835 0.25773302092121009 0 0.156278998070083 0.25778272565978 0 0.1384713120865835 0.25773302092121009 0 0.15915390062653459 0.27760612704708998 0 0.156278998070083 0.25778272565978 0 0.1250676346401875 0.24796443701554319 0 0.11615378911320511 0.26032519799560372 0 0.1384713120865835 0.25773302092121009 0 0.11615378911320511 0.26032519799560372 0 0.1384713120865835 0.25773302092121009 0 0.12904244187545569 0.2809521204978378 0 0.11954567143249289 0.30734763112478491 0 0.12904244187545569 0.2809521204978378 0 0.14488164426314301 0.29594920495010729 0 0.11954567143249289 0.30734763112478491 0 0.14488164426314301 0.29594920495010729 0 0.15139514334923471 0.31791608062108467 0 0.14488164426314301 0.29594920495010729 0 0.16637322996135739 0.30016678813796199 0 0.15139514334923471 0.31791608062108467 0 0.12904244187545569 0.2809521204978378 0 0.14488164426314301 0.29594920495010729 0 0.15915390062653459 0.27760612704708998 0 0.14488164426314301 0.29594920495010729 0 0.16637322996135739 0.30016678813796199 0 0.15915390062653459 0.27760612704708998 0 0.16637322996135739 0.30016678813796199 0 0.18265278236186541 0.28020603593405619 0 0.15915390062653459 0.27760612704708998 0 0.16637322996135739 0.30016678813796199 0 0.18588027836364171 0.30417070427619303 0 0.17427563080372541 0.32515257599924119 0 0.16637322996135739 0.30016678813796199 0 0.18588027836364171 0.30417070427619303 0 0.18265278236186541 0.28020603593405619 0 0.18265278236186541 0.28020603593405619 0 0.15915390062653459 0.27760612704708998 0 0.17660728565697029 0.25284173787090108 0 0.18265278236186541 0.28020603593405619 0 0.17660728565697029 0.25284173787090108 0 0.20178717474815569 0.26483037668696541 0 0.1514273965657848 0.24085309905483679 0 0.156278998070083 0.25778272565978 0 0.17660728565697029 0.25284173787090108 0 0.15915390062653459 0.27760612704708998 0 0.156278998070083 0.25778272565978 0 0.17660728565697029 0.25284173787090108 0 0.1971008006350988 0.24422433182354611 0 0.17660728565697029 0.25284173787090108 0 0.20178717474815569 0.26483037668696541 0 0.17660728565697029 0.25284173787090108 0 0.20178717474815569 0.26483037668696541 0 0.18265278236186541 0.28020603593405619 0 0.20178717474815569 0.26483037668696541 0 0.20721699074389299 0.28586320426344869 0 0.20178717474815569 0.26483037668696541 0 0.22696706383934109 0.27681901550302962 0 0.20721699074389299 0.28586320426344869 0 0.20178717474815569 0.26483037668696541 0 0.22696706383934109 0.27681901550302962 0 0.1971008006350988 0.24422433182354611 0 0.20178717474815569 0.26483037668696541 0 0.2257125065402284 0.25431107802280528 0 0.20178717474815569 0.26483037668696541 0 0.2257125065402284 0.25431107802280528 0 0.22696706383934109 0.27681901550302962 0 0.2257125065402284 0.25431107802280528 0 0.23435940432808119 0.2558835225658645 0 0.2376751292839718 0.27741240132337408 0 0.2257125065402284 0.25431107802280528 0 0.22696706383934109 0.27681901550302962 0 0.2376751292839718 0.27741240132337408 0 0.2257125065402284 0.25431107802280528 0 0.2376751292839718 0.27741240132337408 0 0.22696706383934109 0.27681901550302962 0 0.2376751292839718 0.27741240132337408 0 0.2318681827461313 0.28775992326468519 0 0.23435940432808119 0.2558835225658645 0 0.2434397278092077 0.27846069768541332 0 0.2376751292839718 0.27741240132337408 0 0.23435940432808119 0.2558835225658645 0 0.2434397278092077 0.27846069768541332 0 0.23435940432808119 0.2558835225658645 0 0.2434397278092077 0.27846069768541332 0 0.24763005152173001 0.25910176257370959 0 0.2459873280094696 0.23707215699401071 0 0.23435940432808119 0.2558835225658645 0 0.24763005152173001 0.25910176257370959 0 0.24963775202771521 0.30051372462394288 0 0.22557231514573739 0.29747977878921561 0 0.2305146992996441 0.31691702429977642 0 0.2376751292839718 0.27741240132337408 0 0.24963775202771521 0.30051372462394288 0 0.2318681827461313 0.28775992326468519 0 0.2434397278092077 0.27846069768541332 0 0.25252005129033422 0.30103787280496203 0 0.2434397278092077 0.27846069768541332 0 0.2376751292839718 0.27741240132337408 0 0.24963775202771521 0.30051372462394288 0 0.2434397278092077 0.27846069768541332 0 0.24963775202771521 0.30051372462394288 0 0.25252005129033422 0.30103787280496203 0 0.24963775202771521 0.30051372462394288 0 0.2318681827461313 0.28775992326468519 0 0.22557231514573739 0.29747977878921561 0 0.2376751292839718 0.27741240132337408 0 0.24963775202771521 0.30051372462394288 0 0.22696706383934109 0.27681901550302962 0 0.2318681827461313 0.28775992326468519 0 0.22192971392309441 0.28686454206331458 0 0.2318681827461313 0.28775992326468519 0 0.22192971392309441 0.28686454206331458 0 0.22557231514573739 0.29747977878921561 0 0.22557231514573739 0.29747977878921561 0 0.21067009246602381 0.31050760251916348 0 0.2305146992996441 0.31691702429977642 0 0.22557231514573739 0.29747977878921561 0 0.2305146992996441 0.31691702429977642 0 0.22557231514573739 0.29747977878921561 0 0.21067009246602381 0.31050760251916348 0 0.20721699074389299 0.28586320426344869 0 0.22192971392309441 0.28686454206331458 0 0.22557231514573739 0.29747977878921561 0 0.20721699074389299 0.28586320426344869 0 0.22696706383934109 0.27681901550302962 0 0.22192971392309441 0.28686454206331458 0 0.20721699074389299 0.28586320426344869 0 0.18588027836364171 0.30417070427619303 0 0.18265278236186541 0.28020603593405619 0 0.20721699074389299 0.28586320426344869 0 0.18588027836364171 0.30417070427619303 0 0.21067009246602381 0.31050760251916348 0 0.20721699074389299 0.28586320426344869 0 0.18588027836364171 0.30417070427619303 0 0.21067009246602381 0.31050760251916348 0 0.1975742485098208 0.32622361772240582 0 0.1975742485098208 0.32622361772240582 0 0.2097525667536678 0.34137856367538538 0 0.18404805005378369 0.34640285754043382 0 0.1975742485098208 0.32622361772240582 0 0.2097525667536678 0.34137856367538538 0 0.2167937380965417 0.3262762156054137 0 0.21067009246602381 0.31050760251916348 0 0.1975742485098208 0.32622361772240582 0 0.2167937380965417 0.3262762156054137 0 0.21067009246602381 0.31050760251916348 0 0.2167937380965417 0.3262762156054137 0 0.2305146992996441 0.31691702429977642 0 0.2305146992996441 0.31691702429977642 0 0.2354570834535519 0.33635426981033711 0 0.2167937380965417 0.3262762156054137 0 0.2305146992996441 0.31691702429977642 0 0.2354570834535519 0.33635426981033711 0 0.2097525667536678 0.34137856367538538 0 0.2167937380965417 0.3262762156054137 0 0.2354570834535519 0.33635426981033711 0 0.2097525667536678 0.34137856367538538 0 0.2354570834535519 0.33635426981033711 0 0.2097525667536678 0.34137856367538538 0 0.2354570834535519 0.33635426981033711 0 0.22572342153310379 0.35183723080414581 0 0.2354570834535519 0.33635426981033711 0 0.24833100513142109 0.32161764704062729 0 0.26518788721623437 0.33054298393043219 0 0.24963775202771521 0.30051372462394288 0 0.2305146992996441 0.31691702429977642 0 0.24833100513142109 0.32161764704062729 0 0.2305146992996441 0.31691702429977642 0 0.2354570834535519 0.33635426981033711 0 0.24833100513142109 0.32161764704062729 0 0.2354570834535519 0.33635426981033711 0 0.24217950803475169 0.36279199964721098 0 0.25397109136889212 0.34953950795812871 0 0.2354570834535519 0.33635426981033711 0 0.24217950803475169 0.36279199964721098 0 0.22572342153310379 0.35183723080414581 0 0.2354570834535519 0.33635426981033711 0 0.24217950803475169 0.36279199964721098 0 0.24217950803475169 0.36279199964721098 0 0.22572342153310379 0.35183723080414581 0 0.21637712922286109 0.36651385017664678 0 0.24217950803475169 0.36279199964721098 0 0.21637712922286109 0.36651385017664678 0 0.22693728272114971 0.38251641872149622 0 0.2097525667536678 0.34137856367538538 0 0.22572342153310379 0.35183723080414581 0 0.21637712922286109 0.36651385017664678 0 0.2097525667536678 0.34137856367538538 0 0.21637712922286109 0.36651385017664678 0 0.19198276408895759 0.36846918068195189 0 0.2097525667536678 0.34137856367538538 0 0.19198276408895759 0.36846918068195189 0 0.18404805005378369 0.34640285754043382 0 0.2097525667536678 0.34137856367538538 0 0.18404805005378369 0.34640285754043382 0 0.21637712922286109 0.36651385017664678 0 0.19198276408895759 0.36846918068195189 0 0.2008438189570996 0.38963870543367402 0 0.1583435333538997 0.35142715140548209 0 0.18404805005378369 0.34640285754043382 0 0.17157629822801171 0.38002160271682978 0 0.19198276408895759 0.36846918068195189 0 0.18404805005378369 0.34640285754043382 0 0.17157629822801171 0.38002160271682978 0 0.1583435333538997 0.35142715140548209 0 0.14756927440754089 0.37573381366887992 0 0.17157629822801171 0.38002160271682978 0 0.1583435333538997 0.35142715140548209 0 0.18404805005378369 0.34640285754043382 0 0.1583435333538997 0.35142715140548209 0 0.17427563080372541 0.32515257599924119 0 0.15139514334923471 0.31791608062108467 0 0.1975742485098208 0.32622361772240582 0 0.18404805005378369 0.34640285754043382 0 0.17427563080372541 0.32515257599924119 0 0.1583435333538997 0.35142715140548209 0 0.18404805005378369 0.34640285754043382 0 0.17427563080372541 0.32515257599924119 0 0.18588027836364171 0.30417070427619303 0 0.1975742485098208 0.32622361772240582 0 0.17427563080372541 0.32515257599924119 0 0.16637322996135739 0.30016678813796199 0 0.17427563080372541 0.32515257599924119 0 0.15139514334923471 0.31791608062108467 0 0.1583435333538997 0.35142715140548209 0 0.15139514334923471 0.31791608062108467 0 0.13264273129131951 0.33439404788472138 0 0.11954567143249289 0.30734763112478491 0 0.15139514334923471 0.31791608062108467 0 0.13264273129131951 0.33439404788472138 0 0.1165634558871128 0.3492406052842485 0 0.13264273129131951 0.33439404788472138 0 0.1326390166540157 0.35645144527053041 0 0.1326390166540157 0.35645144527053041 0 0.14756927440754089 0.37573381366887992 0 0.12550685613774351 0.37951055496914998 0 0.1583435333538997 0.35142715140548209 0 0.1326390166540157 0.35645144527053041 0 0.14756927440754089 0.37573381366887992 0 0.1583435333538997 0.35142715140548209 0 0.1326390166540157 0.35645144527053041 0 0.1583435333538997 0.35142715140548209 0 0.13264273129131951 0.33439404788472138 0 0.1326390166540157 0.35645144527053041 0 0.1528019220027558 0.40532518960412911 0 0.14756927440754089 0.37573381366887992 0 0.13567422075440499 0.38715007620423969 0 0.14756927440754089 0.37573381366887992 0 0.12550685613774351 0.37951055496914998 0 0.13567422075440499 0.38715007620423969 0 0.1236499924648251 0.3984302041169589 0 0.12550685613774351 0.37951055496914998 0 0.13567422075440499 0.38715007620423969 0 0.1236499924648251 0.3984302041169589 0 0.1528019220027558 0.40532518960412911 0 0.13567422075440499 0.38715007620423969 0 0.1528019220027558 0.40532518960412911 0 0.13502200614688589 0.42010390008240672 0 0.17098438647877001 0.42850314348833868 0 0.13502200614688589 0.42010390008240672 0 0.17098438647877001 0.42850314348833868 0 0.1532788809183856 0.44756588495706878 0 0.1236499924648251 0.3984302041169589 0 0.1528019220027558 0.40532518960412911 0 0.13502200614688589 0.42010390008240672 0 0.1237280261196836 0.44463014715047522 0 0.13502200614688589 0.42010390008240672 0 0.1532788809183856 0.44756588495706878 0 0.1528019220027558 0.40532518960412911 0 0.17098438647877001 0.42850314348833868 0 0.1528019220027558 0.40532518960412911 0 0.17098438647877001 0.42850314348833868 0 0.17902253221663289 0.40492788695933207 0 0.17098438647877001 0.42850314348833868 0 0.19890623541652749 0.42115079355368912 0 0.18916685095478419 0.4516810973725483 0 0.17098438647877001 0.42850314348833868 0 0.17902253221663289 0.40492788695933207 0 0.19890623541652749 0.42115079355368912 0 0.17902253221663289 0.40492788695933207 0 0.17157629822801171 0.38002160271682978 0 0.2008438189570996 0.38963870543367402 0 0.1528019220027558 0.40532518960412911 0 0.17902253221663289 0.40492788695933207 0 0.17157629822801171 0.38002160271682978 0 0.1528019220027558 0.40532518960412911 0 0.14756927440754089 0.37573381366887992 0 0.17157629822801171 0.38002160271682978 0 0.17902253221663289 0.40492788695933207 0 0.2008438189570996 0.38963870543367402 0 0.19890623541652749 0.42115079355368912 0 0.19198276408895759 0.36846918068195189 0 0.17157629822801171 0.38002160271682978 0 0.2008438189570996 0.38963870543367402 0 0.2008438189570996 0.38963870543367402 0 0.22638402477508329 0.40440780886586492 0 0.19890623541652749 0.42115079355368912 0 0.2008438189570996 0.38963870543367402 0 0.22693728272114971 0.38251641872149622 0 0.22638402477508329 0.40440780886586492 0 0.21637712922286109 0.36651385017664678 0 0.2008438189570996 0.38963870543367402 0 0.22693728272114971 0.38251641872149622 0 0.22693728272114971 0.38251641872149622 0 0.22638402477508329 0.40440780886586492 0 0.24890193261595259 0.38922972948408457 0 0.22638402477508329 0.40440780886586492 0 0.24890193261595259 0.38922972948408457 0 0.25562435719715348 0.41566745932095828 0 0.24217950803475169 0.36279199964721098 0 0.24890193261595259 0.38922972948408457 0 0.24217950803475169 0.36279199964721098 0 0.22693728272114971 0.38251641872149622 0 0.24890193261595259 0.38922972948408457 0 0.22638402477508329 0.40440780886586492 0 0.23929670148200641 0.42651558303428039 0 0.25562435719715348 0.41566745932095828 0 0.22638402477508329 0.40440780886586492 0 0.23929670148200641 0.42651558303428039 0 0.21947817947708001 0.42577831055793047 0 0.23929670148200641 0.42651558303428039 0 0.21947817947708001 0.42577831055793047 0 0.23265016418236131 0.44461914726881641 0 0.21947817947708001 0.42577831055793047 0 0.19890623541652749 0.42115079355368912 0 0.21144352365240529 0.44700262568134053 0 0.22638402477508329 0.40440780886586492 0 0.21947817947708001 0.42577831055793047 0 0.19890623541652749 0.42115079355368912 0 0.19890623541652749 0.42115079355368912 0 0.18916685095478419 0.4516810973725483 0 0.21144352365240529 0.44700262568134053 0 0.18916685095478419 0.4516810973725483 0 0.20734931543079829 0.47485905125675792 0 0.18916685095478419 0.4516810973725483 0 0.21144352365240529 0.44700262568134053 0 0.20734931543079829 0.47485905125675792 0 0.21144352365240529 0.44700262568134053 0 0.22111039645288069 0.46392735407830132 0 0.20734931543079829 0.47485905125675792 0 0.21144352365240529 0.44700262568134053 0 0.23265016418236131 0.44461914726881641 0 0.22111039645288069 0.46392735407830132 0 0.21947817947708001 0.42577831055793047 0 0.21144352365240529 0.44700262568134053 0 0.23265016418236131 0.44461914726881641 0 0.23265016418236131 0.44461914726881641 0 0.22111039645288069 0.46392735407830132 0 0.24508980140621781 0.46623513653650361 0 0.22111039645288069 0.46392735407830132 0 0.24508980140621781 0.46623513653650361 0 0.23265016418236131 0.44461914726881641 0 0.24508980140621781 0.46623513653650361 0 0.26234678177835441 0.44210518915783192 0 0.23929670148200641 0.42651558303428039 0 0.23265016418236131 0.44461914726881641 0 0.26234678177835441 0.44210518915783192 0 0.2479606543192433 0.5 0 0.23772208332050199 0.48786840683281429 0 0.2255317799068125 0.49803700514096738 0 0.2479606543192433 0.5 0 0.23772208332050199 0.48786840683281429 0 0.25513941322049821 0.48355515434954122 0 0.24508980140621781 0.46623513653650361 0 0.23688712964706901 0.4763018139788181 0 0.25513941322049821 0.48355515434954122 0 0.23772208332050199 0.48786840683281429 0 0.23688712964706901 0.4763018139788181 0 0.25513941322049821 0.48355515434954122 0 0.22111039645288069 0.46392735407830132 0 0.23688712964706901 0.4763018139788181 0 0.22537395383524639 0.47992301809693011 0 0.22537395383524639 0.47992301809693011 0 0.2255317799068125 0.49803700514096738 0 0.20734931543079829 0.47485905125675792 0 0.23772208332050199 0.48786840683281429 0 0.23688712964706901 0.4763018139788181 0 0.22537395383524639 0.47992301809693011 0 0.22111039645288069 0.46392735407830132 0 0.24508980140621781 0.46623513653650361 0 0.23688712964706901 0.4763018139788181 0 0.23772208332050199 0.48786840683281429 0 0.22537395383524639 0.47992301809693011 0 0.2255317799068125 0.49803700514096738 0 0.2479606543192433 0.5 0 0.21885338771805021 0.5 0 0.2255317799068125 0.49803700514096738 0 0.21885338771805021 0.5 0 0.2255317799068125 0.49803700514096738 0 0.20734931543079829 0.47485905125675792 0 0.21885338771805021 0.5 0 0.20734931543079829 0.47485905125675792 0 0.1897461211168571 0.5 0 0.2255317799068125 0.49803700514096738 0 0.20734931543079829 0.47485905125675792 0 0.22111039645288069 0.46392735407830132 0 0.22537395383524639 0.47992301809693011 0 0.20734931543079829 0.47485905125675792 0 0.18916685095478419 0.4516810973725483 0 0.20734931543079829 0.47485905125675792 0 0.18375498264642379 0.4799820804674747 0 0.20734931543079829 0.47485905125675792 0 0.1897461211168571 0.5 0 0.18375498264642379 0.4799820804674747 0 0.1897461211168571 0.5 0 0.1606388545156639 0.5 0 0.18375498264642379 0.4799820804674747 0 0.1606388545156639 0.5 0 0.16284299929429041 0.47286735670979418 0 0.18375498264642379 0.4799820804674747 0 0.17098438647877001 0.42850314348833868 0 0.18916685095478419 0.4516810973725483 0 0.1532788809183856 0.44756588495706878 0 0.18916685095478419 0.4516810973725483 0 0.16284299929429041 0.47286735670979418 0 0.18375498264642379 0.4799820804674747 0 0.18916685095478419 0.4516810973725483 0 0.16284299929429041 0.47286735670979418 0 0.1532788809183856 0.44756588495706878 0 0.17098438647877001 0.42850314348833868 0 0.18916685095478419 0.4516810973725483 0 0.16284299929429041 0.47286735670979418 0 0.1532788809183856 0.44756588495706878 0 0.13792901651589951 0.46760966493884959 0 0.1160915578241386 0.4641835533930308 0 0.1237280261196836 0.44463014715047522 0 0.13792901651589951 0.46760966493884959 0 0.1237280261196836 0.44463014715047522 0 0.1532788809183856 0.44756588495706878 0 0.13792901651589951 0.46760966493884959 0 0.1146358595090817 0.48605788153156299 0 0.13792901651589951 0.46760966493884959 0 0.14375381424303349 0.48699105670781317 0 0.1146358595090817 0.48605788153156299 0 0.13153158791447089 0.50000000000000033 0 0.14375381424303349 0.48699105670781317 0 0.1606388545156639 0.5 0 0.13153158791447089 0.50000000000000033 0 0.14375381424303349 0.48699105670781317 0 0.1606388545156639 0.5 0 0.16284299929429041 0.47286735670979418 0 0.14375381424303349 0.48699105670781317 0 0.16284299929429041 0.47286735670979418 0 0.13792901651589951 0.46760966493884959 0 0.14375381424303349 0.48699105670781317 0 0.35818797179075601 0.47458138126870081 0 0.34642182508771258 0.48585203466637861 0 0.33573625410597768 0.47071191077640329 0 0.35818797179075601 0.47458138126870081 0 0.34642182508771258 0.48585203466637861 0 0.35839011049240282 0.5 0 0.34642182508771258 0.48585203466637861 0 0.35839011049240282 0.5 0 0.33128271396841408 0.5 0 0.35818797179075601 0.47458138126870081 0 0.35839011049240282 0.5 0 0.37951078222479251 0.47868038482078018 0 0.35839011049240282 0.5 0 0.37951078222479251 0.47868038482078018 0 0.38549750701639152 0.5 0 0.35818797179075601 0.47458138126870081 0 0.37565915938479377 0.45849116020829678 0 0.37951078222479251 0.47868038482078018 0 0.35818797179075601 0.47458138126870081 0 0.35384759317055892 0.4558722467826386 0 0.37565915938479377 0.45849116020829678 0 0.3672128213662551 0.44140310366938379 0 0.35384759317055892 0.4558722467826386 0 0.37565915938479377 0.45849116020829678 0 0.35041805056504127 0.44039830756831011 0 0.35384759317055892 0.4558722467826386 0 0.33587130181052999 0.44964761720473639 0 0.3672128213662551 0.44140310366938379 0 0.35041805056504127 0.44039830756831011 0 0.35384759317055892 0.4558722467826386 0 0.35818797179075601 0.47458138126870081 0 0.35384759317055892 0.4558722467826386 0 0.33573625410597768 0.47071191077640329 0 0.33587130181052999 0.44964761720473639 0 0.32245641590876828 0.45710047073305682 0 0.33573625410597768 0.47071191077640329 0 0.35384759317055892 0.4558722467826386 0 0.33587130181052999 0.44964761720473639 0 0.33573625410597768 0.47071191077640329 0 0.35041805056504127 0.44039830756831011 0 0.33587130181052999 0.44964761720473639 0 0.34011375395909899 0.42827966665244982 0 0.33587130181052999 0.44964761720473639 0 0.32313042491148092 0.43915640659962429 0 0.34011375395909899 0.42827966665244982 0 0.33587130181052999 0.44964761720473639 0 0.32313042491148092 0.43915640659962429 0 0.32245641590876828 0.45710047073305682 0 0.32313042491148092 0.43915640659962429 0 0.32245641590876828 0.45710047073305682 0 0.3069723578181176 0.44921026163567479 0 0.32313042491148092 0.43915640659962429 0 0.3069723578181176 0.44921026163567479 0 0.30967478190587899 0.43248339293908478 0 0.32245641590876828 0.45710047073305682 0 0.31479002533830769 0.47294309924184441 0 0.33573625410597768 0.47071191077640329 0 0.32245641590876828 0.45710047073305682 0 0.31479002533830769 0.47294309924184441 0 0.3069723578181176 0.44921026163567479 0 0.31479002533830769 0.47294309924184441 0 0.33573625410597768 0.47071191077640329 0 0.33128271396841408 0.5 0 0.34642182508771258 0.48585203466637861 0 0.33573625410597768 0.47071191077640329 0 0.33128271396841408 0.5 0 0.31479002533830769 0.47294309924184441 0 0.33128271396841408 0.5 0 0.30417531744442527 0.5 0 0.31479002533830769 0.47294309924184441 0 0.30417531744442527 0.5 0 0.29074220063683293 0.48758109823480927 0 0.31479002533830769 0.47294309924184441 0 0.29192961584893129 0.47074300911827521 0 0.29074220063683293 0.48758109823480927 0 0.31479002533830769 0.47294309924184441 0 0.29192961584893129 0.47074300911827521 0 0.29192961584893129 0.47074300911827521 0 0.29074220063683293 0.48758109823480927 0 0.27306856363999571 0.4842714594973539 0 0.30417531744442527 0.5 0 0.29074220063683293 0.48758109823480927 0 0.27706792092043642 0.500000000000002 0 0.27706792092043642 0.500000000000002 0 0.27306856363999571 0.4842714594973539 0 0.25513941322049821 0.48355515434954122 0 0.29074220063683293 0.48758109823480927 0 0.27706792092043642 0.500000000000002 0 0.27306856363999571 0.4842714594973539 0 0.27706792092043642 0.500000000000002 0 0.27306856363999571 0.4842714594973539 0 0.29192961584893129 0.47074300911827521 0 0.26906920635955489 0.46854291899470579 0 0.27306856363999571 0.4842714594973539 0 0.25513941322049821 0.48355515434954122 0 0.26906920635955489 0.46854291899470579 0 0.29192961584893129 0.47074300911827521 0 0.27306856363999571 0.4842714594973539 0 0.26906920635955489 0.46854291899470579 0 0.27306856363999571 0.4842714594973539 0 0.26906920635955489 0.46854291899470579 0 0.24508980140621781 0.46623513653650361 0 0.25513941322049821 0.48355515434954122 0 0.26906920635955489 0.46854291899470579 0 0.2479606543192433 0.5 0 0.27706792092043642 0.500000000000002 0 0.25513941322049821 0.48355515434954122 0 0.24508980140621781 0.46623513653650361 0 0.26906920635955489 0.46854291899470579 0 0.24508980140621781 0.46623513653650361 0 0.26234678177835441 0.44210518915783192 0 0.26906920635955489 0.46854291899470579 0 0.29192961584893129 0.47074300911827521 0 0.26906920635955489 0.46854291899470579 0 0.2825318911539082 0.44937975844880462 0 0.26234678177835441 0.44210518915783192 0 0.26906920635955489 0.46854291899470579 0 0.26234678177835441 0.44210518915783192 0 0.26906920635955489 0.46854291899470579 0 0.2825318911539082 0.44937975844880462 0 0.26234678177835441 0.44210518915783192 0 0.2825318911539082 0.44937975844880462 0 0.2735489225425754 0.42398780939214897 0 0.2825318911539082 0.44937975844880462 0 0.3069723578181176 0.44921026163567479 0 0.29424437368670248 0.43173942196487358 0 0.29192961584893129 0.47074300911827521 0 0.2825318911539082 0.44937975844880462 0 0.3069723578181176 0.44921026163567479 0 0.31479002533830769 0.47294309924184441 0 0.29192961584893129 0.47074300911827521 0 0.3069723578181176 0.44921026163567479 0 0.3069723578181176 0.44921026163567479 0 0.30967478190587899 0.43248339293908478 0 0.29424437368670248 0.43173942196487358 0 0.30967478190587899 0.43248339293908478 0 0.3045281829251868 0.41996349248923659 0 0.31949857018790712 0.42234738200601463 0 0.30967478190587899 0.43248339293908478 0 0.3045281829251868 0.41996349248923659 0 0.29424437368670248 0.43173942196487358 0 0.31221380766262308 0.41141105291454111 0 0.3045281829251868 0.41996349248923659 0 0.30175255758949709 0.40539483602959481 0 0.31221380766262308 0.41141105291454111 0 0.3045281829251868 0.41996349248923659 0 0.31949857018790712 0.42234738200601463 0 0.3045281829251868 0.41996349248923659 0 0.29116822628179151 0.41527777958226658 0 0.30175255758949709 0.40539483602959481 0 0.29116822628179151 0.41527777958226658 0 0.2735489225425754 0.42398780939214897 0 0.28009549588900451 0.40671294327225221 0 0.29116822628179151 0.41527777958226658 0 0.29046685710439091 0.40365495696152731 0 0.30175255758949709 0.40539483602959481 0 0.29116822628179151 0.41527777958226658 0 0.28009549588900451 0.40671294327225221 0 0.29046685710439091 0.40365495696152731 0 0.29116822628179151 0.41527777958226658 0 0.29424437368670248 0.43173942196487358 0 0.2735489225425754 0.42398780939214897 0 0.3045281829251868 0.41996349248923659 0 0.29116822628179151 0.41527777958226658 0 0.29424437368670248 0.43173942196487358 0 0.2825318911539082 0.44937975844880462 0 0.29424437368670248 0.43173942196487358 0 0.2735489225425754 0.42398780939214897 0 0.2735489225425754 0.42398780939214897 0 0.28009549588900451 0.40671294327225221 0 0.26594594197715632 0.40587542564026857 0 0.2735489225425754 0.42398780939214897 0 0.25562435719715348 0.41566745932095828 0 0.26594594197715632 0.40587542564026857 0 0.26234678177835441 0.44210518915783192 0 0.25562435719715348 0.41566745932095828 0 0.23929670148200641 0.42651558303428039 0 0.26234678177835441 0.44210518915783192 0 0.25562435719715348 0.41566745932095828 0 0.26234678177835441 0.44210518915783192 0 0.2735489225425754 0.42398780939214897 0 0.25562435719715348 0.41566745932095828 0 0.24890193261595259 0.38922972948408457 0 0.27155900164109531 0.39377918673189899 0 0.26817635423288699 0.37969346344739391 0 0.24890193261595259 0.38922972948408457 0 0.26817635423288699 0.37969346344739391 0 0.26082178769032438 0.36496323128775521 0 0.24890193261595259 0.38922972948408457 0 0.25562435719715348 0.41566745932095828 0 0.24890193261595259 0.38922972948408457 0 0.27155900164109531 0.39377918673189899 0 0.26594594197715632 0.40587542564026857 0 0.24890193261595259 0.38922972948408457 0 0.25562435719715348 0.41566745932095828 0 0.26594594197715632 0.40587542564026857 0 0.28009549588900451 0.40671294327225221 0 0.27155900164109531 0.39377918673189899 0 0.26594594197715632 0.40587542564026857 0 0.28009549588900451 0.40671294327225221 0 0.27155900164109531 0.39377918673189899 0 0.2841626669368148 0.39603484022980262 0 0.27155900164109531 0.39377918673189899 0 0.27917556467927279 0.38707504911542251 0 0.2841626669368148 0.39603484022980262 0 0.27917556467927279 0.38707504911542251 0 0.27737653217987568 0.3763299637903077 0 0.28641533258273322 0.38531457319514678 0 0.27155900164109531 0.39377918673189899 0 0.27917556467927279 0.38707504911542251 0 0.26817635423288699 0.37969346344739391 0 0.26817635423288699 0.37969346344739391 0 0.27737653217987568 0.3763299637903077 0 0.26995518240551242 0.36922466410125959 0 0.27917556467927279 0.38707504911542251 0 0.26817635423288699 0.37969346344739391 0 0.27737653217987568 0.3763299637903077 0 0.27917556467927279 0.38707504911542251 0 0.28749669470930389 0.39059918652862902 0 0.28641533258273322 0.38531457319514678 0 0.28749669470930389 0.39059918652862902 0 0.28641533258273322 0.38531457319514678 0 0.29321390271680048 0.38636149671614523 0 0.28641533258273322 0.38531457319514678 0 0.29321390271680048 0.38636149671614523 0 0.29155132770994241 0.38145409056705559 0 0.28749669470930389 0.39059918652862902 0 0.29321390271680048 0.38636149671614523 0 0.2951553388248469 0.39485438569372039 0 0.29321390271680048 0.38636149671614523 0 0.2951553388248469 0.39485438569372039 0 0.30172663999730548 0.38411556817588999 0 0.2951337916801352 0.37545299726164849 0 0.29155132770994241 0.38145409056705559 0 0.29028041611347422 0.37131190521640561 0 0.29650911823343812 0.38027524721939082 0 0.2951337916801352 0.37545299726164849 0 0.29155132770994241 0.38145409056705559 0 0.29321390271680048 0.38636149671614523 0 0.29650911823343812 0.38027524721939082 0 0.29155132770994241 0.38145409056705559 0 0.28009549588900451 0.40671294327225221 0 0.2841626669368148 0.39603484022980262 0 0.29046685710439091 0.40365495696152731 0 0.27917556467927279 0.38707504911542251 0 0.28749669470930389 0.39059918652862902 0 0.2841626669368148 0.39603484022980262 0 0.28749669470930389 0.39059918652862902 0 0.2841626669368148 0.39603484022980262 0 0.2951553388248469 0.39485438569372039 0 0.2841626669368148 0.39603484022980262 0 0.2951553388248469 0.39485438569372039 0 0.29046685710439091 0.40365495696152731 0 0.2951553388248469 0.39485438569372039 0 0.29046685710439091 0.40365495696152731 0 0.30175255758949709 0.40539483602959481 0 0.2951553388248469 0.39485438569372039 0 0.30416997859767031 0.39496190780794832 0 0.30172663999730548 0.38411556817588999 0 0.2951553388248469 0.39485438569372039 0 0.30175255758949709 0.40539483602959481 0 0.30416997859767031 0.39496190780794832 0 0.30416997859767031 0.39496190780794832 0 0.31194754139156228 0.39992908639018659 0 0.31058504665001713 0.38993607806902841 0 0.31221380766262308 0.41141105291454111 0 0.30175255758949709 0.40539483602959481 0 0.31194754139156228 0.39992908639018659 0 0.30175255758949709 0.40539483602959481 0 0.30416997859767031 0.39496190780794832 0 0.31194754139156228 0.39992908639018659 0 0.29650911823343812 0.38027524721939082 0 0.30172663999730548 0.38411556817588999 0 0.30091992906300691 0.3739920833762147 0 0.30172663999730548 0.38411556817588999 0 0.31077839752677883 0.37658419253607489 0 0.30091992906300691 0.3739920833762147 0 0.29650911823343812 0.38027524721939082 0 0.2951337916801352 0.37545299726164849 0 0.30091992906300691 0.3739920833762147 0 0.29321390271680048 0.38636149671614523 0 0.29650911823343812 0.38027524721939082 0 0.30172663999730548 0.38411556817588999 0 0.30416997859767031 0.39496190780794832 0 0.30172663999730548 0.38411556817588999 0 0.31058504665001713 0.38993607806902841 0 0.30172663999730548 0.38411556817588999 0 0.31058504665001713 0.38993607806902841 0 0.31077839752677883 0.37658419253607489 0 0.31077839752677883 0.37658419253607489 0 0.31867525833463911 0.38494833593070971 0 0.32306703930603953 0.37623237809600169 0 0.31058504665001713 0.38993607806902841 0 0.31867525833463911 0.38494833593070971 0 0.31878199461777879 0.39362573130725731 0 0.31058504665001713 0.38993607806902841 0 0.31077839752677883 0.37658419253607489 0 0.31867525833463911 0.38494833593070971 0 0.31867525833463911 0.38494833593070971 0 0.32306703930603953 0.37623237809600169 0 0.32934203852673438 0.38871677178939867 0 0.31867525833463911 0.38494833593070971 0 0.32934203852673438 0.38871677178939867 0 0.31878199461777879 0.39362573130725731 0 0.32306703930603953 0.37623237809600169 0 0.33555471090824662 0.37714848622012531 0 0.32934203852673438 0.38871677178939867 0 0.33555471090824662 0.37714848622012531 0 0.32934203852673438 0.38871677178939867 0 0.34865402358820241 0.38746960960344728 0 0.32934203852673438 0.38871677178939867 0 0.33838050486014071 0.40132571833470809 0 0.34865402358820241 0.38746960960344728 0 0.32934203852673438 0.38871677178939867 0 0.33838050486014071 0.40132571833470809 0 0.32336008818594092 0.40459838435696299 0 0.32934203852673438 0.38871677178939867 0 0.32336008818594092 0.40459838435696299 0 0.31878199461777879 0.39362573130725731 0 0.31194754139156228 0.39992908639018659 0 0.31058504665001713 0.38993607806902841 0 0.31878199461777879 0.39362573130725731 0 0.31221380766262308 0.41141105291454111 0 0.31194754139156228 0.39992908639018659 0 0.32336008818594092 0.40459838435696299 0 0.31194754139156228 0.39992908639018659 0 0.32336008818594092 0.40459838435696299 0 0.31878199461777879 0.39362573130725731 0 0.31221380766262308 0.41141105291454111 0 0.32336008818594092 0.40459838435696299 0 0.31949857018790712 0.42234738200601463 0 0.32336008818594092 0.40459838435696299 0 0.31949857018790712 0.42234738200601463 0 0.33335541567677851 0.41413927737501682 0 0.32313042491148092 0.43915640659962429 0 0.31949857018790712 0.42234738200601463 0 0.34011375395909899 0.42827966665244982 0 0.32313042491148092 0.43915640659962429 0 0.30967478190587899 0.43248339293908478 0 0.31949857018790712 0.42234738200601463 0 0.31949857018790712 0.42234738200601463 0 0.34011375395909899 0.42827966665244982 0 0.33335541567677851 0.41413927737501682 0 0.34011375395909899 0.42827966665244982 0 0.33335541567677851 0.41413927737501682 0 0.35251535500997389 0.4097633894025835 0 0.33838050486014071 0.40132571833470809 0 0.33335541567677851 0.41413927737501682 0 0.35251535500997389 0.4097633894025835 0 0.33838050486014071 0.40132571833470809 0 0.32336008818594092 0.40459838435696299 0 0.33335541567677851 0.41413927737501682 0 0.34011375395909899 0.42827966665244982 0 0.35251535500997389 0.4097633894025835 0 0.3591301267131588 0.42602683944016839 0 0.3672128213662551 0.44140310366938379 0 0.35041805056504127 0.44039830756831011 0 0.3591301267131588 0.42602683944016839 0 0.35041805056504127 0.44039830756831011 0 0.34011375395909899 0.42827966665244982 0 0.3591301267131588 0.42602683944016839 0 0.3672128213662551 0.44140310366938379 0 0.3591301267131588 0.42602683944016839 0 0.37786999239799629 0.42201923841731348 0 0.3591301267131588 0.42602683944016839 0 0.36674031876838431 0.41287021939491358 0 0.37786999239799629 0.42201923841731348 0 0.35251535500997389 0.4097633894025835 0 0.36674031876838431 0.41287021939491358 0 0.36672310374365391 0.3972274770167053 0 0.36674031876838431 0.41287021939491358 0 0.37714557779446961 0.40580011292323048 0 0.37786999239799629 0.42201923841731348 0 0.35251535500997389 0.4097633894025835 0 0.3591301267131588 0.42602683944016839 0 0.36674031876838431 0.41287021939491358 0 0.36674031876838431 0.41287021939491358 0 0.36672310374365391 0.3972274770167053 0 0.37714557779446961 0.40580011292323048 0 0.36672310374365391 0.3972274770167053 0 0.34865402358820241 0.38746960960344728 0 0.36927583114563117 0.37168826674887129 0 0.36672310374365391 0.3972274770167053 0 0.36927583114563117 0.37168826674887129 0 0.38594138320053972 0.39504117240748449 0 0.34865402358820241 0.38746960960344728 0 0.34769055634412588 0.36745966958429022 0 0.36927583114563117 0.37168826674887129 0 0.33555471090824662 0.37714848622012531 0 0.34865402358820241 0.38746960960344728 0 0.34769055634412588 0.36745966958429022 0 0.35251535500997389 0.4097633894025835 0 0.36672310374365391 0.3972274770167053 0 0.34865402358820241 0.38746960960344728 0 0.33838050486014071 0.40132571833470809 0 0.35251535500997389 0.4097633894025835 0 0.34865402358820241 0.38746960960344728 0 0.35261027909072251 0.34833536109025781 0 0.34769055634412588 0.36745966958429022 0 0.33944519881702218 0.35670643516570921 0 0.35261027909072251 0.34833536109025781 0 0.34769055634412588 0.36745966958429022 0 0.36927583114563117 0.37168826674887129 0 0.35261027909072251 0.34833536109025781 0 0.36927583114563117 0.37168826674887129 0 0.35261027909072251 0.34833536109025781 0 0.36927583114563117 0.37168826674887129 0 0.38014707859742553 0.358601566133181 0 0.35261027909072251 0.34833536109025781 0 0.37418757138316661 0.34003979241565702 0 0.38014707859742553 0.358601566133181 0 0.37418757138316661 0.34003979241565702 0 0.36114413796306788 0.32433110896381118 0 0.38634354889032002 0.32367976249598251 0 0.35261027909072251 0.34833536109025781 0 0.37418757138316661 0.34003979241565702 0 0.36114413796306788 0.32433110896381118 0 0.36114413796306788 0.32433110896381118 0 0.38634354889032002 0.32367976249598251 0 0.36114413796306788 0.32433110896381118 0 0.36246687595182442 0.30494518477727961 0 0.38634354889032002 0.32367976249598251 0 0.36114413796306788 0.32433110896381118 0 0.33594472703581602 0.32498245543164278 0 0.36114413796306788 0.32433110896381118 0 0.33594472703581602 0.32498245543164278 0 0.34448717235649018 0.30756264321984922 0 0.35261027909072251 0.34833536109025781 0 0.36114413796306788 0.32433110896381118 0 0.33594472703581602 0.32498245543164278 0 0.35261027909072251 0.34833536109025781 0 0.33594472703581602 0.32498245543164278 0 0.35261027909072251 0.34833536109025781 0 0.33361265820108371 0.33601463685995558 0 0.33594472703581602 0.32498245543164278 0 0.35261027909072251 0.34833536109025781 0 0.33361265820108371 0.33601463685995558 0 0.33117650937159632 0.34590223044488833 0 0.33361265820108371 0.33601463685995558 0 0.33594472703581602 0.32498245543164278 0 0.32592845192929348 0.32524135296818618 0 0.33361265820108371 0.33601463685995558 0 0.32240332357799001 0.33561178436480271 0 0.33117650937159632 0.34590223044488833 0 0.33594472703581602 0.32498245543164278 0 0.32420479997372442 0.30853167071016102 0 0.33594472703581602 0.32498245543164278 0 0.32592845192929348 0.32524135296818618 0 0.32420479997372442 0.30853167071016102 0 0.33594472703581602 0.32498245543164278 0 0.32420479997372442 0.30853167071016102 0 0.34448717235649018 0.30756264321984922 0 0.33594472703581602 0.32498245543164278 0 0.32592845192929348 0.32524135296818618 0 0.32592845192929348 0.32524135296818618 0 0.31778971146991503 0.31788997842391498 0 0.32420479997372442 0.30853167071016102 0 0.32592845192929348 0.32524135296818618 0 0.31591730865868939 0.32743152395768732 0 0.31778971146991503 0.31788997842391498 0 0.31591730865868939 0.32743152395768732 0 0.31778971146991503 0.31788997842391498 0 0.30920411140212778 0.3196886032463338 0 0.32240332357799001 0.33561178436480271 0 0.31863003654071292 0.34601962911411782 0 0.33117650937159632 0.34590223044488833 0 0.33361265820108371 0.33601463685995558 0 0.32592845192929348 0.32524135296818618 0 0.32240332357799001 0.33561178436480271 0 0.32592845192929348 0.32524135296818618 0 0.31591730865868939 0.32743152395768732 0 0.32240332357799001 0.33561178436480271 0 0.31591730865868939 0.32743152395768732 0 0.32240332357799001 0.33561178436480271 0 0.31164832743931292 0.33689503642828789 0 0.32240332357799001 0.33561178436480271 0 0.31863003654071292 0.34601962911411782 0 0.31164832743931292 0.33689503642828789 0 0.31863003654071292 0.34601962911411782 0 0.30992842843050988 0.3457112388019602 0 0.31164832743931292 0.33689503642828789 0 0.31863003654071292 0.34601962911411782 0 0.30992842843050988 0.3457112388019602 0 0.31160887743439081 0.35478490180041172 0 0.32445766980723489 0.35579424438156659 0 0.31686549990355672 0.36548826773678422 0 0.31160887743439081 0.35478490180041172 0 0.31863003654071292 0.34601962911411782 0 0.32445766980723489 0.35579424438156659 0 0.31160887743439081 0.35478490180041172 0 0.31863003654071292 0.34601962911411782 0 0.32445766980723489 0.35579424438156659 0 0.33117650937159632 0.34590223044488833 0 0.35261027909072251 0.34833536109025781 0 0.33117650937159632 0.34590223044488833 0 0.33944519881702218 0.35670643516570921 0 0.32445766980723489 0.35579424438156659 0 0.33117650937159632 0.34590223044488833 0 0.33944519881702218 0.35670643516570921 0 0.33555471090824662 0.37714848622012531 0 0.34769055634412588 0.36745966958429022 0 0.3290198967761308 0.36586400202748842 0 0.34769055634412588 0.36745966958429022 0 0.33944519881702218 0.35670643516570921 0 0.3290198967761308 0.36586400202748842 0 0.32445766980723489 0.35579424438156659 0 0.33944519881702218 0.35670643516570921 0 0.3290198967761308 0.36586400202748842 0 0.32306703930603953 0.37623237809600169 0 0.33555471090824662 0.37714848622012531 0 0.3290198967761308 0.36586400202748842 0 0.32306703930603953 0.37623237809600169 0 0.3290198967761308 0.36586400202748842 0 0.31686549990355672 0.36548826773678422 0 0.32445766980723489 0.35579424438156659 0 0.3290198967761308 0.36586400202748842 0 0.31686549990355672 0.36548826773678422 0 0.31077839752677883 0.37658419253607489 0 0.32306703930603953 0.37623237809600169 0 0.31686549990355672 0.36548826773678422 0 0.31077839752677883 0.37658419253607489 0 0.30653952356419251 0.36486132392814918 0 0.30091992906300691 0.3739920833762147 0 0.31077839752677883 0.37658419253607489 0 0.31686549990355672 0.36548826773678422 0 0.30653952356419251 0.36486132392814918 0 0.31686549990355672 0.36548826773678422 0 0.30653952356419251 0.36486132392814918 0 0.31160887743439081 0.35478490180041172 0 0.30653952356419251 0.36486132392814918 0 0.29956039950038399 0.36055845947794762 0 0.29968882481084308 0.36620473963642819 0 0.30653952356419251 0.36486132392814918 0 0.29956039950038399 0.36055845947794762 0 0.30450437459886343 0.35739179545954242 0 0.29956039950038399 0.36055845947794762 0 0.29968882481084308 0.36620473963642819 0 0.2946843591870788 0.36349444767638139 0 0.29968882481084308 0.36620473963642819 0 0.30091992906300691 0.3739920833762147 0 0.29515321138997108 0.36891281366618561 0 0.30653952356419251 0.36486132392814918 0 0.29968882481084308 0.36620473963642819 0 0.30091992906300691 0.3739920833762147 0 0.2951337916801352 0.37545299726164849 0 0.30091992906300691 0.3739920833762147 0 0.29515321138997108 0.36891281366618561 0 0.30992842843050988 0.3457112388019602 0 0.31160887743439081 0.35478490180041172 0 0.30300584901730271 0.34938636887413438 0 0.30992842843050988 0.3457112388019602 0 0.30300584901730271 0.34938636887413438 0 0.30284961949963451 0.34180688944884569 0 0.31160887743439081 0.35478490180041172 0 0.30450437459886343 0.35739179545954242 0 0.30300584901730271 0.34938636887413438 0 0.30653952356419251 0.36486132392814918 0 0.31160887743439081 0.35478490180041172 0 0.30450437459886343 0.35739179545954242 0 0.30450437459886343 0.35739179545954242 0 0.29772286606791931 0.35422336501427332 0 0.30300584901730271 0.34938636887413438 0 0.29956039950038399 0.36055845947794762 0 0.30450437459886343 0.35739179545954242 0 0.29772286606791931 0.35422336501427332 0 0.29772286606791931 0.35422336501427332 0 0.30300584901730271 0.34938636887413438 0 0.29508057650716829 0.34607515835053693 0 0.30300584901730271 0.34938636887413438 0 0.29508057650716829 0.34607515835053693 0 0.30284961949963451 0.34180688944884569 0 0.29508057650716829 0.34607515835053693 0 0.29128433478161492 0.3514692197730912 0 0.28696318970460172 0.34507386829548542 0 0.29772286606791931 0.35422336501427332 0 0.29508057650716829 0.34607515835053693 0 0.29128433478161492 0.3514692197730912 0 0.29128433478161492 0.3514692197730912 0 0.29260686737414288 0.35803349489433017 0 0.28831593146678952 0.35482697607295582 0 0.29772286606791931 0.35422336501427332 0 0.29128433478161492 0.3514692197730912 0 0.29260686737414288 0.35803349489433017 0 0.29956039950038399 0.36055845947794762 0 0.29772286606791931 0.35422336501427332 0 0.29260686737414288 0.35803349489433017 0 0.29260686737414288 0.35803349489433017 0 0.28714468874269172 0.35854684035017659 0 0.29097547274489571 0.36086700820637557 0 0.29260686737414288 0.35803349489433017 0 0.28714468874269172 0.35854684035017659 0 0.28831593146678952 0.35482697607295582 0 0.28714468874269172 0.35854684035017659 0 0.28946597567566928 0.3633932499046143 0 0.27836960746308909 0.35599853724874359 0 0.28714468874269172 0.35854684035017659 0 0.28392422607346179 0.35383006020545288 0 0.27836960746308909 0.35599853724874359 0 0.28714468874269172 0.35854684035017659 0 0.28392422607346179 0.35383006020545288 0 0.28831593146678952 0.35482697607295582 0 0.28392422607346179 0.35383006020545288 0 0.28273558166129192 0.34922596943765521 0 0.28101653893848899 0.35208327708388421 0 0.28392422607346179 0.35383006020545288 0 0.28831593146678952 0.35482697607295582 0 0.2863539578433606 0.35136140079780598 0 0.29128433478161492 0.3514692197730912 0 0.28831593146678952 0.35482697607295582 0 0.2863539578433606 0.35136140079780598 0 0.29128433478161492 0.3514692197730912 0 0.2863539578433606 0.35136140079780598 0 0.28696318970460172 0.34507386829548542 0 0.2863539578433606 0.35136140079780598 0 0.28273558166129192 0.34922596943765521 0 0.28696318970460172 0.34507386829548542 0 0.28392422607346179 0.35383006020545288 0 0.2863539578433606 0.35136140079780598 0 0.28273558166129192 0.34922596943765521 0 0.28696318970460172 0.34507386829548542 0 0.28013569367420871 0.34584772387197749 0 0.28119375649751349 0.3415044430455576 0 0.28273558166129192 0.34922596943765521 0 0.28696318970460172 0.34507386829548542 0 0.28013569367420871 0.34584772387197749 0 0.29155132770994241 0.38145409056705559 0 0.29028041611347422 0.37131190521640561 0 0.27836960746308909 0.35599853724874359 0 0.28641533258273322 0.38531457319514678 0 0.29155132770994241 0.38145409056705559 0 0.2754302243437341 0.35800137086985789 0 0.29155132770994241 0.38145409056705559 0 0.2754302243437341 0.35800137086985789 0 0.27836960746308909 0.35599853724874359 0 0.29155132770994241 0.38145409056705559 0 0.27836960746308909 0.35599853724874359 0 0.29028041611347422 0.37131190521640561 0 0.29515321138997108 0.36891281366618561 0 0.28946597567566928 0.3633932499046143 0 0.2951337916801352 0.37545299726164849 0 0.29028041611347422 0.37131190521640561 0 0.29515321138997108 0.36891281366618561 0 0.29968882481084308 0.36620473963642819 0 0.29515321138997108 0.36891281366618561 0 0.2946843591870788 0.36349444767638139 0 0.29515321138997108 0.36891281366618561 0 0.2946843591870788 0.36349444767638139 0 0.28946597567566928 0.3633932499046143 0 0.29956039950038399 0.36055845947794762 0 0.29260686737414288 0.35803349489433017 0 0.2946843591870788 0.36349444767638139 0 0.28714468874269172 0.35854684035017659 0 0.29097547274489571 0.36086700820637557 0 0.28946597567566928 0.3633932499046143 0 0.2946843591870788 0.36349444767638139 0 0.29097547274489571 0.36086700820637557 0 0.28946597567566928 0.3633932499046143 0 0.29260686737414288 0.35803349489433017 0 0.2946843591870788 0.36349444767638139 0 0.29097547274489571 0.36086700820637557 0 0.29028041611347422 0.37131190521640561 0 0.28946597567566928 0.3633932499046143 0 0.27836960746308909 0.35599853724874359 0 0.28641533258273322 0.38531457319514678 0 0.2754302243437341 0.35800137086985789 0 0.27737653217987568 0.3763299637903077 0 0.28641533258273322 0.38531457319514678 0 0.2754302243437341 0.35800137086985789 0 0.27737653217987568 0.3763299637903077 0 0.27292546410526491 0.36629585246079138 0 0.2754302243437341 0.35800137086985789 0 0.27737653217987568 0.3763299637903077 0 0.26995518240551242 0.36922466410125959 0 0.27292546410526491 0.36629585246079138 0 0.26817635423288699 0.37969346344739391 0 0.26995518240551242 0.36922466410125959 0 0.26082178769032438 0.36496323128775521 0 0.26995518240551242 0.36922466410125959 0 0.26893991749193752 0.36162741108174062 0 0.26082178769032438 0.36496323128775521 0 0.26893991749193752 0.36162741108174062 0 0.27292546410526491 0.36629585246079138 0 0.2754302243437341 0.35800137086985789 0 0.26995518240551242 0.36922466410125959 0 0.26893991749193752 0.36162741108174062 0 0.27292546410526491 0.36629585246079138 0 0.2754302243437341 0.35800137086985789 0 0.26518788721623437 0.33054298393043219 0 0.2754302243437341 0.35800137086985789 0 0.27836960746308909 0.35599853724874359 0 0.26518788721623437 0.33054298393043219 0 0.2754302243437341 0.35800137086985789 0 0.26469999689944002 0.35285812485780471 0 0.26518788721623437 0.33054298393043219 0 0.27836960746308909 0.35599853724874359 0 0.28101653893848899 0.35208327708388421 0 0.2797945401242129 0.34946851842389731 0 0.28392422607346179 0.35383006020545288 0 0.27836960746308909 0.35599853724874359 0 0.28101653893848899 0.35208327708388421 0 0.27836960746308909 0.35599853724874359 0 0.2797945401242129 0.34946851842389731 0 0.27671527888398562 0.3441870844772259 0 0.28013569367420871 0.34584772387197749 0 0.2797945401242129 0.34946851842389731 0 0.27671527888398562 0.3441870844772259 0 0.28013569367420871 0.34584772387197749 0 0.27671527888398562 0.3441870844772259 0 0.28119375649751349 0.3415044430455576 0 0.28273558166129192 0.34922596943765521 0 0.28013569367420871 0.34584772387197749 0 0.2797945401242129 0.34946851842389731 0 0.28273558166129192 0.34922596943765521 0 0.28101653893848899 0.35208327708388421 0 0.2797945401242129 0.34946851842389731 0 0.26893991749193752 0.36162741108174062 0 0.2754302243437341 0.35800137086985789 0 0.26469999689944002 0.35285812485780471 0 0.26469999689944002 0.35285812485780471 0 0.25397109136889212 0.34953950795812871 0 0.26518788721623437 0.33054298393043219 0 0.26469999689944002 0.35285812485780471 0 0.25397109136889212 0.34953950795812871 0 0.26082178769032438 0.36496323128775521 0 0.24217950803475169 0.36279199964721098 0 0.25397109136889212 0.34953950795812871 0 0.26082178769032438 0.36496323128775521 0 0.24217950803475169 0.36279199964721098 0 0.24890193261595259 0.38922972948408457 0 0.26082178769032438 0.36496323128775521 0 0.26893991749193752 0.36162741108174062 0 0.26469999689944002 0.35285812485780471 0 0.26082178769032438 0.36496323128775521 0 0.26160037477145948 0.32361504792451118 0 0.26961523156275707 0.31863310602586059 0 0.25252005129033422 0.30103787280496203 0 0.24833100513142109 0.32161764704062729 0 0.26160037477145948 0.32361504792451118 0 0.26518788721623437 0.33054298393043219 0 0.24963775202771521 0.30051372462394288 0 0.24833100513142109 0.32161764704062729 0 0.26160037477145948 0.32361504792451118 0 0.26160037477145948 0.32361504792451118 0 0.26518788721623437 0.33054298393043219 0 0.26731122343739822 0.32545953491366858 0 0.26160037477145948 0.32361504792451118 0 0.26518788721623437 0.33054298393043219 0 0.2354570834535519 0.33635426981033711 0 0.26518788721623437 0.33054298393043219 0 0.2354570834535519 0.33635426981033711 0 0.25397109136889212 0.34953950795812871 0 0.26518788721623437 0.33054298393043219 0 0.27836960746308909 0.35599853724874359 0 0.27671527888398562 0.3441870844772259 0 0.26518788721623437 0.33054298393043219 0 0.26518788721623437 0.33054298393043219 0 0.2728414001991406 0.32904700177387047 0 0.26518788721623437 0.33054298393043219 0 0.2728414001991406 0.32904700177387047 0 0.26731122343739822 0.32545953491366858 0 0.27836960746308909 0.35599853724874359 0 0.26518788721623437 0.33054298393043219 0 0.26518788721623437 0.33054298393043219 0 0.2728414001991406 0.32904700177387047 0 0.27786043041236869 0.33471626715991409 0 0.27671527888398562 0.3441870844772259 0 0.26518788721623437 0.33054298393043219 0 0.27786043041236869 0.33471626715991409 0 0.27671527888398562 0.3441870844772259 0 0.28119375649751349 0.3415044430455576 0 0.27786043041236869 0.33471626715991409 0 0.2728414001991406 0.32904700177387047 0 0.27786043041236869 0.33471626715991409 0 0.27936204924768121 0.32498307102898349 0 0.27786043041236869 0.33471626715991409 0 0.27936204924768121 0.32498307102898349 0 0.28525590824973168 0.33019860290154568 0 0.2728414001991406 0.32904700177387047 0 0.27936204924768121 0.32498307102898349 0 0.26961523156275707 0.31863310602586059 0 0.2728414001991406 0.32904700177387047 0 0.26731122343739822 0.32545953491366858 0 0.26961523156275707 0.31863310602586059 0 0.26160037477145948 0.32361504792451118 0 0.26731122343739822 0.32545953491366858 0 0.26961523156275707 0.31863310602586059 0 0.27936204924768121 0.32498307102898349 0 0.26961523156275707 0.31863310602586059 0 0.28133089707177739 0.31565660162935461 0 0.26961523156275707 0.31863310602586059 0 0.28133089707177739 0.31565660162935461 0 0.27162220014601168 0.30819847959926649 0 0.28133089707177739 0.31565660162935461 0 0.28926842799031183 0.32164684668335553 0 0.29289622389348391 0.31173450207074938 0 0.27936204924768121 0.32498307102898349 0 0.28926842799031183 0.32164684668335553 0 0.28525590824973168 0.33019860290154568 0 0.27936204924768121 0.32498307102898349 0 0.28133089707177739 0.31565660162935461 0 0.28926842799031183 0.32164684668335553 0 0.28926842799031183 0.32164684668335553 0 0.29270679870612148 0.33133919612790758 0 0.29864702146159328 0.32643954785611667 0 0.28926842799031183 0.32164684668335553 0 0.28525590824973168 0.33019860290154568 0 0.29270679870612148 0.33133919612790758 0 0.28926842799031183 0.32164684668335553 0 0.30057412006284873 0.3182848580649148 0 0.29864702146159328 0.32643954785611667 0 0.28926842799031183 0.32164684668335553 0 0.30057412006284873 0.3182848580649148 0 0.29289622389348391 0.31173450207074938 0 0.28696318970460172 0.34507386829548542 0 0.28119375649751349 0.3415044430455576 0 0.28563489893157912 0.33697664508827291 0 0.28696318970460172 0.34507386829548542 0 0.28563489893157912 0.33697664508827291 0 0.29440715639490739 0.33866623850310912 0 0.28119375649751349 0.3415044430455576 0 0.27786043041236869 0.33471626715991409 0 0.28563489893157912 0.33697664508827291 0 0.28563489893157912 0.33697664508827291 0 0.28525590824973168 0.33019860290154568 0 0.29270679870612148 0.33133919612790758 0 0.27786043041236869 0.33471626715991409 0 0.28563489893157912 0.33697664508827291 0 0.28525590824973168 0.33019860290154568 0 0.29270679870612148 0.33133919612790758 0 0.29440715639490739 0.33866623850310912 0 0.30302737920860612 0.33410729573504611 0 0.28563489893157912 0.33697664508827291 0 0.29270679870612148 0.33133919612790758 0 0.29440715639490739 0.33866623850310912 0 0.29508057650716829 0.34607515835053693 0 0.28696318970460172 0.34507386829548542 0 0.29440715639490739 0.33866623850310912 0 0.29508057650716829 0.34607515835053693 0 0.29440715639490739 0.33866623850310912 0 0.30284961949963451 0.34180688944884569 0 0.29440715639490739 0.33866623850310912 0 0.30284961949963451 0.34180688944884569 0 0.30302737920860612 0.33410729573504611 0 0.29270679870612148 0.33133919612790758 0 0.30302737920860612 0.33410729573504611 0 0.29864702146159328 0.32643954785611667 0 0.30302737920860612 0.33410729573504611 0 0.29864702146159328 0.32643954785611667 0 0.30648676239126638 0.32698903389663531 0 0.30302737920860612 0.33410729573504611 0 0.31164832743931292 0.33689503642828789 0 0.30648676239126638 0.32698903389663531 0 0.31591730865868939 0.32743152395768732 0 0.31164832743931292 0.33689503642828789 0 0.30648676239126638 0.32698903389663531 0 0.30284961949963451 0.34180688944884569 0 0.30302737920860612 0.33410729573504611 0 0.31164832743931292 0.33689503642828789 0 0.30992842843050988 0.3457112388019602 0 0.30284961949963451 0.34180688944884569 0 0.31164832743931292 0.33689503642828789 0 0.30057412006284873 0.3182848580649148 0 0.3075048900192453 0.30846754722968978 0 0.29289622389348391 0.31173450207074938 0 0.30057412006284873 0.3182848580649148 0 0.29864702146159328 0.32643954785611667 0 0.30648676239126638 0.32698903389663531 0 0.30057412006284873 0.3182848580649148 0 0.30648676239126638 0.32698903389663531 0 0.30920411140212778 0.3196886032463338 0 0.31591730865868939 0.32743152395768732 0 0.30648676239126638 0.32698903389663531 0 0.30920411140212778 0.3196886032463338 0 0.30057412006284873 0.3182848580649148 0 0.30920411140212778 0.3196886032463338 0 0.3075048900192453 0.30846754722968978 0 0.31778971146991503 0.31788997842391498 0 0.30920411140212778 0.3196886032463338 0 0.3075048900192453 0.30846754722968978 0 0.3075048900192453 0.30846754722968978 0 0.29694347339530303 0.29848366127231912 0 0.31246487291163488 0.29208088598867771 0 0.3075048900192453 0.30846754722968978 0 0.29694347339530303 0.29848366127231912 0 0.29289622389348391 0.31173450207074938 0 0.31246487291163488 0.29208088598867771 0 0.29888580149873889 0.28140566667868477 0 0.31966717048778492 0.28020807462702291 0 0.29694347339530303 0.29848366127231912 0 0.31246487291163488 0.29208088598867771 0 0.29888580149873889 0.28140566667868477 0 0.29694347339530303 0.29848366127231912 0 0.29888580149873889 0.28140566667868477 0 0.28532215262680061 0.29218967158653381 0 0.29888580149873889 0.28140566667868477 0 0.28532215262680061 0.29218967158653381 0 0.27597263544757811 0.27926985653850322 0 0.29694347339530303 0.29848366127231912 0 0.29289622389348391 0.31173450207074938 0 0.28421062956037713 0.3046253325656294 0 0.29694347339530303 0.29848366127231912 0 0.28532215262680061 0.29218967158653381 0 0.28421062956037713 0.3046253325656294 0 0.28133089707177739 0.31565660162935461 0 0.29289622389348391 0.31173450207074938 0 0.28421062956037713 0.3046253325656294 0 0.28133089707177739 0.31565660162935461 0 0.28421062956037713 0.3046253325656294 0 0.27162220014601168 0.30819847959926649 0 0.28421062956037713 0.3046253325656294 0 0.27162220014601168 0.30819847959926649 0 0.27073357959762612 0.29469717476731772 0 0.28532215262680061 0.29218967158653381 0 0.28421062956037713 0.3046253325656294 0 0.27073357959762612 0.29469717476731772 0 0.27073357959762612 0.29469717476731772 0 0.25964825064670849 0.2811944406245902 0 0.27597263544757811 0.27926985653850322 0 0.28532215262680061 0.29218967158653381 0 0.27073357959762612 0.29469717476731772 0 0.27597263544757811 0.27926985653850322 0 0.2434397278092077 0.27846069768541332 0 0.25252005129033422 0.30103787280496203 0 0.25964825064670849 0.2811944406245902 0 0.27073357959762612 0.29469717476731772 0 0.25252005129033422 0.30103787280496203 0 0.25964825064670849 0.2811944406245902 0 0.24963775202771521 0.30051372462394288 0 0.26160037477145948 0.32361504792451118 0 0.26160037477145948 0.32361504792451118 0 0.25252005129033422 0.30103787280496203 0 0.24963775202771521 0.30051372462394288 0 0.26160037477145948 0.32361504792451118 0 0.25252005129033422 0.30103787280496203 0 0.27162220014601168 0.30819847959926649 0 0.27073357959762612 0.29469717476731772 0 0.25252005129033422 0.30103787280496203 0 0.26961523156275707 0.31863310602586059 0 0.27162220014601168 0.30819847959926649 0 0.25252005129033422 0.30103787280496203 0 0.26005695654466249 0.26476207857526007 0 0.25877170878786238 0.25302463852503437 0 0.26784118605052742 0.25766384122118591 0 0.26005695654466249 0.26476207857526007 0 0.26877199542094288 0.271185286046489 0 0.26784118605052742 0.25766384122118591 0 0.24763005152173001 0.25910176257370959 0 0.26005695654466249 0.26476207857526007 0 0.25877170878786238 0.25302463852503437 0 0.26005695654466249 0.26476207857526007 0 0.25964825064670849 0.2811944406245902 0 0.26877199542094288 0.271185286046489 0 0.2434397278092077 0.27846069768541332 0 0.26005695654466249 0.26476207857526007 0 0.25964825064670849 0.2811944406245902 0 0.2434397278092077 0.27846069768541332 0 0.24763005152173001 0.25910176257370959 0 0.26005695654466249 0.26476207857526007 0 0.25964825064670849 0.2811944406245902 0 0.26877199542094288 0.271185286046489 0 0.27597263544757811 0.27926985653850322 0 0.26877199542094288 0.271185286046489 0 0.27597263544757811 0.27926985653850322 0 0.27647749418933931 0.26389562134405542 0 0.27597263544757811 0.27926985653850322 0 0.27647749418933931 0.26389562134405542 0 0.28921799240021828 0.26815650339571012 0 0.27647749418933931 0.26389562134405542 0 0.27542464597538868 0.25681776053554017 0 0.28272693040926428 0.25881526167589219 0 0.27647749418933931 0.26389562134405542 0 0.26784118605052742 0.25766384122118591 0 0.27542464597538868 0.25681776053554017 0 0.26877199542094288 0.271185286046489 0 0.27647749418933931 0.26389562134405542 0 0.26784118605052742 0.25766384122118591 0 0.26784118605052742 0.25766384122118591 0 0.27542464597538868 0.25681776053554017 0 0.27283394916361492 0.24742619336605559 0 0.25877170878786238 0.25302463852503437 0 0.26784118605052742 0.25766384122118591 0 0.27283394916361492 0.24742619336605559 0 0.27542464597538868 0.25681776053554017 0 0.28272693040926428 0.25881526167589219 0 0.27283394916361492 0.24742619336605559 0 0.28272693040926428 0.25881526167589219 0 0.29968057031776052 0.25778022973809978 0 0.27283394916361492 0.24742619336605559 0 0.28272693040926428 0.25881526167589219 0 0.28921799240021828 0.26815650339571012 0 0.29968057031776052 0.25778022973809978 0 0.29968057031776052 0.25778022973809978 0 0.27283394916361492 0.24742619336605559 0 0.29968057031776052 0.25778022973809978 0 0.27283394916361492 0.24742619336605559 0 0.3016365876598241 0.24719201463661561 0 0.27647749418933931 0.26389562134405542 0 0.28272693040926428 0.25881526167589219 0 0.28921799240021828 0.26815650339571012 0 0.28921799240021828 0.26815650339571012 0 0.29917140266547992 0.2696271248040239 0 0.29968057031776052 0.25778022973809978 0 0.29888580149873889 0.28140566667868477 0 0.27597263544757811 0.27926985653850322 0 0.28921799240021828 0.26815650339571012 0 0.29888580149873889 0.28140566667868477 0 0.28921799240021828 0.26815650339571012 0 0.29917140266547992 0.2696271248040239 0 0.30890124644520212 0.27116609940360098 0 0.29968057031776052 0.25778022973809978 0 0.32652719147190618 0.26813426611014402 0 0.29888580149873889 0.28140566667868477 0 0.30890124644520212 0.27116609940360098 0 0.31966717048778492 0.28020807462702291 0 0.29888580149873889 0.28140566667868477 0 0.29917140266547992 0.2696271248040239 0 0.30890124644520212 0.27116609940360098 0 0.29917140266547992 0.2696271248040239 0 0.30890124644520212 0.27116609940360098 0 0.29968057031776052 0.25778022973809978 0 0.29968057031776052 0.25778022973809978 0 0.31432639173362298 0.2563396134856944 0 0.3016365876598241 0.24719201463661561 0 0.29968057031776052 0.25778022973809978 0 0.32652719147190618 0.26813426611014402 0 0.29968057031776052 0.25778022973809978 0 0.31432639173362298 0.2563396134856944 0 0.32652719147190618 0.26813426611014402 0 0.31432639173362298 0.2563396134856944 0 0.32946121748500129 0.25225194345791829 0 0.3016365876598241 0.24719201463661561 0 0.31432639173362298 0.2563396134856944 0 0.32946121748500129 0.25225194345791829 0 0.32652719147190618 0.26813426611014402 0 0.32946121748500129 0.25225194345791829 0 0.35728584731017871 0.25731187227922109 0 0.32946121748500129 0.25225194345791829 0 0.33854302537622011 0.27351786473126699 0 0.35728584731017871 0.25731187227922109 0 0.32946121748500129 0.25225194345791829 0 0.33854302537622011 0.27351786473126699 0 0.32652719147190618 0.26813426611014402 0 0.33854302537622011 0.27351786473126699 0 0.32652719147190618 0.26813426611014402 0 0.31966717048778492 0.28020807462702291 0 0.30890124644520212 0.27116609940360098 0 0.32652719147190618 0.26813426611014402 0 0.31966717048778492 0.28020807462702291 0 0.31246487291163488 0.29208088598867771 0 0.31966717048778492 0.28020807462702291 0 0.33172871425663403 0.29269405324557379 0 0.31778971146991503 0.31788997842391498 0 0.3075048900192453 0.30846754722968978 0 0.32420479997372442 0.30853167071016102 0 0.31246487291163488 0.29208088598867771 0 0.32420479997372442 0.30853167071016102 0 0.31246487291163488 0.29208088598867771 0 0.32420479997372442 0.30853167071016102 0 0.33172871425663403 0.29269405324557379 0 0.3075048900192453 0.30846754722968978 0 0.31246487291163488 0.29208088598867771 0 0.32420479997372442 0.30853167071016102 0 0.32420479997372442 0.30853167071016102 0 0.33172871425663403 0.29269405324557379 0 0.34448717235649018 0.30756264321984922 0 0.33854302537622011 0.27351786473126699 0 0.31966717048778492 0.28020807462702291 0 0.33172871425663403 0.29269405324557379 0 0.33172871425663403 0.29269405324557379 0 0.3503635169770366 0.28966006865463678 0 0.34448717235649018 0.30756264321984922 0 0.33854302537622011 0.27351786473126699 0 0.33172871425663403 0.29269405324557379 0 0.3503635169770366 0.28966006865463678 0 0.3503635169770366 0.28966006865463678 0 0.34448717235649018 0.30756264321984922 0 0.36246687595182442 0.30494518477727961 0 0.36114413796306788 0.32433110896381118 0 0.34448717235649018 0.30756264321984922 0 0.36246687595182442 0.30494518477727961 0 0.36246687595182442 0.30494518477727961 0 0.37008896088821891 0.27907488192658342 0 0.38127772340545701 0.29855436992749679 0 0.3503635169770366 0.28966006865463678 0 0.36246687595182442 0.30494518477727961 0 0.37008896088821891 0.27907488192658342 0 0.37008896088821891 0.27907488192658342 0 0.35728584731017871 0.25731187227922109 0 0.35441181453934328 0.27463334472066592 0 0.37008896088821891 0.27907488192658342 0 0.35728584731017871 0.25731187227922109 0 0.38511047713535562 0.2623718011005241 0 0.35728584731017871 0.25731187227922109 0 0.38511047713535562 0.2623718011005241 0 0.37293454716760283 0.2396311516560117 0 0.35728584731017871 0.25731187227922109 0 0.38511047713535562 0.2623718011005241 0 0.33854302537622011 0.27351786473126699 0 0.3503635169770366 0.28966006865463678 0 0.35441181453934328 0.27463334472066592 0 0.33854302537622011 0.27351786473126699 0 0.35728584731017871 0.25731187227922109 0 0.35441181453934328 0.27463334472066592 0 0.3503635169770366 0.28966006865463678 0 0.37008896088821891 0.27907488192658342 0 0.35441181453934328 0.27463334472066592 0 0.4059739891301799 0.26616584566893298 0 0.38511047713535562 0.2623718011005241 0 0.39575362435311728 0.2822497143692822 0 0.4059739891301799 0.26616584566893298 0 0.39575362435311728 0.2822497143692822 0 0.41466985898722469 0.28617745239982811 0 0.4059739891301799 0.26616584566893298 0 0.38511047713535562 0.2623718011005241 0 0.39933451681408499 0.24222051247515669 0 0.4059739891301799 0.26616584566893298 0 0.38511047713535562 0.2623718011005241 0 0.38511047713535562 0.2623718011005241 0 0.37293454716760283 0.2396311516560117 0 0.37008896088821891 0.27907488192658342 0 0.38511047713535562 0.2623718011005241 0 0.39575362435311728 0.2822497143692822 0 0.38511047713535562 0.2623718011005241 0 0.39575362435311728 0.2822497143692822 0 0.37008896088821891 0.27907488192658342 0 0.38127772340545701 0.29855436992749679 0 0.39575362435311728 0.2822497143692822 0 0.38127772340545701 0.29855436992749679 0 0.39341545683502421 0.31015448597301559 0 0.38634354889032002 0.32367976249598251 0 0.38127772340545701 0.29855436992749679 0 0.38634354889032002 0.32367976249598251 0 0.36246687595182442 0.30494518477727961 0 0.38127772340545701 0.29855436992749679 0 0.38634354889032002 0.32367976249598251 0 0.38127772340545701 0.29855436992749679 0 0.39341545683502421 0.31015448597301559 0 0.40639677157087911 0.30212762763804019 0 0.39341545683502421 0.31015448597301559 0 0.40639677157087911 0.30212762763804019 0 0.4081981699382346 0.3139513768470385 0 0.39575362435311728 0.2822497143692822 0 0.40639677157087911 0.30212762763804019 0 0.38127772340545701 0.29855436992749679 0 0.39575362435311728 0.2822497143692822 0 0.40639677157087911 0.30212762763804019 0 0.39575362435311728 0.2822497143692822 0 0.41466985898722469 0.28617745239982811 0 0.40639677157087911 0.30212762763804019 0 0.41466985898722469 0.28617745239982811 0 0.40639677157087911 0.30212762763804019 0 0.42063747895650733 0.30228076741981708 0 0.40639677157087911 0.30212762763804019 0 0.417039918788641 0.32200554090679828 0 0.40639677157087911 0.30212762763804019 0 0.42063747895650733 0.30228076741981708 0 0.41590325438833858 0.31571238371771643 0 0.42063747895650733 0.30228076741981708 0 0.43554340190627211 0.31006971119553528 0 0.43241978878766019 0.29428086906555412 0 0.42063747895650733 0.30228076741981708 0 0.43554340190627211 0.31006971119553528 0 0.41590325438833858 0.31571238371771643 0 0.43241978878766019 0.29428086906555412 0 0.42683750112500368 0.26995989023734401 0 0.43795337608323548 0.28151673092589807 0 0.41466985898722469 0.28617745239982811 0 0.43241978878766019 0.29428086906555412 0 0.42683750112500368 0.26995989023734401 0 0.43241978878766019 0.29428086906555412 0 0.42683750112500368 0.26995989023734401 0 0.41466985898722469 0.28617745239982811 0 0.42063747895650733 0.30228076741981708 0 0.43241978878766019 0.29428086906555412 0 0.4059739891301799 0.26616584566893298 0 0.42683750112500368 0.26995989023734401 0 0.4059739891301799 0.26616584566893298 0 0.41466985898722469 0.28617745239982811 0 0.42683750112500368 0.26995989023734401 0 0.4059739891301799 0.26616584566893298 0 0.42683750112500368 0.26995989023734401 0 0.42092918023873821 0.24421844589255121 0 0.4059739891301799 0.26616584566893298 0 0.39933451681408499 0.24222051247515669 0 0.42092918023873821 0.24421844589255121 0 0.42683750112500368 0.26995989023734401 0 0.44089414042045799 0.25771217685885472 0 0.42092918023873821 0.24421844589255121 0 0.42683750112500368 0.26995989023734401 0 0.42092918023873821 0.24421844589255121 0 0.44089414042045799 0.25771217685885472 0 0.45301423403414209 0.26007999789895508 0 0.4569230610569987 0.24819013429900669 0 0.44089414042045799 0.25771217685885472 0 0.45301423403414209 0.26007999789895508 0 0.44973892600361531 0.27412453072026172 0 0.42683750112500368 0.26995989023734401 0 0.44089414042045799 0.25771217685885472 0 0.44973892600361531 0.27412453072026172 0 0.42683750112500368 0.26995989023734401 0 0.44973892600361531 0.27412453072026172 0 0.43795337608323548 0.28151673092589807 0 0.42683750112500368 0.26995989023734401 0 0.44973892600361531 0.27412453072026172 0 0.44973892600361531 0.27412453072026172 0 0.46478170596961249 0.26323965275109401 0 0.47264035088222628 0.27828917120318131 0 0.44973892600361531 0.27412453072026172 0 0.47264035088222628 0.27828917120318131 0 0.44973892600361531 0.27412453072026172 0 0.47264035088222628 0.27828917120318131 0 0.46226850420995219 0.28814127863090738 0 0.45301423403414209 0.26007999789895508 0 0.44973892600361531 0.27412453072026172 0 0.46478170596961249 0.26323965275109401 0 0.46478170596961249 0.26323965275109401 0 0.47264035088222628 0.27828917120318131 0 0.46478170596961249 0.26323965275109401 0 0.4569230610569987 0.24819013429900669 0 0.45301423403414209 0.26007999789895508 0 0.46478170596961249 0.26323965275109401 0 0.4569230610569987 0.24819013429900669 0 0.46478170596961249 0.26323965275109401 0 0.46750550623703407 0.25349570762290419 0 0.47341939214644252 0.26170481890296848 0 0.46478170596961249 0.26323965275109401 0 0.46750550623703407 0.25349570762290419 0 0.4569230610569987 0.24819013429900669 0 0.47341939214644252 0.26170481890296848 0 0.48489893488970792 0.25686202981026901 0 0.47278153852907701 0.24486280325581439 0 0.46750550623703407 0.25349570762290419 0 0.47341939214644252 0.26170481890296848 0 0.47278153852907701 0.24486280325581439 0 0.47341939214644252 0.26170481890296848 0 0.47278153852907701 0.24486280325581439 0 0.47341939214644252 0.26170481890296848 0 0.48000757765913032 0.26759533659828072 0 0.48489893488970792 0.25686202981026901 0 0.47341939214644252 0.26170481890296848 0 0.47405724576380859 0.27854683455012252 0 0.48000757765913032 0.26759533659828072 0 0.47341939214644252 0.26170481890296848 0 0.47264035088222628 0.27828917120318131 0 0.47405724576380859 0.27854683455012252 0 0.46478170596961249 0.26323965275109401 0 0.47341939214644252 0.26170481890296848 0 0.47264035088222628 0.27828917120318131 0 0.47405724576380859 0.27854683455012252 0 0.47415752390174082 0.28119459874267072 0 0.50000000000001354 0.28326454295050368 0 0.47341939214644252 0.26170481890296848 0 0.47405724576380859 0.27854683455012252 0 0.47264035088222628 0.27828917120318131 0 0.47405724576380859 0.27854683455012252 0 0.47405724576380859 0.27854683455012252 0 0.47415752390174082 0.28119459874267072 0 0.47264035088222628 0.27828917120318131 0 0.47405724576380859 0.27854683455012252 0 0.47415752390174082 0.28119459874267072 0 0.47264035088222628 0.27828917120318131 0 0.47415752390174082 0.28119459874267072 0 0.47405724576380859 0.27854683455012252 0 0.48000757765913032 0.26759533659828072 0 0.48909471086131839 0.26954423778064313 0 0.47405724576380859 0.27854683455012252 0 0.50000000000001354 0.28326454295050368 0 0.47405724576380859 0.27854683455012252 0 0.48909471086131839 0.26954423778064313 0 0.50000000000001354 0.28326454295050368 0 0.48909471086131839 0.26954423778064313 0 0.5 0.25553121794514477 0 0.50000000000001354 0.28326454295050368 0 0.5 0.25553121794514477 0 0.48489893488970792 0.25686202981026901 0 0.48903365503734891 0.24299047468837701 0 0.48909471086131839 0.26954423778064313 0 0.5 0.25553121794514477 0 0.48489893488970792 0.25686202981026901 0 0.48000757765913032 0.26759533659828072 0 0.48909471086131839 0.26954423778064313 0 0.48489893488970792 0.25686202981026901 0 0.48223131843763373 0.29665613456690521 0 0.49274985611107969 0.31679941989990179 0 0.48223131843763373 0.29665613456690521 0 0.49274985611107969 0.31679941989990179 0 0.48532411314893581 0.31403081790115361 0 0.49298554246438231 0.30475618362627349 0 0.48223131843763373 0.29665613456690521 0 0.49274985611107969 0.31679941989990179 0 0.49298554246438231 0.30475618362627349 0 0.4969609953088156 0.2924242547978898 0 0.5 0.31314492524039728 0 0.49298554246438231 0.30475618362627349 0 0.4969609953088156 0.2924242547978898 0 0.48223131843763373 0.29665613456690521 0 0.49298554246438231 0.30475618362627349 0 0.49274985611107969 0.31679941989990179 0 0.5 0.31314492524039728 0 0.4969609953088156 0.2924242547978898 0 0.50000000000001354 0.28326454295050368 0 0.5 0.31314492524039728 0 0.47415752390174082 0.28119459874267072 0 0.4969609953088156 0.2924242547978898 0 0.50000000000001354 0.28326454295050368 0 0.47415752390174082 0.28119459874267072 0 0.4969609953088156 0.2924242547978898 0 0.48223131843763373 0.29665613456690521 0 0.4969609953088156 0.2924242547978898 0 0.48223131843763373 0.29665613456690521 0 0.47415752390174082 0.28119459874267072 0 0.47482369694213911 0.29878436615117387 0 0.47415752390174082 0.28119459874267072 0 0.47482369694213911 0.29878436615117387 0 0.46226850420995219 0.28814127863090738 0 0.47415752390174082 0.28119459874267072 0 0.48223131843763373 0.29665613456690521 0 0.47482369694213911 0.29878436615117387 0 0.47415752390174082 0.28119459874267072 0 0.48223131843763373 0.29665613456690521 0 0.47264035088222628 0.27828917120318131 0 0.47415752390174082 0.28119459874267072 0 0.46226850420995219 0.28814127863090738 0 0.48223131843763373 0.29665613456690521 0 0.48022688714188239 0.30485617861310249 0 0.48532411314893581 0.31403081790115361 0 0.47482369694213911 0.29878436615117387 0 0.4785284200388214 0.30995339583317788 0 0.47567910166728178 0.32137064515506791 0 0.47482369694213911 0.29878436615117387 0 0.46683928615616721 0.31034493157342358 0 0.47567910166728178 0.32137064515506791 0 0.47482369694213911 0.29878436615117387 0 0.47567910166728178 0.32137064515506791 0 0.47482369694213911 0.29878436615117387 0 0.48022688714188239 0.30485617861310249 0 0.4785284200388214 0.30995339583317788 0 0.48223131843763373 0.29665613456690521 0 0.47482369694213911 0.29878436615117387 0 0.48022688714188239 0.30485617861310249 0 0.48223131843763373 0.29665613456690521 0 0.47482369694213911 0.29878436615117387 0 0.48022688714188239 0.30485617861310249 0 0.4785284200388214 0.30995339583317788 0 0.48532411314893581 0.31403081790115361 0 0.47482369694213911 0.29878436615117387 0 0.46683928615616721 0.31034493157342358 0 0.45518354942420552 0.3044270386733543 0 0.47482369694213911 0.29878436615117387 0 0.45518354942420552 0.3044270386733543 0 0.46683928615616721 0.31034493157342358 0 0.45518354942420552 0.3044270386733543 0 0.46090063033065398 0.31457074158430443 0 0.47482369694213911 0.29878436615117387 0 0.45518354942420552 0.3044270386733543 0 0.46226850420995219 0.28814127863090738 0 0.45518354942420552 0.3044270386733543 0 0.46226850420995219 0.28814127863090738 0 0.44650245416143669 0.29205179777212908 0 0.44973892600361531 0.27412453072026172 0 0.46226850420995219 0.28814127863090738 0 0.44650245416143669 0.29205179777212908 0 0.44973892600361531 0.27412453072026172 0 0.44650245416143669 0.29205179777212908 0 0.43795337608323548 0.28151673092589807 0 0.43241978878766019 0.29428086906555412 0 0.44650245416143669 0.29205179777212908 0 0.43795337608323548 0.28151673092589807 0 0.43554340190627211 0.31006971119553528 0 0.45518354942420552 0.3044270386733543 0 0.44650245416143669 0.29205179777212908 0 0.43554340190627211 0.31006971119553528 0 0.43241978878766019 0.29428086906555412 0 0.44650245416143669 0.29205179777212908 0 0.43554340190627211 0.31006971119553528 0 0.45518354942420552 0.3044270386733543 0 0.44590058407496119 0.32214035093537202 0 0.43554340190627211 0.31006971119553528 0 0.45518354942420552 0.3044270386733543 0 0.44438162939182968 0.33527616080122319 0 0.43941431748234389 0.34697694962204328 0 0.43138153093963261 0.33684778794266318 0 0.44438162939182968 0.33527616080122319 0 0.43138153093963261 0.33684778794266318 0 0.43736796180383269 0.33070162376080392 0 0.44590058407496119 0.32214035093537202 0 0.44438162939182968 0.33527616080122319 0 0.43736796180383269 0.33070162376080392 0 0.44590058407496119 0.32214035093537202 0 0.44438162939182968 0.33527616080122319 0 0.45938090137280319 0.33331169935871768 0 0.44438162939182968 0.33527616080122319 0 0.45466128638888681 0.34537342559846479 0 0.43941431748234389 0.34697694962204328 0 0.44438162939182968 0.33527616080122319 0 0.45938090137280319 0.33331169935871768 0 0.45466128638888681 0.34537342559846479 0 0.45938090137280319 0.33331169935871768 0 0.47648750655815691 0.34271593104932652 0 0.45466128638888681 0.34537342559846479 0 0.45518354942420552 0.3044270386733543 0 0.44590058407496119 0.32214035093537202 0 0.46090063033065398 0.31457074158430443 0 0.44590058407496119 0.32214035093537202 0 0.47567910166728178 0.32137064515506791 0 0.44590058407496119 0.32214035093537202 0 0.45938090137280319 0.33331169935871768 0 0.47567910166728178 0.32137064515506791 0 0.44590058407496119 0.32214035093537202 0 0.46090063033065398 0.31457074158430443 0 0.47567910166728178 0.32137064515506791 0 0.46683928615616721 0.31034493157342358 0 0.46090063033065398 0.31457074158430443 0 0.47567910166728178 0.32137064515506791 0 0.4785284200388214 0.30995339583317788 0 0.48037384835626529 0.31664076505113292 0 0.47567910166728178 0.32137064515506791 0 0.48037384835626529 0.31664076505113292 0 0.48196375857002199 0.32120820131513239 0 0.47567910166728178 0.32137064515506791 0 0.48037384835626529 0.31664076505113292 0 0.48196375857002199 0.32120820131513239 0 0.48532411314893581 0.31403081790115361 0 0.4785284200388214 0.30995339583317788 0 0.48037384835626529 0.31664076505113292 0 0.48532411314893581 0.31403081790115361 0 0.48196375857002199 0.32120820131513239 0 0.48271443300740718 0.32966898805558448 0 0.48700966075600671 0.32276244140519528 0 0.48196375857002199 0.32120820131513239 0 0.47567910166728178 0.32137064515506791 0 0.48271443300740718 0.32966898805558448 0 0.48196375857002199 0.32120820131513239 0 0.47567910166728178 0.32137064515506791 0 0.47567910166728178 0.32137064515506791 0 0.47648750655815691 0.34271593104932652 0 0.47567910166728178 0.32137064515506791 0 0.47648750655815691 0.34271593104932652 0 0.48271443300740718 0.32966898805558448 0 0.45938090137280319 0.33331169935871768 0 0.47567910166728178 0.32137064515506791 0 0.47648750655815691 0.34271593104932652 0 0.47648750655815691 0.34271593104932652 0 0.48271443300740718 0.32966898805558448 0 0.49227852706914571 0.3310448133387906 0 0.47648750655815691 0.34271593104932652 0 0.5 0.34302530753029081 0 0.49227852706914571 0.3310448133387906 0 0.5 0.34302530753029081 0 0.49227852706914571 0.3310448133387906 0 0.5 0.31314492524039728 0 0.49227852706914571 0.3310448133387906 0 0.49274985611107969 0.31679941989990179 0 0.5 0.31314492524039728 0 0.48196375857002199 0.32120820131513239 0 0.48532411314893581 0.31403081790115361 0 0.48700966075600671 0.32276244140519528 0 0.49274985611107969 0.31679941989990179 0 0.48532411314893581 0.31403081790115361 0 0.48700966075600671 0.32276244140519528 0 0.48271443300740718 0.32966898805558448 0 0.49227852706914571 0.3310448133387906 0 0.48700966075600671 0.32276244140519528 0 0.49227852706914571 0.3310448133387906 0 0.49274985611107969 0.31679941989990179 0 0.48700966075600671 0.32276244140519528 0 0.5 0.37290568982018429 0 0.48906820236105919 0.3579654986752378 0 0.48477613844387402 0.38021688004838439 0 0.47648750655815691 0.34271593104932652 0 0.5 0.34302530753029081 0 0.48906820236105919 0.3579654986752378 0 0.5 0.34302530753029081 0 0.5 0.37290568982018429 0 0.48906820236105919 0.3579654986752378 0 0.47648750655815691 0.34271593104932652 0 0.4736556537454587 0.3678330253399309 0 0.4628011452372443 0.35721885356897543 0 0.47648750655815691 0.34271593104932652 0 0.48906820236105919 0.3579654986752378 0 0.4736556537454587 0.3678330253399309 0 0.48906820236105919 0.3579654986752378 0 0.4736556537454587 0.3678330253399309 0 0.48477613844387402 0.38021688004838439 0 0.4736556537454587 0.3678330253399309 0 0.45151374504626951 0.36758660991241321 0 0.46980882541715813 0.38208294099771128 0 0.4736556537454587 0.3678330253399309 0 0.4628011452372443 0.35721885356897543 0 0.45151374504626951 0.36758660991241321 0 0.47648750655815691 0.34271593104932652 0 0.4628011452372443 0.35721885356897543 0 0.45466128638888681 0.34537342559846479 0 0.4628011452372443 0.35721885356897543 0 0.45466128638888681 0.34537342559846479 0 0.45151374504626951 0.36758660991241321 0 0.43941431748234389 0.34697694962204328 0 0.45151374504626951 0.36758660991241321 0 0.43248649325656402 0.35912170041613489 0 0.45466128638888681 0.34537342559846479 0 0.43941431748234389 0.34697694962204328 0 0.45151374504626951 0.36758660991241321 0 0.45151374504626951 0.36758660991241321 0 0.4343808670510142 0.37207818795490849 0 0.43248649325656402 0.35912170041613489 0 0.4343808670510142 0.37207818795490849 0 0.41565945607251759 0.36236511110304392 0 0.42235721568131929 0.38220686924127689 0 0.4343808670510142 0.37207818795490849 0 0.41565945607251759 0.36236511110304392 0 0.43248649325656402 0.35912170041613489 0 0.41565945607251759 0.36236511110304392 0 0.40683499004542412 0.37566900985645529 0 0.42235721568131929 0.38220686924127689 0 0.41565945607251759 0.36236511110304392 0 0.42423344021441339 0.3469403641650044 0 0.40881868850316022 0.34319093436892228 0 0.41565945607251759 0.36236511110304392 0 0.40881868850316022 0.34319093436892228 0 0.40255325820206211 0.35440744329028528 0 0.41565945607251759 0.36236511110304392 0 0.42423344021441339 0.3469403641650044 0 0.43248649325656402 0.35912170041613489 0 0.43941431748234389 0.34697694962204328 0 0.42423344021441339 0.3469403641650044 0 0.43248649325656402 0.35912170041613489 0 0.43941431748234389 0.34697694962204328 0 0.42423344021441339 0.3469403641650044 0 0.43138153093963261 0.33684778794266318 0 0.43138153093963261 0.33684778794266318 0 0.43736796180383269 0.33070162376080392 0 0.42780810280890752 0.32854219536395729 0 0.43138153093963261 0.33684778794266318 0 0.42780810280890752 0.32854219536395729 0 0.41974391964010321 0.33544292333485398 0 0.42780810280890752 0.32854219536395729 0 0.41816216709540432 0.32913892271221878 0 0.41974391964010321 0.33544292333485398 0 0.42423344021441339 0.3469403641650044 0 0.43138153093963261 0.33684778794266318 0 0.41974391964010321 0.33544292333485398 0 0.44590058407496119 0.32214035093537202 0 0.417039918788641 0.32200554090679828 0 0.43554340190627211 0.31006971119553528 0 0.42610184512817068 0.31856760869421968 0 0.41590325438833858 0.31571238371771643 0 0.44590058407496119 0.32214035093537202 0 0.42610184512817068 0.31856760869421968 0 0.417039918788641 0.32200554090679828 0 0.44590058407496119 0.32214035093537202 0 0.42780810280890752 0.32854219536395729 0 0.417039918788641 0.32200554090679828 0 0.44590058407496119 0.32214035093537202 0 0.43736796180383269 0.33070162376080392 0 0.42780810280890752 0.32854219536395729 0 0.43554340190627211 0.31006971119553528 0 0.41590325438833858 0.31571238371771643 0 0.43554340190627211 0.31006971119553528 0 0.44590058407496119 0.32214035093537202 0 0.42610184512817068 0.31856760869421968 0 0.40639677157087911 0.30212762763804019 0 0.417039918788641 0.32200554090679828 0 0.4081981699382346 0.3139513768470385 0 0.40639677157087911 0.30212762763804019 0 0.41590325438833858 0.31571238371771643 0 0.417039918788641 0.32200554090679828 0 0.42610184512817068 0.31856760869421968 0 0.41590325438833858 0.31571238371771643 0 0.417039918788641 0.32200554090679828 0 0.417039918788641 0.32200554090679828 0 0.41816216709540432 0.32913892271221878 0 0.41176425843116088 0.33156610519561941 0 0.42780810280890752 0.32854219536395729 0 0.417039918788641 0.32200554090679828 0 0.41816216709540432 0.32913892271221878 0 0.42423344021441339 0.3469403641650044 0 0.41974391964010321 0.33544292333485398 0 0.40881868850316022 0.34319093436892228 0 0.41816216709540432 0.32913892271221878 0 0.41974391964010321 0.33544292333485398 0 0.41176425843116088 0.33156610519561941 0 0.417039918788641 0.32200554090679828 0 0.41176425843116088 0.33156610519561941 0 0.40171431040203109 0.33103781916521291 0 0.41176425843116088 0.33156610519561941 0 0.40881868850316022 0.34319093436892228 0 0.40171431040203109 0.33103781916521291 0 0.41974391964010321 0.33544292333485398 0 0.41176425843116088 0.33156610519561941 0 0.40881868850316022 0.34319093436892228 0 0.40171431040203109 0.33103781916521291 0 0.38634354889032002 0.32367976249598251 0 0.39069281237429682 0.34525116339505252 0 0.40881868850316022 0.34319093436892228 0 0.40171431040203109 0.33103781916521291 0 0.39069281237429682 0.34525116339505252 0 0.417039918788641 0.32200554090679828 0 0.40171431040203109 0.33103781916521291 0 0.38634354889032002 0.32367976249598251 0 0.417039918788641 0.32200554090679828 0 0.4081981699382346 0.3139513768470385 0 0.38634354889032002 0.32367976249598251 0 0.39341545683502421 0.31015448597301559 0 0.4081981699382346 0.3139513768470385 0 0.38634354889032002 0.32367976249598251 0 0.417039918788641 0.32200554090679828 0 0.38634354889032002 0.32367976249598251 0 0.38634354889032002 0.32367976249598251 0 0.39069281237429682 0.34525116339505252 0 0.37418757138316661 0.34003979241565702 0 0.38634354889032002 0.32367976249598251 0 0.39069281237429682 0.34525116339505252 0 0.37418757138316661 0.34003979241565702 0 0.38014707859742553 0.358601566133181 0 0.39069281237429682 0.34525116339505252 0 0.38014707859742553 0.358601566133181 0 0.39504207585827378 0.36682256429412252 0 0.39069281237429682 0.34525116339505252 0 0.36927583114563117 0.37168826674887129 0 0.38014707859742553 0.358601566133181 0 0.3861818138235471 0.37714139125663793 0 0.38014707859742553 0.358601566133181 0 0.39504207585827378 0.36682256429412252 0 0.3861818138235471 0.37714139125663793 0 0.41565945607251759 0.36236511110304392 0 0.39504207585827378 0.36682256429412252 0 0.40683499004542412 0.37566900985645529 0 0.41565945607251759 0.36236511110304392 0 0.39504207585827378 0.36682256429412252 0 0.40255325820206211 0.35440744329028528 0 0.39504207585827378 0.36682256429412252 0 0.40255325820206211 0.35440744329028528 0 0.39069281237429682 0.34525116339505252 0 0.40881868850316022 0.34319093436892228 0 0.40255325820206211 0.35440744329028528 0 0.39069281237429682 0.34525116339505252 0 0.39504207585827378 0.36682256429412252 0 0.39069281237429682 0.34525116339505252 0 0.3993913393422508 0.38839396519319253 0 0.39020643165102042 0.40750290438779102 0 0.40342788129008578 0.41136751416027151 0 0.3993913393422508 0.38839396519319253 0 0.40342788129008578 0.41136751416027151 0 0.41247484703898341 0.39668929567888889 0 0.3993913393422508 0.38839396519319253 0 0.38594138320053972 0.39504117240748449 0 0.39020643165102042 0.40750290438779102 0 0.39504207585827378 0.36682256429412252 0 0.3993913393422508 0.38839396519319253 0 0.40683499004542412 0.37566900985645529 0 0.39504207585827378 0.36682256429412252 0 0.3993913393422508 0.38839396519319253 0 0.39504207585827378 0.36682256429412252 0 0.3993913393422508 0.38839396519319253 0 0.3861818138235471 0.37714139125663793 0 0.3993913393422508 0.38839396519319253 0 0.41247484703898341 0.39668929567888889 0 0.40683499004542412 0.37566900985645529 0 0.36927583114563117 0.37168826674887129 0 0.38594138320053972 0.39504117240748449 0 0.3993913393422508 0.38839396519319253 0 0.3861818138235471 0.37714139125663793 0 0.38594138320053972 0.39504117240748449 0 0.36927583114563117 0.37168826674887129 0 0.3861818138235471 0.37714139125663793 0 0.38594138320053972 0.39504117240748449 0 0.36672310374365391 0.3972274770167053 0 0.38594138320053972 0.39504117240748449 0 0.37714557779446961 0.40580011292323048 0 0.38594138320053972 0.39504117240748449 0 0.37714557779446961 0.40580011292323048 0 0.39020643165102042 0.40750290438779102 0 0.37714557779446961 0.40580011292323048 0 0.39020643165102042 0.40750290438779102 0 0.37786999239799629 0.42201923841731348 0 0.39020643165102042 0.40750290438779102 0 0.37786999239799629 0.42201923841731348 0 0.39620875860206523 0.42610388639599522 0 0.3672128213662551 0.44140310366938379 0 0.37786999239799629 0.42201923841731348 0 0.38861509636247821 0.44175005125570632 0 0.37786999239799629 0.42201923841731348 0 0.39620875860206523 0.42610388639599522 0 0.38861509636247821 0.44175005125570632 0 0.39620875860206523 0.42610388639599522 0 0.40342788129008578 0.41136751416027151 0 0.4165515890159211 0.43106581875832262 0 0.39020643165102042 0.40750290438779102 0 0.39620875860206523 0.42610388639599522 0 0.40342788129008578 0.41136751416027151 0 0.40342788129008578 0.41136751416027151 0 0.4194649070479346 0.41075775866906961 0 0.4165515890159211 0.43106581875832262 0 0.40342788129008578 0.41136751416027151 0 0.4194649070479346 0.41075775866906961 0 0.41247484703898341 0.39668929567888889 0 0.39620875860206523 0.42610388639599522 0 0.4165515890159211 0.43106581875832262 0 0.40679533173472487 0.44514780784289609 0 0.4165515890159211 0.43106581875832262 0 0.44107028692003247 0.43153611533185032 0 0.4165515890159211 0.43106581875832262 0 0.43527838440837918 0.41507327228856877 0 0.44107028692003247 0.43153611533185032 0 0.4194649070479346 0.41075775866906961 0 0.4165515890159211 0.43106581875832262 0 0.43527838440837918 0.41507327228856877 0 0.4194649070479346 0.41075775866906961 0 0.43527838440837918 0.41507327228856877 0 0.42844040697821201 0.39890611008127758 0 0.43527838440837918 0.41507327228856877 0 0.42844040697821201 0.39890611008127758 0 0.44356544647064411 0.40084295107477419 0 0.42844040697821201 0.39890611008127758 0 0.43978627658039499 0.38550810048347522 0 0.44356544647064411 0.40084295107477419 0 0.4194649070479346 0.41075775866906961 0 0.42844040697821201 0.39890611008127758 0 0.41247484703898341 0.39668929567888889 0 0.42844040697821201 0.39890611008127758 0 0.41247484703898341 0.39668929567888889 0 0.42235721568131929 0.38220686924127689 0 0.41247484703898341 0.39668929567888889 0 0.40683499004542412 0.37566900985645529 0 0.42235721568131929 0.38220686924127689 0 0.4343808670510142 0.37207818795490849 0 0.42235721568131929 0.38220686924127689 0 0.43978627658039499 0.38550810048347522 0 0.42844040697821201 0.39890611008127758 0 0.42235721568131929 0.38220686924127689 0 0.43978627658039499 0.38550810048347522 0 0.45151374504626951 0.36758660991241321 0 0.4343808670510142 0.37207818795490849 0 0.43978627658039499 0.38550810048347522 0 0.45151374504626951 0.36758660991241321 0 0.43978627658039499 0.38550810048347522 0 0.45722528454721961 0.3906654768237981 0 0.43978627658039499 0.38550810048347522 0 0.44356544647064411 0.40084295107477419 0 0.45722528454721961 0.3906654768237981 0 0.44356544647064411 0.40084295107477419 0 0.45722528454721961 0.3906654768237981 0 0.45594545333092312 0.41337501331873322 0 0.45722528454721961 0.3906654768237981 0 0.47568108772685191 0.39367102650606373 0 0.46881626912638691 0.40427363304328218 0 0.45722528454721961 0.3906654768237981 0 0.46881626912638691 0.40427363304328218 0 0.45594545333092312 0.41337501331873322 0 0.45151374504626951 0.36758660991241321 0 0.45722528454721961 0.3906654768237981 0 0.46980882541715813 0.38208294099771128 0 0.45722528454721961 0.3906654768237981 0 0.46980882541715813 0.38208294099771128 0 0.47568108772685191 0.39367102650606373 0 0.4736556537454587 0.3678330253399309 0 0.46980882541715813 0.38208294099771128 0 0.48477613844387402 0.38021688004838439 0 0.47568108772685191 0.39367102650606373 0 0.48702766555901961 0.39491075051184021 0 0.48477613844387402 0.38021688004838439 0 0.46980882541715813 0.38208294099771128 0 0.47568108772685191 0.39367102650606373 0 0.48477613844387402 0.38021688004838439 0 0.47568108772685191 0.39367102650606373 0 0.46881626912638691 0.40427363304328218 0 0.48151606592710777 0.40452093291302588 0 0.47568108772685191 0.39367102650606373 0 0.48151606592710777 0.40452093291302588 0 0.48702766555901961 0.39491075051184021 0 0.48702766555901961 0.39491075051184021 0 0.49874079622209128 0.38660437256818281 0 0.49442423947517328 0.40954054052354433 0 0.5 0.40278607211007789 0 0.49874079622209128 0.38660437256818281 0 0.49442423947517328 0.40954054052354433 0 0.49874079622209128 0.38660437256818281 0 0.49442423947517328 0.40954054052354433 0 0.48151606592710777 0.40452093291302588 0 0.48702766555901961 0.39491075051184021 0 0.49442423947517328 0.40954054052354433 0 0.5 0.37290568982018429 0 0.5 0.40278607211007789 0 0.49874079622209128 0.38660437256818281 0 0.5 0.37290568982018429 0 0.49874079622209128 0.38660437256818281 0 0.48477613844387402 0.38021688004838439 0 0.48702766555901961 0.39491075051184021 0 0.49874079622209128 0.38660437256818281 0 0.48477613844387402 0.38021688004838439 0 0.49010768272825528 0.43247670847890568 0 0.49999999999999839 0.43266645439997159 0 0.49442423947517328 0.40954054052354433 0 0.49010768272825528 0.43247670847890568 0 0.49999999999999839 0.43266645439997159 0 0.5 0.40278607211007789 0 0.49999999999999839 0.43266645439997159 0 0.49442423947517328 0.40954054052354433 0 0.49010768272825528 0.43247670847890568 0 0.49442423947517328 0.40954054052354433 0 0.47768739680387268 0.41777805257305989 0 0.48151606592710777 0.40452093291302588 0 0.49442423947517328 0.40954054052354433 0 0.47768739680387268 0.41777805257305989 0 0.49010768272825528 0.43247670847890568 0 0.49442423947517328 0.40954054052354433 0 0.46881626912638691 0.40427363304328218 0 0.48151606592710777 0.40452093291302588 0 0.47768739680387268 0.41777805257305989 0 0.49010768272825528 0.43247670847890568 0 0.47768739680387268 0.41777805257305989 0 0.4655889848241439 0.43200641190537797 0 0.49010768272825528 0.43247670847890568 0 0.4655889848241439 0.43200641190537797 0 0.47536631759922843 0.44556886167195853 0 0.49010768272825528 0.43247670847890568 0 0.4655889848241439 0.43200641190537797 0 0.4655889848241439 0.43200641190537797 0 0.44107028692003247 0.43153611533185032 0 0.4655889848241439 0.43200641190537797 0 0.45594545333092312 0.41337501331873322 0 0.44107028692003247 0.43153611533185032 0 0.4655889848241439 0.43200641190537797 0 0.44107028692003247 0.43153611533185032 0 0.4606865760628292 0.44801704672434101 0 0.47768739680387268 0.41777805257305989 0 0.4655889848241439 0.43200641190537797 0 0.45594545333092312 0.41337501331873322 0 0.46881626912638691 0.40427363304328218 0 0.47768739680387268 0.41777805257305989 0 0.45594545333092312 0.41337501331873322 0 0.43527838440837918 0.41507327228856877 0 0.45594545333092312 0.41337501331873322 0 0.44107028692003247 0.43153611533185032 0 0.43527838440837918 0.41507327228856877 0 0.44356544647064411 0.40084295107477419 0 0.45594545333092312 0.41337501331873322 0 0.49999999999999839 0.43266645439997159 0 0.48505572566105232 0.45932045051458531 0 0.5 0.5 0 0.44107028692003247 0.43153611533185032 0 0.44376664188615123 0.45979150936037488 0 0.4606865760628292 0.44801704672434101 0 0.44376664188615123 0.45979150936037488 0 0.46112241578244989 0.46478661640483648 0 0.45121200239437631 0.4807671998253365 0 0.44376664188615123 0.45979150936037488 0 0.46112241578244989 0.46478661640483648 0 0.4606865760628292 0.44801704672434101 0 0.46112241578244989 0.46478661640483648 0 0.4606865760628292 0.44801704672434101 0 0.47539261871986088 0.45602369073658289 0 0.4655889848241439 0.43200641190537797 0 0.4606865760628292 0.44801704672434101 0 0.47536631759922843 0.44556886167195853 0 0.49010768272825528 0.43247670847890568 0 0.47536631759922843 0.44556886167195853 0 0.48505572566105232 0.45932045051458531 0 0.4606865760628292 0.44801704672434101 0 0.47536631759922843 0.44556886167195853 0 0.47539261871986088 0.45602369073658289 0 0.47539261871986088 0.45602369073658289 0 0.47110615765410929 0.47801184536829172 0 0.47539261871986088 0.45602369073658289 0 0.48505572566105232 0.45932045051458531 0 0.47110615765410929 0.47801184536829172 0 0.46112241578244989 0.46478661640483648 0 0.47539261871986088 0.45602369073658289 0 0.47110615765410929 0.47801184536829172 0 0.47536631759922843 0.44556886167195853 0 0.47539261871986088 0.45602369073658289 0 0.48505572566105232 0.45932045051458531 0 0.49010768272825528 0.43247670847890568 0 0.48505572566105232 0.45932045051458531 0 0.49010768272825528 0.43247670847890568 0 0.49999999999999839 0.43266645439997159 0 0.48505572566105232 0.45932045051458531 0 0.48505572566105232 0.45932045051458531 0 0.5 0.5 0 0.48000376859384941 0.48616419255026477 0 0.5 0.5 0 0.48000376859384941 0.48616419255026477 0 0.46681969658835759 0.50000000000000044 0 0.48505572566105232 0.45932045051458531 0 0.47110615765410929 0.47801184536829172 0 0.48000376859384941 0.48616419255026477 0 0.48505572566105232 0.45932045051458531 0 0.48000376859384941 0.48616419255026477 0 0.47110615765410929 0.47801184536829172 0 0.46681969658835759 0.50000000000000044 0 0.47110615765410929 0.47801184536829172 0 0.48000376859384941 0.48616419255026477 0 0.46681969658835759 0.50000000000000044 0 0.47110615765410929 0.47801184536829172 0 0.46681969658835759 0.50000000000000044 0 0.45121200239437631 0.4807671998253365 0 0.46112241578244989 0.46478661640483648 0 0.47110615765410929 0.47801184536829172 0 0.45121200239437631 0.4807671998253365 0 0.44376664188615123 0.45979150936037488 0 0.45121200239437631 0.4807671998253365 0 0.42408561830569141 0.47732830779616442 0 0.46681969658835759 0.50000000000000044 0 0.45121200239437631 0.4807671998253365 0 0.43971230006436901 0.5 0 0.45121200239437631 0.4807671998253365 0 0.43971230006436901 0.5 0 0.42408561830569141 0.47732830779616442 0 0.43971230006436901 0.5 0 0.41260490354038032 0.5 0 0.42408561830569141 0.47732830779616442 0 0.41260490354038032 0.5 0 0.42408561830569141 0.47732830779616442 0 0.40044085355502113 0.48368683573266119 0 0.42408561830569141 0.47732830779616442 0 0.40050545668784993 0.46242548604636152 0 0.40044085355502113 0.48368683573266119 0 0.44376664188615123 0.45979150936037488 0 0.42408561830569141 0.47732830779616442 0 0.42267709028742451 0.45339185591380432 0 0.44107028692003247 0.43153611533185032 0 0.44376664188615123 0.45979150936037488 0 0.42267709028742451 0.45339185591380432 0 0.4165515890159211 0.43106581875832262 0 0.44107028692003247 0.43153611533185032 0 0.42267709028742451 0.45339185591380432 0 0.4165515890159211 0.43106581875832262 0 0.42267709028742451 0.45339185591380432 0 0.40679533173472487 0.44514780784289609 0 0.42408561830569141 0.47732830779616442 0 0.42267709028742451 0.45339185591380432 0 0.40050545668784993 0.46242548604636152 0 0.42267709028742451 0.45339185591380432 0 0.40679533173472487 0.44514780784289609 0 0.40050545668784993 0.46242548604636152 0 0.40679533173472487 0.44514780784289609 0 0.40050545668784993 0.46242548604636152 0 0.38861509636247821 0.44175005125570632 0 0.39620875860206523 0.42610388639599522 0 0.40679533173472487 0.44514780784289609 0 0.38861509636247821 0.44175005125570632 0 0.3672128213662551 0.44140310366938379 0 0.38861509636247821 0.44175005125570632 0 0.37565915938479377 0.45849116020829678 0 0.40050545668784993 0.46242548604636152 0 0.37565915938479377 0.45849116020829678 0 0.37951078222479251 0.47868038482078018 0 0.40050545668784993 0.46242548604636152 0 0.38861509636247821 0.44175005125570632 0 0.37565915938479377 0.45849116020829678 0 0.37951078222479251 0.47868038482078018 0 0.38549750701639152 0.5 0 0.40044085355502113 0.48368683573266119 0 0.41260490354038032 0.5 0 0.38549750701639152 0.5 0 0.40044085355502113 0.48368683573266119 0 0.40050545668784993 0.46242548604636152 0 0.37951078222479251 0.47868038482078018 0 0.40044085355502113 0.48368683573266119 0 0.3285700774521132 0.069227507684709172 0 0.34376262838779448 0.090160381808613591 0 0.3285700774521132 0.069227507684709172 0 0.34376262838779448 0.090160381808613591 0 0.3570119940846016 0.07655140493877155 0 0.3285700774521132 0.069227507684709172 0 0.31851483003181857 0.089032350953859848 0 0.34376262838779448 0.090160381808613591 0 0.3285700774521132 0.069227507684709172 0 0.31851483003181857 0.089032350953859848 0 0.30262144479489489 0.063472250579192202 0 0.31851483003181857 0.089032350953859848 0 0.32257158209111758 0.11034462767622299 0 0.33741607394213652 0.1036774965936159 0 0.31851483003181857 0.089032350953859848 0 0.32257158209111758 0.11034462767622299 0 0.29867863108980142 0.1045573716884185 0 0.32257158209111758 0.11034462767622299 0 0.32933038512457441 0.1245201253257071 0 0.3207185438207466 0.1263919595033525 0 0.32257158209111758 0.11034462767622299 0 0.31156748461804079 0.12537242366950921 0 0.3207185438207466 0.1263919595033525 0 0.32933038512457441 0.1245201253257071 0 0.34646453309243358 0.11613188366402739 0 0.34441400131097022 0.1288917011053414 0 0.32257158209111758 0.11034462767622299 0 0.33741607394213652 0.1036774965936159 0 0.34646453309243358 0.11613188366402739 0 0.32257158209111758 0.11034462767622299 0 0.34646453309243358 0.11613188366402739 0 0.32257158209111758 0.11034462767622299 0 0.32933038512457441 0.1245201253257071 0 0.34646453309243358 0.11613188366402739 0 0.31851483003181857 0.089032350953859848 0 0.33741607394213652 0.1036774965936159 0 0.34376262838779448 0.090160381808613591 0 0.35895517932347593 0.111093255932518 0 0.36286728541875429 0.096218484345557367 0 0.34376262838779448 0.090160381808613591 0 0.33741607394213652 0.1036774965936159 0 0.35895517932347593 0.111093255932518 0 0.34376262838779448 0.090160381808613591 0 0.35895517932347593 0.111093255932518 0 0.34376262838779448 0.090160381808613591 0 0.34646453309243358 0.11613188366402739 0 0.35895517932347593 0.111093255932518 0 0.37035748409374952 0.12191913965183331 0 0.34646453309243358 0.11613188366402739 0 0.37035748409374952 0.12191913965183331 0 0.33741607394213652 0.1036774965936159 0 0.34646453309243358 0.11613188366402739 0 0.35895517932347593 0.111093255932518 0 0.34646453309243358 0.11613188366402739 0 0.37035748409374952 0.12191913965183331 0 0.34441400131097022 0.1288917011053414 0 0.35895517932347593 0.111093255932518 0 0.36901916600157941 0.1100142775002767 0 0.37035748409374952 0.12191913965183331 0 0.36901916600157941 0.1100142775002767 0 0.37035748409374952 0.12191913965183331 0 0.37815432920295677 0.1109533992790251 0 0.37035748409374952 0.12191913965183331 0 0.37511757494472903 0.123072110010257 0 0.37035748409374952 0.12191913965183331 0 0.37169283910029199 0.12815165521797289 0 0.37511757494472903 0.123072110010257 0 0.36286728541875429 0.096218484345557367 0 0.37455144446510141 0.10193275935197101 0 0.37400882161871279 0.083619613235024759 0 0.35895517932347593 0.111093255932518 0 0.36901916600157941 0.1100142775002767 0 0.36286728541875429 0.096218484345557367 0 0.36901916600157941 0.1100142775002767 0 0.36286728541875429 0.096218484345557367 0 0.37455144446510141 0.10193275935197101 0 0.36901916600157941 0.1100142775002767 0 0.37455144446510141 0.10193275935197101 0 0.37815432920295677 0.1109533992790251 0 0.36286728541875429 0.096218484345557367 0 0.37400882161871279 0.083619613235024759 0 0.3570119940846016 0.07655140493877155 0 0.36286728541875429 0.096218484345557367 0 0.34376262838779448 0.090160381808613591 0 0.3570119940846016 0.07655140493877155 0 0.3285700774521132 0.069227507684709172 0 0.3570119940846016 0.07655140493877155 0 0.3540274811898364 0.057481719132925622 0 0.37400882161871279 0.083619613235024759 0 0.3570119940846016 0.07655140493877155 0 0.37883567044039879 0.062600723425798879 0 0.3570119940846016 0.07655140493877155 0 0.3540274811898364 0.057481719132925622 0 0.37883567044039879 0.062600723425798879 0 0.36884998715724038 0.048654936693666287 0 0.3540274811898364 0.057481719132925622 0 0.37883567044039879 0.062600723425798879 0 0.36884998715724038 0.048654936693666287 0 0.36096242836060388 0.032492650360987897 0 0.3540274811898364 0.057481719132925622 0 0.36884998715724038 0.048654936693666287 0 0.36096242836060388 0.032492650360987897 0 0.38366251926208489 0.041581833616573027 0 0.36096242836060388 0.032492650360987897 0 0.3540274811898364 0.057481719132925622 0 0.33343548863743699 0.044422356914628619 0 0.36096242836060388 0.032492650360987897 0 0.34150772405548108 0.025325389551572871 0 0.33343548863743699 0.044422356914628619 0 0.36096242836060388 0.032492650360987897 0 0.33343548863743699 0.044422356914628619 0 0.36934971840039982 0.01412264887454192 0 0.38120377069012762 0.010554394007073271 0 0.36845156083710567 -0.0060515153414843056 0 0.36934971840039982 0.01412264887454192 0 0.35188933009005469 0.012921367503740049 0 0.36845156083710567 -0.0060515153414843056 0 0.36096242836060388 0.032492650360987897 0 0.38848936808377088 0.020562943807347231 0 0.36096242836060388 0.032492650360987897 0 0.36934971840039982 0.01412264887454192 0 0.35188933009005469 0.012921367503740049 0 0.36096242836060388 0.032492650360987897 0 0.36934971840039982 0.01412264887454192 0 0.38848936808377088 0.020562943807347231 0 0.36096242836060388 0.032492650360987897 0 0.35188933009005469 0.012921367503740049 0 0.34150772405548108 0.025325389551572871 0 0.35188933009005469 0.012921367503740049 0 0.36845156083710567 -0.0060515153414843056 0 0.34114057903213352 -0.00099436838624600288 0 0.32992396985460443 0.01263339996306794 0 0.31382959722716158 0.0040627785689932028 0 0.34114057903213352 -0.00099436838624600288 0 0.35188933009005469 0.012921367503740049 0 0.32992396985460443 0.01263339996306794 0 0.34114057903213352 -0.00099436838624600288 0 0.32992396985460443 0.01263339996306794 0 0.34150772405548108 0.025325389551572871 0 0.32077834005703848 0.02927741351548363 0 0.35188933009005469 0.012921367503740049 0 0.32992396985460443 0.01263339996306794 0 0.34150772405548108 0.025325389551572871 0 0.32992396985460443 0.01263339996306794 0 0.32077834005703848 0.02927741351548363 0 0.31391214704691389 0.015516024244919061 0 0.32992396985460443 0.01263339996306794 0 0.31391214704691389 0.015516024244919061 0 0.31382959722716158 0.0040627785689932028 0 0.31382959722716158 0.0040627785689932028 0 0.34183048761771712 -0.0039986291523161147 0 0.31382959722716158 0.0040627785689932028 0 0.34114057903213352 -0.00099436838624600288 0 0.31382959722716158 0.0040627785689932028 0 0.30752965714041391 0.0058765203804442539 0 0.32194573769061952 -0.0077676308935595512 0 0.3285700774521132 0.069227507684709172 0 0.3540274811898364 0.057481719132925622 0 0.33343548863743699 0.044422356914628619 0 0.34150772405548108 0.025325389551572871 0 0.32077834005703848 0.02927741351548363 0 0.33343548863743699 0.044422356914628619 0 0.32077834005703848 0.02927741351548363 0 0.33343548863743699 0.044422356914628619 0 0.31337752651643169 0.04829463356080467 0 0.3285700774521132 0.069227507684709172 0 0.31337752651643169 0.04829463356080467 0 0.3285700774521132 0.069227507684709172 0 0.33343548863743699 0.044422356914628619 0 0.31337752651643169 0.04829463356080467 0 0.3285700774521132 0.069227507684709172 0 0.31337752651643169 0.04829463356080467 0 0.30262144479489489 0.063472250579192202 0 0.31337752651643169 0.04829463356080467 0 0.29190445549758398 0.041801895735158197 0 0.30262144479489489 0.063472250579192202 0 0.31337752651643169 0.04829463356080467 0 0.29818497558074802 0.027361759436901809 0 0.31337752651643169 0.04829463356080467 0 0.29190445549758398 0.041801895735158197 0 0.29818497558074802 0.027361759436901809 0 0.32077834005703848 0.02927741351548363 0 0.31337752651643169 0.04829463356080467 0 0.29818497558074802 0.027361759436901809 0 0.29190445549758398 0.041801895735158197 0 0.29818497558074802 0.027361759436901809 0 0.28149235485467722 0.028426230672526639 0 0.29190445549758398 0.041801895735158197 0 0.28562393541442521 0.056242032033416753 0 0.26921605588191849 0.040519794607793452 0 0.29190445549758398 0.041801895735158197 0 0.29818497558074802 0.027361759436901809 0 0.29190445549758398 0.041801895735158197 0 0.28562393541442521 0.056242032033416753 0 0.29190445549758398 0.041801895735158197 0 0.28562393541442521 0.056242032033416753 0 0.30262144479489489 0.063472250579192202 0 0.2978295874258669 0.0070254842464454832 0 0.30752965714041391 0.0058765203804442539 0 0.2978295874258669 0.0070254842464454832 0 0.30752965714041391 0.0058765203804442539 0 0.29396858594285019 -0.001032612778502764 0 0.31382959722716158 0.0040627785689932028 0 0.30752965714041391 0.0058765203804442539 0 0.31391214704691389 0.015516024244919061 0 0.30752965714041391 0.0058765203804442539 0 0.30398999522707459 0.014014891057021139 0 0.30752965714041391 0.0058765203804442539 0 0.30398999522707459 0.014014891057021139 0 0.31391214704691389 0.015516024244919061 0 0.31382959722716158 0.0040627785689932028 0 0.30752965714041391 0.0058765203804442539 0 0.2978295874258669 0.0070254842464454832 0 0.30752965714041391 0.0058765203804442539 0 0.30398999522707459 0.014014891057021139 0 0.2978295874258669 0.0070254842464454832 0 0.30398999522707459 0.014014891057021139 0 0.31391214704691389 0.015516024244919061 0 0.30398999522707459 0.014014891057021139 0 0.29818497558074802 0.027361759436901809 0 0.32077834005703848 0.02927741351548363 0 0.31391214704691389 0.015516024244919061 0 0.29818497558074802 0.027361759436901809 0 0.30398999522707459 0.014014891057021139 0 0.29818497558074802 0.027361759436901809 0 0.30398999522707459 0.014014891057021139 0 0.29818497558074802 0.027361759436901809 0 0.28690172397702512 0.011815266518820099 0 0.29818497558074802 0.027361759436901809 0 0.28149235485467722 0.028426230672526639 0 0.28690172397702512 0.011815266518820099 0 0.29818497558074802 0.027361759436901809 0 0.28690172397702512 0.011815266518820099 0 0.28690172397702512 0.011815266518820099 0 0.28687677889875068 0.001725005618485562 0 0.27267603034966698 -0.0077854348569651906 0 0.2978295874258669 0.0070254842464454832 0 0.30398999522707459 0.014014891057021139 0 0.28690172397702512 0.011815266518820099 0 0.2978295874258669 0.0070254842464454832 0 0.28690172397702512 0.011815266518820099 0 0.29376575238797509 0.0077779804816672602 0 0.2978295874258669 0.0070254842464454832 0 0.28690172397702512 0.011815266518820099 0 0.2978295874258669 0.0070254842464454832 0 0.28687677889875068 0.001725005618485562 0 0.29376575238797509 0.0077779804816672602 0 0.28690172397702512 0.011815266518820099 0 0.28687677889875068 0.001725005618485562 0 0.29376575238797509 0.0077779804816672602 0 0.2978295874258669 0.0070254842464454832 0 0.29376575238797509 0.0077779804816672602 0 0.28690172397702512 0.011815266518820099 0 0.26939274767164711 0.0040745279013861191 0 0.27267603034966698 -0.0077854348569651906 0 0.28690172397702512 0.011815266518820099 0 0.26440570944936082 0.018291830038140541 0 0.28690172397702512 0.011815266518820099 0 0.26939274767164711 0.0040745279013861191 0 0.26440570944936082 0.018291830038140541 0 0.28690172397702512 0.011815266518820099 0 0.27267603034966698 -0.0077854348569651906 0 0.28149235485467722 0.028426230672526639 0 0.26440570944936082 0.018291830038140541 0 0.26921605588191849 0.040519794607793452 0 0.28149235485467722 0.028426230672526639 0 0.28690172397702512 0.011815266518820099 0 0.26440570944936082 0.018291830038140541 0 0.24190969492169709 0.024768393557462999 0 0.26440570944936082 0.018291830038140541 0 0.2485551203034157 0.0102848256948572 0 0.24190969492169709 0.024768393557462999 0 0.26440570944936082 0.018291830038140541 0 0.24190969492169709 0.024768393557462999 0 0.26440570944936082 0.018291830038140541 0 0.25291178968964928 0.037547667281027097 0 0.2485551203034157 0.0102848256948572 0 0.26440570944936082 0.018291830038140541 0 0.25894279220913391 0.003459445712386486 0 0.26939274767164711 0.0040745279013861191 0 0.26440570944936082 0.018291830038140541 0 0.25894279220913391 0.003459445712386486 0 0.2485551203034157 0.0102848256948572 0 0.25894279220913391 0.003459445712386486 0 0.2479891295484222 -0.0022684572774312019 0 0.26939274767164711 0.0040745279013861191 0 0.25894279220913391 0.003459445712386486 0 0.26317147738524183 -0.0038637327990410169 0 0.28562393541442521 0.056242032033416753 0 0.27026274557325353 0.056119745337220257 0 0.26921605588191849 0.040519794607793452 0 0.28562393541442521 0.056242032033416753 0 0.27026274557325353 0.056119745337220257 0 0.27167623587568768 0.070814912161459326 0 0.29190445549758398 0.041801895735158197 0 0.28149235485467722 0.028426230672526639 0 0.26921605588191849 0.040519794607793452 0 0.26921605588191849 0.040519794607793452 0 0.25291178968964928 0.037547667281027097 0 0.25425538404847059 0.057624927133231481 0 0.26440570944936082 0.018291830038140541 0 0.26921605588191849 0.040519794607793452 0 0.25291178968964928 0.037547667281027097 0 0.27026274557325353 0.056119745337220257 0 0.26921605588191849 0.040519794607793452 0 0.25425538404847059 0.057624927133231481 0 0.27026274557325353 0.056119745337220257 0 0.25425538404847059 0.057624927133231481 0 0.27167623587568768 0.070814912161459326 0 0.25425538404847059 0.057624927133231481 0 0.27167623587568768 0.070814912161459326 0 0.25282536794073712 0.073272794188635415 0 0.26618138576237349 0.084067315497028519 0 0.27167623587568768 0.070814912161459326 0 0.25425538404847059 0.057624927133231481 0 0.25282536794073712 0.073272794188635415 0 0.27167623587568768 0.070814912161459326 0 0.25089272908716931 0.092982859712809007 0 0.26618138576237349 0.084067315497028519 0 0.27478568008848531 0.098770115700614086 0 0.25282536794073712 0.073272794188635415 0 0.25089272908716931 0.092982859712809007 0 0.26618138576237349 0.084067315497028519 0 0.26618138576237349 0.084067315497028519 0 0.28181267844286689 0.084890460016538952 0 0.27478568008848531 0.098770115700614086 0 0.26618138576237349 0.084067315497028519 0 0.27167623587568768 0.070814912161459326 0 0.28181267844286689 0.084890460016538952 0 0.27167623587568768 0.070814912161459326 0 0.2870451550563029 0.071072764848292863 0 0.28181267844286689 0.084890460016538952 0 0.2870451550563029 0.071072764848292863 0 0.29673814540623761 0.08207029957157172 0 0.30262144479489489 0.063472250579192202 0 0.28562393541442521 0.056242032033416753 0 0.2870451550563029 0.071072764848292863 0 0.30262144479489489 0.063472250579192202 0 0.28562393541442521 0.056242032033416753 0 0.27167623587568768 0.070814912161459326 0 0.2870451550563029 0.071072764848292863 0 0.2870451550563029 0.071072764848292863 0 0.28181267844286689 0.084890460016538952 0 0.29673814540623761 0.08207029957157172 0 0.28181267844286689 0.084890460016538952 0 0.29673814540623761 0.08207029957157172 0 0.29867863108980142 0.1045573716884185 0 0.31851483003181857 0.089032350953859848 0 0.29673814540623761 0.08207029957157172 0 0.30262144479489489 0.063472250579192202 0 0.31851483003181857 0.089032350953859848 0 0.29673814540623761 0.08207029957157172 0 0.29867863108980142 0.1045573716884185 0 0.2991284260398443 0.1226428311133997 0 0.29867863108980142 0.1045573716884185 0 0.31156748461804079 0.12537242366950921 0 0.32257158209111758 0.11034462767622299 0 0.29867863108980142 0.1045573716884185 0 0.31156748461804079 0.12537242366950921 0 0.32257158209111758 0.11034462767622299 0 0.29867863108980142 0.1045573716884185 0 0.29867863108980142 0.1045573716884185 0 0.27478568008848531 0.098770115700614086 0 0.29867863108980142 0.1045573716884185 0 0.27783009132198788 0.1122622341296569 0 0.27478568008848531 0.098770115700614086 0 0.28181267844286689 0.084890460016538952 0 0.29867863108980142 0.1045573716884185 0 0.27478568008848531 0.098770115700614086 0 0.2991284260398443 0.1226428311133997 0 0.29867863108980142 0.1045573716884185 0 0.28707615928971691 0.1208096883177448 0 0.29867863108980142 0.1045573716884185 0 0.28707615928971691 0.1208096883177448 0 0.27783009132198788 0.1122622341296569 0 0.2991284260398443 0.1226428311133997 0 0.28707615928971691 0.1208096883177448 0 0.29671346303214241 0.12961196471325551 0 0.26302281242735981 0.111198171579071 0 0.27515289576754948 0.1294134834453334 0 0.28707615928971691 0.1208096883177448 0 0.27783009132198788 0.1122622341296569 0 0.27515289576754948 0.1294134834453334 0 0.27783009132198788 0.1122622341296569 0 0.26302281242735981 0.111198171579071 0 0.27515289576754948 0.1294134834453334 0 0.26302281242735981 0.111198171579071 0 0.26007351669183237 0.1253037732749688 0 0.27515289576754948 0.1294134834453334 0 0.27783009132198788 0.1122622341296569 0 0.27478568008848531 0.098770115700614086 0 0.26302281242735981 0.111198171579071 0 0.25089272908716931 0.092982859712809007 0 0.26302281242735981 0.111198171579071 0 0.2496952397761337 0.1160329650041991 0 0.25089272908716931 0.092982859712809007 0 0.26302281242735981 0.111198171579071 0 0.25089272908716931 0.092982859712809007 0 0.27478568008848531 0.098770115700614086 0 0.26302281242735981 0.111198171579071 0 0.25089272908716931 0.092982859712809007 0 0.27478568008848531 0.098770115700614086 0 0.2471064899150823 0.133463067737116 0 0.2496952397761337 0.1160329650041991 0 0.26007351669183237 0.1253037732749688 0 0.2496952397761337 0.1160329650041991 0 0.26302281242735981 0.111198171579071 0 0.26007351669183237 0.1253037732749688 0 0.2471064899150823 0.133463067737116 0 0.26212056590251792 0.13860634342131159 0 0.25227113898158787 0.14916335431643429 0 0.2471064899150823 0.133463067737116 0 0.26212056590251792 0.13860634342131159 0 0.26007351669183237 0.1253037732749688 0 0.27515289576754948 0.1294134834453334 0 0.28728297910773942 0.14762879531159581 0 0.27515289576754948 0.1294134834453334 0 0.27408945104382287 0.14431330872834849 0 0.28728297910773942 0.14762879531159581 0 0.26212056590251792 0.13860634342131159 0 0.26007351669183237 0.1253037732749688 0 0.27515289576754948 0.1294134834453334 0 0.26212056590251792 0.13860634342131159 0 0.27515289576754948 0.1294134834453334 0 0.27408945104382287 0.14431330872834849 0 0.27408945104382287 0.14431330872834849 0 0.27716137478162928 0.15889869399298601 0 0.28728297910773942 0.14762879531159581 0 0.26212056590251792 0.13860634342131159 0 0.27408945104382287 0.14431330872834849 0 0.26493391480523859 0.14953421755469451 0 0.27408945104382287 0.14431330872834849 0 0.26493391480523859 0.14953421755469451 0 0.27716137478162928 0.15889869399298601 0 0.26493391480523859 0.14953421755469451 0 0.25227113898158787 0.14916335431643429 0 0.25784869618064837 0.16117632967822779 0 0.26212056590251792 0.13860634342131159 0 0.26493391480523859 0.14953421755469451 0 0.25227113898158787 0.14916335431643429 0 0.24342118736862761 0.16410875332904781 0 0.25227113898158787 0.14916335431643429 0 0.25784869618064837 0.16117632967822779 0 0.24342118736862761 0.16410875332904781 0 0.25784869618064837 0.16117632967822779 0 0.25421457754785548 0.17528354573505059 0 0.25784869618064837 0.16117632967822779 0 0.25421457754785548 0.17528354573505059 0 0.26798999978846311 0.16999528723303189 0 0.25421457754785548 0.17528354573505059 0 0.26688833639653942 0.18474270353269559 0 0.25113643024109478 0.19094495075723769 0 0.25421457754785548 0.17528354573505059 0 0.26688833639653942 0.18474270353269559 0 0.26798999978846311 0.16999528723303189 0 0.26688833639653942 0.18474270353269559 0 0.27899922157627788 0.1740987885831469 0 0.26798999978846311 0.16999528723303189 0 0.26688833639653942 0.18474270353269559 0 0.27899922157627788 0.1740987885831469 0 0.28165513110548479 0.1855437801635878 0 0.25784869618064837 0.16117632967822779 0 0.26798999978846311 0.16999528723303189 0 0.27716137478162928 0.15889869399298601 0 0.26493391480523859 0.14953421755469451 0 0.25784869618064837 0.16117632967822779 0 0.27716137478162928 0.15889869399298601 0 0.27899922157627788 0.1740987885831469 0 0.26798999978846311 0.16999528723303189 0 0.27716137478162928 0.15889869399298601 0 0.27716137478162928 0.15889869399298601 0 0.28838527260411961 0.16768800255462621 0 0.29642958482603432 0.1586868689393966 0 0.27899922157627788 0.1740987885831469 0 0.27716137478162928 0.15889869399298601 0 0.28838527260411961 0.16768800255462621 0 0.28838527260411961 0.16768800255462621 0 0.29642958482603432 0.1586868689393966 0 0.2990812202460017 0.16972771789266669 0 0.28165513110548479 0.1855437801635878 0 0.29057456817046978 0.17841330338653549 0 0.29442149412013968 0.19018242885082931 0 0.27899922157627788 0.1740987885831469 0 0.28165513110548479 0.1855437801635878 0 0.29057456817046978 0.17841330338653549 0 0.27899922157627788 0.1740987885831469 0 0.28838527260411961 0.16768800255462621 0 0.29057456817046978 0.17841330338653549 0 0.28838527260411961 0.16768800255462621 0 0.29057456817046978 0.17841330338653549 0 0.2990812202460017 0.16972771789266669 0 0.29057456817046978 0.17841330338653549 0 0.30085032626191438 0.18018504882584371 0 0.2990812202460017 0.16972771789266669 0 0.29057456817046978 0.17841330338653549 0 0.30085032626191438 0.18018504882584371 0 0.29442149412013968 0.19018242885082931 0 0.30085032626191438 0.18018504882584371 0 0.29442149412013968 0.19018242885082931 0 0.3080553032197017 0.1887293017033026 0 0.30085032626191438 0.18018504882584371 0 0.31056514142368619 0.1744383831500049 0 0.2990812202460017 0.16972771789266669 0 0.30085032626191438 0.18018504882584371 0 0.31056514142368619 0.1744383831500049 0 0.3080553032197017 0.1887293017033026 0 0.29642958482603432 0.1586868689393966 0 0.30747502192119819 0.16230778928688711 0 0.30151933753066762 0.14970454816787401 0 0.29642958482603432 0.1586868689393966 0 0.2990812202460017 0.16972771789266669 0 0.30747502192119819 0.16230778928688711 0 0.31056514142368619 0.1744383831500049 0 0.2990812202460017 0.16972771789266669 0 0.30747502192119819 0.16230778928688711 0 0.30747502192119819 0.16230778928688711 0 0.30151933753066762 0.14970454816787401 0 0.3129765302581462 0.1494710021231663 0 0.30151933753066762 0.14970454816787401 0 0.29882590938581222 0.14264553562683399 0 0.30718649112507979 0.14443915855455869 0 0.30151933753066762 0.14970454816787401 0 0.30718649112507979 0.14443915855455869 0 0.3129765302581462 0.1494710021231663 0 0.29882590938581222 0.14264553562683399 0 0.30718649112507979 0.14443915855455869 0 0.31229822968882548 0.13781435906697939 0 0.30718649112507979 0.14443915855455869 0 0.31229822968882548 0.13781435906697939 0 0.3129765302581462 0.1494710021231663 0 0.31229822968882548 0.13781435906697939 0 0.28502845800881449 0.13413009067030229 0 0.31229822968882548 0.13781435906697939 0 0.29671346303214241 0.12961196471325551 0 0.28502845800881449 0.13413009067030229 0 0.29882590938581222 0.14264553562683399 0 0.31229822968882548 0.13781435906697939 0 0.28502845800881449 0.13413009067030229 0 0.2991284260398443 0.1226428311133997 0 0.31156748461804079 0.12537242366950921 0 0.30438347209902411 0.12928289016934871 0 0.31229822968882548 0.13781435906697939 0 0.31156748461804079 0.12537242366950921 0 0.30438347209902411 0.12928289016934871 0 0.31229822968882548 0.13781435906697939 0 0.30438347209902411 0.12928289016934871 0 0.29671346303214241 0.12961196471325551 0 0.2991284260398443 0.1226428311133997 0 0.30438347209902411 0.12928289016934871 0 0.29671346303214241 0.12961196471325551 0 0.27515289576754948 0.1294134834453334 0 0.28502845800881449 0.13413009067030229 0 0.28728297910773942 0.14762879531159581 0 0.28707615928971691 0.1208096883177448 0 0.29671346303214241 0.12961196471325551 0 0.28502845800881449 0.13413009067030229 0 0.28707615928971691 0.1208096883177448 0 0.27515289576754948 0.1294134834453334 0 0.28502845800881449 0.13413009067030229 0 0.27716137478162928 0.15889869399298601 0 0.29642958482603432 0.1586868689393966 0 0.28728297910773942 0.14762879531159581 0 0.29642958482603432 0.1586868689393966 0 0.30151933753066762 0.14970454816787401 0 0.28728297910773942 0.14762879531159581 0 0.30151933753066762 0.14970454816787401 0 0.29882590938581222 0.14264553562683399 0 0.28728297910773942 0.14762879531159581 0 0.29882590938581222 0.14264553562683399 0 0.28502845800881449 0.13413009067030229 0 0.28728297910773942 0.14762879531159581 0 0.2459873280094696 0.23707215699401071 0 0.27381195783464701 0.24213208581531279 0 0.2459873280094696 0.23707215699401071 0 0.27381195783464701 0.24213208581531279 0 0.27283394916361492 0.24742619336605559 0 0.2459873280094696 0.23707215699401071 0 0.27283394916361492 0.24742619336605559 0 0.2459873280094696 0.23707215699401071 0 0.25877170878786238 0.25302463852503437 0 0.27283394916361492 0.24742619336605559 0 0.2459873280094696 0.23707215699401071 0 0.24763005152173001 0.25910176257370959 0 0.25877170878786238 0.25302463852503437 0 0.24332195560292991 0.2175119837032847 0 0.2459873280094696 0.23707215699401071 0 0.26947725056793032 0.22188821543332771 0 0.2459873280094696 0.23707215699401071 0 0.27381195783464701 0.24213208581531279 0 0.26947725056793032 0.22188821543332771 0 0.24332195560292991 0.2175119837032847 0 0.26947725056793032 0.22188821543332771 0 0.27381195783464701 0.24213208581531279 0 0.26947725056793032 0.22188821543332771 0 0.29563254553293061 0.22626444716337071 0 0.26947725056793032 0.22188821543332771 0 0.26383894902510108 0.20488334565775601 0 0.28252807440433819 0.20448568929014271 0 0.24828008483854189 0.20295934428596721 0 0.24332195560292991 0.2175119837032847 0 0.26383894902510108 0.20488334565775601 0 0.24332195560292991 0.2175119837032847 0 0.26947725056793032 0.22188821543332771 0 0.26383894902510108 0.20488334565775601 0 0.26688833639653942 0.18474270353269559 0 0.26383894902510108 0.20488334565775601 0 0.25113643024109478 0.19094495075723769 0 0.24828008483854189 0.20295934428596721 0 0.26383894902510108 0.20488334565775601 0 0.25113643024109478 0.19094495075723769 0 0.26688833639653942 0.18474270353269559 0 0.26383894902510108 0.20488334565775601 0 0.27369942293731819 0.19569303942008121 0 0.26383894902510108 0.20488334565775601 0 0.27369942293731819 0.19569303942008121 0 0.28252807440433819 0.20448568929014271 0 0.28165513110548479 0.1855437801635878 0 0.27369942293731819 0.19569303942008121 0 0.28252807440433819 0.20448568929014271 0 0.26688833639653942 0.18474270353269559 0 0.28165513110548479 0.1855437801635878 0 0.27369942293731819 0.19569303942008121 0 0.28165513110548479 0.1855437801635878 0 0.29442149412013968 0.19018242885082931 0 0.28252807440433819 0.20448568929014271 0 0.29442149412013968 0.19018242885082931 0 0.30168066081365352 0.2029210297493958 0 0.28252807440433819 0.20448568929014271 0 0.29442149412013968 0.19018242885082931 0 0.3080553032197017 0.1887293017033026 0 0.30168066081365352 0.2029210297493958 0 0.3080553032197017 0.1887293017033026 0 0.30168066081365352 0.2029210297493958 0 0.31674655555173881 0.19902842766084339 0 0.30168066081365352 0.2029210297493958 0 0.29563254553293061 0.22626444716337071 0 0.31377845179643721 0.21458276756770189 0 0.30168066081365352 0.2029210297493958 0 0.31377845179643721 0.21458276756770189 0 0.31674655555173881 0.19902842766084339 0 0.30168066081365352 0.2029210297493958 0 0.28252807440433819 0.20448568929014271 0 0.29563254553293061 0.22626444716337071 0 0.26947725056793032 0.22188821543332771 0 0.28252807440433819 0.20448568929014271 0 0.29563254553293061 0.22626444716337071 0 0.26947725056793032 0.22188821543332771 0 0.29563254553293061 0.22626444716337071 0 0.29563254553293061 0.22626444716337071 0 0.3217878404979308 0.23064067889341369 0 0.31377845179643721 0.21458276756770189 0 0.29563254553293061 0.22626444716337071 0 0.3217878404979308 0.23064067889341369 0 0.29563254553293061 0.22626444716337071 0 0.3016365876598241 0.24719201463661561 0 0.3217878404979308 0.23064067889341369 0 0.27381195783464701 0.24213208581531279 0 0.29563254553293061 0.22626444716337071 0 0.3016365876598241 0.24719201463661561 0 0.27381195783464701 0.24213208581531279 0 0.3016365876598241 0.24719201463661561 0 0.27381195783464701 0.24213208581531279 0 0.27283394916361492 0.24742619336605559 0 0.3016365876598241 0.24719201463661561 0 0.32946121748500129 0.25225194345791829 0 0.3217878404979308 0.23064067889341369 0 0.34556910970536658 0.23921390462248199 0 0.32946121748500129 0.25225194345791829 0 0.3016365876598241 0.24719201463661561 0 0.3217878404979308 0.23064067889341369 0 0.32946121748500129 0.25225194345791829 0 0.3016365876598241 0.24719201463661561 0 0.3217878404979308 0.23064067889341369 0 0.33460182177363001 0.21999966289075409 0 0.31377845179643721 0.21458276756770189 0 0.3217878404979308 0.23064067889341369 0 0.33460182177363001 0.21999966289075409 0 0.34556910970536658 0.23921390462248199 0 0.33460182177363001 0.21999966289075409 0 0.3278776259658665 0.2076214509036243 0 0.34419695055865512 0.20542025302645439 0 0.33460182177363001 0.21999966289075409 0 0.31377845179643721 0.21458276756770189 0 0.3278776259658665 0.2076214509036243 0 0.31377845179643721 0.21458276756770189 0 0.3278776259658665 0.2076214509036243 0 0.31674655555173881 0.19902842766084339 0 0.3278776259658665 0.2076214509036243 0 0.31674655555173881 0.19902842766084339 0 0.32893527636844411 0.194937601908272 0 0.3080553032197017 0.1887293017033026 0 0.31674655555173881 0.19902842766084339 0 0.32122387935841612 0.1836610840160959 0 0.31674655555173881 0.19902842766084339 0 0.32893527636844411 0.194937601908272 0 0.32122387935841612 0.1836610840160959 0 0.32893527636844411 0.194937601908272 0 0.34419695055865512 0.20542025302645439 0 0.33967484433078321 0.18584068278097349 0 0.32893527636844411 0.194937601908272 0 0.32122387935841612 0.1836610840160959 0 0.33967484433078321 0.18584068278097349 0 0.3278776259658665 0.2076214509036243 0 0.32893527636844411 0.194937601908272 0 0.34419695055865512 0.20542025302645439 0 0.35368837148756882 0.19334260062126429 0 0.34419695055865512 0.20542025302645439 0 0.33967484433078321 0.18584068278097349 0 0.35368837148756882 0.19334260062126429 0 0.36735815001373812 0.20351917688449569 0 0.34419695055865512 0.20542025302645439 0 0.36735815001373812 0.20351917688449569 0 0.36699199379966768 0.18628457072029089 0 0.38367398474104891 0.18179268717308689 0 0.35368837148756882 0.19334260062126429 0 0.36735815001373812 0.20351917688449569 0 0.36699199379966768 0.18628457072029089 0 0.36735815001373812 0.20351917688449569 0 0.35440095211752448 0.2225189223308488 0 0.37280151553833601 0.22024831863616021 0 0.36735815001373812 0.20351917688449569 0 0.37280151553833601 0.22024831863616021 0 0.38406378734192298 0.20777210545990279 0 0.36735815001373812 0.20351917688449569 0 0.34419695055865512 0.20542025302645439 0 0.35440095211752448 0.2225189223308488 0 0.33460182177363001 0.21999966289075409 0 0.34419695055865512 0.20542025302645439 0 0.35440095211752448 0.2225189223308488 0 0.35440095211752448 0.2225189223308488 0 0.37293454716760283 0.2396311516560117 0 0.34556910970536658 0.23921390462248199 0 0.33460182177363001 0.21999966289075409 0 0.35440095211752448 0.2225189223308488 0 0.34556910970536658 0.23921390462248199 0 0.35440095211752448 0.2225189223308488 0 0.37280151553833601 0.22024831863616021 0 0.37293454716760283 0.2396311516560117 0 0.32946121748500129 0.25225194345791829 0 0.35728584731017871 0.25731187227922109 0 0.34556910970536658 0.23921390462248199 0 0.35728584731017871 0.25731187227922109 0 0.37293454716760283 0.2396311516560117 0 0.34556910970536658 0.23921390462248199 0 0.33789665254535572 0.15537308983460499 0 0.33956800136883641 0.14149862746365649 0 0.32484504322689201 0.150618498474763 0 0.33789665254535572 0.15537308983460499 0 0.32484504322689201 0.150618498474763 0 0.32925575641373173 0.1625602653078303 0 0.33789665254535572 0.15537308983460499 0 0.33956800136883641 0.14149862746365649 0 0.35085012880757988 0.15547460686614431 0 0.31847051852819058 0.13586426255884801 0 0.34441400131097022 0.1288917011053414 0 0.32933038512457441 0.1245201253257071 0 0.31847051852819058 0.13586426255884801 0 0.34441400131097022 0.1288917011053414 0 0.33956800136883641 0.14149862746365649 0 0.31847051852819058 0.13586426255884801 0 0.34441400131097022 0.1288917011053414 0 0.31229822968882548 0.13781435906697939 0 0.33956800136883641 0.14149862746365649 0 0.31229822968882548 0.13781435906697939 0 0.33956800136883641 0.14149862746365649 0 0.31847051852819058 0.13586426255884801 0 0.32933038512457441 0.1245201253257071 0 0.3207185438207466 0.1263919595033525 0 0.31847051852819058 0.13586426255884801 0 0.31156748461804079 0.12537242366950921 0 0.3207185438207466 0.1263919595033525 0 0.31847051852819058 0.13586426255884801 0 0.31229822968882548 0.13781435906697939 0 0.31156748461804079 0.12537242366950921 0 0.31847051852819058 0.13586426255884801 0 0.31229822968882548 0.13781435906697939 0 0.33956800136883641 0.14149862746365649 0 0.32484504322689201 0.150618498474763 0 0.31229822968882548 0.13781435906697939 0 0.32484504322689201 0.150618498474763 0 0.3129765302581462 0.1494710021231663 0 0.32484504322689201 0.150618498474763 0 0.3129765302581462 0.1494710021231663 0 0.31772009751989111 0.15842714336302041 0 0.30747502192119819 0.16230778928688711 0 0.3129765302581462 0.1494710021231663 0 0.31772009751989111 0.15842714336302041 0 0.30747502192119819 0.16230778928688711 0 0.31772009751989111 0.15842714336302041 0 0.32080742045079952 0.16866520015094741 0 0.31056514142368619 0.1744383831500049 0 0.30747502192119819 0.16230778928688711 0 0.32080742045079952 0.16866520015094741 0 0.32080742045079952 0.16866520015094741 0 0.33131907253280629 0.1738795647946571 0 0.32925575641373173 0.1625602653078303 0 0.32484504322689201 0.150618498474763 0 0.31772009751989111 0.15842714336302041 0 0.32925575641373173 0.1625602653078303 0 0.31772009751989111 0.15842714336302041 0 0.32080742045079952 0.16866520015094741 0 0.32925575641373173 0.1625602653078303 0 0.31056514142368619 0.1744383831500049 0 0.3080553032197017 0.1887293017033026 0 0.32122387935841612 0.1836610840160959 0 0.31056514142368619 0.1744383831500049 0 0.32080742045079952 0.16866520015094741 0 0.32122387935841612 0.1836610840160959 0 0.32080742045079952 0.16866520015094741 0 0.32122387935841612 0.1836610840160959 0 0.33131907253280629 0.1738795647946571 0 0.33131907253280629 0.1738795647946571 0 0.33967484433078321 0.18584068278097349 0 0.34294625220664587 0.1683980952289891 0 0.32122387935841612 0.1836610840160959 0 0.33131907253280629 0.1738795647946571 0 0.33967484433078321 0.18584068278097349 0 0.33131907253280629 0.1738795647946571 0 0.32925575641373173 0.1625602653078303 0 0.34294625220664587 0.1683980952289891 0 0.33789665254535572 0.15537308983460499 0 0.32925575641373173 0.1625602653078303 0 0.34294625220664587 0.1683980952289891 0 0.34294625220664587 0.1683980952289891 0 0.35531914635495271 0.16562513299740311 0 0.35085012880757988 0.15547460686614431 0 0.33789665254535572 0.15537308983460499 0 0.34294625220664587 0.1683980952289891 0 0.35085012880757988 0.15547460686614431 0 0.34294625220664587 0.1683980952289891 0 0.35531914635495271 0.16562513299740311 0 0.35387202203434698 0.17803066266241011 0 0.35531914635495271 0.16562513299740311 0 0.35387202203434698 0.17803066266241011 0 0.36550295271590683 0.1690726970215666 0 0.35531914635495271 0.16562513299740311 0 0.36342437601028388 0.15714960320790561 0 0.35085012880757988 0.15547460686614431 0 0.33967484433078321 0.18584068278097349 0 0.34294625220664587 0.1683980952289891 0 0.35387202203434698 0.17803066266241011 0 0.35368837148756882 0.19334260062126429 0 0.33967484433078321 0.18584068278097349 0 0.35387202203434698 0.17803066266241011 0 0.35368837148756882 0.19334260062126429 0 0.35387202203434698 0.17803066266241011 0 0.36699199379966768 0.18628457072029089 0 0.37486327834919952 0.17324080595030389 0 0.36699199379966768 0.18628457072029089 0 0.36550295271590683 0.1690726970215666 0 0.35387202203434698 0.17803066266241011 0 0.36699199379966768 0.18628457072029089 0 0.36550295271590683 0.1690726970215666 0 0.36342437601028388 0.15714960320790561 0 0.36550295271590683 0.1690726970215666 0 0.38328418214017468 0.15581326888627101 0 0.37486327834919952 0.17324080595030389 0 0.36550295271590683 0.1690726970215666 0 0.38328418214017468 0.15581326888627101 0 0.35531914635495271 0.16562513299740311 0 0.36342437601028388 0.15714960320790561 0 0.36550295271590683 0.1690726970215666 0 0.36342437601028388 0.15714960320790561 0 0.36683777304884752 0.14518289586033359 0 0.38328418214017468 0.15581326888627101 0 0.36342437601028388 0.15714960320790561 0 0.36683777304884752 0.14518289586033359 0 0.35085012880757988 0.15547460686614431 0 0.33956800136883641 0.14149862746365649 0 0.36683777304884752 0.14518289586033359 0 0.33956800136883641 0.14149862746365649 0 0.36683777304884752 0.14518289586033359 0 0.35085012880757988 0.15547460686614431 0 0.37035748409374952 0.12191913965183331 0 0.34441400131097022 0.1288917011053414 0 0.33956800136883641 0.14149862746365649 0 0.34441400131097022 0.1288917011053414 0 0.35985245571789548 0.13256521397634091 0 0.37035748409374952 0.12191913965183331 0 0.34441400131097022 0.1288917011053414 0 0.35985245571789548 0.13256521397634091 0 0.33956800136883641 0.14149862746365649 0 0.36683777304884752 0.14518289586033359 0 0.35985245571789548 0.13256521397634091 0 0.36683777304884752 0.14518289586033359 0 0.37024230120578611 0.13336796185197819 0 0.3828943795393005 0.1298338505994551 0 0.36683777304884752 0.14518289586033359 0 0.35985245571789548 0.13256521397634091 0 0.37024230120578611 0.13336796185197819 0 0.35985245571789548 0.13256521397634091 0 0.37024230120578611 0.13336796185197819 0 0.37169283910029199 0.12815165521797289 0 0.37024230120578611 0.13336796185197819 0 0.37169283910029199 0.12815165521797289 0 0.3828943795393005 0.1298338505994551 0 0.37035748409374952 0.12191913965183331 0 0.35985245571789548 0.13256521397634091 0 0.37169283910029199 0.12815165521797289 0 0.37169283910029199 0.12815165521797289 0 0.3828943795393005 0.1298338505994551 0 0.37511757494472903 0.123072110010257 0 0.3828943795393005 0.1298338505994551 0 0.39816792615439378 0.12760480203569169 0 0.39443703245191569 0.14316330482662179 0 0.39816792615439378 0.12760480203569169 0 0.39443703245191569 0.14316330482662179 0 0.40813897635800228 0.13879757292358971 0 0.40355831469332321 0.14905262061052801 0 0.39443703245191569 0.14316330482662179 0 0.39831584160420508 0.1589856433255693 0 0.39443703245191569 0.14316330482662179 0 0.38328418214017468 0.15581326888627101 0 0.39831584160420508 0.1589856433255693 0 0.40355831469332321 0.14905262061052801 0 0.39831584160420508 0.1589856433255693 0 0.41313230378900101 0.1549252007201132 0 0.40355831469332321 0.14905262061052801 0 0.39443703245191569 0.14316330482662179 0 0.40813897635800228 0.13879757292358971 0 0.3828943795393005 0.1298338505994551 0 0.39443703245191569 0.14316330482662179 0 0.38328418214017468 0.15581326888627101 0 0.36683777304884752 0.14518289586033359 0 0.3828943795393005 0.1298338505994551 0 0.38328418214017468 0.15581326888627101 0 0.3828943795393005 0.1298338505994551 0 0.38328418214017468 0.15581326888627101 0 0.38328418214017468 0.15581326888627101 0 0.38367398474104891 0.18179268717308689 0 0.37486327834919952 0.17324080595030389 0 0.38328418214017468 0.15581326888627101 0 0.38367398474104891 0.18179268717308689 0 0.38328418214017468 0.15581326888627101 0 0.38367398474104891 0.18179268717308689 0 0.39626047774709761 0.17356948839180519 0 0.37486327834919952 0.17324080595030389 0 0.36699199379966768 0.18628457072029089 0 0.38367398474104891 0.18179268717308689 0 0.38367398474104891 0.18179268717308689 0 0.39626047774709761 0.17356948839180519 0 0.39402839101454218 0.18926537882500041 0 0.41201559310989622 0.1717711692121752 0 0.39402839101454218 0.18926537882500041 0 0.40911253846621609 0.1927355572029634 0 0.41201559310989622 0.1717711692121752 0 0.39402839101454218 0.18926537882500041 0 0.39626047774709761 0.17356948839180519 0 0.41201559310989622 0.1717711692121752 0 0.39402839101454218 0.18926537882500041 0 0.38328418214017468 0.15581326888627101 0 0.39626047774709761 0.17356948839180519 0 0.39831584160420508 0.1589856433255693 0 0.39626047774709761 0.17356948839180519 0 0.39831584160420508 0.1589856433255693 0 0.41201559310989622 0.1717711692121752 0 0.39831584160420508 0.1589856433255693 0 0.41201559310989622 0.1717711692121752 0 0.41313230378900101 0.1549252007201132 0 0.41201559310989622 0.1717711692121752 0 0.43000279520525009 0.1542769595993502 0 0.41201559310989622 0.1717711692121752 0 0.43000279520525009 0.1542769595993502 0 0.41313230378900101 0.1549252007201132 0 0.41201559310989622 0.1717711692121752 0 0.42496471626184562 0.18478050847474101 0 0.40911253846621609 0.1927355572029634 0 0.42496471626184562 0.18478050847474101 0 0.42886790669691233 0.1683305758749721 0 0.44390934378202151 0.1869955505783234 0 0.41201559310989622 0.1717711692121752 0 0.42496471626184562 0.18478050847474101 0 0.42886790669691233 0.1683305758749721 0 0.42886790669691233 0.1683305758749721 0 0.44390934378202151 0.1869955505783234 0 0.41201559310989622 0.1717711692121752 0 0.42886790669691233 0.1683305758749721 0 0.43000279520525009 0.1542769595993502 0 0.42886790669691233 0.1683305758749721 0 0.43000279520525009 0.1542769595993502 0 0.44221599041969212 0.16183818438693329 0 0.43000279520525009 0.1542769595993502 0 0.42332430940078591 0.1392784445062823 0 0.4479899973006039 0.1367827499865252 0 0.43000279520525009 0.1542769595993502 0 0.42332430940078591 0.1392784445062823 0 0.41313230378900101 0.1549252007201132 0 0.429848517254516 0.1255917524949702 0 0.42332430940078591 0.1392784445062823 0 0.41384889774502859 0.12525543762671809 0 0.429848517254516 0.1255917524949702 0 0.42332430940078591 0.1392784445062823 0 0.4479899973006039 0.1367827499865252 0 0.39816792615439378 0.12760480203569169 0 0.41384889774502859 0.12525543762671809 0 0.40813897635800228 0.13879757292358971 0 0.42332430940078591 0.1392784445062823 0 0.41384889774502859 0.12525543762671809 0 0.40813897635800228 0.13879757292358971 0 0.40355831469332321 0.14905262061052801 0 0.40813897635800228 0.13879757292358971 0 0.41313230378900101 0.1549252007201132 0 0.42332430940078591 0.1392784445062823 0 0.40813897635800228 0.13879757292358971 0 0.41313230378900101 0.1549252007201132 0 0.38511047713535562 0.2623718011005241 0 0.37293454716760283 0.2396311516560117 0 0.39933451681408499 0.24222051247515669 0 0.37293454716760283 0.2396311516560117 0 0.39933451681408499 0.24222051247515669 0 0.39045396999845727 0.2225958518425987 0 0.37280151553833601 0.22024831863616021 0 0.37293454716760283 0.2396311516560117 0 0.39045396999845727 0.2225958518425987 0 0.39933451681408499 0.24222051247515669 0 0.39045396999845727 0.2225958518425987 0 0.41502085935247712 0.2184770015477572 0 0.39045396999845727 0.2225958518425987 0 0.39965272480706299 0.2061417744041574 0 0.38406378734192298 0.20777210545990279 0 0.39045396999845727 0.2225958518425987 0 0.39965272480706299 0.2061417744041574 0 0.41502085935247712 0.2184770015477572 0 0.37280151553833601 0.22024831863616021 0 0.39045396999845727 0.2225958518425987 0 0.38406378734192298 0.20777210545990279 0 0.36735815001373812 0.20351917688449569 0 0.38367398474104891 0.18179268717308689 0 0.38406378734192298 0.20777210545990279 0 0.38367398474104891 0.18179268717308689 0 0.38406378734192298 0.20777210545990279 0 0.38367398474104891 0.18179268717308689 0 0.38406378734192298 0.20777210545990279 0 0.39402839101454218 0.18926537882500041 0 0.39965272480706299 0.2061417744041574 0 0.38406378734192298 0.20777210545990279 0 0.39402839101454218 0.18926537882500041 0 0.39965272480706299 0.2061417744041574 0 0.39402839101454218 0.18926537882500041 0 0.40911253846621609 0.1927355572029634 0 0.42496471626184562 0.18478050847474101 0 0.40911253846621609 0.1927355572029634 0 0.43133039545531981 0.20312972213906441 0 0.42496471626184562 0.18478050847474101 0 0.43133039545531981 0.20312972213906441 0 0.44390934378202151 0.1869955505783234 0 0.43133039545531981 0.20312972213906441 0 0.41502085935247712 0.2184770015477572 0 0.43839838412078092 0.2247149777195776 0 0.40911253846621609 0.1927355572029634 0 0.41502085935247712 0.2184770015477572 0 0.40911253846621609 0.1927355572029634 0 0.43133039545531981 0.20312972213906441 0 0.41502085935247712 0.2184770015477572 0 0.39965272480706299 0.2061417744041574 0 0.40911253846621609 0.1927355572029634 0 0.41502085935247712 0.2184770015477572 0 0.41502085935247712 0.2184770015477572 0 0.42092918023873821 0.24421844589255121 0 0.41502085935247712 0.2184770015477572 0 0.42092918023873821 0.24421844589255121 0 0.43839838412078092 0.2247149777195776 0 0.42092918023873821 0.24421844589255121 0 0.44272868649399699 0.2414724783298311 0 0.43839838412078092 0.2247149777195776 0 0.44089414042045799 0.25771217685885472 0 0.42092918023873821 0.24421844589255121 0 0.44272868649399699 0.2414724783298311 0 0.39933451681408499 0.24222051247515669 0 0.41502085935247712 0.2184770015477572 0 0.42092918023873821 0.24421844589255121 0 0.46750550623703407 0.25349570762290419 0 0.4569230610569987 0.24819013429900669 0 0.47278153852907701 0.24486280325581439 0 0.4569230610569987 0.24819013429900669 0 0.45723446189795819 0.23161380727854039 0 0.47278153852907701 0.24486280325581439 0 0.4569230610569987 0.24819013429900669 0 0.44272868649399699 0.2414724783298311 0 0.45723446189795819 0.23161380727854039 0 0.44089414042045799 0.25771217685885472 0 0.4569230610569987 0.24819013429900669 0 0.44272868649399699 0.2414724783298311 0 0.43839838412078092 0.2247149777195776 0 0.45723446189795819 0.23161380727854039 0 0.45895078086713059 0.20566052528167461 0 0.44272868649399699 0.2414724783298311 0 0.43839838412078092 0.2247149777195776 0 0.45723446189795819 0.23161380727854039 0 0.45723446189795819 0.23161380727854039 0 0.47399221795223978 0.22432549998502579 0 0.47278153852907701 0.24486280325581439 0 0.45723446189795819 0.23161380727854039 0 0.45895078086713059 0.20566052528167461 0 0.47399221795223978 0.22432549998502579 0 0.45895078086713059 0.20566052528167461 0 0.47399221795223978 0.22432549998502579 0 0.43133039545531981 0.20312972213906441 0 0.43839838412078092 0.2247149777195776 0 0.45895078086713059 0.20566052528167461 0 0.43133039545531981 0.20312972213906441 0 0.45895078086713059 0.20566052528167461 0 0.44390934378202151 0.1869955505783234 0 0.45895078086713059 0.20566052528167461 0 0.44390934378202151 0.1869955505783234 0 0.45895078086713059 0.20566052528167461 0 0.44390934378202151 0.1869955505783234 0 0.47471792995388828 0.18435875067661631 0 0.45895078086713059 0.20566052528167461 0 0.47967819324703809 0.2043502093285503 0 0.47471792995388828 0.18435875067661631 0 0.5 0.20006456793442701 0 0.47967819324703809 0.2043502093285503 0 0.47471792995388828 0.18435875067661631 0 0.5 0.20006456793442701 0 0.48813206750880261 0.21755351138133391 0 0.47967819324703809 0.2043502093285503 0 0.5 0.20006456793442701 0 0.48813206750880261 0.21755351138133391 0 0.5 0.22779789293978581 0 0.45895078086713059 0.20566052528167461 0 0.47967819324703809 0.2043502093285503 0 0.47399221795223978 0.22432549998502579 0 0.48813206750880261 0.21755351138133391 0 0.47967819324703809 0.2043502093285503 0 0.47399221795223978 0.22432549998502579 0 0.48813206750880261 0.21755351138133391 0 0.47399221795223978 0.22432549998502579 0 0.48903365503734891 0.24299047468837701 0 0.47399221795223978 0.22432549998502579 0 0.48903365503734891 0.24299047468837701 0 0.48813206750880261 0.21755351138133391 0 0.5 0.22779789293978581 0 0.48903365503734891 0.24299047468837701 0 0.5 0.25553121794514477 0 0.5 0.22779789293978581 0 0.48903365503734891 0.24299047468837701 0 0.48489893488970792 0.25686202981026901 0 0.48903365503734891 0.24299047468837701 0 0.47278153852907701 0.24486280325581439 0 0.47399221795223978 0.22432549998502579 0 0.48903365503734891 0.24299047468837701 0 0.47278153852907701 0.24486280325581439 0 0.4479899973006039 0.1367827499865252 0 0.46030990911367259 0.16280508589549539 0 0.47332178232586258 0.14483424446409521 0 0.4479899973006039 0.1367827499865252 0 0.47332178232586258 0.14483424446409521 0 0.46597719939595772 0.11928854037370019 0 0.4479899973006039 0.1367827499865252 0 0.46597719939595772 0.11928854037370019 0 0.429848517254516 0.1255917524949702 0 0.4479899973006039 0.1367827499865252 0 0.44441253831551758 0.1138689947079024 0 0.43000279520525009 0.1542769595993502 0 0.4479899973006039 0.1367827499865252 0 0.44221599041969212 0.16183818438693329 0 0.43000279520525009 0.1542769595993502 0 0.4479899973006039 0.1367827499865252 0 0.4479899973006039 0.1367827499865252 0 0.44221599041969212 0.16183818438693329 0 0.46030990911367259 0.16280508589549539 0 0.44221599041969212 0.16183818438693329 0 0.44390934378202151 0.1869955505783234 0 0.46030990911367259 0.16280508589549539 0 0.42886790669691233 0.1683305758749721 0 0.44221599041969212 0.16183818438693329 0 0.44390934378202151 0.1869955505783234 0 0.44390934378202151 0.1869955505783234 0 0.46030990911367259 0.16280508589549539 0 0.47471792995388828 0.18435875067661631 0 0.46030990911367259 0.16280508589549539 0 0.48162298028441808 0.16304382698580119 0 0.47332178232586258 0.14483424446409521 0 0.46030990911367259 0.16280508589549539 0 0.48162298028441808 0.16304382698580119 0 0.47471792995388828 0.18435875067661631 0 0.5 0.20006456793442701 0 0.47471792995388828 0.18435875067661631 0 0.5 0.17233124292906801 0 0.48162298028441808 0.16304382698580119 0 0.47471792995388828 0.18435875067661631 0 0.5 0.17233124292906801 0 0.48162298028441808 0.16304382698580119 0 0.5 0.17233124292906801 0 0.5 0.14459791792370899 0 0.48162298028441808 0.16304382698580119 0 0.5 0.14459791792370899 0 0.47332178232586258 0.14483424446409521 0 0.47332178232586258 0.14483424446409521 0 0.48369720064842647 0.1280225697211729 0 0.46597719939595772 0.11928854037370019 0 0.5 0.14459791792370899 0 0.48369720064842647 0.1280225697211729 0 0.5 0.1168645929183502 0 0.5 0.14459791792370899 0 0.47332178232586258 0.14483424446409521 0 0.48369720064842647 0.1280225697211729 0 0.48369720064842647 0.1280225697211729 0 0.5 0.1168645929183502 0 0.47911227232856668 0.09907818001940101 0 0.5 0.1168645929183502 0 0.47911227232856668 0.09907818001940101 0 0.5 0.089131267912991197 0 0.48369720064842647 0.1280225697211729 0 0.47911227232856668 0.09907818001940101 0 0.46597719939595772 0.11928854037370019 0 0.48592231416185638 0.0752646054103117 0 0.5 0.089131267912991197 0 0.5 0.06139794290763223 0 0.47911227232856668 0.09907818001940101 0 0.48592231416185638 0.0752646054103117 0 0.5 0.089131267912991197 0 0.47911227232856668 0.09907818001940101 0 0.48592231416185638 0.0752646054103117 0 0.46599422920766509 0.071585542922595516 0 0.48592231416185638 0.0752646054103117 0 0.46599422920766509 0.071585542922595516 0 0.47969083044660421 0.050503904472553283 0 0.47911227232856668 0.09907818001940101 0 0.46599422920766509 0.071585542922595516 0 0.45660210543223351 0.096238293732025512 0 0.46599422920766509 0.071585542922595516 0 0.44319262383460789 0.070531660330671375 0 0.45660210543223351 0.096238293732025512 0 0.44319262383460789 0.070531660330671375 0 0.45660210543223351 0.096238293732025512 0 0.43559540491542181 0.095634413362833848 0 0.46597719939595772 0.11928854037370019 0 0.45660210543223351 0.096238293732025512 0 0.44441253831551758 0.1138689947079024 0 0.47911227232856668 0.09907818001940101 0 0.46597719939595772 0.11928854037370019 0 0.45660210543223351 0.096238293732025512 0 0.45660210543223351 0.096238293732025512 0 0.44441253831551758 0.1138689947079024 0 0.43559540491542181 0.095634413362833848 0 0.4479899973006039 0.1367827499865252 0 0.46597719939595772 0.11928854037370019 0 0.44441253831551758 0.1138689947079024 0 0.429848517254516 0.1255917524949702 0 0.44441253831551758 0.1138689947079024 0 0.42416274095453271 0.1101558860989641 0 0.429848517254516 0.1255917524949702 0 0.41384889774502859 0.12525543762671809 0 0.42416274095453271 0.1101558860989641 0 0.41384889774502859 0.12525543762671809 0 0.42416274095453271 0.1101558860989641 0 0.40716605829359193 0.1120264799895512 0 0.39816792615439378 0.12760480203569169 0 0.41384889774502859 0.12525543762671809 0 0.40716605829359193 0.1120264799895512 0 0.40716605829359193 0.1120264799895512 0 0.41525133388600899 0.093407911538609431 0 0.39656535672550852 0.092974877928873267 0 0.42416274095453271 0.1101558860989641 0 0.40716605829359193 0.1120264799895512 0 0.41525133388600899 0.093407911538609431 0 0.42416274095453271 0.1101558860989641 0 0.43559540491542181 0.095634413362833848 0 0.41525133388600899 0.093407911538609431 0 0.44441253831551758 0.1138689947079024 0 0.42416274095453271 0.1101558860989641 0 0.43559540491542181 0.095634413362833848 0 0.43559540491542181 0.095634413362833848 0 0.4195547633014628 0.073570994746074828 0 0.41525133388600899 0.093407911538609431 0 0.43559540491542181 0.095634413362833848 0 0.4195547633014628 0.073570994746074828 0 0.44319262383460789 0.070531660330671375 0 0.43559540491542181 0.095634413362833848 0 0.4195547633014628 0.073570994746074828 0 0.44319262383460789 0.070531660330671375 0 0.4195547633014628 0.073570994746074828 0 0.42728191937221521 0.050914286525162993 0 0.4195547633014628 0.073570994746074828 0 0.39780951386322527 0.071813900777571313 0 0.40351412168750378 0.051507576129315842 0 0.4195547633014628 0.073570994746074828 0 0.40351412168750378 0.051507576129315842 0 0.4195547633014628 0.073570994746074828 0 0.41525133388600899 0.093407911538609431 0 0.39780951386322527 0.071813900777571313 0 0.41525133388600899 0.093407911538609431 0 0.39656535672550852 0.092974877928873267 0 0.39780951386322527 0.071813900777571313 0 0.37400882161871279 0.083619613235024759 0 0.37883567044039879 0.062600723425798879 0 0.39780951386322527 0.071813900777571313 0 0.37883567044039879 0.062600723425798879 0 0.3909554563133032 0.056876008487314757 0 0.37400882161871279 0.083619613235024759 0 0.39780951386322527 0.071813900777571313 0 0.37883567044039879 0.062600723425798879 0 0.37400882161871279 0.083619613235024759 0 0.39656535672550852 0.092974877928873267 0 0.38808178026068268 0.10392801007035141 0 0.37400882161871279 0.083619613235024759 0 0.39656535672550852 0.092974877928873267 0 0.39780951386322527 0.071813900777571313 0 0.37455144446510141 0.10193275935197101 0 0.37400882161871279 0.083619613235024759 0 0.38808178026068268 0.10392801007035141 0 0.37455144446510141 0.10193275935197101 0 0.38808178026068268 0.10392801007035141 0 0.37815432920295677 0.1109533992790251 0 0.37035748409374952 0.12191913965183331 0 0.38876177119367089 0.116972809820693 0 0.37035748409374952 0.12191913965183331 0 0.37511757494472903 0.123072110010257 0 0.38876177119367089 0.116972809820693 0 0.37035748409374952 0.12191913965183331 0 0.37815432920295677 0.1109533992790251 0 0.38876177119367089 0.116972809820693 0 0.3828943795393005 0.1298338505994551 0 0.37511757494472903 0.123072110010257 0 0.38876177119367089 0.116972809820693 0 0.3828943795393005 0.1298338505994551 0 0.39816792615439378 0.12760480203569169 0 0.38876177119367089 0.116972809820693 0 0.38808178026068268 0.10392801007035141 0 0.37815432920295677 0.1109533992790251 0 0.38876177119367089 0.116972809820693 0 0.40716605829359193 0.1120264799895512 0 0.38876177119367089 0.116972809820693 0 0.39816792615439378 0.12760480203569169 0 0.40716605829359193 0.1120264799895512 0 0.38876177119367089 0.116972809820693 0 0.40716605829359193 0.1120264799895512 0 0.38808178026068268 0.10392801007035141 0 0.38876177119367089 0.116972809820693 0 0.40716605829359193 0.1120264799895512 0 0.39656535672550852 0.092974877928873267 0 0.38808178026068268 0.10392801007035141 0 0.39895333728429933 0.027539300906755181 0 0.38848936808377088 0.020562943807347231 0 0.4122691541308795 0.010257189796790951 0 0.39895333728429933 0.027539300906755181 0 0.38848936808377088 0.020562943807347231 0 0.38747348007354487 0.029444157512556919 0 0.39212595536292472 0.0047271407553128551 0 0.4122691541308795 0.010257189796790951 0 0.40542454288086849 -0.004070234290400764 0 0.38848936808377088 0.020562943807347231 0 0.4122691541308795 0.010257189796790951 0 0.39212595536292472 0.0047271407553128551 0 0.38848936808377088 0.020562943807347231 0 0.4122691541308795 0.010257189796790951 0 0.39212595536292472 0.0047271407553128551 0 0.38120377069012762 0.010554394007073271 0 0.36845156083710567 -0.0060515153414843056 0 0.36934971840039982 0.01412264887454192 0 0.38120377069012762 0.010554394007073271 0 0.38848936808377088 0.020562943807347231 0 0.39212595536292472 0.0047271407553128551 0 0.38120377069012762 0.010554394007073271 0 0.38848936808377088 0.020562943807347231 0 0.39212595536292472 0.0047271407553128551 0 0.38848936808377088 0.020562943807347231 0 0.38848936808377088 0.020562943807347231 0 0.38747348007354487 0.029444157512556919 0 0.38366251926208489 0.041581833616573027 0 0.38848936808377088 0.020562943807347231 0 0.38366251926208489 0.041581833616573027 0 0.36096242836060388 0.032492650360987897 0 0.38848936808377088 0.020562943807347231 0 0.38366251926208489 0.041581833616573027 0 0.37883567044039879 0.062600723425798879 0 0.38366251926208489 0.041581833616573027 0 0.3909554563133032 0.056876008487314757 0 0.37883567044039879 0.062600723425798879 0 0.38366251926208489 0.041581833616573027 0 0.36884998715724038 0.048654936693666287 0 0.37883567044039879 0.062600723425798879 0 0.38366251926208489 0.041581833616573027 0 0.38366251926208489 0.041581833616573027 0 0.40351412168750378 0.051507576129315842 0 0.3909554563133032 0.056876008487314757 0 0.39780951386322527 0.071813900777571313 0 0.40351412168750378 0.051507576129315842 0 0.3909554563133032 0.056876008487314757 0 0.38747348007354487 0.029444157512556919 0 0.40351412168750378 0.051507576129315842 0 0.39895333728429933 0.027539300906755181 0 0.40351412168750378 0.051507576129315842 0 0.40867742594100492 0.02913313449165824 0 0.39895333728429933 0.027539300906755181 0 0.38747348007354487 0.029444157512556919 0 0.40351412168750378 0.051507576129315842 0 0.38747348007354487 0.029444157512556919 0 0.38366251926208489 0.041581833616573027 0 0.40351412168750378 0.051507576129315842 0 0.40351412168750378 0.051507576129315842 0 0.41712069737947322 0.039684074088297272 0 0.40867742594100492 0.02913313449165824 0 0.41712069737947322 0.039684074088297272 0 0.42900932251716922 0.027181299207052031 0 0.40867742594100492 0.02913313449165824 0 0.40351412168750378 0.051507576129315842 0 0.41712069737947322 0.039684074088297272 0 0.42728191937221521 0.050914286525162993 0 0.4195547633014628 0.073570994746074828 0 0.40351412168750378 0.051507576129315842 0 0.42728191937221521 0.050914286525162993 0 0.41712069737947322 0.039684074088297272 0 0.42728191937221521 0.050914286525162993 0 0.42900932251716922 0.027181299207052031 0 0.42728191937221521 0.050914286525162993 0 0.42900932251716922 0.027181299207052031 0 0.45357816737839107 0.043281393992262968 0 0.42900932251716922 0.027181299207052031 0 0.40867742594100492 0.02913313449165824 0 0.4122691541308795 0.010257189796790951 0 0.39895333728429933 0.027539300906755181 0 0.40867742594100492 0.02913313449165824 0 0.4122691541308795 0.010257189796790951 0 0.4122691541308795 0.010257189796790951 0 0.42733427856619571 -0.0085863840744332814 0 0.43604894017798812 -4.8564213765240817e-05 0 0.42900932251716922 0.027181299207052031 0 0.4122691541308795 0.010257189796790951 0 0.43604894017798812 -4.8564213765240817e-05 0 0.4122691541308795 0.010257189796790951 0 0.43604894017798812 -4.8564213765240817e-05 0 0.45021491583924189 0.016350560368503721 0 0.45982872622509668 -0.01035431822432146 0 0.43604894017798812 -4.8564213765240817e-05 0 0.42900932251716922 0.027181299207052031 0 0.45021491583924189 0.016350560368503721 0 0.43604894017798812 -4.8564213765240817e-05 0 0.42900932251716922 0.027181299207052031 0 0.45021491583924189 0.016350560368503721 0 0.45357816737839107 0.043281393992262968 0 0.45021491583924189 0.016350560368503721 0 0.45357816737839107 0.043281393992262968 0 0.47265027193171238 0.017829323700243871 0 0.45021491583924189 0.016350560368503721 0 0.47265027193171238 0.017829323700243871 0 0.45982872622509668 -0.01035431822432146 0 0.45357816737839107 0.043281393992262968 0 0.47969083044660421 0.050503904472553283 0 0.47265027193171238 0.017829323700243871 0 0.44319262383460789 0.070531660330671375 0 0.42728191937221521 0.050914286525162993 0 0.45357816737839107 0.043281393992262968 0 0.46599422920766509 0.071585542922595516 0 0.44319262383460789 0.070531660330671375 0 0.45357816737839107 0.043281393992262968 0 0.46599422920766509 0.071585542922595516 0 0.45357816737839107 0.043281393992262968 0 0.47969083044660421 0.050503904472553283 0 0.47969083044660421 0.050503904472553283 0 0.5 0.033664617902273368 0 0.47265027193171238 0.017829323700243871 0 0.48592231416185638 0.0752646054103117 0 0.47969083044660421 0.050503904472553283 0 0.5 0.06139794290763223 0 0.47969083044660421 0.050503904472553283 0 0.5 0.033664617902273368 0 0.5 0.06139794290763223 0 0.5 0.033664617902273368 0 0.47265027193171238 0.017829323700243871 0 0.5 0.0059312928969145204 0 0.47265027193171238 0.017829323700243871 0 0.5 0.0059312928969145204 0 0.48261795830076532 -0.0084137270416950408 0 0.5 0.0059312928969145204 0 0.48261795830076532 -0.0084137270416950408 0 0.5 -0.021802032108444391 0 0.47265027193171238 0.017829323700243871 0 0.48261795830076532 -0.0084137270416950408 0 0.45982872622509668 -0.01035431822432146 0 0.48261795830076532 -0.0084137270416950408 0 0.48385521188952352 -0.03103713942335571 0 0.45982872622509668 -0.01035431822432146 0 0.48385521188952352 -0.03103713942335571 0 0.46768790053651399 -0.040232759786602873 0 0.45982872622509668 -0.01035431822432146 0 0.48261795830076532 -0.0084137270416950408 0 0.48385521188952352 -0.03103713942335571 0 0.5 -0.021802032108444391 0 0.48385521188952352 -0.03103713942335571 0 0.49518245524492172 -0.045789595090724652 0 0.49482530481253351 -0.04804557135493729 0 0.5 -0.021802032108444391 0 0.49518245524492172 -0.045789595090724652 0 0.49999999999998263 -0.049535357113803247 0 0.48385521188952352 -0.03103713942335571 0 0.5 -0.021802032108444391 0 0.49518245524492172 -0.045789595090724652 0 0.49482530481253351 -0.04804557135493729 0 0.47636674367150789 -0.060588545727567042 0 0.49016972248203172 -0.07745302065780417 0 0.49999999999998263 -0.049535357113803247 0 0.49482530481253351 -0.04804557135493729 0 0.49016972248203172 -0.07745302065780417 0 0.49999999999998263 -0.049535357113803247 0 0.49482530481253351 -0.04804557135493729 0 0.49518245524492172 -0.045789595090724652 0 0.49999999999998263 -0.049535357113803247 0 0.49482530481253351 -0.04804557135493729 0 0.49518245524492172 -0.045789595090724652 0 0.49482530481253351 -0.04804557135493729 0 0.49482530481253351 -0.04804557135493729 0 0.47636674367150789 -0.060588545727567042 0 0.46768790053651399 -0.040232759786602873 0 0.49482530481253351 -0.04804557135493729 0 0.46768790053651399 -0.040232759786602873 0 0.48385521188952352 -0.03103713942335571 0 0.49482530481253351 -0.04804557135493729 0 0.46768790053651399 -0.040232759786602873 0 0.46768790053651399 -0.040232759786602873 0 0.44055049626049481 -0.03241994821826754 0 0.47636674367150789 -0.060588545727567042 0 0.46768790053651399 -0.040232759786602873 0 0.44971823816913109 -0.058611894661768998 0 0.46768790053651399 -0.040232759786602873 0 0.44971823816913109 -0.058611894661768998 0 0.44055049626049481 -0.03241994821826754 0 0.44971823816913109 -0.058611894661768998 0 0.44055049626049481 -0.03241994821826754 0 0.42776585910878662 -0.047462582859365887 0 0.44055049626049481 -0.03241994821826754 0 0.43862233638968018 -0.01433991032473066 0 0.45982872622509668 -0.01035431822432146 0 0.45982872622509668 -0.01035431822432146 0 0.43604894017798812 -4.8564213765240817e-05 0 0.43862233638968018 -0.01433991032473066 0 0.45982872622509668 -0.01035431822432146 0 0.43604894017798812 -4.8564213765240817e-05 0 0.46768790053651399 -0.040232759786602873 0 0.44055049626049481 -0.03241994821826754 0 0.45982872622509668 -0.01035431822432146 0 0.47499259514944292 -0.1202547269832886 0 0.48551414015152222 -0.10686046996066979 0 0.48085855782101261 -0.13626791926353529 0 0.47418157221881441 -0.11112465676427991 0 0.47528951870947961 -0.09927779745641295 0 0.46093003486481321 -0.11810563265674839 0 0.48551414015152222 -0.10686046996066979 0 0.48085855782101261 -0.13626791926353529 0 0.47499259514944292 -0.1202547269832886 0 0.46093003486481321 -0.11810563265674839 0 0.47239045088042492 -0.13005034139104371 0 0.47499259514944292 -0.1202547269832886 0 0.47418157221881441 -0.11112465676427991 0 0.46093003486481321 -0.11810563265674839 0 0.47499259514944292 -0.1202547269832886 0 0.47418157221881441 -0.11112465676427991 0 0.48551414015152222 -0.10686046996066979 0 0.48986304781109291 -0.1242692167884092 0 0.49384429699065369 -0.1173080088948287 0 0.48551414015152222 -0.10686046996066979 0 0.48986304781109291 -0.1242692167884092 0 0.48551414015152222 -0.10686046996066979 0 0.48085855782101261 -0.13626791926353529 0 0.49384429699065369 -0.1173080088948287 0 0.5 -0.1051480109548549 0 0.5 -0.13295433787538069 0 0.48986304781109291 -0.1242692167884092 0 0.49384429699065369 -0.1173080088948287 0 0.5 -0.13295433787538069 0 0.49384429699065369 -0.1173080088948287 0 0.48551414015152222 -0.10686046996066979 0 0.5 -0.1051480109548549 0 0.48551414015152222 -0.10686046996066979 0 0.5 -0.1051480109548549 0 0.49016972248203172 -0.07745302065780417 0 0.48551414015152222 -0.10686046996066979 0 0.47528951870947961 -0.09927779745641295 0 0.4786949329242487 -0.090297096352784045 0 0.47418157221881441 -0.11112465676427991 0 0.48551414015152222 -0.10686046996066979 0 0.47528951870947961 -0.09927779745641295 0 0.47494193394216588 -0.078729965701305249 0 0.4786949329242487 -0.090297096352784045 0 0.46755934933604398 -0.089164227987728051 0 0.47528951870947961 -0.09927779745641295 0 0.4786949329242487 -0.090297096352784045 0 0.46755934933604398 -0.089164227987728051 0 0.47494193394216588 -0.078729965701305249 0 0.4786949329242487 -0.090297096352784045 0 0.49016972248203172 -0.07745302065780417 0 0.48551414015152222 -0.10686046996066979 0 0.49016972248203172 -0.07745302065780417 0 0.5 -0.1051480109548549 0 0.49016972248203172 -0.07745302065780417 0 0.5 -0.077341684034329061 0 0.48551414015152222 -0.10686046996066979 0 0.4786949329242487 -0.090297096352784045 0 0.49016972248203172 -0.07745302065780417 0 0.49999999999998263 -0.049535357113803247 0 0.49016972248203172 -0.07745302065780417 0 0.5 -0.077341684034329061 0 0.49482530481253351 -0.04804557135493729 0 0.49016972248203172 -0.07745302065780417 0 0.47636674367150789 -0.060588545727567042 0 0.47494193394216588 -0.078729965701305249 0 0.49016972248203172 -0.07745302065780417 0 0.47636674367150789 -0.060588545727567042 0 0.47494193394216588 -0.078729965701305249 0 0.4592808493329405 -0.078369632624057675 0 0.47636674367150789 -0.060588545727567042 0 0.44971823816913109 -0.058611894661768998 0 0.4592808493329405 -0.078369632624057675 0 0.47636674367150789 -0.060588545727567042 0 0.4592808493329405 -0.078369632624057675 0 0.44971823816913109 -0.058611894661768998 0 0.44126951216661869 -0.079236189142810429 0 0.42731029070553322 -0.068277018127587574 0 0.44971823816913109 -0.058611894661768998 0 0.44126951216661869 -0.079236189142810429 0 0.4592808493329405 -0.078369632624057675 0 0.4592808493329405 -0.078369632624057675 0 0.44219495499437311 -0.096150719520548239 0 0.44126951216661869 -0.079236189142810429 0 0.4592808493329405 -0.078369632624057675 0 0.44219495499437311 -0.096150719520548239 0 0.47494193394216588 -0.078729965701305249 0 0.4592808493329405 -0.078369632624057675 0 0.46755934933604398 -0.089164227987728051 0 0.4592808493329405 -0.078369632624057675 0 0.46755934933604398 -0.089164227987728051 0 0.44219495499437311 -0.096150719520548239 0 0.46755934933604398 -0.089164227987728051 0 0.46093003486481321 -0.11810563265674839 0 0.46755934933604398 -0.089164227987728051 0 0.44219495499437311 -0.096150719520548239 0 0.46093003486481321 -0.11810563265674839 0 0.47528951870947961 -0.09927779745641295 0 0.46755934933604398 -0.089164227987728051 0 0.46093003486481321 -0.11810563265674839 0 0.441730170532879 -0.1159420230490274 0 0.46093003486481321 -0.11810563265674839 0 0.44582693855797939 -0.1311402400572215 0 0.44219495499437311 -0.096150719520548239 0 0.441730170532879 -0.1159420230490274 0 0.46093003486481321 -0.11810563265674839 0 0.42510906065580589 -0.11393180641703871 0 0.40802316631723889 -0.13171289331352951 0 0.40725115801851319 -0.1169919833964142 0 0.42510906065580589 -0.11393180641703871 0 0.40802316631723889 -0.13171289331352951 0 0.40725115801851319 -0.1169919833964142 0 0.42510906065580589 -0.11393180641703871 0 0.4147200547274239 -0.1079547067436207 0 0.40725115801851319 -0.1169919833964142 0 0.4147200547274239 -0.1079547067436207 0 0.40692444267373179 -0.1088204768843429 0 0.441730170532879 -0.1159420230490274 0 0.42510906065580589 -0.11393180641703871 0 0.43087782981676859 -0.131879285754128 0 0.44219495499437311 -0.096150719520548239 0 0.42510906065580589 -0.11393180641703871 0 0.44219495499437311 -0.096150719520548239 0 0.441730170532879 -0.1159420230490274 0 0.42510906065580589 -0.11393180641703871 0 0.44219495499437311 -0.096150719520548239 0 0.42510906065580589 -0.11393180641703871 0 0.4234909377050316 -0.092737982748798881 0 0.42510906065580589 -0.11393180641703871 0 0.4147200547274239 -0.1079547067436207 0 0.4234909377050316 -0.092737982748798881 0 0.4147200547274239 -0.1079547067436207 0 0.40904120664506322 -0.09935874077938342 0 0.4234909377050316 -0.092737982748798881 0 0.4147200547274239 -0.1079547067436207 0 0.40692444267373179 -0.1088204768843429 0 0.40904120664506322 -0.09935874077938342 0 0.40904120664506322 -0.09935874077938342 0 0.4234909377050316 -0.092737982748798881 0 0.40226126486411301 -0.082186696628613137 0 0.4234909377050316 -0.092737982748798881 0 0.42731029070553322 -0.068277018127587574 0 0.40226126486411301 -0.082186696628613137 0 0.44126951216661869 -0.079236189142810429 0 0.4234909377050316 -0.092737982748798881 0 0.42731029070553322 -0.068277018127587574 0 0.44126951216661869 -0.079236189142810429 0 0.44219495499437311 -0.096150719520548239 0 0.4234909377050316 -0.092737982748798881 0 0.42731029070553322 -0.068277018127587574 0 0.40226126486411301 -0.082186696628613137 0 0.40783717842429862 -0.053396916639273179 0 0.40226126486411301 -0.082186696628613137 0 0.40783717842429862 -0.053396916639273179 0 0.38429333219820472 -0.067131704106828338 0 0.40226126486411301 -0.082186696628613137 0 0.40783717842429862 -0.053396916639273179 0 0.38429333219820472 -0.067131704106828338 0 0.38199460798391838 -0.085246791459625215 0 0.40226126486411301 -0.082186696628613137 0 0.38199460798391838 -0.085246791459625215 0 0.40226126486411301 -0.082186696628613137 0 0.39106825526090561 -0.1007030293946076 0 0.40226126486411301 -0.082186696628613137 0 0.39106825526090561 -0.1007030293946076 0 0.39668535130392929 -0.1109764766179535 0 0.40904120664506322 -0.09935874077938342 0 0.40226126486411301 -0.082186696628613137 0 0.39668535130392929 -0.1109764766179535 0 0.40226126486411301 -0.082186696628613137 0 0.39668535130392929 -0.1109764766179535 0 0.40692444267373179 -0.1088204768843429 0 0.40904120664506322 -0.09935874077938342 0 0.39668535130392929 -0.1109764766179535 0 0.39106825526090561 -0.1007030293946076 0 0.39668535130392929 -0.1109764766179535 0 0.39106825526090561 -0.1007030293946076 0 0.3799934613124491 -0.1141351934829782 0 0.39668535130392929 -0.1109764766179535 0 0.38199460798391838 -0.085246791459625215 0 0.39106825526090561 -0.1007030293946076 0 0.37706007999693841 -0.1011775095245466 0 0.39106825526090561 -0.1007030293946076 0 0.37706007999693841 -0.1011775095245466 0 0.3799934613124491 -0.1141351934829782 0 0.3799934613124491 -0.1141351934829782 0 0.39668535130392929 -0.1109764766179535 0 0.3932705088567644 -0.1286081277708763 0 0.3799934613124491 -0.1141351934829782 0 0.37104303648388809 -0.1272612894930944 0 0.3932705088567644 -0.1286081277708763 0 0.40224748518751269 -0.1211494002184121 0 0.3932705088567644 -0.1286081277708763 0 0.39668535130392929 -0.1109764766179535 0 0.3932705088567644 -0.1286081277708763 0 0.39668535130392929 -0.1109764766179535 0 0.40224748518751269 -0.1211494002184121 0 0.3932705088567644 -0.1286081277708763 0 0.40725115801851319 -0.1169919833964142 0 0.39668535130392929 -0.1109764766179535 0 0.40224748518751269 -0.1211494002184121 0 0.39668535130392929 -0.1109764766179535 0 0.40224748518751269 -0.1211494002184121 0 0.40725115801851319 -0.1169919833964142 0 0.40692444267373179 -0.1088204768843429 0 0.39668535130392929 -0.1109764766179535 0 0.40725115801851319 -0.1169919833964142 0 0.40224748518751269 -0.1211494002184121 0 0.40725115801851319 -0.1169919833964142 0 0.40224748518751269 -0.1211494002184121 0 0.40802316631723889 -0.13171289331352951 0 0.42156842614681772 -0.015954947998216139 0 0.41341309198447568 -0.024607136649931451 0 0.42934924071862562 -0.02029033689286578 0 0.41341309198447568 -0.024607136649931451 0 0.41617709331797431 -0.010335934375633319 0 0.42156842614681772 -0.015954947998216139 0 0.41341309198447568 -0.024607136649931451 0 0.41617709331797431 -0.010335934375633319 0 0.41341309198447568 -0.024607136649931451 0 0.40231254689356027 -0.037392070823486202 0 0.40309603266908228 -0.02802239201193971 0 0.41341309198447568 -0.024607136649931451 0 0.41078796895048542 -0.01389090533175278 0 0.39783226839882679 -0.020121444594939791 0 0.41341309198447568 -0.024607136649931451 0 0.41078796895048542 -0.01389090533175278 0 0.41617709331797431 -0.010335934375633319 0 0.41078796895048542 -0.01389090533175278 0 0.41617709331797431 -0.010335934375633319 0 0.40542454288086849 -0.004070234290400764 0 0.4122691541308795 0.010257189796790951 0 0.41617709331797431 -0.010335934375633319 0 0.40542454288086849 -0.004070234290400764 0 0.4122691541308795 0.010257189796790951 0 0.41617709331797431 -0.010335934375633319 0 0.42733427856619571 -0.0085863840744332814 0 0.42156842614681772 -0.015954947998216139 0 0.41617709331797431 -0.010335934375633319 0 0.42733427856619571 -0.0085863840744332814 0 0.42156842614681772 -0.015954947998216139 0 0.42733427856619571 -0.0085863840744332814 0 0.42934924071862562 -0.02029033689286578 0 0.43862233638968018 -0.01433991032473066 0 0.42733427856619571 -0.0085863840744332814 0 0.43604894017798812 -4.8564213765240817e-05 0 0.43862233638968018 -0.01433991032473066 0 0.42733427856619571 -0.0085863840744332814 0 0.42934924071862562 -0.02029033689286578 0 0.44055049626049481 -0.03241994821826754 0 0.43862233638968018 -0.01433991032473066 0 0.42934924071862562 -0.02029033689286578 0 0.44055049626049481 -0.03241994821826754 0 0.41341309198447568 -0.024607136649931451 0 0.42934924071862562 -0.02029033689286578 0 0.44055049626049481 -0.03241994821826754 0 0.41341309198447568 -0.024607136649931451 0 0.44055049626049481 -0.03241994821826754 0 0.41341309198447568 -0.024607136649931451 0 0.42776585910878662 -0.047462582859365887 0 0.44971823816913109 -0.058611894661768998 0 0.42731029070553322 -0.068277018127587574 0 0.42776585910878662 -0.047462582859365887 0 0.42731029070553322 -0.068277018127587574 0 0.42776585910878662 -0.047462582859365887 0 0.40783717842429862 -0.053396916639273179 0 0.41341309198447568 -0.024607136649931451 0 0.42776585910878662 -0.047462582859365887 0 0.40783717842429862 -0.053396916639273179 0 0.41341309198447568 -0.024607136649931451 0 0.40783717842429862 -0.053396916639273179 0 0.40231254689356027 -0.037392070823486202 0 0.41341309198447568 -0.024607136649931451 0 0.40783717842429862 -0.053396916639273179 0 0.40231254689356027 -0.037392070823486202 0 0.3981973431289102 -0.028872790202489229 0 0.40309603266908228 -0.02802239201193971 0 0.40231254689356027 -0.037392070823486202 0 0.38732801778773829 -0.04651698367670077 0 0.38934459454031273 -0.029067224222560958 0 0.40783717842429862 -0.053396916639273179 0 0.40231254689356027 -0.037392070823486202 0 0.38732801778773829 -0.04651698367670077 0 0.40231254689356027 -0.037392070823486202 0 0.38934459454031273 -0.029067224222560958 0 0.3981973431289102 -0.028872790202489229 0 0.38429333219820472 -0.067131704106828338 0 0.40783717842429862 -0.053396916639273179 0 0.38732801778773829 -0.04651698367670077 0 0.38429333219820472 -0.067131704106828338 0 0.38732801778773829 -0.04651698367670077 0 0.37042415964797237 -0.053058901563766692 0 0.38732801778773829 -0.04651698367670077 0 0.37068698927403948 -0.035605583580554698 0 0.37042415964797237 -0.053058901563766692 0 0.38732801778773829 -0.04651698367670077 0 0.38934459454031273 -0.029067224222560958 0 0.37068698927403948 -0.035605583580554698 0 0.38934459454031273 -0.029067224222560958 0 0.36983137800827248 -0.01206003687362641 0 0.37068698927403948 -0.035605583580554698 0 0.38934459454031273 -0.029067224222560958 0 0.39783226839882679 -0.020121444594939791 0 0.36983137800827248 -0.01206003687362641 0 0.39783226839882679 -0.020121444594939791 0 0.36983137800827248 -0.01206003687362641 0 0.38934459454031273 -0.029067224222560958 0 0.3981973431289102 -0.028872790202489229 0 0.39783226839882679 -0.020121444594939791 0 0.41341309198447568 -0.024607136649931451 0 0.39783226839882679 -0.020121444594939791 0 0.41341309198447568 -0.024607136649931451 0 0.39783226839882679 -0.020121444594939791 0 0.40309603266908228 -0.02802239201193971 0 0.3981973431289102 -0.028872790202489229 0 0.39783226839882679 -0.020121444594939791 0 0.40309603266908228 -0.02802239201193971 0 0.39212595536292472 0.0047271407553128551 0 0.39576254264207811 -0.011108662296721609 0 0.39212595536292472 0.0047271407553128551 0 0.40542454288086849 -0.004070234290400764 0 0.39576254264207811 -0.011108662296721609 0 0.41078796895048542 -0.01389090533175278 0 0.39783226839882679 -0.020121444594939791 0 0.39576254264207811 -0.011108662296721609 0 0.41078796895048542 -0.01389090533175278 0 0.39576254264207811 -0.011108662296721609 0 0.41078796895048542 -0.01389090533175278 0 0.40542454288086849 -0.004070234290400764 0 0.39576254264207811 -0.011108662296721609 0 0.39783226839882679 -0.020121444594939791 0 0.39576254264207811 -0.011108662296721609 0 0.39576254264207811 -0.011108662296721609 0 0.36983137800827248 -0.01206003687362641 0 0.36845156083710567 -0.0060515153414843056 0 0.39576254264207811 -0.011108662296721609 0 0.36845156083710567 -0.0060515153414843056 0 0.39212595536292472 0.0047271407553128551 0 0.39576254264207811 -0.011108662296721609 0 0.36845156083710567 -0.0060515153414843056 0 0.39783226839882679 -0.020121444594939791 0 0.39576254264207811 -0.011108662296721609 0 0.36983137800827248 -0.01206003687362641 0 0.36983137800827248 -0.01206003687362641 0 0.36845156083710567 -0.0060515153414843056 0 0.34183048761771712 -0.0039986291523161147 0 0.36983137800827248 -0.01206003687362641 0 0.35223914962217417 -0.02278106829858554 0 0.37068698927403948 -0.035605583580554698 0 0.36983137800827248 -0.01206003687362641 0 0.35223914962217417 -0.02278106829858554 0 0.34183048761771712 -0.0039986291523161147 0 0.36983137800827248 -0.01206003687362641 0 0.34183048761771712 -0.0039986291523161147 0 0.36845156083710567 -0.0060515153414843056 0 0.34114057903213352 -0.00099436838624600288 0 0.36845156083710567 -0.0060515153414843056 0 0.34183048761771712 -0.0039986291523161147 0 0.34114057903213352 -0.00099436838624600288 0 0.35223914962217417 -0.02278106829858554 0 0.34183048761771712 -0.0039986291523161147 0 0.33977780877024261 -0.017668132193127541 0 0.31382959722716158 0.0040627785689932028 0 0.34183048761771712 -0.0039986291523161147 0 0.34114057903213352 -0.00099436838624600288 0 0.34183048761771712 -0.0039986291523161147 0 0.33574973546384762 -0.01167659105592548 0 0.32194573769061952 -0.0077676308935595512 0 0.34183048761771712 -0.0039986291523161147 0 0.33574973546384762 -0.01167659105592548 0 0.33977780877024261 -0.017668132193127541 0 0.35223914962217417 -0.02278106829858554 0 0.33977780877024261 -0.017668132193127541 0 0.33879793226643329 -0.029417681387060649 0 0.33574973546384762 -0.01167659105592548 0 0.3302717388810405 -0.020466691071749941 0 0.3196214637881436 -0.021924893160697439 0 0.33977780877024261 -0.017668132193127541 0 0.33879793226643329 -0.029417681387060649 0 0.3302717388810405 -0.020466691071749941 0 0.33879793226643329 -0.029417681387060649 0 0.32862271298124018 -0.028919582591936679 0 0.3302717388810405 -0.020466691071749941 0 0.33574973546384762 -0.01167659105592548 0 0.33977780877024261 -0.017668132193127541 0 0.3302717388810405 -0.020466691071749941 0 0.3302717388810405 -0.020466691071749941 0 0.32526768976560849 -0.02407540610795475 0 0.3196214637881436 -0.021924893160697439 0 0.33574973546384762 -0.01167659105592548 0 0.3196214637881436 -0.021924893160697439 0 0.32862271298124018 -0.028919582591936679 0 0.3302717388810405 -0.020466691071749941 0 0.32526768976560849 -0.02407540610795475 0 0.32862271298124018 -0.028919582591936679 0 0.32095671603858011 -0.024994897592425049 0 0.3231679364015333 -0.033306441836977792 0 0.32862271298124018 -0.028919582591936679 0 0.32526768976560849 -0.02407540610795475 0 0.32095671603858011 -0.024994897592425049 0 0.32526768976560849 -0.02407540610795475 0 0.32095671603858011 -0.024994897592425049 0 0.3196214637881436 -0.021924893160697439 0 0.32095671603858011 -0.024994897592425049 0 0.3196214637881436 -0.021924893160697439 0 0.31660160940309118 -0.035871797032442469 0 0.32095671603858011 -0.024994897592425049 0 0.3196214637881436 -0.021924893160697439 0 0.33574973546384762 -0.01167659105592548 0 0.3196214637881436 -0.021924893160697439 0 0.32194573769061952 -0.0077676308935595512 0 0.30752965714041391 0.0058765203804442539 0 0.3196214637881436 -0.021924893160697439 0 0.32194573769061952 -0.0077676308935595512 0 0.31382959722716158 0.0040627785689932028 0 0.34183048761771712 -0.0039986291523161147 0 0.32194573769061952 -0.0077676308935595512 0 0.30752965714041391 0.0058765203804442539 0 0.3196214637881436 -0.021924893160697439 0 0.31292981148517318 -0.054457989835630861 0 0.33951515654934239 -0.057829064589421393 0 0.331762206516936 -0.074199649102278678 0 0.31292981148517318 -0.054457989835630861 0 0.32943454752299528 -0.042779626289088678 0 0.31292981148517318 -0.054457989835630861 0 0.32943454752299528 -0.042779626289088678 0 0.33951515654934239 -0.057829064589421393 0 0.31292981148517318 -0.054457989835630861 0 0.31660160940309118 -0.035871797032442469 0 0.32943454752299528 -0.042779626289088678 0 0.32095671603858011 -0.024994897592425049 0 0.31660160940309118 -0.035871797032442469 0 0.3231679364015333 -0.033306441836977792 0 0.32862271298124018 -0.028919582591936679 0 0.3231679364015333 -0.033306441836977792 0 0.32943454752299528 -0.042779626289088678 0 0.31660160940309118 -0.035871797032442469 0 0.3231679364015333 -0.033306441836977792 0 0.32943454752299528 -0.042779626289088678 0 0.33879793226643329 -0.029417681387060649 0 0.32943454752299528 -0.042779626289088678 0 0.35178468962230941 -0.045374559850196158 0 0.33879793226643329 -0.029417681387060649 0 0.32862271298124018 -0.028919582591936679 0 0.32943454752299528 -0.042779626289088678 0 0.32943454752299528 -0.042779626289088678 0 0.33951515654934239 -0.057829064589421393 0 0.35178468962230941 -0.045374559850196158 0 0.33951515654934239 -0.057829064589421393 0 0.35178468962230941 -0.045374559850196158 0 0.35802776935757019 -0.070665676604553529 0 0.35223914962217417 -0.02278106829858554 0 0.35178468962230941 -0.045374559850196158 0 0.37068698927403948 -0.035605583580554698 0 0.35223914962217417 -0.02278106829858554 0 0.33879793226643329 -0.029417681387060649 0 0.35178468962230941 -0.045374559850196158 0 0.35178468962230941 -0.045374559850196158 0 0.37068698927403948 -0.035605583580554698 0 0.37042415964797237 -0.053058901563766692 0 0.35178468962230941 -0.045374559850196158 0 0.37042415964797237 -0.053058901563766692 0 0.35802776935757019 -0.070665676604553529 0 0.38429333219820472 -0.067131704106828338 0 0.38199460798391838 -0.085246791459625215 0 0.35802776935757019 -0.070665676604553529 0 0.38429333219820472 -0.067131704106828338 0 0.37042415964797237 -0.053058901563766692 0 0.35802776935757019 -0.070665676604553529 0 0.38429333219820472 -0.067131704106828338 0 0.35802776935757019 -0.070665676604553529 0 0.38199460798391838 -0.085246791459625215 0 0.36577500316168848 -0.093055365242956031 0 0.35802776935757019 -0.070665676604553529 0 0.38199460798391838 -0.085246791459625215 0 0.37706007999693841 -0.1011775095245466 0 0.36577500316168848 -0.093055365242956031 0 0.35802776935757019 -0.070665676604553529 0 0.34487393367809682 -0.095216741312257352 0 0.331762206516936 -0.074199649102278678 0 0.36577500316168848 -0.093055365242956031 0 0.35802776935757019 -0.070665676604553529 0 0.34487393367809682 -0.095216741312257352 0 0.35802776935757019 -0.070665676604553529 0 0.331762206516936 -0.074199649102278678 0 0.3799934613124491 -0.1141351934829782 0 0.36192545204167298 -0.11208328153174781 0 0.37104303648388809 -0.1272612894930944 0 0.36192545204167298 -0.11208328153174781 0 0.35551888896884759 -0.1297027680154724 0 0.37104303648388809 -0.1272612894930944 0 0.37706007999693841 -0.1011775095245466 0 0.3799934613124491 -0.1141351934829782 0 0.36192545204167298 -0.11208328153174781 0 0.37706007999693841 -0.1011775095245466 0 0.36577500316168848 -0.093055365242956031 0 0.36192545204167298 -0.11208328153174781 0 0.36192545204167298 -0.11208328153174781 0 0.34487393367809682 -0.095216741312257352 0 0.34014121552940491 -0.1203166258242544 0 0.36577500316168848 -0.093055365242956031 0 0.36192545204167298 -0.11208328153174781 0 0.34487393367809682 -0.095216741312257352 0 0.36192545204167298 -0.11208328153174781 0 0.34014121552940491 -0.1203166258242544 0 0.35551888896884759 -0.1297027680154724 0 0.34014121552940491 -0.1203166258242544 0 0.32517348349888747 -0.118580130041643 0 0.32373683991627678 -0.1342707635111336 0 0.34014121552940491 -0.1203166258242544 0 0.32895182275083351 -0.1060869523066566 0 0.32517348349888747 -0.118580130041643 0 0.34487393367809682 -0.095216741312257352 0 0.34014121552940491 -0.1203166258242544 0 0.32895182275083351 -0.1060869523066566 0 0.34487393367809682 -0.095216741312257352 0 0.32895182275083351 -0.1060869523066566 0 0.32681031061177879 -0.089772122834636051 0 0.32895182275083351 -0.1060869523066566 0 0.31743464692623941 -0.099981704590172707 0 0.32681031061177879 -0.089772122834636051 0 0.31743464692623941 -0.099981704590172707 0 0.31638799147784608 -0.1118713826410174 0 0.30885616350321549 -0.1072846913931271 0 0.32895182275083351 -0.1060869523066566 0 0.31743464692623941 -0.099981704590172707 0 0.31638799147784608 -0.1118713826410174 0 0.32895182275083351 -0.1060869523066566 0 0.31638799147784608 -0.1118713826410174 0 0.32517348349888747 -0.118580130041643 0 0.31638799147784608 -0.1118713826410174 0 0.31399575267335023 -0.12250180558336519 0 0.30853123694459123 -0.1170064061326217 0 0.31638799147784608 -0.1118713826410174 0 0.31399575267335023 -0.12250180558336519 0 0.32517348349888747 -0.118580130041643 0 0.33951515654934239 -0.057829064589421393 0 0.35802776935757019 -0.070665676604553529 0 0.331762206516936 -0.074199649102278678 0 0.34487393367809682 -0.095216741312257352 0 0.331762206516936 -0.074199649102278678 0 0.32681031061177879 -0.089772122834636051 0 0.32681031061177879 -0.089772122834636051 0 0.30549664367630158 -0.077733621600003855 0 0.31220284993755582 -0.090742102146006851 0 0.331762206516936 -0.074199649102278678 0 0.32681031061177879 -0.089772122834636051 0 0.30549664367630158 -0.077733621600003855 0 0.31743464692623941 -0.099981704590172707 0 0.32681031061177879 -0.089772122834636051 0 0.31220284993755582 -0.090742102146006851 0 0.31292981148517318 -0.054457989835630861 0 0.331762206516936 -0.074199649102278678 0 0.30549664367630158 -0.077733621600003855 0 0.331762206516936 -0.074199649102278678 0 0.30549664367630158 -0.077733621600003855 0 0.31292981148517318 -0.054457989835630861 0 0.30549664367630158 -0.077733621600003855 0 0.29642507544735103 -0.06613635338217283 0 0.30549664367630158 -0.077733621600003855 0 0.29743178973804058 -0.092817056036521225 0 0.29642507544735103 -0.06613635338217283 0 0.29743178973804058 -0.092817056036521225 0 0.29642507544735103 -0.06613635338217283 0 0.31220284993755582 -0.090742102146006851 0 0.30524841693787119 -0.089877123387424693 0 0.30586238439958702 -0.098215713767166868 0 0.30549664367630158 -0.077733621600003855 0 0.31220284993755582 -0.090742102146006851 0 0.30524841693787119 -0.089877123387424693 0 0.30524841693787119 -0.089877123387424693 0 0.29743178973804058 -0.092817056036521225 0 0.30586238439958702 -0.098215713767166868 0 0.30549664367630158 -0.077733621600003855 0 0.30524841693787119 -0.089877123387424693 0 0.29743178973804058 -0.092817056036521225 0 0.29430385704143641 -0.093334685648855456 0 0.28333646668855839 -0.1038254721913715 0 0.27844545300264117 -0.078858311907156253 0 0.29743178973804058 -0.092817056036521225 0 0.29430385704143641 -0.093334685648855456 0 0.29347904805936648 -0.068220893163732282 0 0.29430385704143641 -0.093334685648855456 0 0.29347904805936648 -0.068220893163732282 0 0.27844545300264117 -0.078858311907156253 0 0.29430385704143641 -0.093334685648855456 0 0.29347904805936648 -0.068220893163732282 0 0.29743178973804058 -0.092817056036521225 0 0.29642507544735103 -0.06613635338217283 0 0.29347904805936648 -0.068220893163732282 0 0.28521560802072671 -0.062721316040594208 0 0.29347904805936648 -0.068220893163732282 0 0.27844545300264117 -0.078858311907156253 0 0.29347904805936648 -0.068220893163732282 0 0.27844545300264117 -0.078858311907156253 0 0.29642507544735103 -0.06613635338217283 0 0.29347904805936648 -0.068220893163732282 0 0.29301224914481439 -0.054007794946804598 0 0.29642507544735103 -0.06613635338217283 0 0.29347904805936648 -0.068220893163732282 0 0.29743178973804058 -0.092817056036521225 0 0.29843850402873079 -0.11949775869086959 0 0.29512866602350563 -0.1184484781339787 0 0.29843850402873079 -0.11949775869086959 0 0.29512866602350563 -0.1184484781339787 0 0.30010147488007238 -0.1276093355582181 0 0.29843850402873079 -0.11949775869086959 0 0.30554459793957989 -0.1238630007756472 0 0.30853123694459123 -0.1170064061326217 0 0.29843850402873079 -0.11949775869086959 0 0.30554459793957989 -0.1238630007756472 0 0.30010147488007238 -0.1276093355582181 0 0.31399575267335023 -0.12250180558336519 0 0.30554459793957989 -0.1238630007756472 0 0.30853123694459123 -0.1170064061326217 0 0.29843850402873079 -0.11949775869086959 0 0.30853123694459123 -0.1170064061326217 0 0.30885616350321549 -0.1072846913931271 0 0.31638799147784608 -0.1118713826410174 0 0.30853123694459123 -0.1170064061326217 0 0.30885616350321549 -0.1072846913931271 0 0.29843850402873079 -0.11949775869086959 0 0.30885616350321549 -0.1072846913931271 0 0.30586238439958702 -0.098215713767166868 0 0.29743178973804058 -0.092817056036521225 0 0.29843850402873079 -0.11949775869086959 0 0.30586238439958702 -0.098215713767166868 0 0.29743178973804058 -0.092817056036521225 0 0.29843850402873079 -0.11949775869086959 0 0.31743464692623941 -0.099981704590172707 0 0.30885616350321549 -0.1072846913931271 0 0.30586238439958702 -0.098215713767166868 0 0.31743464692623941 -0.099981704590172707 0 0.31220284993755582 -0.090742102146006851 0 0.30586238439958702 -0.098215713767166868 0 0.29430385704143641 -0.093334685648855456 0 0.29512866602350563 -0.1184484781339787 0 0.29430385704143641 -0.093334685648855456 0 0.28333646668855839 -0.1038254721913715 0 0.29512866602350563 -0.1184484781339787 0 0.29743178973804058 -0.092817056036521225 0 0.29430385704143641 -0.093334685648855456 0 0.29512866602350563 -0.1184484781339787 0 0.28333646668855839 -0.1038254721913715 0 0.29512866602350563 -0.1184484781339787 0 0.28822748037447399 -0.12879263247558709 0 0.28333646668855839 -0.1038254721913715 0 0.28822748037447399 -0.12879263247558709 0 0.26621118532108262 -0.1119181791838486 0 0.25741251913389712 -0.1305951081492244 0 0.28822748037447399 -0.12879263247558709 0 0.28333646668855839 -0.1038254721913715 0 0.26621118532108262 -0.1119181791838486 0 0.28822748037447399 -0.12879263247558709 0 0.28333646668855839 -0.1038254721913715 0 0.26621118532108262 -0.1119181791838486 0 0.26565518081306061 -0.08790840808238623 0 0.26621118532108262 -0.1119181791838486 0 0.25154255280112903 -0.1006059983499779 0 0.24954668948061209 -0.11284283178631641 0 0.26621118532108262 -0.1119181791838486 0 0.25154255280112903 -0.1006059983499779 0 0.26565518081306061 -0.08790840808238623 0 0.26621118532108262 -0.1119181791838486 0 0.25741251913389712 -0.1305951081492244 0 0.24954668948061209 -0.11284283178631641 0 0.27844545300264117 -0.078858311907156253 0 0.2741393958395883 -0.056877179510702792 0 0.28007443442101287 -0.061799103716356343 0 0.27844545300264117 -0.078858311907156253 0 0.2741393958395883 -0.056877179510702792 0 0.26628957168076178 -0.070692469674316694 0 0.27844545300264117 -0.078858311907156253 0 0.2741393958395883 -0.056877179510702792 0 0.28521560802072671 -0.062721316040594208 0 0.27844545300264117 -0.078858311907156253 0 0.28007443442101287 -0.061799103716356343 0 0.26628957168076178 -0.070692469674316694 0 0.27844545300264117 -0.078858311907156253 0 0.26565518081306061 -0.08790840808238623 0 0.28333646668855839 -0.1038254721913715 0 0.27844545300264117 -0.078858311907156253 0 0.26565518081306061 -0.08790840808238623 0 0.28333646668855839 -0.1038254721913715 0 0.27844545300264117 -0.078858311907156253 0 0.27844545300264117 -0.078858311907156253 0 0.26565518081306061 -0.08790840808238623 0 0.25154255280112903 -0.1006059983499779 0 0.25664035233608162 -0.078361863555500011 0 0.24390890644978661 -0.075150332687283522 0 0.25154255280112903 -0.1006059983499779 0 0.26565518081306061 -0.08790840808238623 0 0.25664035233608162 -0.078361863555500011 0 0.26628957168076178 -0.070692469674316694 0 0.26565518081306061 -0.08790840808238623 0 0.25664035233608162 -0.078361863555500011 0 0.25664035233608162 -0.078361863555500011 0 0.25256726729664603 -0.064532785491330763 0 0.24390890644978661 -0.075150332687283522 0 0.26628957168076178 -0.070692469674316694 0 0.25256726729664603 -0.064532785491330763 0 0.2741393958395883 -0.056877179510702792 0 0.26628957168076178 -0.070692469674316694 0 0.25664035233608162 -0.078361863555500011 0 0.25256726729664603 -0.064532785491330763 0 0.25256726729664603 -0.064532785491330763 0 0.25164978009717781 -0.053061021673298493 0 0.24617004458672351 -0.058202332164817121 0 0.25256726729664603 -0.064532785491330763 0 0.26131371929964131 -0.050907379716302707 0 0.27395317434556299 -0.0509436520349522 0 0.25256726729664603 -0.064532785491330763 0 0.25164978009717781 -0.053061021673298493 0 0.26131371929964131 -0.050907379716302707 0 0.25256726729664603 -0.064532785491330763 0 0.27395317434556299 -0.0509436520349522 0 0.25164978009717781 -0.053061021673298493 0 0.26131371929964131 -0.050907379716302707 0 0.2539732262079259 -0.044675773385505282 0 0.26131371929964131 -0.050907379716302707 0 0.26227784506780882 -0.045421506107560787 0 0.2539732262079259 -0.044675773385505282 0 0.26131371929964131 -0.050907379716302707 0 0.26742863268251632 -0.045985676557136583 0 0.26227784506780882 -0.045421506107560787 0 0.25256726729664603 -0.064532785491330763 0 0.27395317434556299 -0.0509436520349522 0 0.2741393958395883 -0.056877179510702792 0 0.26131371929964131 -0.050907379716302707 0 0.27395317434556299 -0.0509436520349522 0 0.26742863268251632 -0.045985676557136583 0 0.27395317434556299 -0.0509436520349522 0 0.2741393958395883 -0.056877179510702792 0 0.28351618772518777 -0.053458991616202503 0 0.2741393958395883 -0.056877179510702792 0 0.28007443442101287 -0.061799103716356343 0 0.28351618772518777 -0.053458991616202503 0 0.2807394014679111 -0.038000872253349499 0 0.27361436003936901 -0.034999677146069851 0 0.27240238673917438 -0.042113497984529957 0 0.2807394014679111 -0.038000872253349499 0 0.27361436003936901 -0.034999677146069851 0 0.28248009054126683 -0.027824818882371601 0 0.27395317434556299 -0.0509436520349522 0 0.2807394014679111 -0.038000872253349499 0 0.27240238673917438 -0.042113497984529957 0 0.27395317434556299 -0.0509436520349522 0 0.27240238673917438 -0.042113497984529957 0 0.26742863268251632 -0.045985676557136583 0 0.27361436003936901 -0.034999677146069851 0 0.27240238673917438 -0.042113497984529957 0 0.26639580208115188 -0.040117194771298603 0 0.27240238673917438 -0.042113497984529957 0 0.26742863268251632 -0.045985676557136583 0 0.26639580208115188 -0.040117194771298603 0 0.27361436003936901 -0.034999677146069851 0 0.26639580208115188 -0.040117194771298603 0 0.26859201328057281 -0.027442020841521631 0 0.2539732262079259 -0.044675773385505282 0 0.25845033672230949 -0.02738613623275089 0 0.26859201328057281 -0.027442020841521631 0 0.2539732262079259 -0.044675773385505282 0 0.25845033672230949 -0.02738613623275089 0 0.24422464309495209 -0.046986837608536558 0 0.25845033672230949 -0.02738613623275089 0 0.24422464309495209 -0.046986837608536558 0 0.26639580208115188 -0.040117194771298603 0 0.2539732262079259 -0.044675773385505282 0 0.26859201328057281 -0.027442020841521631 0 0.2539732262079259 -0.044675773385505282 0 0.26859201328057281 -0.027442020841521631 0 0.26639580208115188 -0.040117194771298603 0 0.26227784506780882 -0.045421506107560787 0 0.2539732262079259 -0.044675773385505282 0 0.26742863268251632 -0.045985676557136583 0 0.26639580208115188 -0.040117194771298603 0 0.26227784506780882 -0.045421506107560787 0 0.25013504981522988 -0.025019616072594848 0 0.25845033672230949 -0.02738613623275089 0 0.24524507923365879 -0.0330622213940093 0 0.25845033672230949 -0.02738613623275089 0 0.27267603034966698 -0.0077854348569651906 0 0.25845033672230949 -0.02738613623275089 0 0.25886508985187012 -0.013172853544477199 0 0.27267603034966698 -0.0077854348569651906 0 0.25013504981522988 -0.025019616072594848 0 0.25247407830029878 -0.019873092178793648 0 0.25845033672230949 -0.02738613623275089 0 0.25247407830029878 -0.019873092178793648 0 0.25845033672230949 -0.02738613623275089 0 0.25886508985187012 -0.013172853544477199 0 0.25598072684389089 -0.0058943492075353007 0 0.25006914023697918 -0.01208141302270524 0 0.2479891295484222 -0.0022684572774312019 0 0.25894279220913391 0.003459445712386486 0 0.25598072684389089 -0.0058943492075353007 0 0.2479891295484222 -0.0022684572774312019 0 0.25598072684389089 -0.0058943492075353007 0 0.25006914023697918 -0.01208141302270524 0 0.25886508985187012 -0.013172853544477199 0 0.25247407830029878 -0.019873092178793648 0 0.25006914023697918 -0.01208141302270524 0 0.25886508985187012 -0.013172853544477199 0 0.25886508985187012 -0.013172853544477199 0 0.26317147738524183 -0.0038637327990410169 0 0.27267603034966698 -0.0077854348569651906 0 0.25598072684389089 -0.0058943492075353007 0 0.25886508985187012 -0.013172853544477199 0 0.26317147738524183 -0.0038637327990410169 0 0.25894279220913391 0.003459445712386486 0 0.25598072684389089 -0.0058943492075353007 0 0.26317147738524183 -0.0038637327990410169 0 0.27267603034966698 -0.0077854348569651906 0 0.26859201328057281 -0.027442020841521631 0 0.28321080035321983 -0.010208268297538009 0 0.26939274767164711 0.0040745279013861191 0 0.26317147738524183 -0.0038637327990410169 0 0.27267603034966698 -0.0077854348569651906 0 0.28687677889875068 0.001725005618485562 0 0.27267603034966698 -0.0077854348569651906 0 0.28321080035321983 -0.010208268297538009 0 0.26859201328057281 -0.027442020841521631 0 0.28321080035321983 -0.010208268297538009 0 0.25845033672230949 -0.02738613623275089 0 0.27267603034966698 -0.0077854348569651906 0 0.26859201328057281 -0.027442020841521631 0 0.26859201328057281 -0.027442020841521631 0 0.28248009054126683 -0.027824818882371601 0 0.28321080035321983 -0.010208268297538009 0 0.27361436003936901 -0.034999677146069851 0 0.26859201328057281 -0.027442020841521631 0 0.28248009054126683 -0.027824818882371601 0 0.29465383366866438 -0.01919356567853802 0 0.28248009054126683 -0.027824818882371601 0 0.29533908139447967 -0.037354518578573179 0 0.29465383366866438 -0.01919356567853802 0 0.28248009054126683 -0.027824818882371601 0 0.28321080035321983 -0.010208268297538009 0 0.29465383366866438 -0.01919356567853802 0 0.29533908139447967 -0.037354518578573179 0 0.2978295874258669 0.0070254842464454832 0 0.28321080035321983 -0.010208268297538009 0 0.29396858594285019 -0.001032612778502764 0 0.2978295874258669 0.0070254842464454832 0 0.28687677889875068 0.001725005618485562 0 0.28321080035321983 -0.010208268297538009 0 0.29465383366866438 -0.01919356567853802 0 0.28321080035321983 -0.010208268297538009 0 0.29396858594285019 -0.001032612778502764 0 0.2978295874258669 0.0070254842464454832 0 0.28321080035321983 -0.010208268297538009 0 0.29465383366866438 -0.01919356567853802 0 0.29396858594285019 -0.001032612778502764 0 0.30752965714041391 0.0058765203804442539 0 0.29465383366866438 -0.01919356567853802 0 0.29396858594285019 -0.001032612778502764 0 0.30752965714041391 0.0058765203804442539 0 0.3196214637881436 -0.021924893160697439 0 0.29465383366866438 -0.01919356567853802 0 0.3196214637881436 -0.021924893160697439 0 0.29465383366866438 -0.01919356567853802 0 0.29533908139447967 -0.037354518578573179 0 0.3196214637881436 -0.021924893160697439 0 0.29533908139447967 -0.037354518578573179 0 0.3196214637881436 -0.021924893160697439 0 0.31660160940309118 -0.035871797032442469 0 0.29533908139447967 -0.037354518578573179 0 0.31292981148517318 -0.054457989835630861 0 0.31660160940309118 -0.035871797032442469 0 0.29533908139447967 -0.037354518578573179 0 0.31292981148517318 -0.054457989835630861 0 0.29642507544735103 -0.06613635338217283 0 0.31292981148517318 -0.054457989835630861 0 0.29642507544735103 -0.06613635338217283 0 0.29533908139447967 -0.037354518578573179 0 0.29642507544735103 -0.06613635338217283 0 0.29301224914481439 -0.054007794946804598 0 0.29533908139447967 -0.037354518578573179 0 0.27395317434556299 -0.0509436520349522 0 0.28351618772518777 -0.053458991616202503 0 0.29533908139447967 -0.037354518578573179 0 0.29301224914481439 -0.054007794946804598 0 0.28351618772518777 -0.053458991616202503 0 0.29533908139447967 -0.037354518578573179 0 0.29642507544735103 -0.06613635338217283 0 0.29533908139447967 -0.037354518578573179 0 0.29347904805936648 -0.068220893163732282 0 0.29301224914481439 -0.054007794946804598 0 0.28521560802072671 -0.062721316040594208 0 0.29347904805936648 -0.068220893163732282 0 0.29301224914481439 -0.054007794946804598 0 0.28521560802072671 -0.062721316040594208 0 0.29301224914481439 -0.054007794946804598 0 0.28351618772518777 -0.053458991616202503 0 0.28521560802072671 -0.062721316040594208 0 0.28007443442101287 -0.061799103716356343 0 0.28351618772518777 -0.053458991616202503 0 0.27395317434556299 -0.0509436520349522 0 0.29533908139447967 -0.037354518578573179 0 0.27395317434556299 -0.0509436520349522 0 0.2807394014679111 -0.038000872253349499 0 0.29533908139447967 -0.037354518578573179 0 0.2807394014679111 -0.038000872253349499 0 0.28248009054126683 -0.027824818882371601 0 0.29533908139447967 -0.037354518578573179 0 0.30290052143222262 -0.20369411332823331 0 0.28158405213751547 -0.22140539282722879 0 0.30290052143222262 -0.20369411332823331 0 0.28158405213751547 -0.22140539282722879 0 0.27747759048209231 -0.20168759245952969 0 0.28632476970011178 -0.18938030831719929 0 0.30290052143222262 -0.20369411332823331 0 0.2980095077463053 -0.17872695304401809 0 0.28632476970011178 -0.18938030831719929 0 0.30290052143222262 -0.20369411332823331 0 0.27747759048209231 -0.20168759245952969 0 0.30290052143222262 -0.20369411332823331 0 0.2980095077463053 -0.17872695304401809 0 0.32549301828835953 -0.18492261693889581 0 0.30290052143222262 -0.20369411332823331 0 0.2980095077463053 -0.17872695304401809 0 0.30290052143222262 -0.20369411332823331 0 0.30715254712033069 -0.22539943122446929 0 0.28158405213751547 -0.22140539282722879 0 0.30290052143222262 -0.20369411332823331 0 0.30715254712033069 -0.22539943122446929 0 0.30290052143222262 -0.20369411332823331 0 0.30715254712033069 -0.22539943122446929 0 0.32148368101975677 -0.2112815477794289 0 0.31140457280844042 -0.24710474912070499 0 0.29234931722919649 -0.23956849287787771 0 0.29718577407036301 -0.25519814195989071 0 0.30715254712033069 -0.22539943122446929 0 0.31140457280844042 -0.24710474912070499 0 0.29234931722919649 -0.23956849287787771 0 0.30715254712033069 -0.22539943122446929 0 0.31140457280844042 -0.24710474912070499 0 0.29234931722919649 -0.23956849287787771 0 0.27362138757170362 -0.2426007269765893 0 0.28009493911397709 -0.25531812806766069 0 0.29234931722919649 -0.23956849287787771 0 0.28158405213751547 -0.22140539282722879 0 0.27362138757170362 -0.2426007269765893 0 0.30715254712033069 -0.22539943122446929 0 0.29234931722919649 -0.23956849287787771 0 0.28158405213751547 -0.22140539282722879 0 0.28158405213751547 -0.22140539282722879 0 0.26621460642996558 -0.23052855599088379 0 0.27362138757170362 -0.2426007269765893 0 0.28158405213751547 -0.22140539282722879 0 0.26621460642996558 -0.23052855599088379 0 0.26307381511529532 -0.2143756044194241 0 0.26621460642996558 -0.23052855599088379 0 0.27362138757170362 -0.2426007269765893 0 0.26034160768121078 -0.2422716922893062 0 0.27362138757170362 -0.2426007269765893 0 0.26034160768121078 -0.2422716922893062 0 0.26515279713901752 -0.25474276698909742 0 0.26034160768121078 -0.2422716922893062 0 0.26515279713901752 -0.25474276698909742 0 0.25575058308532189 -0.25269357128633052 0 0.26034160768121078 -0.2422716922893062 0 0.25134951441318748 -0.22920843539767929 0 0.2499607574480687 -0.24385609709525671 0 0.25575058308532189 -0.25269357128633052 0 0.2462907050713771 -0.25204034373521428 0 0.2499607574480687 -0.24385609709525671 0 0.26034160768121078 -0.2422716922893062 0 0.25575058308532189 -0.25269357128633052 0 0.2499607574480687 -0.24385609709525671 0 0.26621460642996558 -0.23052855599088379 0 0.25134951441318748 -0.22920843539767929 0 0.26307381511529532 -0.2143756044194241 0 0.26621460642996558 -0.23052855599088379 0 0.26034160768121078 -0.2422716922893062 0 0.25134951441318748 -0.22920843539767929 0 0.25134951441318748 -0.22920843539767929 0 0.26307381511529532 -0.2143756044194241 0 0.24314545538918961 -0.20571013864437751 0 0.26307381511529532 -0.2143756044194241 0 0.2593871514889205 -0.19799184377322379 0 0.24314545538918961 -0.20571013864437751 0 0.26307381511529532 -0.2143756044194241 0 0.27747759048209231 -0.20168759245952969 0 0.2593871514889205 -0.19799184377322379 0 0.28158405213751547 -0.22140539282722879 0 0.26307381511529532 -0.2143756044194241 0 0.27747759048209231 -0.20168759245952969 0 0.27747759048209231 -0.20168759245952969 0 0.2593871514889205 -0.19799184377322379 0 0.269221803856454 -0.185599514949991 0 0.28632476970011178 -0.18938030831719929 0 0.27747759048209231 -0.20168759245952969 0 0.269221803856454 -0.185599514949991 0 0.2593871514889205 -0.19799184377322379 0 0.269221803856454 -0.185599514949991 0 0.2437278363918948 -0.18195096812212239 0 0.260919387449559 -0.16579352929295721 0 0.269221803856454 -0.185599514949991 0 0.2437278363918948 -0.18195096812212239 0 0.260919387449559 -0.16579352929295721 0 0.28401442498348639 -0.17719336780422379 0 0.260919387449559 -0.16579352929295721 0 0.27757308642867828 -0.16101723958663619 0 0.28401442498348639 -0.17719336780422379 0 0.260919387449559 -0.16579352929295721 0 0.27757308642867828 -0.16101723958663619 0 0.27224003922127837 -0.1473222684895614 0 0.260919387449559 -0.16579352929295721 0 0.269221803856454 -0.185599514949991 0 0.28401442498348639 -0.17719336780422379 0 0.28632476970011178 -0.18938030831719929 0 0.269221803856454 -0.185599514949991 0 0.28401442498348639 -0.17719336780422379 0 0.260919387449559 -0.16579352929295721 0 0.25452239946831973 -0.14829655140993131 0 0.27224003922127837 -0.1473222684895614 0 0.260919387449559 -0.16579352929295721 0 0.25452239946831973 -0.14829655140993131 0 0.23782434991563151 -0.15439369078169049 0 0.25741251913389712 -0.1305951081492244 0 0.25452239946831973 -0.14829655140993131 0 0.27224003922127837 -0.1473222684895614 0 0.27757308642867828 -0.16101723958663619 0 0.27224003922127837 -0.1473222684895614 0 0.2931184940603897 -0.15375979275980259 0 0.25741251913389712 -0.1305951081492244 0 0.27224003922127837 -0.1473222684895614 0 0.28822748037447399 -0.12879263247558709 0 0.29512866602350563 -0.1184484781339787 0 0.2959534750055749 -0.1435622706191019 0 0.29512866602350563 -0.1184484781339787 0 0.28822748037447399 -0.12879263247558709 0 0.2959534750055749 -0.1435622706191019 0 0.2959534750055749 -0.1435622706191019 0 0.2931184940603897 -0.15375979275980259 0 0.29606782433269818 -0.16881524064208181 0 0.28822748037447399 -0.12879263247558709 0 0.2959534750055749 -0.1435622706191019 0 0.2931184940603897 -0.15375979275980259 0 0.28822748037447399 -0.12879263247558709 0 0.2931184940603897 -0.15375979275980259 0 0.27224003922127837 -0.1473222684895614 0 0.28822748037447399 -0.12879263247558709 0 0.2931184940603897 -0.15375979275980259 0 0.2959534750055749 -0.1435622706191019 0 0.29606782433269818 -0.16881524064208181 0 0.2959534750055749 -0.1435622706191019 0 0.30786991093933941 -0.1327242262548293 0 0.31334084787329858 -0.14560100496875439 0 0.2959534750055749 -0.1435622706191019 0 0.30589655906226038 -0.156608858018214 0 0.31334084787329858 -0.14560100496875439 0 0.30589655906226038 -0.156608858018214 0 0.31666093946419188 -0.15748088094218049 0 0.31334084787329858 -0.14560100496875439 0 0.29512866602350563 -0.1184484781339787 0 0.2959534750055749 -0.1435622706191019 0 0.30010147488007238 -0.1276093355582181 0 0.2959534750055749 -0.1435622706191019 0 0.30786991093933941 -0.1327242262548293 0 0.30010147488007238 -0.1276093355582181 0 0.31399575267335023 -0.12250180558336519 0 0.30554459793957989 -0.1238630007756472 0 0.30786991093933941 -0.1327242262548293 0 0.30554459793957989 -0.1238630007756472 0 0.30786991093933941 -0.1327242262548293 0 0.30010147488007238 -0.1276093355582181 0 0.28401442498348639 -0.17719336780422379 0 0.29606782433269818 -0.16881524064208181 0 0.2980095077463053 -0.17872695304401809 0 0.28632476970011178 -0.18938030831719929 0 0.28401442498348639 -0.17719336780422379 0 0.2980095077463053 -0.17872695304401809 0 0.27757308642867828 -0.16101723958663619 0 0.2931184940603897 -0.15375979275980259 0 0.28401442498348639 -0.17719336780422379 0 0.2931184940603897 -0.15375979275980259 0 0.28401442498348639 -0.17719336780422379 0 0.29606782433269818 -0.16881524064208181 0 0.2931184940603897 -0.15375979275980259 0 0.29606782433269818 -0.16881524064208181 0 0.29606782433269818 -0.16881524064208181 0 0.30589655906226038 -0.156608858018214 0 0.31145366373618227 -0.1686264437044486 0 0.2959534750055749 -0.1435622706191019 0 0.29606782433269818 -0.16881524064208181 0 0.30589655906226038 -0.156608858018214 0 0.30589655906226038 -0.156608858018214 0 0.31145366373618227 -0.1686264437044486 0 0.31666093946419188 -0.15748088094218049 0 0.31145366373618227 -0.1686264437044486 0 0.2980095077463053 -0.17872695304401809 0 0.32549301828835953 -0.18492261693889581 0 0.29606782433269818 -0.16881524064208181 0 0.31145366373618227 -0.1686264437044486 0 0.2980095077463053 -0.17872695304401809 0 0.29606782433269818 -0.16881524064208181 0 0.2980095077463053 -0.17872695304401809 0 0.31145366373618227 -0.1686264437044486 0 0.32549301828835953 -0.18492261693889581 0 0.32738776678709508 -0.16545123116759969 0 0.31145366373618227 -0.1686264437044486 0 0.32738776678709508 -0.16545123116759969 0 0.31666093946419188 -0.15748088094218049 0 0.32738776678709508 -0.16545123116759969 0 0.31666093946419188 -0.15748088094218049 0 0.32968898845727718 -0.1497650634196834 0 0.32738776678709508 -0.16545123116759969 0 0.32968898845727718 -0.1497650634196834 0 0.34808551514449421 -0.1661511205495555 0 0.32549301828835953 -0.18492261693889581 0 0.32738776678709508 -0.16545123116759969 0 0.34808551514449421 -0.1661511205495555 0 0.32549301828835953 -0.18492261693889581 0 0.34808551514449421 -0.1661511205495555 0 0.32549301828835953 -0.18492261693889581 0 0.34808551514449421 -0.1661511205495555 0 0.34521429895780248 -0.1968392362703156 0 0.30786991093933941 -0.1327242262548293 0 0.32373683991627678 -0.1342707635111336 0 0.31334084787329858 -0.14560100496875439 0 0.31399575267335023 -0.12250180558336519 0 0.32517348349888747 -0.118580130041643 0 0.32373683991627678 -0.1342707635111336 0 0.31399575267335023 -0.12250180558336519 0 0.30786991093933941 -0.1327242262548293 0 0.32373683991627678 -0.1342707635111336 0 0.32373683991627678 -0.1342707635111336 0 0.31334084787329858 -0.14560100496875439 0 0.32968898845727718 -0.1497650634196834 0 0.31666093946419188 -0.15748088094218049 0 0.31334084787329858 -0.14560100496875439 0 0.32968898845727718 -0.1497650634196834 0 0.32373683991627678 -0.1342707635111336 0 0.32968898845727718 -0.1497650634196834 0 0.34485783347551252 -0.1433779188078016 0 0.32968898845727718 -0.1497650634196834 0 0.34485783347551252 -0.1433779188078016 0 0.34808551514449421 -0.1661511205495555 0 0.34014121552940491 -0.1203166258242544 0 0.32373683991627678 -0.1342707635111336 0 0.34485783347551252 -0.1433779188078016 0 0.34014121552940491 -0.1203166258242544 0 0.35551888896884759 -0.1297027680154724 0 0.34485783347551252 -0.1433779188078016 0 0.35551888896884759 -0.1297027680154724 0 0.34485783347551252 -0.1433779188078016 0 0.37067801200062889 -0.1473796241602153 0 0.34485783347551252 -0.1433779188078016 0 0.37067801200062889 -0.1473796241602153 0 0.34808551514449421 -0.1661511205495555 0 0.35551888896884759 -0.1297027680154724 0 0.37067801200062889 -0.1473796241602153 0 0.37104303648388809 -0.1272612894930944 0 0.34808551514449421 -0.1661511205495555 0 0.36752808638216261 -0.17990459429682831 0 0.34521429895780248 -0.1968392362703156 0 0.34808551514449421 -0.1661511205495555 0 0.37072349948513561 -0.1630779710757761 0 0.36752808638216261 -0.17990459429682831 0 0.37067801200062889 -0.1473796241602153 0 0.34808551514449421 -0.1661511205495555 0 0.37072349948513561 -0.1630779710757761 0 0.37067801200062889 -0.1473796241602153 0 0.34808551514449421 -0.1661511205495555 0 0.37072349948513561 -0.1630779710757761 0 0.36752808638216261 -0.17990459429682831 0 0.38565700028273392 -0.16791849986101029 0 0.36752808638216261 -0.17990459429682831 0 0.36890805570422369 -0.19954003101511669 0 0.34521429895780248 -0.1968392362703156 0 0.36752808638216261 -0.17990459429682831 0 0.36890805570422369 -0.19954003101511669 0 0.38551481473406651 -0.18910273675150999 0 0.36890805570422369 -0.19954003101511669 0 0.35851964138810982 -0.2171827375251118 0 0.37645297458065691 -0.21353851220024839 0 0.35851964138810982 -0.2171827375251118 0 0.34521429895780248 -0.1968392362703156 0 0.33865146772119931 -0.2184974665014994 0 0.36890805570422369 -0.19954003101511669 0 0.35851964138810982 -0.2171827375251118 0 0.34521429895780248 -0.1968392362703156 0 0.32549301828835953 -0.18492261693889581 0 0.34521429895780248 -0.1968392362703156 0 0.32148368101975677 -0.2112815477794289 0 0.34521429895780248 -0.1968392362703156 0 0.33865146772119931 -0.2184974665014994 0 0.32148368101975677 -0.2112815477794289 0 0.30290052143222262 -0.20369411332823331 0 0.32549301828835953 -0.18492261693889581 0 0.32148368101975677 -0.2112815477794289 0 0.30290052143222262 -0.20369411332823331 0 0.32549301828835953 -0.18492261693889581 0 0.31140457280844042 -0.24710474912070499 0 0.32841487832378857 -0.23419691532036521 0 0.32909477526671738 -0.25319804842994992 0 0.30715254712033069 -0.22539943122446929 0 0.31140457280844042 -0.24710474912070499 0 0.32841487832378857 -0.23419691532036521 0 0.30715254712033069 -0.22539943122446929 0 0.32148368101975677 -0.2112815477794289 0 0.32841487832378857 -0.23419691532036521 0 0.33865146772119931 -0.2184974665014994 0 0.32841487832378857 -0.23419691532036521 0 0.34678876975393269 -0.23153157971564481 0 0.33865146772119931 -0.2184974665014994 0 0.32148368101975677 -0.2112815477794289 0 0.32841487832378857 -0.23419691532036521 0 0.32841487832378857 -0.23419691532036521 0 0.34542116247921317 -0.24786541093840589 0 0.32909477526671738 -0.25319804842994992 0 0.32841487832378857 -0.23419691532036521 0 0.34542116247921317 -0.24786541093840589 0 0.34678876975393269 -0.23153157971564481 0 0.34542116247921317 -0.24786541093840589 0 0.36282952759798831 -0.23490181410806829 0 0.36211004630048071 -0.25874315800932568 0 0.34542116247921317 -0.24786541093840589 0 0.34678876975393269 -0.23153157971564481 0 0.36282952759798831 -0.23490181410806829 0 0.35851964138810982 -0.2171827375251118 0 0.33865146772119931 -0.2184974665014994 0 0.34678876975393269 -0.23153157971564481 0 0.35851964138810982 -0.2171827375251118 0 0.34678876975393269 -0.23153157971564481 0 0.36282952759798831 -0.23490181410806829 0 0.35851964138810982 -0.2171827375251118 0 0.37179579398026102 -0.22561915142401329 0 0.36282952759798831 -0.23490181410806829 0 0.35851964138810982 -0.2171827375251118 0 0.37179579398026102 -0.22561915142401329 0 0.37645297458065691 -0.21353851220024839 0 0.37179579398026102 -0.22561915142401329 0 0.36282952759798831 -0.23490181410806829 0 0.37754581309809132 -0.23651361028518689 0 0.36282952759798831 -0.23490181410806829 0 0.36876625398544938 -0.24898888889403961 0 0.36211004630048071 -0.25874315800932568 0 0.36282952759798831 -0.23490181410806829 0 0.36211004630048071 -0.25874315800932568 0 0.36282952759798831 -0.23490181410806829 0 0.36876625398544938 -0.24898888889403961 0 0.37754581309809132 -0.23651361028518689 0 0.37754581309809132 -0.23651361028518689 0 0.39300219267510322 -0.23842714914515989 0 0.3871149211879113 -0.25548270742864421 0 0.39300219267510322 -0.23842714914515989 0 0.3871149211879113 -0.25548270742864421 0 0.40207495352916539 -0.25113417058953519 0 0.39300219267510322 -0.23842714914515989 0 0.40723458142941671 -0.23497076085713389 0 0.40207495352916539 -0.25113417058953519 0 0.39851670543712209 -0.2244771902628257 0 0.41039622944065363 -0.2185270516157129 0 0.40723458142941671 -0.23497076085713389 0 0.39300219267510322 -0.23842714914515989 0 0.39851670543712209 -0.2244771902628257 0 0.40723458142941671 -0.23497076085713389 0 0.39300219267510322 -0.23842714914515989 0 0.39851670543712209 -0.2244771902628257 0 0.38505811203634721 -0.22522643630241351 0 0.39851670543712209 -0.2244771902628257 0 0.38505811203634721 -0.22522643630241351 0 0.39303519244684892 -0.21278300449704671 0 0.37754581309809132 -0.23651361028518689 0 0.39300219267510322 -0.23842714914515989 0 0.38505811203634721 -0.22522643630241351 0 0.37179579398026102 -0.22561915142401329 0 0.37754581309809132 -0.23651361028518689 0 0.38505811203634721 -0.22522643630241351 0 0.37179579398026102 -0.22561915142401329 0 0.38505811203634721 -0.22522643630241351 0 0.37645297458065691 -0.21353851220024839 0 0.38505811203634721 -0.22522643630241351 0 0.37645297458065691 -0.21353851220024839 0 0.39303519244684892 -0.21278300449704671 0 0.36890805570422369 -0.19954003101511669 0 0.37645297458065691 -0.21353851220024839 0 0.38544293285627962 -0.20314808770867229 0 0.37645297458065691 -0.21353851220024839 0 0.38544293285627962 -0.20314808770867229 0 0.39303519244684892 -0.21278300449704671 0 0.36890805570422369 -0.19954003101511669 0 0.38544293285627962 -0.20314808770867229 0 0.38551481473406651 -0.18910273675150999 0 0.38544293285627962 -0.20314808770867229 0 0.38551481473406651 -0.18910273675150999 0 0.40330362681560211 -0.20077615407943949 0 0.38551481473406651 -0.18910273675150999 0 0.40330362681560211 -0.20077615407943949 0 0.39995041381356911 -0.1868338584648204 0 0.40330362681560211 -0.20077615407943949 0 0.4125958117473455 -0.19170302267586259 0 0.39995041381356911 -0.1868338584648204 0 0.40330362681560211 -0.20077615407943949 0 0.39303519244684892 -0.21278300449704671 0 0.41039622944065363 -0.2185270516157129 0 0.38544293285627962 -0.20314808770867229 0 0.40330362681560211 -0.20077615407943949 0 0.39303519244684892 -0.21278300449704671 0 0.39851670543712209 -0.2244771902628257 0 0.39303519244684892 -0.21278300449704671 0 0.41039622944065363 -0.2185270516157129 0 0.40330362681560211 -0.20077615407943949 0 0.41039622944065363 -0.2185270516157129 0 0.42189732607146729 -0.20211324892629831 0 0.41039622944065363 -0.2185270516157129 0 0.42189732607146729 -0.20211324892629831 0 0.42790605200351661 -0.22140108800821251 0 0.40330362681560211 -0.20077615407943949 0 0.4125958117473455 -0.19170302267586259 0 0.42189732607146729 -0.20211324892629831 0 0.4125958117473455 -0.19170302267586259 0 0.42189732607146729 -0.20211324892629831 0 0.42233780496578233 -0.18319904235883591 0 0.42189732607146729 -0.20211324892629831 0 0.43389642119060762 -0.191962199940241 0 0.42233780496578233 -0.18319904235883591 0 0.42189732607146729 -0.20211324892629831 0 0.43389642119060762 -0.191962199940241 0 0.43723926749718739 -0.20471492206911249 0 0.43723926749718739 -0.20471492206911249 0 0.42790605200351661 -0.22140108800821251 0 0.44233814121790038 -0.22173902575952509 0 0.42189732607146729 -0.20211324892629831 0 0.43723926749718739 -0.20471492206911249 0 0.42790605200351661 -0.22140108800821251 0 0.43048550082884018 -0.24614270293406881 0 0.44233814121790038 -0.22173902575952509 0 0.42790605200351661 -0.22140108800821251 0 0.43048550082884018 -0.24614270293406881 0 0.44233814121790038 -0.22173902575952509 0 0.42790605200351661 -0.22140108800821251 0 0.43048550082884018 -0.24614270293406881 0 0.42088007225406548 -0.23367140350055049 0 0.43048550082884018 -0.24614270293406881 0 0.44582088554477811 -0.24525862245079941 0 0.43357426810421817 -0.25015303326672972 0 0.43048550082884018 -0.24614270293406881 0 0.42846035594967069 -0.25031232086228522 0 0.43357426810421817 -0.25015303326672972 0 0.43048550082884018 -0.24614270293406881 0 0.43357426810421817 -0.25015303326672972 0 0.43048550082884018 -0.24614270293406881 0 0.418537335240391 -0.2435876000290193 0 0.42846035594967069 -0.25031232086228522 0 0.43048550082884018 -0.24614270293406881 0 0.42846035594967069 -0.25031232086228522 0 0.43048550082884018 -0.24614270293406881 0 0.42088007225406548 -0.23367140350055049 0 0.43048550082884018 -0.24614270293406881 0 0.418537335240391 -0.2435876000290193 0 0.42088007225406548 -0.23367140350055049 0 0.418537335240391 -0.2435876000290193 0 0.40723458142941671 -0.23497076085713389 0 0.42088007225406548 -0.23367140350055049 0 0.418537335240391 -0.2435876000290193 0 0.40723458142941671 -0.23497076085713389 0 0.40207495352916539 -0.25113417058953519 0 0.418537335240391 -0.2435876000290193 0 0.40207495352916539 -0.25113417058953519 0 0.42846035594967069 -0.25031232086228522 0 0.41039622944065363 -0.2185270516157129 0 0.40723458142941671 -0.23497076085713389 0 0.42088007225406548 -0.23367140350055049 0 0.41039622944065363 -0.2185270516157129 0 0.42790605200351661 -0.22140108800821251 0 0.42088007225406548 -0.23367140350055049 0 0.3932705088567644 -0.1286081277708763 0 0.38946375456974969 -0.1482633138159434 0 0.40032650034539519 -0.13972272199131119 0 0.3932705088567644 -0.1286081277708763 0 0.38946375456974969 -0.1482633138159434 0 0.40224748518751269 -0.1211494002184121 0 0.40802316631723889 -0.13171289331352951 0 0.40224748518751269 -0.1211494002184121 0 0.40096691517672778 -0.13029828582353201 0 0.3932705088567644 -0.1286081277708763 0 0.40224748518751269 -0.1211494002184121 0 0.40096691517672778 -0.13029828582353201 0 0.40802316631723889 -0.13171289331352951 0 0.40096691517672778 -0.13029828582353201 0 0.40032650034539519 -0.13972272199131119 0 0.40802316631723889 -0.13171289331352951 0 0.40032650034539519 -0.13972272199131119 0 0.40802316631723889 -0.13171289331352951 0 0.40096691517672778 -0.13029828582353201 0 0.40032650034539519 -0.13972272199131119 0 0.3932705088567644 -0.1286081277708763 0 0.37067801200062889 -0.1473796241602153 0 0.37104303648388809 -0.1272612894930944 0 0.3932705088567644 -0.1286081277708763 0 0.37067801200062889 -0.1473796241602153 0 0.3932705088567644 -0.1286081277708763 0 0.37067801200062889 -0.1473796241602153 0 0.37072349948513561 -0.1630779710757761 0 0.38946375456974969 -0.1482633138159434 0 0.37067801200062889 -0.1473796241602153 0 0.3932705088567644 -0.1286081277708763 0 0.38946375456974969 -0.1482633138159434 0 0.40032650034539519 -0.13972272199131119 0 0.38946375456974969 -0.1482633138159434 0 0.40103769468862932 -0.15735650722112959 0 0.38946375456974969 -0.1482633138159434 0 0.40103769468862932 -0.15735650722112959 0 0.38565700028273392 -0.16791849986101029 0 0.40103769468862932 -0.15735650722112959 0 0.38565700028273392 -0.16791849986101029 0 0.40804365254297231 -0.17415516972609171 0 0.37072349948513561 -0.1630779710757761 0 0.38946375456974969 -0.1482633138159434 0 0.38565700028273392 -0.16791849986101029 0 0.38946375456974969 -0.1482633138159434 0 0.38565700028273392 -0.16791849986101029 0 0.38551481473406651 -0.18910273675150999 0 0.38565700028273392 -0.16791849986101029 0 0.39995041381356911 -0.1868338584648204 0 0.36752808638216261 -0.17990459429682831 0 0.38551481473406651 -0.18910273675150999 0 0.38565700028273392 -0.16791849986101029 0 0.38565700028273392 -0.16791849986101029 0 0.39995041381356911 -0.1868338584648204 0 0.40804365254297231 -0.17415516972609171 0 0.4125958117473455 -0.19170302267586259 0 0.40804365254297231 -0.17415516972609171 0 0.42233780496578233 -0.18319904235883591 0 0.4125958117473455 -0.19170302267586259 0 0.39995041381356911 -0.1868338584648204 0 0.40804365254297231 -0.17415516972609171 0 0.42233780496578233 -0.18319904235883591 0 0.43537196508735049 -0.18173276810905351 0 0.42169756570229522 -0.15672283071129131 0 0.43389642119060762 -0.191962199940241 0 0.42233780496578233 -0.18319904235883591 0 0.43537196508735049 -0.18173276810905351 0 0.43537196508735049 -0.18173276810905351 0 0.42169756570229522 -0.15672283071129131 0 0.43537196508735049 -0.18173276810905351 0 0.42169756570229522 -0.15672283071129131 0 0.44011919579772352 -0.15902857640534751 0 0.40804365254297231 -0.17415516972609171 0 0.42233780496578233 -0.18319904235883591 0 0.42169756570229522 -0.15672283071129131 0 0.40103769468862932 -0.15735650722112959 0 0.40804365254297231 -0.17415516972609171 0 0.42169756570229522 -0.15672283071129131 0 0.40032650034539519 -0.13972272199131119 0 0.40103769468862932 -0.15735650722112959 0 0.42169756570229522 -0.15672283071129131 0 0.42169756570229522 -0.15672283071129131 0 0.40802316631723889 -0.13171289331352951 0 0.40032650034539519 -0.13972272199131119 0 0.42169756570229522 -0.15672283071129131 0 0.40802316631723889 -0.13171289331352951 0 0.42169756570229522 -0.15672283071129131 0 0.43087782981676859 -0.131879285754128 0 0.44052259681213413 -0.14512254840888281 0 0.42169756570229522 -0.15672283071129131 0 0.44052259681213413 -0.14512254840888281 0 0.44011919579772352 -0.15902857640534751 0 0.42510906065580589 -0.11393180641703871 0 0.43087782981676859 -0.131879285754128 0 0.40802316631723889 -0.13171289331352951 0 0.42169756570229522 -0.15672283071129131 0 0.43087782981676859 -0.131879285754128 0 0.40802316631723889 -0.13171289331352951 0 0.46093003486481321 -0.11810563265674839 0 0.46623847963083442 -0.1374076686568538 0 0.47239045088042492 -0.13005034139104371 0 0.46093003486481321 -0.11810563265674839 0 0.45430072039358249 -0.1470470373257684 0 0.46093003486481321 -0.11810563265674839 0 0.46623847963083442 -0.1374076686568538 0 0.45430072039358249 -0.1470470373257684 0 0.46093003486481321 -0.11810563265674839 0 0.44582693855797939 -0.1311402400572215 0 0.45430072039358249 -0.1470470373257684 0 0.441730170532879 -0.1159420230490274 0 0.43087782981676859 -0.131879285754128 0 0.44582693855797939 -0.1311402400572215 0 0.43087782981676859 -0.131879285754128 0 0.44582693855797939 -0.1311402400572215 0 0.44052259681213413 -0.14512254840888281 0 0.44582693855797939 -0.1311402400572215 0 0.44052259681213413 -0.14512254840888281 0 0.45430072039358249 -0.1470470373257684 0 0.44052259681213413 -0.14512254840888281 0 0.45430072039358249 -0.1470470373257684 0 0.44011919579772352 -0.15902857640534751 0 0.46623847963083442 -0.1374076686568538 0 0.45430072039358249 -0.1470470373257684 0 0.46795215833203208 -0.14958538313512479 0 0.45430072039358249 -0.1470470373257684 0 0.46795215833203208 -0.14958538313512479 0 0.46249654728105127 -0.15875526896169859 0 0.46249654728105127 -0.15875526896169859 0 0.44767140592235177 -0.17598844199478861 0 0.4590637049386419 -0.17656280063954849 0 0.46795215833203208 -0.14958538313512479 0 0.46765797362325351 -0.16960743348544691 0 0.46249654728105127 -0.15875526896169859 0 0.46765797362325351 -0.16960743348544691 0 0.46249654728105127 -0.15875526896169859 0 0.4590637049386419 -0.17656280063954849 0 0.45430072039358249 -0.1470470373257684 0 0.46249654728105127 -0.15875526896169859 0 0.44767140592235177 -0.17598844199478861 0 0.46249654728105127 -0.15875526896169859 0 0.4590637049386419 -0.17656280063954849 0 0.45430072039358249 -0.1470470373257684 0 0.44011919579772352 -0.15902857640534751 0 0.44767140592235177 -0.17598844199478861 0 0.45430072039358249 -0.1470470373257684 0 0.44767140592235177 -0.17598844199478861 0 0.44767140592235177 -0.17598844199478861 0 0.45131049953134228 -0.18433764364674099 0 0.4590637049386419 -0.17656280063954849 0 0.43537196508735049 -0.18173276810905351 0 0.44011919579772352 -0.15902857640534751 0 0.44767140592235177 -0.17598844199478861 0 0.43389642119060762 -0.191962199940241 0 0.43537196508735049 -0.18173276810905351 0 0.44405046135624082 -0.18412940313962539 0 0.43537196508735049 -0.18173276810905351 0 0.44767140592235177 -0.17598844199478861 0 0.44405046135624082 -0.18412940313962539 0 0.44405046135624082 -0.18412940313962539 0 0.45131049953134228 -0.18433764364674099 0 0.4501360628432447 -0.19063724014234421 0 0.44767140592235177 -0.17598844199478861 0 0.44405046135624082 -0.18412940313962539 0 0.45131049953134228 -0.18433764364674099 0 0.46765797362325351 -0.16960743348544691 0 0.4590637049386419 -0.17656280063954849 0 0.45563086259623248 -0.19437033231739831 0 0.4590637049386419 -0.17656280063954849 0 0.45563086259623248 -0.19437033231739831 0 0.46765797362325351 -0.16960743348544691 0 0.45563086259623248 -0.19437033231739831 0 0.46765797362325351 -0.16960743348544691 0 0.46817453342310178 -0.17984984725849121 0 0.45563086259623248 -0.19437033231739831 0 0.45131049953134228 -0.18433764364674099 0 0.4590637049386419 -0.17656280063954849 0 0.45563086259623248 -0.19437033231739831 0 0.46817453342310178 -0.17984984725849121 0 0.47868008644015098 -0.18364062408913809 0 0.4864423059537345 -0.17561039486471769 0 0.46817453342310178 -0.17984984725849121 0 0.47868008644015098 -0.18364062408913809 0 0.47427671796452459 -0.19390449174425081 0 0.4864423059537345 -0.17561039486471769 0 0.5 -0.16076066479590659 0 0.5 -0.1885669917164324 0 0.47868008644015098 -0.18364062408913809 0 0.4864423059537345 -0.17561039486471769 0 0.5 -0.1885669917164324 0 0.4864423059537345 -0.17561039486471769 0 0.5 -0.16076066479590659 0 0.4874204893839118 -0.1629257968797283 0 0.5 -0.16076066479590659 0 0.4874204893839118 -0.1629257968797283 0 0.48836632050416018 -0.15319142364385391 0 0.46765797362325351 -0.16960743348544691 0 0.47968508465027437 -0.14484453465349531 0 0.46817453342310178 -0.17984984725849121 0 0.4864423059537345 -0.17561039486471769 0 0.47621222687475862 -0.15989320835224299 0 0.46765797362325351 -0.16960743348544691 0 0.46817453342310178 -0.17984984725849121 0 0.47621222687475862 -0.15989320835224299 0 0.4864423059537345 -0.17561039486471769 0 0.4874204893839118 -0.1629257968797283 0 0.47621222687475862 -0.15989320835224299 0 0.46817453342310178 -0.17984984725849121 0 0.47621222687475862 -0.15989320835224299 0 0.4874204893839118 -0.1629257968797283 0 0.47621222687475862 -0.15989320835224299 0 0.48836632050416018 -0.15319142364385391 0 0.46765797362325351 -0.16960743348544691 0 0.47621222687475862 -0.15989320835224299 0 0.47968508465027437 -0.14484453465349531 0 0.47621222687475862 -0.15989320835224299 0 0.48424992032641551 -0.13993656944599481 0 0.47621222687475862 -0.15989320835224299 0 0.48836632050416018 -0.15319142364385391 0 0.48424992032641551 -0.13993656944599481 0 0.46795215833203208 -0.14958538313512479 0 0.46765797362325351 -0.16960743348544691 0 0.47968508465027437 -0.14484453465349531 0 0.47621222687475862 -0.15989320835224299 0 0.47968508465027437 -0.14484453465349531 0 0.48424992032641551 -0.13993656944599481 0 0.46623847963083442 -0.1374076686568538 0 0.46795215833203208 -0.14958538313512479 0 0.47424994269801352 -0.1397372940967013 0 0.46795215833203208 -0.14958538313512479 0 0.47968508465027437 -0.14484453465349531 0 0.47424994269801352 -0.1397372940967013 0 0.47968508465027437 -0.14484453465349531 0 0.47994759956173211 -0.14051186616834291 0 0.47424994269801352 -0.1397372940967013 0 0.47968508465027437 -0.14484453465349531 0 0.48424992032641551 -0.13993656944599481 0 0.47994759956173211 -0.14051186616834291 0 0.5 -0.16076066479590659 0 0.48836632050416018 -0.15319142364385391 0 0.5 -0.13295433787538069 0 0.48836632050416018 -0.15319142364385391 0 0.5 -0.13295433787538069 0 0.48424992032641551 -0.13993656944599481 0 0.48916266477234061 -0.13224727383335569 0 0.48085855782101261 -0.13626791926353529 0 0.48424992032641551 -0.13993656944599481 0 0.5 -0.13295433787538069 0 0.48916266477234061 -0.13224727383335569 0 0.48424992032641551 -0.13993656944599481 0 0.48986304781109291 -0.1242692167884092 0 0.5 -0.13295433787538069 0 0.48916266477234061 -0.13224727383335569 0 0.48986304781109291 -0.1242692167884092 0 0.48916266477234061 -0.13224727383335569 0 0.48085855782101261 -0.13626791926353529 0 0.47499259514944292 -0.1202547269832886 0 0.48085855782101261 -0.13626791926353529 0 0.47239045088042492 -0.13005034139104371 0 0.48085855782101261 -0.13626791926353529 0 0.48424992032641551 -0.13993656944599481 0 0.47994759956173211 -0.14051186616834291 0 0.48085855782101261 -0.13626791926353529 0 0.47994759956173211 -0.14051186616834291 0 0.47424994269801352 -0.1397372940967013 0 0.48085855782101261 -0.13626791926353529 0 0.47424994269801352 -0.1397372940967013 0 0.47239045088042492 -0.13005034139104371 0 0.46623847963083442 -0.1374076686568538 0 0.47424994269801352 -0.1397372940967013 0 0.47239045088042492 -0.13005034139104371 0 0.45735248248792831 -0.2263504469462593 0 0.45606595353113982 -0.2348942090935259 0 0.45040787416373163 -0.22146407059246401 0 0.4593659812364308 -0.22004368230368379 0 0.45735248248792831 -0.2263504469462593 0 0.45040787416373163 -0.22146407059246401 0 0.4593659812364308 -0.22004368230368379 0 0.45735248248792831 -0.2263504469462593 0 0.47005683011064803 -0.22590290220369119 0 0.4593659812364308 -0.22004368230368379 0 0.46586242272604061 -0.21273545752659301 0 0.47005683011064803 -0.22590290220369119 0 0.45735248248792831 -0.2263504469462593 0 0.45606595353113982 -0.2348942090935259 0 0.47005683011064803 -0.22590290220369119 0 0.46661169077989217 -0.2415165845456661 0 0.45606595353113982 -0.2348942090935259 0 0.47005683011064803 -0.22590290220369119 0 0.46661169077989217 -0.2415165845456661 0 0.45571617873614662 -0.24946335937342859 0 0.47785808936807489 -0.24877368548012899 0 0.45571617873614662 -0.24946335937342859 0 0.47785808936807489 -0.24877368548012899 0 0.46661169077989217 -0.2415165845456661 0 0.45518121600666411 -0.24259067484840299 0 0.45571617873614662 -0.24946335937342859 0 0.46661169077989217 -0.2415165845456661 0 0.45518121600666411 -0.24259067484840299 0 0.45606595353113982 -0.2348942090935259 0 0.45571617873614662 -0.24946335937342859 0 0.43357426810421817 -0.25015303326672972 0 0.43048550082884018 -0.24614270293406881 0 0.44582088554477811 -0.24525862245079941 0 0.44233814121790038 -0.22173902575952509 0 0.45571617873614662 -0.24946335937342859 0 0.44582088554477811 -0.24525862245079941 0 0.43357426810421817 -0.25015303326672972 0 0.45518121600666411 -0.24259067484840299 0 0.45606595353113982 -0.2348942090935259 0 0.44582088554477811 -0.24525862245079941 0 0.45518121600666411 -0.24259067484840299 0 0.45571617873614662 -0.24946335937342859 0 0.44582088554477811 -0.24525862245079941 0 0.44582088554477811 -0.24525862245079941 0 0.44233814121790038 -0.22173902575952509 0 0.45040787416373163 -0.22146407059246401 0 0.44582088554477811 -0.24525862245079941 0 0.45040787416373163 -0.22146407059246401 0 0.45606595353113982 -0.2348942090935259 0 0.44582088554477811 -0.24525862245079941 0 0.45040787416373163 -0.22146407059246401 0 0.43723926749718739 -0.20471492206911249 0 0.44233814121790038 -0.22173902575952509 0 0.45499486278268447 -0.1976695187341285 0 0.45040787416373163 -0.22146407059246401 0 0.45499486278268447 -0.1976695187341285 0 0.44233814121790038 -0.22173902575952509 0 0.45040787416373163 -0.22146407059246401 0 0.45499486278268447 -0.1976695187341285 0 0.44233814121790038 -0.22173902575952509 0 0.45499486278268447 -0.1976695187341285 0 0.43723926749718739 -0.20471492206911249 0 0.44395992212319679 -0.19308347956624619 0 0.45499486278268447 -0.1976695187341285 0 0.43389642119060762 -0.191962199940241 0 0.44405046135624082 -0.18412940313962539 0 0.44395992212319679 -0.19308347956624619 0 0.43389642119060762 -0.191962199940241 0 0.43723926749718739 -0.20471492206911249 0 0.44395992212319679 -0.19308347956624619 0 0.44395992212319679 -0.19308347956624619 0 0.45499486278268447 -0.1976695187341285 0 0.45131049953134228 -0.18433764364674099 0 0.4501360628432447 -0.19063724014234421 0 0.45563086259623248 -0.19437033231739831 0 0.44395992212319679 -0.19308347956624619 0 0.4501360628432447 -0.19063724014234421 0 0.45499486278268447 -0.1976695187341285 0 0.44405046135624082 -0.18412940313962539 0 0.44395992212319679 -0.19308347956624619 0 0.4501360628432447 -0.19063724014234421 0 0.46817453342310178 -0.17984984725849121 0 0.46013683997144489 -0.19980648616473931 0 0.47427671796452459 -0.19390449174425081 0 0.46817453342310178 -0.17984984725849121 0 0.46013683997144489 -0.19980648616473931 0 0.46817453342310178 -0.17984984725849121 0 0.45563086259623248 -0.19437033231739831 0 0.46013683997144489 -0.19980648616473931 0 0.4501360628432447 -0.19063724014234421 0 0.45563086259623248 -0.19437033231739831 0 0.45499486278268447 -0.1976695187341285 0 0.45499486278268447 -0.1976695187341285 0 0.46013683997144489 -0.19980648616473931 0 0.45563086259623248 -0.19437033231739831 0 0.45499486278268447 -0.1976695187341285 0 0.45563086259623248 -0.19437033231739831 0 0.45499486278268447 -0.1976695187341285 0 0.46013683997144489 -0.19980648616473931 0 0.46013683997144489 -0.19980648616473931 0 0.46586242272604061 -0.21273545752659301 0 0.48006841998572208 -0.20808990240084899 0 0.45040787416373163 -0.22146407059246401 0 0.45499486278268447 -0.1976695187341285 0 0.4548395438527213 -0.21295904373074681 0 0.4593659812364308 -0.22004368230368379 0 0.45040787416373163 -0.22146407059246401 0 0.4548395438527213 -0.21295904373074681 0 0.4593659812364308 -0.22004368230368379 0 0.4548395438527213 -0.21295904373074681 0 0.46586242272604061 -0.21273545752659301 0 0.46013683997144489 -0.19980648616473931 0 0.4548395438527213 -0.21295904373074681 0 0.45499486278268447 -0.1976695187341285 0 0.46013683997144489 -0.19980648616473931 0 0.4548395438527213 -0.21295904373074681 0 0.46013683997144489 -0.19980648616473931 0 0.4548395438527213 -0.21295904373074681 0 0.46586242272604061 -0.21273545752659301 0 0.46013683997144489 -0.19980648616473931 0 0.48006841998572208 -0.20808990240084899 0 0.46586242272604061 -0.21273545752659301 0 0.48006841998572208 -0.20808990240084899 0 0.47005683011064803 -0.22590290220369119 0 0.46013683997144489 -0.19980648616473931 0 0.48006841998572208 -0.20808990240084899 0 0.47427671796452459 -0.19390449174425081 0 0.47868008644015098 -0.18364062408913809 0 0.47427671796452459 -0.19390449174425081 0 0.5 -0.1885669917164324 0 0.48006841998572208 -0.20808990240084899 0 0.47427671796452459 -0.19390449174425081 0 0.5 -0.1885669917164324 0 0.48006841998572208 -0.20808990240084899 0 0.5 -0.1885669917164324 0 0.49999999999999961 -0.21637331863695819 0 0.48006841998572208 -0.20808990240084899 0 0.49999999999999961 -0.21637331863695819 0 0.48006841998572208 -0.20808990240084899 0 0.49999999999999961 -0.21637331863695819 0 0.4862545149737133 -0.22430099187442659 0 0.49999999999999961 -0.21637331863695819 0 0.5 -0.2322286651118938 0 0.4862545149737133 -0.22430099187442659 0 0.5 -0.2322286651118938 0 0.4862545149737133 -0.22430099187442659 0 0.48731543898686108 -0.23834171508702701 0 0.4862545149737133 -0.22430099187442659 0 0.47005683011064803 -0.22590290220369119 0 0.48731543898686108 -0.23834171508702701 0 0.48006841998572208 -0.20808990240084899 0 0.4862545149737133 -0.22430099187442659 0 0.47005683011064803 -0.22590290220369119 0 0.46661169077989217 -0.2415165845456661 0 0.47005683011064803 -0.22590290220369119 0 0.48731543898686108 -0.23834171508702701 0 0.46661169077989217 -0.2415165845456661 0 0.47785808936807489 -0.24877368548012899 0 0.48731543898686108 -0.23834171508702701 0 0.47785808936807489 -0.24877368548012899 0 0.50000000000000333 -0.24808401158682941 0 0.48731543898686108 -0.23834171508702701 0 0.5 -0.2322286651118938 0 0.50000000000000333 -0.24808401158682941 0 0.48731543898686108 -0.23834171508702701 0 0.47785808936807489 -0.24877368548012899 0 0.50000000000000333 -0.24808401158682941 0 0.50000000000000333 -0.24808401158682941 0 0.48656724266228879 -0.26126228076250718 0 0.5 -0.26842994380811291 0 0.47785808936807489 -0.24877368548012899 0 0.50000000000000333 -0.24808401158682941 0 0.48656724266228879 -0.26126228076250718 0 0.5 -0.26842994380811291 0 0.48208681399926079 -0.27581357356502773 0 0.50000000000000111 -0.28877587602939642 0 0.48656724266228879 -0.26126228076250718 0 0.5 -0.26842994380811291 0 0.48208681399926079 -0.27581357356502773 0 0.48208681399926079 -0.27581357356502773 0 0.46068671901070851 -0.28535474144655731 0 0.48208681399926079 -0.27581357356502773 0 0.46768981413575761 -0.2649492641288182 0 0.46068671901070851 -0.28535474144655731 0 0.48656724266228879 -0.26126228076250718 0 0.48208681399926079 -0.27581357356502773 0 0.46768981413575761 -0.2649492641288182 0 0.47785808936807489 -0.24877368548012899 0 0.48656724266228879 -0.26126228076250718 0 0.46768981413575761 -0.2649492641288182 0 0.45571617873614662 -0.24946335937342859 0 0.47785808936807489 -0.24877368548012899 0 0.46768981413575761 -0.2649492641288182 0 0.45571617873614662 -0.24946335937342859 0 0.46768981413575761 -0.2649492641288182 0 0.44713049355746243 -0.26775388735664418 0 0.46768981413575761 -0.2649492641288182 0 0.44713049355746243 -0.26775388735664418 0 0.46068671901070851 -0.28535474144655731 0 0.44713049355746243 -0.26775388735664418 0 0.46068671901070851 -0.28535474144655731 0 0.45571617873614662 -0.24946335937342859 0 0.44713049355746243 -0.26775388735664418 0 0.43357426810421817 -0.25015303326672972 0 0.44713049355746243 -0.26775388735664418 0 0.43357426810421817 -0.25015303326672972 0 0.43808872290812301 -0.29542998993102848 0 0.44582747314286902 -0.31276753443956201 0 0.43031487288344161 -0.31703067604683871 0 0.43808872290812301 -0.29542998993102848 0 0.45932525709009708 -0.30194153040829069 0 0.44582747314286902 -0.31276753443956201 0 0.43808872290812301 -0.29542998993102848 0 0.46068671901070851 -0.28535474144655731 0 0.45932525709009708 -0.30194153040829069 0 0.43808872290812301 -0.29542998993102848 0 0.46068671901070851 -0.28535474144655731 0 0.44713049355746243 -0.26775388735664418 0 0.43808872290812301 -0.29542998993102848 0 0.46068671901070851 -0.28535474144655731 0 0.46068671901070851 -0.28535474144655731 0 0.47654280981399377 -0.30594164756046982 0 0.46068671901070851 -0.28535474144655731 0 0.45932525709009708 -0.30194153040829069 0 0.47654280981399377 -0.30594164756046982 0 0.45932525709009708 -0.30194153040829069 0 0.46020140703816609 -0.31790014661013011 0 0.44582747314286902 -0.31276753443956201 0 0.47654280981399377 -0.30594164756046982 0 0.46020140703816609 -0.31790014661013011 0 0.45932525709009708 -0.30194153040829069 0 0.47654280981399377 -0.30594164756046982 0 0.46020140703816609 -0.31790014661013011 0 0.47654280981399377 -0.30594164756046982 0 0.48452590656705868 -0.31630657706248883 0 0.48208681399926079 -0.27581357356502773 0 0.46068671901070851 -0.28535474144655731 0 0.47654280981399377 -0.30594164756046982 0 0.48208681399926079 -0.27581357356502773 0 0.47654280981399377 -0.30594164756046982 0 0.50000000000000111 -0.28877587602939642 0 0.50000000000000111 -0.28877587602939642 0 0.5 -0.31627016595707702 0 0.48452590656705868 -0.31630657706248883 0 0.47654280981399377 -0.30594164756046982 0 0.50000000000000111 -0.28877587602939642 0 0.47654280981399377 -0.30594164756046982 0 0.50000000000000111 -0.28877587602939642 0 0.48452590656705868 -0.31630657706248883 0 0.5 -0.31627016595707702 0 0.48452590656705868 -0.31630657706248883 0 0.4798244965011923 -0.33203805400226027 0 0.5 -0.31627016595707702 0 0.4798244965011923 -0.33203805400226027 0 0.5 -0.34376445588475768 0 0.4798244965011923 -0.33203805400226027 0 0.46847105179670839 -0.34389899480205388 0 0.46020140703816609 -0.31790014661013011 0 0.47654280981399377 -0.30594164756046982 0 0.47527365498010271 -0.31804660630883719 0 0.46020140703816609 -0.31790014661013011 0 0.48452590656705868 -0.31630657706248883 0 0.4798244965011923 -0.33203805400226027 0 0.47527365498010271 -0.31804660630883719 0 0.4798244965011923 -0.33203805400226027 0 0.47527365498010271 -0.31804660630883719 0 0.46020140703816609 -0.31790014661013011 0 0.47654280981399377 -0.30594164756046982 0 0.48452590656705868 -0.31630657706248883 0 0.47527365498010271 -0.31804660630883719 0 0.49999999999999711 -0.37125874581243851 0 0.48806042456369142 -0.35612155968098341 0 0.47674069655525092 -0.3698978429939776 0 0.4798244965011923 -0.33203805400226027 0 0.48806042456369142 -0.35612155968098341 0 0.5 -0.34376445588475768 0 0.49999999999999711 -0.37125874581243851 0 0.48806042456369142 -0.35612155968098341 0 0.5 -0.34376445588475768 0 0.4798244965011923 -0.33203805400226027 0 0.48806042456369142 -0.35612155968098341 0 0.46847105179670839 -0.34389899480205388 0 0.48806042456369142 -0.35612155968098341 0 0.47674069655525092 -0.3698978429939776 0 0.46847105179670839 -0.34389899480205388 0 0.47674069655525092 -0.3698978429939776 0 0.46847105179670839 -0.34389899480205388 0 0.47674069655525092 -0.3698978429939776 0 0.45392603783110008 -0.37108838658624999 0 0.46847105179670839 -0.34389899480205388 0 0.45392603783110008 -0.37108838658624999 0 0.46847105179670839 -0.34389899480205388 0 0.44672977628043381 -0.35017364189741718 0 0.45392603783110008 -0.37108838658624999 0 0.44672977628043381 -0.35017364189741718 0 0.42785183481717409 -0.36595316276467199 0 0.45392603783110008 -0.37108838658624999 0 0.42785183481717409 -0.36595316276467199 0 0.43242581624588322 -0.38730115333965082 0 0.46847105179670839 -0.34389899480205388 0 0.46020140703816609 -0.31790014661013011 0 0.46847105179670839 -0.34389899480205388 0 0.46020140703816609 -0.31790014661013011 0 0.45431986664039198 -0.33607192194780172 0 0.46847105179670839 -0.34389899480205388 0 0.44672977628043381 -0.35017364189741718 0 0.45431986664039198 -0.33607192194780172 0 0.44672977628043381 -0.35017364189741718 0 0.44127539957872802 -0.33175003730325792 0 0.42823689835664952 -0.34636857782623809 0 0.44672977628043381 -0.35017364189741718 0 0.45431986664039198 -0.33607192194780172 0 0.44127539957872802 -0.33175003730325792 0 0.46020140703816609 -0.31790014661013011 0 0.45431986664039198 -0.33607192194780172 0 0.44127539957872802 -0.33175003730325792 0 0.44127539957872802 -0.33175003730325792 0 0.44582747314286902 -0.31276753443956201 0 0.43031487288344161 -0.31703067604683871 0 0.46020140703816609 -0.31790014661013011 0 0.44127539957872802 -0.33175003730325792 0 0.46020140703816609 -0.31790014661013011 0 0.44127539957872802 -0.33175003730325792 0 0.44582747314286902 -0.31276753443956201 0 0.44127539957872802 -0.33175003730325792 0 0.43031487288344161 -0.31703067604683871 0 0.41707429101309201 -0.3297381436533145 0 0.44127539957872802 -0.33175003730325792 0 0.41707429101309201 -0.3297381436533145 0 0.42823689835664952 -0.34636857782623809 0 0.41707429101309201 -0.3297381436533145 0 0.42823689835664952 -0.34636857782623809 0 0.40866613474490449 -0.35252068697126149 0 0.41707429101309201 -0.3297381436533145 0 0.39289273070295128 -0.31558048689996993 0 0.41549072680553711 -0.30550523841549909 0 0.43031487288344161 -0.31703067604683871 0 0.41707429101309201 -0.3297381436533145 0 0.41549072680553711 -0.30550523841549909 0 0.44672977628043381 -0.35017364189741718 0 0.42785183481717409 -0.36595316276467199 0 0.42823689835664952 -0.34636857782623809 0 0.42785183481717409 -0.36595316276467199 0 0.40866613474490449 -0.35252068697126149 0 0.42785183481717409 -0.36595316276467199 0 0.42823689835664952 -0.34636857782623809 0 0.40866613474490449 -0.35252068697126149 0 0.42785183481717409 -0.36595316276467199 0 0.4111933065081313 -0.36805982019164402 0 0.41287057948892703 -0.38518927514730122 0 0.42785183481717409 -0.36595316276467199 0 0.40866613474490449 -0.35252068697126149 0 0.4111933065081313 -0.36805982019164402 0 0.39290052262193498 -0.35565000096393579 0 0.38249634533461108 -0.36797477098799591 0 0.39650622041158878 -0.3765742856902482 0 0.4111933065081313 -0.36805982019164402 0 0.39290052262193498 -0.35565000096393579 0 0.39650622041158878 -0.3765742856902482 0 0.40866613474490449 -0.35252068697126149 0 0.39290052262193498 -0.35565000096393579 0 0.38948043467263488 -0.33908821117785082 0 0.40866613474490449 -0.35252068697126149 0 0.38948043467263488 -0.33908821117785082 0 0.40866613474490449 -0.35252068697126149 0 0.4111933065081313 -0.36805982019164402 0 0.39290052262193498 -0.35565000096393579 0 0.39290052262193498 -0.35565000096393579 0 0.37818146540529818 -0.34934783795600571 0 0.38249634533461108 -0.36797477098799591 0 0.39290052262193498 -0.35565000096393579 0 0.37818146540529818 -0.34934783795600571 0 0.38948043467263488 -0.33908821117785082 0 0.37818146540529818 -0.34934783795600571 0 0.38249634533461108 -0.36797477098799591 0 0.37305712147220338 -0.36102055586376819 0 0.41707429101309201 -0.3297381436533145 0 0.40866613474490449 -0.35252068697126149 0 0.38948043467263488 -0.33908821117785082 0 0.41707429101309201 -0.3297381436533145 0 0.39289273070295128 -0.31558048689996993 0 0.38948043467263488 -0.33908821117785082 0 0.37818146540529818 -0.34934783795600571 0 0.38948043467263488 -0.33908821117785082 0 0.37212478857772979 -0.33864880005647208 0 0.38948043467263488 -0.33908821117785082 0 0.37029473460036533 -0.32565573538444043 0 0.38948043467263488 -0.33908821117785082 0 0.37029473460036533 -0.32565573538444043 0 0.37212478857772979 -0.33864880005647208 0 0.39289273070295128 -0.31558048689996993 0 0.38064079273778262 -0.31288188218018531 0 0.37029473460036533 -0.32565573538444043 0 0.39289273070295128 -0.31558048689996993 0 0.37029473460036533 -0.32565573538444043 0 0.39289273070295128 -0.31558048689996993 0 0.38948043467263488 -0.33908821117785082 0 0.37029473460036533 -0.32565573538444043 0 0.38064079273778262 -0.31288188218018531 0 0.37804720550635529 -0.30651687721429538 0 0.38870969627640167 -0.30439929484627132 0 0.38064079273778262 -0.31288188218018531 0 0.37804720550635529 -0.30651687721429538 0 0.37325959660283969 -0.31225701655594912 0 0.37804720550635529 -0.30651687721429538 0 0.38032829646105881 -0.29636137241382532 0 0.36761344479238373 -0.29508033606196837 0 0.37804720550635529 -0.30651687721429538 0 0.38870969627640167 -0.30439929484627132 0 0.38032829646105881 -0.29636137241382532 0 0.38870969627640167 -0.30439929484627132 0 0.3879772147484597 -0.29176707856862888 0 0.38032829646105881 -0.29636137241382532 0 0.39289273070295128 -0.31558048689996993 0 0.38064079273778262 -0.31288188218018531 0 0.38870969627640167 -0.30439929484627132 0 0.39289273070295128 -0.31558048689996993 0 0.39985527598894161 -0.30920798579428682 0 0.41549072680553711 -0.30550523841549909 0 0.39985527598894161 -0.30920798579428682 0 0.39681295496079538 -0.29611275996065012 0 0.40939030264251791 -0.28957609748361951 0 0.39985527598894161 -0.30920798579428682 0 0.40939030264251791 -0.28957609748361951 0 0.39289273070295128 -0.31558048689996993 0 0.41549072680553711 -0.30550523841549909 0 0.39289273070295128 -0.31558048689996993 0 0.38870969627640167 -0.30439929484627132 0 0.39985527598894161 -0.30920798579428682 0 0.38870969627640167 -0.30439929484627132 0 0.39681295496079538 -0.29611275996065012 0 0.3879772147484597 -0.29176707856862888 0 0.38870969627640167 -0.30439929484627132 0 0.39985527598894161 -0.30920798579428682 0 0.39681295496079538 -0.29611275996065012 0 0.39922652050867191 -0.28295197323892363 0 0.39681295496079538 -0.29611275996065012 0 0.40939030264251791 -0.28957609748361951 0 0.39922652050867191 -0.28295197323892363 0 0.39681295496079538 -0.29611275996065012 0 0.3879772147484597 -0.29176707856862888 0 0.39922652050867191 -0.28295197323892363 0 0.3879772147484597 -0.29176707856862888 0 0.38840358504398731 -0.28029486931936831 0 0.3879772147484597 -0.29176707856862888 0 0.37929392098169401 -0.28404327537796259 0 0.38840358504398731 -0.28029486931936831 0 0.38032829646105881 -0.29636137241382532 0 0.37929392098169401 -0.28404327537796259 0 0.36761344479238373 -0.29508033606196837 0 0.3879772147484597 -0.29176707856862888 0 0.38032829646105881 -0.29636137241382532 0 0.37929392098169401 -0.28404327537796259 0 0.37929392098169401 -0.28404327537796259 0 0.38326599173650672 -0.27147868498013239 0 0.3725796289452375 -0.26579697317357759 0 0.37929392098169401 -0.28404327537796259 0 0.38326599173650672 -0.27147868498013239 0 0.38840358504398731 -0.28029486931936831 0 0.38326599173650672 -0.27147868498013239 0 0.38840358504398731 -0.28029486931936831 0 0.39544519547575041 -0.26880031542545191 0 0.37754581309809132 -0.23651361028518689 0 0.3725796289452375 -0.26579697317357759 0 0.37754581309809132 -0.23651361028518689 0 0.3871149211879113 -0.25548270742864421 0 0.3725796289452375 -0.26579697317357759 0 0.38326599173650672 -0.27147868498013239 0 0.3871149211879113 -0.25548270742864421 0 0.39544519547575041 -0.26880031542545191 0 0.38326599173650672 -0.27147868498013239 0 0.3871149211879113 -0.25548270742864421 0 0.3725796289452375 -0.26579697317357759 0 0.3871149211879113 -0.25548270742864421 0 0.40207495352916539 -0.25113417058953519 0 0.39544519547575041 -0.26880031542545191 0 0.40207495352916539 -0.25113417058953519 0 0.39544519547575041 -0.26880031542545191 0 0.41892532929609411 -0.26994420917295231 0 0.39922652050867191 -0.28295197323892363 0 0.39544519547575041 -0.26880031542545191 0 0.41892532929609411 -0.26994420917295231 0 0.39922652050867191 -0.28295197323892363 0 0.38840358504398731 -0.28029486931936831 0 0.39544519547575041 -0.26880031542545191 0 0.41892532929609411 -0.26994420917295231 0 0.40939030264251791 -0.28957609748361951 0 0.41892532929609411 -0.26994420917295231 0 0.42674472615619141 -0.28201696019190231 0 0.40939030264251791 -0.28957609748361951 0 0.39922652050867191 -0.28295197323892363 0 0.41892532929609411 -0.26994420917295231 0 0.40939030264251791 -0.28957609748361951 0 0.40207495352916539 -0.25113417058953519 0 0.41892532929609411 -0.26994420917295231 0 0.42846035594967069 -0.25031232086228522 0 0.40207495352916539 -0.25113417058953519 0 0.42846035594967069 -0.25031232086228522 0 0.44713049355746243 -0.26775388735664418 0 0.4314427817274139 -0.26389233879167029 0 0.43357426810421817 -0.25015303326672972 0 0.41892532929609411 -0.26994420917295231 0 0.42846035594967069 -0.25031232086228522 0 0.41892532929609411 -0.26994420917295231 0 0.42846035594967069 -0.25031232086228522 0 0.4314427817274139 -0.26389233879167029 0 0.42846035594967069 -0.25031232086228522 0 0.4314427817274139 -0.26389233879167029 0 0.43357426810421817 -0.25015303326672972 0 0.42846035594967069 -0.25031232086228522 0 0.43357426810421817 -0.25015303326672972 0 0.41892532929609411 -0.26994420917295231 0 0.4314427817274139 -0.26389233879167029 0 0.42674472615619141 -0.28201696019190231 0 0.44713049355746243 -0.26775388735664418 0 0.4314427817274139 -0.26389233879167029 0 0.42674472615619141 -0.28201696019190231 0 0.43808872290812301 -0.29542998993102848 0 0.42674472615619141 -0.28201696019190231 0 0.41549072680553711 -0.30550523841549909 0 0.44713049355746243 -0.26775388735664418 0 0.43808872290812301 -0.29542998993102848 0 0.42674472615619141 -0.28201696019190231 0 0.43808872290812301 -0.29542998993102848 0 0.43031487288344161 -0.31703067604683871 0 0.41549072680553711 -0.30550523841549909 0 0.43808872290812301 -0.29542998993102848 0 0.41549072680553711 -0.30550523841549909 0 0.39985527598894161 -0.30920798579428682 0 0.41549072680553711 -0.30550523841549909 0 0.40939030264251791 -0.28957609748361951 0 0.42674472615619141 -0.28201696019190231 0 0.41549072680553711 -0.30550523841549909 0 0.40939030264251791 -0.28957609748361951 0 0.43773802119989941 -0.49999999999999978 0 0.45890943729545802 -0.4823892052391901 0 0.4796611806106722 -0.48718440019654963 0 0.43773802119989941 -0.49999999999999978 0 0.44535189907423273 -0.48425652050154361 0 0.43773802119989941 -0.49999999999999978 0 0.44535189907423273 -0.48425652050154361 0 0.45890943729545802 -0.4823892052391901 0 0.43920548674920379 -0.47249175324936749 0 0.44535189907423273 -0.48425652050154361 0 0.45296577694856682 -0.46851304100308783 0 0.43920548674920379 -0.47249175324936749 0 0.44535189907423273 -0.48425652050154361 0 0.42866409193048188 -0.47676758270227471 0 0.44535189907423273 -0.48425652050154361 0 0.45589009982111051 -0.4775459799915327 0 0.45296577694856682 -0.46851304100308783 0 0.44535189907423273 -0.48425652050154361 0 0.45296577694856682 -0.46851304100308783 0 0.45589009982111051 -0.4775459799915327 0 0.45890943729545802 -0.4823892052391901 0 0.46145872075250199 -0.4714816097570898 0 0.44535189907423273 -0.48425652050154361 0 0.45589009982111051 -0.4775459799915327 0 0.45890943729545802 -0.4823892052391901 0 0.45890943729545802 -0.4823892052391901 0 0.46145872075250199 -0.4714816097570898 0 0.47563876839417468 -0.4748936591889994 0 0.46145872075250199 -0.4714816097570898 0 0.45296577694856682 -0.46851304100308783 0 0.45589009982111051 -0.4775459799915327 0 0.46145872075250199 -0.4714816097570898 0 0.45296577694856682 -0.46851304100308783 0 0.43773802119989941 -0.49999999999999978 0 0.4796611806106722 -0.48718440019654963 0 0.5 -0.5 0 0.4796611806106722 -0.48718440019654963 0 0.5 -0.5 0 0.5 -0.47026069904804169 0 0.5 -0.47026069904804169 0 0.47563876839417468 -0.4748936591889994 0 0.47905351322328699 -0.46315238170412548 0 0.4796611806106722 -0.48718440019654963 0 0.5 -0.47026069904804169 0 0.47563876839417468 -0.4748936591889994 0 0.46145872075250199 -0.4714816097570898 0 0.47563876839417468 -0.4748936591889994 0 0.47905351322328699 -0.46315238170412548 0 0.45890943729545802 -0.4823892052391901 0 0.4796611806106722 -0.48718440019654963 0 0.47563876839417468 -0.4748936591889994 0 0.47905351322328699 -0.46315238170412548 0 0.45899603635761982 -0.45604406436020939 0 0.47905351322328699 -0.46315238170412548 0 0.4788951805990147 -0.44564391983896778 0 0.45899603635761982 -0.45604406436020939 0 0.5 -0.47026069904804169 0 0.47905351322328699 -0.46315238170412548 0 0.5 -0.44373220895607401 0 0.5 -0.47026069904804169 0 0.47905351322328699 -0.46315238170412548 0 0.5 -0.44373220895607401 0 0.4788951805990147 -0.44564391983896778 0 0.48552804520920678 -0.42799216931292611 0 0.47905351322328699 -0.46315238170412548 0 0.5 -0.44373220895607401 0 0.4788951805990147 -0.44564391983896778 0 0.4788951805990147 -0.44564391983896778 0 0.45899603635761982 -0.45604406436020939 0 0.46924702726821282 -0.43484773472326599 0 0.45899603635761982 -0.45604406436020939 0 0.46924702726821282 -0.43484773472326599 0 0.45899603635761982 -0.45604406436020939 0 0.44838303037477362 -0.43447900987216292 0 0.46924702726821282 -0.43484773472326599 0 0.46145872075250199 -0.4714816097570898 0 0.47905351322328699 -0.46315238170412548 0 0.45899603635761982 -0.45604406436020939 0 0.46145872075250199 -0.4714816097570898 0 0.45899603635761982 -0.45604406436020939 0 0.45296577694856682 -0.46851304100308783 0 0.45899603635761982 -0.45604406436020939 0 0.45296577694856682 -0.46851304100308783 0 0.44562172027540892 -0.45801600689332289 0 0.45296577694856682 -0.46851304100308783 0 0.42984017904353489 -0.46042986879056458 0 0.43920548674920379 -0.47249175324936749 0 0.45296577694856682 -0.46851304100308783 0 0.42984017904353489 -0.46042986879056458 0 0.44562172027540892 -0.45801600689332289 0 0.43764883001816302 -0.44847867026387339 0 0.42984017904353489 -0.46042986879056458 0 0.45899603635761982 -0.45604406436020939 0 0.44562172027540892 -0.45801600689332289 0 0.45296577694856682 -0.46851304100308783 0 0.45296577694856682 -0.46851304100308783 0 0.42984017904353489 -0.46042986879056458 0 0.45899603635761982 -0.45604406436020939 0 0.44562172027540892 -0.45801600689332289 0 0.43764883001816302 -0.44847867026387339 0 0.45899603635761982 -0.45604406436020939 0 0.43764883001816302 -0.44847867026387339 0 0.44838303037477362 -0.43447900987216292 0 0.43764883001816302 -0.44847867026387339 0 0.44838303037477362 -0.43447900987216292 0 0.43199803478474752 -0.43480066315574151 0 0.45899603635761982 -0.45604406436020939 0 0.43764883001816302 -0.44847867026387339 0 0.44838303037477362 -0.43447900987216292 0 0.43524810038533429 -0.42324892749070769 0 0.43199803478474752 -0.43480066315574151 0 0.44838303037477362 -0.43447900987216292 0 0.45481320319103757 -0.41743251132042969 0 0.43524810038533429 -0.42324892749070769 0 0.45481320319103757 -0.41743251132042969 0 0.43477646914432833 -0.40550992295969079 0 0.43524810038533429 -0.42324892749070769 0 0.45481320319103757 -0.41743251132042969 0 0.46680969583490778 -0.41274858841526157 0 0.46924702726821282 -0.43484773472326599 0 0.45481320319103757 -0.41743251132042969 0 0.46680969583490778 -0.41274858841526157 0 0.46697148891275431 -0.40002921638500172 0 0.44838303037477362 -0.43447900987216292 0 0.45481320319103757 -0.41743251132042969 0 0.46924702726821282 -0.43484773472326599 0 0.5 -0.44373220895607401 0 0.48552804520920678 -0.42799216931292611 0 0.5 -0.40208557795999961 0 0.46924702726821282 -0.43484773472326599 0 0.48552804520920678 -0.42799216931292611 0 0.47949801817880677 -0.41365140508632309 0 0.4788951805990147 -0.44564391983896778 0 0.46924702726821282 -0.43484773472326599 0 0.48552804520920678 -0.42799216931292611 0 0.46924702726821282 -0.43484773472326599 0 0.47949801817880677 -0.41365140508632309 0 0.48552804520920678 -0.42799216931292611 0 0.47949801817880677 -0.41365140508632309 0 0.5 -0.40208557795999961 0 0.46680969583490778 -0.41274858841526157 0 0.46924702726821282 -0.43484773472326599 0 0.47949801817880677 -0.41365140508632309 0 0.46680969583490778 -0.41274858841526157 0 0.47949801817880677 -0.41365140508632309 0 0.47485796399023311 -0.40328323013715978 0 0.47949801817880677 -0.41365140508632309 0 0.47485796399023311 -0.40328323013715978 0 0.48501034131379339 -0.39589669118590137 0 0.46680969583490778 -0.41274858841526157 0 0.47485796399023311 -0.40328323013715978 0 0.46697148891275431 -0.40002921638500172 0 0.47485796399023311 -0.40328323013715978 0 0.47548297721973709 -0.39513831255209197 0 0.46697148891275431 -0.40002921638500172 0 0.47548297721973709 -0.39513831255209197 0 0.47310568845609052 -0.38536867418522291 0 0.46697148891275431 -0.40002921638500172 0 0.47548297721973709 -0.39513831255209197 0 0.48501034131379339 -0.39589669118590137 0 0.47310568845609052 -0.38536867418522291 0 0.47485796399023311 -0.40328323013715978 0 0.47548297721973709 -0.39513831255209197 0 0.48501034131379339 -0.39589669118590137 0 0.47949801817880677 -0.41365140508632309 0 0.48974900908940078 -0.39245507544938019 0 0.47949801817880677 -0.41365140508632309 0 0.5 -0.40208557795999961 0 0.48974900908940078 -0.39245507544938019 0 0.47949801817880677 -0.41365140508632309 0 0.48974900908940078 -0.39245507544938019 0 0.48501034131379339 -0.39589669118590137 0 0.49999999999999711 -0.37125874581243851 0 0.5 -0.40208557795999961 0 0.48974900908940078 -0.39245507544938019 0 0.49999999999999711 -0.37125874581243851 0 0.47674069655525092 -0.3698978429939776 0 0.48974900908940078 -0.39245507544938019 0 0.49999999999999711 -0.37125874581243851 0 0.48974900908940078 -0.39245507544938019 0 0.47674069655525092 -0.3698978429939776 0 0.48501034131379339 -0.39589669118590137 0 0.47310568845609052 -0.38536867418522291 0 0.47674069655525092 -0.3698978429939776 0 0.48974900908940078 -0.39245507544938019 0 0.48501034131379339 -0.39589669118590137 0 0.47674069655525092 -0.3698978429939776 0 0.48501034131379339 -0.39589669118590137 0 0.45392603783110008 -0.37108838658624999 0 0.47310568845609052 -0.38536867418522291 0 0.45155556879862868 -0.3944603689424081 0 0.47674069655525092 -0.3698978429939776 0 0.45392603783110008 -0.37108838658624999 0 0.47310568845609052 -0.38536867418522291 0 0.45481320319103757 -0.41743251132042969 0 0.46697148891275431 -0.40002921638500172 0 0.45155556879862868 -0.3944603689424081 0 0.47310568845609052 -0.38536867418522291 0 0.46697148891275431 -0.40002921638500172 0 0.45155556879862868 -0.3944603689424081 0 0.45481320319103757 -0.41743251132042969 0 0.45155556879862868 -0.3944603689424081 0 0.43477646914432833 -0.40550992295969079 0 0.45155556879862868 -0.3944603689424081 0 0.43242581624588322 -0.38730115333965082 0 0.43477646914432833 -0.40550992295969079 0 0.45392603783110008 -0.37108838658624999 0 0.45155556879862868 -0.3944603689424081 0 0.43242581624588322 -0.38730115333965082 0 0.42785183481717409 -0.36595316276467199 0 0.43242581624588322 -0.38730115333965082 0 0.41287057948892703 -0.38518927514730122 0 0.43242581624588322 -0.38730115333965082 0 0.43477646914432833 -0.40550992295969079 0 0.41749483707519452 -0.40538692165420498 0 0.43242581624588322 -0.38730115333965082 0 0.41749483707519452 -0.40538692165420498 0 0.41287057948892703 -0.38518927514730122 0 0.41749483707519452 -0.40538692165420498 0 0.41287057948892703 -0.38518927514730122 0 0.40336078828097621 -0.40362515372992341 0 0.4111933065081313 -0.36805982019164402 0 0.41287057948892703 -0.38518927514730122 0 0.39650622041158878 -0.3765742856902482 0 0.41287057948892703 -0.38518927514730122 0 0.39650622041158878 -0.3765742856902482 0 0.39372170841196569 -0.3925803949292499 0 0.38249634533461108 -0.36797477098799591 0 0.39650622041158878 -0.3765742856902482 0 0.37900977316023637 -0.39091548517495972 0 0.39650622041158878 -0.3765742856902482 0 0.37900977316023637 -0.39091548517495972 0 0.39372170841196569 -0.3925803949292499 0 0.38249634533461108 -0.36797477098799591 0 0.37900977316023637 -0.39091548517495972 0 0.36724772315424481 -0.38247146420994571 0 0.37900977316023637 -0.39091548517495972 0 0.39372170841196569 -0.3925803949292499 0 0.37842665921942997 -0.40887405987875969 0 0.37900977316023637 -0.39091548517495972 0 0.37842665921942997 -0.40887405987875969 0 0.36824105802713031 -0.4000969440192842 0 0.39372170841196569 -0.3925803949292499 0 0.39194747191700757 -0.41402513481906722 0 0.37842665921942997 -0.40887405987875969 0 0.41287057948892703 -0.38518927514730122 0 0.39372170841196569 -0.3925803949292499 0 0.40336078828097621 -0.40362515372992341 0 0.39372170841196569 -0.3925803949292499 0 0.40336078828097621 -0.40362515372992341 0 0.39194747191700757 -0.41402513481906722 0 0.40336078828097621 -0.40362515372992341 0 0.39194747191700757 -0.41402513481906722 0 0.41036500379586138 -0.42217021861448573 0 0.39194747191700757 -0.41402513481906722 0 0.37842665921942997 -0.40887405987875969 0 0.3754845505291648 -0.42231636227288599 0 0.39194747191700757 -0.41402513481906722 0 0.38276612650569841 -0.43173139982273478 0 0.39495441733924969 -0.43334788207120151 0 0.39194747191700757 -0.41402513481906722 0 0.3754845505291648 -0.42231636227288599 0 0.38276612650569841 -0.43173139982273478 0 0.38276612650569841 -0.43173139982273478 0 0.39495441733924969 -0.43334788207120151 0 0.38358898323347101 -0.44426352436551808 0 0.39495441733924969 -0.43334788207120151 0 0.41630162367870638 -0.44091327616753739 0 0.39194747191700757 -0.41402513481906722 0 0.39495441733924969 -0.43334788207120151 0 0.41036500379586138 -0.42217021861448573 0 0.41036500379586138 -0.42217021861448573 0 0.42295569064062533 -0.42699492369753778 0 0.41630162367870638 -0.44091327616753739 0 0.39495441733924969 -0.43334788207120151 0 0.41036500379586138 -0.42217021861448573 0 0.41630162367870638 -0.44091327616753739 0 0.41749483707519452 -0.40538692165420498 0 0.40336078828097621 -0.40362515372992341 0 0.41036500379586138 -0.42217021861448573 0 0.41749483707519452 -0.40538692165420498 0 0.41036500379586138 -0.42217021861448573 0 0.42458756094721539 -0.41613405657310448 0 0.41036500379586138 -0.42217021861448573 0 0.42458756094721539 -0.41613405657310448 0 0.42295569064062533 -0.42699492369753778 0 0.43477646914432833 -0.40550992295969079 0 0.41749483707519452 -0.40538692165420498 0 0.42458756094721539 -0.41613405657310448 0 0.43477646914432833 -0.40550992295969079 0 0.42458756094721539 -0.41613405657310448 0 0.43524810038533429 -0.42324892749070769 0 0.43199803478474752 -0.43480066315574151 0 0.42295569064062533 -0.42699492369753778 0 0.41630162367870638 -0.44091327616753739 0 0.43524810038533429 -0.42324892749070769 0 0.43199803478474752 -0.43480066315574151 0 0.42295569064062533 -0.42699492369753778 0 0.42458756094721539 -0.41613405657310448 0 0.43524810038533429 -0.42324892749070769 0 0.42295569064062533 -0.42699492369753778 0 0.43764883001816302 -0.44847867026387339 0 0.41630162367870638 -0.44091327616753739 0 0.43764883001816302 -0.44847867026387339 0 0.42984017904353489 -0.46042986879056458 0 0.41630162367870638 -0.44091327616753739 0 0.43764883001816302 -0.44847867026387339 0 0.43199803478474752 -0.43480066315574151 0 0.41630162367870638 -0.44091327616753739 0 0.42984017904353489 -0.46042986879056458 0 0.41583716859034447 -0.46620520778226737 0 0.42866409193048188 -0.47676758270227471 0 0.42984017904353489 -0.46042986879056458 0 0.4067145811385029 -0.45234669657804139 0 0.42984017904353489 -0.46042986879056458 0 0.41583716859034447 -0.46620520778226737 0 0.4067145811385029 -0.45234669657804139 0 0.41583716859034447 -0.46620520778226737 0 0.4067145811385029 -0.45234669657804139 0 0.40148396946935899 -0.46677367853588281 0 0.42984017904353489 -0.46042986879056458 0 0.4067145811385029 -0.45234669657804139 0 0.41630162367870638 -0.44091327616753739 0 0.4067145811385029 -0.45234669657804139 0 0.38358898323347101 -0.44426352436551808 0 0.39182712026942329 -0.45690385307896481 0 0.39495441733924969 -0.43334788207120151 0 0.4067145811385029 -0.45234669657804139 0 0.41630162367870638 -0.44091327616753739 0 0.39495441733924969 -0.43334788207120151 0 0.4067145811385029 -0.45234669657804139 0 0.38358898323347101 -0.44426352436551808 0 0.4067145811385029 -0.45234669657804139 0 0.38358898323347101 -0.44426352436551808 0 0.38358898323347101 -0.44426352436551808 0 0.37514595674159079 -0.45476526552439389 0 0.39182712026942329 -0.45690385307896481 0 0.38276612650569841 -0.43173139982273478 0 0.38358898323347101 -0.44426352436551808 0 0.36596817218281208 -0.43846752572535042 0 0.37514595674159079 -0.45476526552439389 0 0.38538716437757631 -0.46842775420537441 0 0.39182712026942329 -0.45690385307896481 0 0.37514595674159079 -0.45476526552439389 0 0.38538716437757631 -0.46842775420537441 0 0.37212180294075042 -0.46808428500039262 0 0.38538716437757631 -0.46842775420537441 0 0.39182712026942329 -0.45690385307896481 0 0.40148396946935899 -0.46677367853588281 0 0.4067145811385029 -0.45234669657804139 0 0.39182712026942329 -0.45690385307896481 0 0.40148396946935899 -0.46677367853588281 0 0.39434508200087892 -0.48168095957978257 0 0.4057717135424021 -0.48929931529832937 0 0.41138522724611992 -0.47610642689805982 0 0.38538716437757631 -0.46842775420537441 0 0.40148396946935899 -0.46677367853588281 0 0.39434508200087892 -0.48168095957978257 0 0.40148396946935899 -0.46677367853588281 0 0.39434508200087892 -0.48168095957978257 0 0.41138522724611992 -0.47610642689805982 0 0.38538716437757631 -0.46842775420537441 0 0.39434508200087892 -0.48168095957978257 0 0.37586822855092661 -0.48439202442808083 0 0.38538716437757631 -0.46842775420537441 0 0.37586822855092661 -0.48439202442808083 0 0.37212180294075042 -0.46808428500039262 0 0.39434508200087892 -0.48168095957978257 0 0.37586822855092661 -0.48439202442808083 0 0.39289039342582149 -0.5 0 0.37586822855092661 -0.48439202442808083 0 0.39289039342582149 -0.5 0 0.3704665795387827 -0.49999999999999961 0 0.39434508200087892 -0.48168095957978257 0 0.39289039342582149 -0.5 0 0.4057717135424021 -0.48929931529832937 0 0.39289039342582149 -0.5 0 0.4057717135424021 -0.48929931529832937 0 0.41531420731286051 -0.5 0 0.4057717135424021 -0.48929931529832937 0 0.41138522724611992 -0.47610642689805982 0 0.425256426736628 -0.48969697811313823 0 0.4057717135424021 -0.48929931529832937 0 0.41531420731286051 -0.5 0 0.425256426736628 -0.48969697811313823 0 0.41583716859034447 -0.46620520778226737 0 0.41138522724611992 -0.47610642689805982 0 0.42866409193048188 -0.47676758270227471 0 0.41138522724611992 -0.47610642689805982 0 0.42866409193048188 -0.47676758270227471 0 0.425256426736628 -0.48969697811313823 0 0.41583716859034447 -0.46620520778226737 0 0.40148396946935899 -0.46677367853588281 0 0.41138522724611992 -0.47610642689805982 0 0.44535189907423273 -0.48425652050154361 0 0.42866409193048188 -0.47676758270227471 0 0.425256426736628 -0.48969697811313823 0 0.43920548674920379 -0.47249175324936749 0 0.42984017904353489 -0.46042986879056458 0 0.42866409193048188 -0.47676758270227471 0 0.43773802119989941 -0.49999999999999978 0 0.44535189907423273 -0.48425652050154361 0 0.425256426736628 -0.48969697811313823 0 0.43773802119989941 -0.49999999999999978 0 0.41531420731286051 -0.5 0 0.425256426736628 -0.48969697811313823 0 0.32577547594680167 -0.48549728563522948 0 0.313100747974287 -0.5 0 0.34178366375653479 -0.5 0 0.32577547594680167 -0.48549728563522948 0 0.33309118936964399 -0.46704031311580291 0 0.30810638268294871 -0.47012115952174682 0 0.353331436476917 -0.48488928282810861 0 0.33309118936964399 -0.46704031311580291 0 0.32577547594680167 -0.48549728563522948 0 0.353331436476917 -0.48488928282810861 0 0.33309118936964399 -0.46704031311580291 0 0.32577547594680167 -0.48549728563522948 0 0.353331436476917 -0.48488928282810861 0 0.32577547594680167 -0.48549728563522948 0 0.34178366375653479 -0.5 0 0.353331436476917 -0.48488928282810861 0 0.34178366375653479 -0.5 0 0.353331436476917 -0.48488928282810861 0 0.3704665795387827 -0.49999999999999961 0 0.353331436476917 -0.48488928282810861 0 0.3704665795387827 -0.49999999999999961 0 0.37586822855092661 -0.48439202442808083 0 0.353331436476917 -0.48488928282810861 0 0.37586822855092661 -0.48439202442808083 0 0.353331436476917 -0.48488928282810861 0 0.3704665795387827 -0.49999999999999961 0 0.37586822855092661 -0.48439202442808083 0 0.353331436476917 -0.48488928282810861 0 0.36174609683149922 -0.47333229839911978 0 0.37586822855092661 -0.48439202442808083 0 0.36174609683149922 -0.47333229839911978 0 0.37212180294075042 -0.46808428500039262 0 0.353331436476917 -0.48488928282810861 0 0.3511187368843669 -0.46644655109408317 0 0.33309118936964399 -0.46704031311580291 0 0.353331436476917 -0.48488928282810861 0 0.36174609683149922 -0.47333229839911978 0 0.3511187368843669 -0.46644655109408317 0 0.3511187368843669 -0.46644655109408317 0 0.34821094164401439 -0.44963138573543099 0 0.33309118936964399 -0.46704031311580291 0 0.3511187368843669 -0.46644655109408317 0 0.36000734278227892 -0.4581682973830864 0 0.34821094164401439 -0.44963138573543099 0 0.36174609683149922 -0.47333229839911978 0 0.3511187368843669 -0.46644655109408317 0 0.36000734278227892 -0.4581682973830864 0 0.36174609683149922 -0.47333229839911978 0 0.36000734278227892 -0.4581682973830864 0 0.37212180294075042 -0.46808428500039262 0 0.37514595674159079 -0.45476526552439389 0 0.36000734278227892 -0.4581682973830864 0 0.37212180294075042 -0.46808428500039262 0 0.38358898323347101 -0.44426352436551808 0 0.37514595674159079 -0.45476526552439389 0 0.36596817218281208 -0.43846752572535042 0 0.37514595674159079 -0.45476526552439389 0 0.36000734278227892 -0.4581682973830864 0 0.36596817218281208 -0.43846752572535042 0 0.36596817218281208 -0.43846752572535042 0 0.34821094164401439 -0.44963138573543099 0 0.34622956703096991 -0.43300533851794337 0 0.36000734278227892 -0.4581682973830864 0 0.36596817218281208 -0.43846752572535042 0 0.34821094164401439 -0.44963138573543099 0 0.34821094164401439 -0.44963138573543099 0 0.33295970409203041 -0.44505156475946112 0 0.34622956703096991 -0.43300533851794337 0 0.34821094164401439 -0.44963138573543099 0 0.33295970409203041 -0.44505156475946112 0 0.33309118936964399 -0.46704031311580291 0 0.33295970409203041 -0.44505156475946112 0 0.33309118936964399 -0.46704031311580291 0 0.31285094226236981 -0.44919134340349842 0 0.33309118936964399 -0.46704031311580291 0 0.31285094226236981 -0.44919134340349842 0 0.33309118936964399 -0.46704031311580291 0 0.31285094226236981 -0.44919134340349842 0 0.30810638268294871 -0.47012115952174682 0 0.33295970409203041 -0.44505156475946112 0 0.31285094226236981 -0.44919134340349842 0 0.32443481461114221 -0.42819348402864749 0 0.31285094226236981 -0.44919134340349842 0 0.32443481461114221 -0.42819348402864749 0 0.30716585811758268 -0.42152601893676211 0 0.32443481461114221 -0.42819348402864749 0 0.3377381929345476 -0.41993594981441068 0 0.31826237910007699 -0.40611857650776678 0 0.32443481461114221 -0.42819348402864749 0 0.31826237910007699 -0.40611857650776678 0 0.30716585811758268 -0.42152601893676211 0 0.3377381929345476 -0.41993594981441068 0 0.33955155732169001 -0.40481801647484189 0 0.31826237910007699 -0.40611857650776678 0 0.32443481461114221 -0.42819348402864749 0 0.3377381929345476 -0.41993594981441068 0 0.34622956703096991 -0.43300533851794337 0 0.33295970409203041 -0.44505156475946112 0 0.32443481461114221 -0.42819348402864749 0 0.34622956703096991 -0.43300533851794337 0 0.3377381929345476 -0.41993594981441068 0 0.34622956703096991 -0.43300533851794337 0 0.35818280584871282 -0.41603879828427831 0 0.36596817218281208 -0.43846752572535042 0 0.34622956703096991 -0.43300533851794337 0 0.35818280584871282 -0.41603879828427831 0 0.3754845505291648 -0.42231636227288599 0 0.36596817218281208 -0.43846752572535042 0 0.35818280584871282 -0.41603879828427831 0 0.3754845505291648 -0.42231636227288599 0 0.38276612650569841 -0.43173139982273478 0 0.36596817218281208 -0.43846752572535042 0 0.37842665921942997 -0.40887405987875969 0 0.3754845505291648 -0.42231636227288599 0 0.35818280584871282 -0.41603879828427831 0 0.37842665921942997 -0.40887405987875969 0 0.35818280584871282 -0.41603879828427831 0 0.36824105802713031 -0.4000969440192842 0 0.3377381929345476 -0.41993594981441068 0 0.35818280584871282 -0.41603879828427831 0 0.33955155732169001 -0.40481801647484189 0 0.35818280584871282 -0.41603879828427831 0 0.35120943534252291 -0.3914849644630724 0 0.33955155732169001 -0.40481801647484189 0 0.35818280584871282 -0.41603879828427831 0 0.35120943534252291 -0.3914849644630724 0 0.36824105802713031 -0.4000969440192842 0 0.37900977316023637 -0.39091548517495972 0 0.36824105802713031 -0.4000969440192842 0 0.36724772315424481 -0.38247146420994571 0 0.35120943534252291 -0.3914849644630724 0 0.36824105802713031 -0.4000969440192842 0 0.36724772315424481 -0.38247146420994571 0 0.36724772315424481 -0.38247146420994571 0 0.3553956415560332 -0.375446985373177 0 0.36664078794155069 -0.36853845970684512 0 0.35120943534252291 -0.3914849644630724 0 0.3553956415560332 -0.375446985373177 0 0.34024068493209042 -0.37145909403295352 0 0.35120943534252291 -0.3914849644630724 0 0.36724772315424481 -0.38247146420994571 0 0.3553956415560332 -0.375446985373177 0 0.35120943534252291 -0.3914849644630724 0 0.33045907805143321 -0.38798152631774108 0 0.34024068493209042 -0.37145909403295352 0 0.33045907805143321 -0.38798152631774108 0 0.34024068493209042 -0.37145909403295352 0 0.32473595581008968 -0.36877041147622941 0 0.33045907805143321 -0.38798152631774108 0 0.33955155732169001 -0.40481801647484189 0 0.31826237910007699 -0.40611857650776678 0 0.35120943534252291 -0.3914849644630724 0 0.33045907805143321 -0.38798152631774108 0 0.33955155732169001 -0.40481801647484189 0 0.33045907805143321 -0.38798152631774108 0 0.31826237910007699 -0.40611857650776678 0 0.30852465471842783 -0.38296478278532459 0 0.33045907805143321 -0.38798152631774108 0 0.30852465471842783 -0.38296478278532459 0 0.32473595581008968 -0.36877041147622941 0 0.30852465471842783 -0.38296478278532459 0 0.30157177088572762 -0.39984768184154418 0 0.28524522637625171 -0.38748256695808048 0 0.31826237910007699 -0.40611857650776678 0 0.30852465471842783 -0.38296478278532459 0 0.30157177088572762 -0.39984768184154418 0 0.30157177088572762 -0.39984768184154418 0 0.28524522637625171 -0.38748256695808048 0 0.28909827497095891 -0.41314244090476959 0 0.30852465471842783 -0.38296478278532459 0 0.28524522637625171 -0.38748256695808048 0 0.29576167506738288 -0.36584798696867898 0 0.28524522637625171 -0.38748256695808048 0 0.26194523537769671 -0.38343407302417171 0 0.27628411724202862 -0.36524783617958329 0 0.26194523537769671 -0.38343407302417171 0 0.2677956642119742 -0.40840362680373948 0 0.24730388124056729 -0.40448370284608931 0 0.28524522637625171 -0.38748256695808048 0 0.26194523537769671 -0.38343407302417171 0 0.2677956642119742 -0.40840362680373948 0 0.28524522637625171 -0.38748256695808048 0 0.2677956642119742 -0.40840362680373948 0 0.28909827497095891 -0.41314244090476959 0 0.2677956642119742 -0.40840362680373948 0 0.27472650047210662 -0.43131219108599711 0 0.28909827497095891 -0.41314244090476959 0 0.2677956642119742 -0.40840362680373948 0 0.24845486683426421 -0.43056678600332871 0 0.24730388124056729 -0.40448370284608931 0 0.2677956642119742 -0.40840362680373948 0 0.27472650047210662 -0.43131219108599711 0 0.24845486683426421 -0.43056678600332871 0 0.27472650047210662 -0.43131219108599711 0 0.26710508502781599 -0.44926171113960661 0 0.24845486683426421 -0.43056678600332871 0 0.27472650047210662 -0.43131219108599711 0 0.29418269027227539 -0.43431919247607059 0 0.28909827497095891 -0.41314244090476959 0 0.29418269027227539 -0.43431919247607059 0 0.28909827497095891 -0.41314244090476959 0 0.30716585811758268 -0.42152601893676211 0 0.31826237910007699 -0.40611857650776678 0 0.30157177088572762 -0.39984768184154418 0 0.30716585811758268 -0.42152601893676211 0 0.30157177088572762 -0.39984768184154418 0 0.28909827497095891 -0.41314244090476959 0 0.30716585811758268 -0.42152601893676211 0 0.31285094226236981 -0.44919134340349842 0 0.29418269027227539 -0.43431919247607059 0 0.30716585811758268 -0.42152601893676211 0 0.31285094226236981 -0.44919134340349842 0 0.29418269027227539 -0.43431919247607059 0 0.28597809560131299 -0.4567624239266439 0 0.31285094226236981 -0.44919134340349842 0 0.28597809560131299 -0.4567624239266439 0 0.30810638268294871 -0.47012115952174682 0 0.28597809560131299 -0.4567624239266439 0 0.27356505094757272 -0.46654042127887851 0 0.28658471780149791 -0.47429793876749549 0 0.28597809560131299 -0.4567624239266439 0 0.28658471780149791 -0.47429793876749549 0 0.30810638268294871 -0.47012115952174682 0 0.27472650047210662 -0.43131219108599711 0 0.29418269027227539 -0.43431919247607059 0 0.28597809560131299 -0.4567624239266439 0 0.27472650047210662 -0.43131219108599711 0 0.28597809560131299 -0.4567624239266439 0 0.26710508502781599 -0.44926171113960661 0 0.26710508502781599 -0.44926171113960661 0 0.25055382002994903 -0.45112655962101422 0 0.24845486683426421 -0.43056678600332871 0 0.25055382002994903 -0.45112655962101422 0 0.25749380142066591 -0.46566674131117769 0 0.24452211955108941 -0.47321082899062988 0 0.26710508502781599 -0.44926171113960661 0 0.25055382002994903 -0.45112655962101422 0 0.25749380142066591 -0.46566674131117769 0 0.26710508502781599 -0.44926171113960661 0 0.25749380142066591 -0.46566674131117769 0 0.27356505094757272 -0.46654042127887851 0 0.28597809560131299 -0.4567624239266439 0 0.26710508502781599 -0.44926171113960661 0 0.27356505094757272 -0.46654042127887851 0 0.25749380142066591 -0.46566674131117769 0 0.27356505094757272 -0.46654042127887851 0 0.27066355488657068 -0.48671329124946883 0 0.27356505094757272 -0.46654042127887851 0 0.27066355488657068 -0.48671329124946883 0 0.28658471780149791 -0.47429793876749549 0 0.27066355488657068 -0.48671329124946883 0 0.24310759435645521 -0.48732129405658853 0 0.24452211955108941 -0.47321082899062988 0 0.25749380142066591 -0.46566674131117769 0 0.27066355488657068 -0.48671329124946883 0 0.24452211955108941 -0.47321082899062988 0 0.25573491640979129 -0.5 0 0.27066355488657068 -0.48671329124946883 0 0.24310759435645521 -0.48732129405658853 0 0.27066355488657068 -0.48671329124946883 0 0.24310759435645521 -0.48732129405658853 0 0.25573491640979129 -0.5 0 0.27066355488657068 -0.48671329124946883 0 0.2844178321920392 -0.5 0 0.27066355488657068 -0.48671329124946883 0 0.2844178321920392 -0.5 0 0.29821951541668618 -0.48610528844234918 0 0.27066355488657068 -0.48671329124946883 0 0.29821951541668618 -0.48610528844234918 0 0.27066355488657068 -0.48671329124946883 0 0.28658471780149791 -0.47429793876749549 0 0.29821951541668618 -0.48610528844234918 0 0.28658471780149791 -0.47429793876749549 0 0.30810638268294871 -0.47012115952174682 0 0.29821951541668618 -0.48610528844234918 0 0.32577547594680167 -0.48549728563522948 0 0.30810638268294871 -0.47012115952174682 0 0.29821951541668618 -0.48610528844234918 0 0.313100747974287 -0.5 0 0.2844178321920392 -0.5 0 0.29821951541668618 -0.48610528844234918 0 0.32577547594680167 -0.48549728563522948 0 0.29821951541668618 -0.48610528844234918 0 0.32577547594680167 -0.48549728563522948 0 0.313100747974287 -0.5 0 0.29821951541668618 -0.48610528844234918 0 0.330274064289036 -0.28402767586280209 0 0.34332234684577362 -0.29793808318023329 0 0.34457666422559302 -0.26801309975333321 0 0.330274064289036 -0.28402767586280209 0 0.34332234684577362 -0.29793808318023329 0 0.32977293544345387 -0.30596193421111573 0 0.34332234684577362 -0.29793808318023329 0 0.32977293544345387 -0.30596193421111573 0 0.34206802946595682 -0.32786306660713371 0 0.31744302567780058 -0.29875438106107682 0 0.32081511337912821 -0.31891284763754968 0 0.29956219729229971 -0.30996262866796498 0 0.32977293544345387 -0.30596193421111573 0 0.31744302567780058 -0.29875438106107682 0 0.32081511337912821 -0.31891284763754968 0 0.31744302567780058 -0.29875438106107682 0 0.315203972569992 -0.28599406388836862 0 0.30893165249025939 -0.29458973757352408 0 0.330274064289036 -0.28402767586280209 0 0.32977293544345387 -0.30596193421111573 0 0.31744302567780058 -0.29875438106107682 0 0.330274064289036 -0.28402767586280209 0 0.31744302567780058 -0.29875438106107682 0 0.315203972569992 -0.28599406388836862 0 0.31616400359283131 -0.27140021809428472 0 0.31565659849655159 -0.26881006701694032 0 0.34457666422559302 -0.26801309975333321 0 0.31616400359283131 -0.27140021809428472 0 0.31565659849655159 -0.26881006701694032 0 0.330274064289036 -0.28402767586280209 0 0.315203972569992 -0.28599406388836862 0 0.31616400359283131 -0.27140021809428472 0 0.31140457280844042 -0.24710474912070499 0 0.31565659849655159 -0.26881006701694032 0 0.31140457280844042 -0.24710474912070499 0 0.31565659849655159 -0.26881006701694032 0 0.32909477526671738 -0.25319804842994992 0 0.34542116247921317 -0.24786541093840589 0 0.32909477526671738 -0.25319804842994992 0 0.34457666422559302 -0.26801309975333321 0 0.31565659849655159 -0.26881006701694032 0 0.32909477526671738 -0.25319804842994992 0 0.34457666422559302 -0.26801309975333321 0 0.31565659849655159 -0.26881006701694032 0 0.34457666422559302 -0.26801309975333321 0 0.330274064289036 -0.28402767586280209 0 0.31616400359283131 -0.27140021809428472 0 0.34457666422559302 -0.26801309975333321 0 0.35327842571551671 -0.2677733001931194 0 0.36211004630048071 -0.25874315800932568 0 0.36139056500297317 -0.28258450191058321 0 0.34457666422559302 -0.26801309975333321 0 0.35327842571551671 -0.2677733001931194 0 0.36139056500297317 -0.28258450191058321 0 0.34457666422559302 -0.26801309975333321 0 0.35327842571551671 -0.2677733001931194 0 0.34542116247921317 -0.24786541093840589 0 0.35327842571551671 -0.2677733001931194 0 0.36211004630048071 -0.25874315800932568 0 0.34542116247921317 -0.24786541093840589 0 0.34457666422559302 -0.26801309975333321 0 0.34542116247921317 -0.24786541093840589 0 0.34457666422559302 -0.26801309975333321 0 0.35327842571551671 -0.2677733001931194 0 0.36876625398544938 -0.24898888889403961 0 0.37754581309809132 -0.23651361028518689 0 0.3725796289452375 -0.26579697317357759 0 0.36876625398544938 -0.24898888889403961 0 0.36211004630048071 -0.25874315800932568 0 0.3725796289452375 -0.26579697317357759 0 0.36211004630048071 -0.25874315800932568 0 0.36139056500297317 -0.28258450191058321 0 0.36211004630048071 -0.25874315800932568 0 0.3725796289452375 -0.26579697317357759 0 0.36139056500297317 -0.28258450191058321 0 0.3725796289452375 -0.26579697317357759 0 0.36761344479238373 -0.29508033606196837 0 0.3725796289452375 -0.26579697317357759 0 0.36139056500297317 -0.28258450191058321 0 0.36761344479238373 -0.29508033606196837 0 0.36139056500297317 -0.28258450191058321 0 0.36067108370546558 -0.30642584581184062 0 0.36139056500297317 -0.28258450191058321 0 0.36761344479238373 -0.29508033606196837 0 0.36067108370546558 -0.30642584581184062 0 0.37929392098169401 -0.28404327537796259 0 0.3725796289452375 -0.26579697317357759 0 0.36761344479238373 -0.29508033606196837 0 0.34332234684577362 -0.29793808318023329 0 0.36139056500297317 -0.28258450191058321 0 0.36067108370546558 -0.30642584581184062 0 0.34332234684577362 -0.29793808318023329 0 0.34457666422559302 -0.26801309975333321 0 0.34332234684577362 -0.29793808318023329 0 0.34457666422559302 -0.26801309975333321 0 0.36139056500297317 -0.28258450191058321 0 0.34332234684577362 -0.29793808318023329 0 0.36067108370546558 -0.30642584581184062 0 0.35385294866325562 -0.31815161708919842 0 0.37804720550635529 -0.30651687721429538 0 0.36761344479238373 -0.29508033606196837 0 0.37325959660283969 -0.31225701655594912 0 0.36761344479238373 -0.29508033606196837 0 0.37325959660283969 -0.31225701655594912 0 0.36522996683296982 -0.32210974174446261 0 0.36761344479238373 -0.29508033606196837 0 0.3626472606395299 -0.32436369895035932 0 0.36761344479238373 -0.29508033606196837 0 0.36067108370546558 -0.30642584581184062 0 0.3626472606395299 -0.32436369895035932 0 0.36067108370546558 -0.30642584581184062 0 0.35995160240795782 -0.33026718971309799 0 0.37325959660283969 -0.31225701655594912 0 0.36522996683296982 -0.32210974174446261 0 0.37029473460036533 -0.32565573538444043 0 0.36761344479238373 -0.29508033606196837 0 0.3626472606395299 -0.32436369895035932 0 0.36522996683296982 -0.32210974174446261 0 0.36067108370546558 -0.30642584581184062 0 0.3626472606395299 -0.32436369895035932 0 0.35995160240795782 -0.33026718971309799 0 0.38064079273778262 -0.31288188218018531 0 0.37325959660283969 -0.31225701655594912 0 0.37029473460036533 -0.32565573538444043 0 0.3626472606395299 -0.32436369895035932 0 0.37029473460036533 -0.32565573538444043 0 0.35995160240795782 -0.33026718971309799 0 0.37029473460036533 -0.32565573538444043 0 0.35995160240795782 -0.33026718971309799 0 0.3626472606395299 -0.32436369895035932 0 0.36522996683296982 -0.32210974174446261 0 0.37029473460036533 -0.32565573538444043 0 0.36522996683296982 -0.32210974174446261 0 0.37029473460036533 -0.32565573538444043 0 0.35995160240795782 -0.33026718971309799 0 0.35941557651728179 -0.34802939929915899 0 0.37029473460036533 -0.32565573538444043 0 0.37212478857772979 -0.33864880005647208 0 0.35995160240795782 -0.33026718971309799 0 0.3654326502107581 -0.34245967622864359 0 0.35995160240795782 -0.33026718971309799 0 0.35941557651728179 -0.34802939929915899 0 0.37212478857772979 -0.33864880005647208 0 0.3654326502107581 -0.34245967622864359 0 0.37040156667629781 -0.34671437794913718 0 0.37212478857772979 -0.33864880005647208 0 0.3654326502107581 -0.34245967622864359 0 0.35995160240795782 -0.33026718971309799 0 0.35995160240795782 -0.33026718971309799 0 0.35941557651728179 -0.34802939929915899 0 0.34162477060798069 -0.33843815246039383 0 0.35941557651728179 -0.34802939929915899 0 0.34146637893605181 -0.3422169952266676 0 0.34162477060798069 -0.33843815246039383 0 0.35995160240795782 -0.33026718971309799 0 0.34162477060798069 -0.33843815246039383 0 0.35995160240795782 -0.33026718971309799 0 0.34764647170350632 -0.33021231032179682 0 0.34162477060798069 -0.33843815246039383 0 0.35995160240795782 -0.33026718971309799 0 0.34764647170350632 -0.33021231032179682 0 0.35274785573456591 -0.3260756163463463 0 0.34764647170350632 -0.33021231032179682 0 0.34206802946595682 -0.32786306660713371 0 0.34162477060798069 -0.33843815246039383 0 0.34764647170350632 -0.33021231032179682 0 0.34206802946595682 -0.32786306660713371 0 0.35385294866325562 -0.31815161708919842 0 0.35274785573456591 -0.3260756163463463 0 0.34206802946595682 -0.32786306660713371 0 0.34764647170350632 -0.33021231032179682 0 0.35274785573456591 -0.3260756163463463 0 0.34206802946595682 -0.32786306660713371 0 0.34332234684577362 -0.29793808318023329 0 0.35385294866325562 -0.31815161708919842 0 0.34206802946595682 -0.32786306660713371 0 0.36067108370546558 -0.30642584581184062 0 0.35995160240795782 -0.33026718971309799 0 0.35385294866325562 -0.31815161708919842 0 0.35995160240795782 -0.33026718971309799 0 0.35385294866325562 -0.31815161708919842 0 0.35274785573456591 -0.3260756163463463 0 0.38249634533461108 -0.36797477098799591 0 0.36724772315424481 -0.38247146420994571 0 0.36664078794155069 -0.36853845970684512 0 0.38249634533461108 -0.36797477098799591 0 0.36664078794155069 -0.36853845970684512 0 0.37305712147220338 -0.36102055586376819 0 0.3553956415560332 -0.375446985373177 0 0.36664078794155069 -0.36853845970684512 0 0.35901533294662008 -0.36129221050145399 0 0.36664078794155069 -0.36853845970684512 0 0.37305712147220338 -0.36102055586376819 0 0.36517854466496658 -0.35714892472411869 0 0.36664078794155069 -0.36853845970684512 0 0.36517854466496658 -0.35714892472411869 0 0.35901533294662008 -0.36129221050145399 0 0.36517854466496658 -0.35714892472411869 0 0.35941557651728179 -0.34802939929915899 0 0.35901533294662008 -0.36129221050145399 0 0.36517854466496658 -0.35714892472411869 0 0.36469303305047901 -0.34973837317986511 0 0.35941557651728179 -0.34802939929915899 0 0.36517854466496658 -0.35714892472411869 0 0.37030234625384911 -0.35279401393457888 0 0.36469303305047901 -0.34973837317986511 0 0.37818146540529818 -0.34934783795600571 0 0.37305712147220338 -0.36102055586376819 0 0.37030234625384911 -0.35279401393457888 0 0.37305712147220338 -0.36102055586376819 0 0.36517854466496658 -0.35714892472411869 0 0.37030234625384911 -0.35279401393457888 0 0.37818146540529818 -0.34934783795600571 0 0.37212478857772979 -0.33864880005647208 0 0.37040156667629781 -0.34671437794913718 0 0.37818146540529818 -0.34934783795600571 0 0.37030234625384911 -0.35279401393457888 0 0.37040156667629781 -0.34671437794913718 0 0.37030234625384911 -0.35279401393457888 0 0.37040156667629781 -0.34671437794913718 0 0.36469303305047901 -0.34973837317986511 0 0.3654326502107581 -0.34245967622864359 0 0.37040156667629781 -0.34671437794913718 0 0.36469303305047901 -0.34973837317986511 0 0.36469303305047901 -0.34973837317986511 0 0.35941557651728179 -0.34802939929915899 0 0.3654326502107581 -0.34245967622864359 0 0.36469303305047901 -0.34973837317986511 0 0.35941557651728179 -0.34802939929915899 0 0.35003449333301101 -0.35574942476505861 0 0.34024068493209042 -0.37145909403295352 0 0.34146637893605181 -0.3422169952266676 0 0.35941557651728179 -0.34802939929915899 0 0.35003449333301101 -0.35574942476505861 0 0.34146637893605181 -0.3422169952266676 0 0.35941557651728179 -0.34802939929915899 0 0.34146637893605181 -0.3422169952266676 0 0.35941557651728179 -0.34802939929915899 0 0.35901533294662008 -0.36129221050145399 0 0.35941557651728179 -0.34802939929915899 0 0.35003449333301101 -0.35574942476505861 0 0.35901533294662008 -0.36129221050145399 0 0.35003449333301101 -0.35574942476505861 0 0.35901533294662008 -0.36129221050145399 0 0.34024068493209042 -0.37145909403295352 0 0.3553956415560332 -0.375446985373177 0 0.35901533294662008 -0.36129221050145399 0 0.34024068493209042 -0.37145909403295352 0 0.34024068493209042 -0.37145909403295352 0 0.33264239376833749 -0.35548373211026962 0 0.32473595581008968 -0.36877041147622941 0 0.34024068493209042 -0.37145909403295352 0 0.33264239376833749 -0.35548373211026962 0 0.34146637893605181 -0.3422169952266676 0 0.34024068493209042 -0.37145909403295352 0 0.34146637893605181 -0.3422169952266676 0 0.33264239376833749 -0.35548373211026962 0 0.32969677432389999 -0.34883746930945858 0 0.32350037713642671 -0.3535383953733186 0 0.33264239376833749 -0.35548373211026962 0 0.33484083241944268 -0.34588391539316982 0 0.34146637893605181 -0.3422169952266676 0 0.33264239376833749 -0.35548373211026962 0 0.33484083241944268 -0.34588391539316982 0 0.32969677432389999 -0.34883746930945858 0 0.33484083241944268 -0.34588391539316982 0 0.32969677432389999 -0.34883746930945858 0 0.33080291213000951 -0.34437854531234752 0 0.32969677432389999 -0.34883746930945858 0 0.33080291213000951 -0.34437854531234752 0 0.32576759743036687 -0.34544500479448842 0 0.32576759743036687 -0.34544500479448842 0 0.32008489300350967 -0.34478001059398899 0 0.32350037713642671 -0.3535383953733186 0 0.32969677432389999 -0.34883746930945858 0 0.32576759743036687 -0.34544500479448842 0 0.32350037713642671 -0.3535383953733186 0 0.32576759743036687 -0.34544500479448842 0 0.32008489300350967 -0.34478001059398899 0 0.3230261242077439 -0.3426129045732173 0 0.32008489300350967 -0.34478001059398899 0 0.31455300750316167 -0.34989325112993808 0 0.32350037713642671 -0.3535383953733186 0 0.32008489300350967 -0.34478001059398899 0 0.31455300750316167 -0.34989325112993808 0 0.31278358272303802 -0.34129775444127147 0 0.31455300750316167 -0.34989325112993808 0 0.32350037713642671 -0.3535383953733186 0 0.31266700858965563 -0.36105898834543543 0 0.33264239376833749 -0.35548373211026962 0 0.32350037713642671 -0.3535383953733186 0 0.32473595581008968 -0.36877041147622941 0 0.30852465471842783 -0.38296478278532459 0 0.31266700858965563 -0.36105898834543543 0 0.32473595581008968 -0.36877041147622941 0 0.32350037713642671 -0.3535383953733186 0 0.31266700858965563 -0.36105898834543543 0 0.32473595581008968 -0.36877041147622941 0 0.34332234684577362 -0.29793808318023329 0 0.34206802946595682 -0.32786306660713371 0 0.32977293544345387 -0.30596193421111573 0 0.34206802946595682 -0.32786306660713371 0 0.32081511337912821 -0.31891284763754968 0 0.34206802946595682 -0.32786306660713371 0 0.32602109842812482 -0.32927153728442071 0 0.32081511337912821 -0.31891284763754968 0 0.34206802946595682 -0.32786306660713371 0 0.32081511337912821 -0.31891284763754968 0 0.34206802946595682 -0.32786306660713371 0 0.34162477060798069 -0.33843815246039383 0 0.33801441914131958 -0.33597980122333287 0 0.34206802946595682 -0.32786306660713371 0 0.34162477060798069 -0.33843815246039383 0 0.34206802946595682 -0.32786306660713371 0 0.33503975802439162 -0.33352730776002742 0 0.32602109842812482 -0.32927153728442071 0 0.34206802946595682 -0.32786306660713371 0 0.33801441914131958 -0.33597980122333287 0 0.33503975802439162 -0.33352730776002742 0 0.34146637893605181 -0.3422169952266676 0 0.34162477060798069 -0.33843815246039383 0 0.33664845261102122 -0.34065682884787418 0 0.34146637893605181 -0.3422169952266676 0 0.34162477060798069 -0.33843815246039383 0 0.34162477060798069 -0.33843815246039383 0 0.33801441914131958 -0.33597980122333287 0 0.33664845261102122 -0.34065682884787418 0 0.34162477060798069 -0.33843815246039383 0 0.33664845261102122 -0.34065682884787418 0 0.33801441914131958 -0.33597980122333287 0 0.33664845261102122 -0.34065682884787418 0 0.334556636173299 -0.33621284741772872 0 0.33484083241944268 -0.34588391539316982 0 0.34146637893605181 -0.3422169952266676 0 0.33664845261102122 -0.34065682884787418 0 0.34146637893605181 -0.3422169952266676 0 0.33664845261102122 -0.34065682884787418 0 0.33080291213000951 -0.34437854531234752 0 0.33664845261102122 -0.34065682884787418 0 0.32753883147517121 -0.34023469067202677 0 0.33664845261102122 -0.34065682884787418 0 0.334556636173299 -0.33621284741772872 0 0.32852391491646382 -0.33468745183968091 0 0.33484083241944268 -0.34588391539316982 0 0.33080291213000951 -0.34437854531234752 0 0.33664845261102122 -0.34065682884787418 0 0.33503975802439162 -0.33352730776002742 0 0.32852391491646382 -0.33468745183968091 0 0.32602109842812482 -0.32927153728442071 0 0.334556636173299 -0.33621284741772872 0 0.33503975802439162 -0.33352730776002742 0 0.32852391491646382 -0.33468745183968091 0 0.33801441914131958 -0.33597980122333287 0 0.334556636173299 -0.33621284741772872 0 0.33503975802439162 -0.33352730776002742 0 0.32753883147517121 -0.34023469067202677 0 0.31871317492192791 -0.33999191223236508 0 0.30992165968220392 -0.33200201743577268 0 0.32852391491646382 -0.33468745183968091 0 0.32602109842812482 -0.32927153728442071 0 0.30992165968220392 -0.33200201743577268 0 0.33664845261102122 -0.34065682884787418 0 0.32852391491646382 -0.33468745183968091 0 0.30992165968220392 -0.33200201743577268 0 0.33664845261102122 -0.34065682884787418 0 0.32753883147517121 -0.34023469067202677 0 0.30992165968220392 -0.33200201743577268 0 0.32602109842812482 -0.32927153728442071 0 0.31516553794356478 -0.32688419612254632 0 0.30992165968220392 -0.33200201743577268 0 0.33664845261102122 -0.34065682884787418 0 0.30992165968220392 -0.33200201743577268 0 0.32753883147517121 -0.34023469067202677 0 0.3230261242077439 -0.3426129045732173 0 0.31871317492192791 -0.33999191223236508 0 0.33080291213000951 -0.34437854531234752 0 0.32576759743036687 -0.34544500479448842 0 0.32753883147517121 -0.34023469067202677 0 0.32576759743036687 -0.34544500479448842 0 0.32753883147517121 -0.34023469067202677 0 0.3230261242077439 -0.3426129045732173 0 0.32008489300350967 -0.34478001059398899 0 0.3230261242077439 -0.3426129045732173 0 0.31871317492192791 -0.33999191223236508 0 0.31871317492192791 -0.33999191223236508 0 0.31278358272303802 -0.34129775444127147 0 0.30992165968220392 -0.33200201743577268 0 0.32008489300350967 -0.34478001059398899 0 0.31871317492192791 -0.33999191223236508 0 0.31278358272303802 -0.34129775444127147 0 0.32602109842812482 -0.32927153728442071 0 0.31516553794356478 -0.32688419612254632 0 0.32081511337912821 -0.31891284763754968 0 0.31516553794356478 -0.32688419612254632 0 0.32081511337912821 -0.31891284763754968 0 0.29956219729229971 -0.30996262866796498 0 0.31516553794356478 -0.32688419612254632 0 0.30992165968220392 -0.33200201743577268 0 0.29956219729229971 -0.30996262866796498 0 0.30992165968220392 -0.33200201743577268 0 0.28319486675338662 -0.32334720602367162 0 0.29956219729229971 -0.30996262866796498 0 0.32081511337912821 -0.31891284763754968 0 0.29956219729229971 -0.30996262866796498 0 0.31516553794356478 -0.32688419612254632 0 0.29956219729229971 -0.30996262866796498 0 0.31278358272303802 -0.34129775444127147 0 0.30544777269898171 -0.33968681455295602 0 0.30372917606317851 -0.34879110689567611 0 0.31278358272303802 -0.34129775444127147 0 0.30992165968220392 -0.33200201743577268 0 0.30544777269898171 -0.33968681455295602 0 0.30992165968220392 -0.33200201743577268 0 0.30544777269898171 -0.33968681455295602 0 0.29535667232750618 -0.33665637943910393 0 0.30544777269898171 -0.33968681455295602 0 0.29535667232750618 -0.33665637943910393 0 0.30372917606317851 -0.34879110689567611 0 0.30992165968220392 -0.33200201743577268 0 0.29535667232750618 -0.33665637943910393 0 0.28319486675338662 -0.32334720602367162 0 0.29535667232750618 -0.33665637943910393 0 0.28811986741475609 -0.34954264064797458 0 0.28056009198101312 -0.33712721632873971 0 0.29535667232750618 -0.33665637943910393 0 0.28319486675338662 -0.32334720602367162 0 0.28056009198101312 -0.33712721632873971 0 0.30992165968220392 -0.33200201743577268 0 0.28319486675338662 -0.32334720602367162 0 0.30852465471842783 -0.38296478278532459 0 0.31266700858965563 -0.36105898834543543 0 0.29576167506738288 -0.36584798696867898 0 0.31266700858965563 -0.36105898834543543 0 0.30372917606317851 -0.34879110689567611 0 0.29576167506738288 -0.36584798696867898 0 0.31455300750316167 -0.34989325112993808 0 0.31266700858965563 -0.36105898834543543 0 0.30372917606317851 -0.34879110689567611 0 0.31455300750316167 -0.34989325112993808 0 0.31278358272303802 -0.34129775444127147 0 0.30372917606317851 -0.34879110689567611 0 0.30372917606317851 -0.34879110689567611 0 0.28811986741475609 -0.34954264064797458 0 0.29576167506738288 -0.36584798696867898 0 0.29535667232750618 -0.33665637943910393 0 0.30372917606317851 -0.34879110689567611 0 0.28811986741475609 -0.34954264064797458 0 0.28811986741475609 -0.34954264064797458 0 0.29576167506738288 -0.36584798696867898 0 0.27628411724202862 -0.36524783617958329 0 0.28524522637625171 -0.38748256695808048 0 0.29576167506738288 -0.36584798696867898 0 0.27628411724202862 -0.36524783617958329 0 0.27628411724202862 -0.36524783617958329 0 0.26970242523906313 -0.3463930650348116 0 0.25620327224306561 -0.36049072758523892 0 0.28811986741475609 -0.34954264064797458 0 0.27628411724202862 -0.36524783617958329 0 0.26970242523906313 -0.3463930650348116 0 0.28811986741475609 -0.34954264064797458 0 0.26970242523906313 -0.3463930650348116 0 0.28056009198101312 -0.33712721632873971 0 0.26970242523906313 -0.3463930650348116 0 0.25620327224306561 -0.36049072758523892 0 0.25110761996098008 -0.33756133299550262 0 0.26194523537769671 -0.38343407302417171 0 0.27628411724202862 -0.36524783617958329 0 0.25620327224306561 -0.36049072758523892 0 0.26194523537769671 -0.38343407302417171 0 0.25620327224306561 -0.36049072758523892 0 0.2380746425401753 -0.37739124482652259 0 0.28319486675338662 -0.32334720602367162 0 0.25646807382456938 -0.31469239461157061 0 0.28319486675338662 -0.32334720602367162 0 0.25646807382456938 -0.31469239461157061 0 0.26668910057358802 -0.30550764638795852 0 0.28319486675338662 -0.32334720602367162 0 0.26642662817035351 -0.32969679049813649 0 0.25646807382456938 -0.31469239461157061 0 0.26970242523906313 -0.3463930650348116 0 0.26642662817035351 -0.32969679049813649 0 0.28056009198101312 -0.33712721632873971 0 0.28319486675338662 -0.32334720602367162 0 0.26642662817035351 -0.32969679049813649 0 0.28056009198101312 -0.33712721632873971 0 0.26970242523906313 -0.3463930650348116 0 0.26642662817035351 -0.32969679049813649 0 0.25110761996098008 -0.33756133299550262 0 0.26642662817035351 -0.32969679049813649 0 0.25110761996098008 -0.33756133299550262 0 0.25646807382456938 -0.31469239461157061 0 0.26020915296869068 -0.2933899210744732 0 0.26668910057358802 -0.30550764638795852 0 0.24613976577650579 -0.30323365481969039 0 0.25646807382456938 -0.31469239461157061 0 0.26668910057358802 -0.30550764638795852 0 0.24613976577650579 -0.30323365481969039 0 0.26020915296869068 -0.2933899210744732 0 0.25058364390229548 -0.28023087545190861 0 0.26295470628353768 -0.27026240406269297 0 0.26020915296869068 -0.2933899210744732 0 0.25058364390229548 -0.28023087545190861 0 0.24053263080688631 -0.28510356727772701 0 0.26020915296869068 -0.2933899210744732 0 0.24053263080688631 -0.28510356727772701 0 0.26020915296869068 -0.2933899210744732 0 0.28125845178791892 -0.29011251636532881 0 0.26295470628353768 -0.27026240406269297 0 0.26020915296869068 -0.2933899210744732 0 0.27988567513049512 -0.30167627487121951 0 0.28125845178791892 -0.29011251636532881 0 0.26020915296869068 -0.2933899210744732 0 0.26668910057358802 -0.30550764638795852 0 0.27988567513049512 -0.30167627487121951 0 0.26020915296869068 -0.2933899210744732 0 0.27988567513049512 -0.30167627487121951 0 0.28319486675338662 -0.32334720602367162 0 0.26668910057358802 -0.30550764638795852 0 0.27988567513049512 -0.30167627487121951 0 0.27988567513049512 -0.30167627487121951 0 0.29956219729229971 -0.30996262866796498 0 0.28125845178791892 -0.29011251636532881 0 0.29956219729229971 -0.30996262866796498 0 0.27988567513049512 -0.30167627487121951 0 0.28125845178791892 -0.29011251636532881 0 0.29956219729229971 -0.30996262866796498 0 0.28319486675338662 -0.32334720602367162 0 0.27988567513049512 -0.30167627487121951 0 0.29956219729229971 -0.30996262866796498 0 0.28125845178791892 -0.29011251636532881 0 0.30351741442094582 -0.28364787667668517 0 0.29956219729229971 -0.30996262866796498 0 0.30351741442094582 -0.28364787667668517 0 0.30893165249025939 -0.29458973757352408 0 0.29956219729229971 -0.30996262866796498 0 0.315203972569992 -0.28599406388836862 0 0.30351741442094582 -0.28364787667668517 0 0.30893165249025939 -0.29458973757352408 0 0.31744302567780058 -0.29875438106107682 0 0.30893165249025939 -0.29458973757352408 0 0.29956219729229971 -0.30996262866796498 0 0.31140457280844042 -0.24710474912070499 0 0.31565659849655159 -0.26881006701694032 0 0.29718577407036301 -0.25519814195989071 0 0.31565659849655159 -0.26881006701694032 0 0.29718577407036301 -0.25519814195989071 0 0.28930565239004458 -0.26953623553981648 0 0.31565659849655159 -0.26881006701694032 0 0.28930565239004458 -0.26953623553981648 0 0.31565659849655159 -0.26881006701694032 0 0.30351741442094582 -0.28364787667668517 0 0.28930565239004458 -0.26953623553981648 0 0.315203972569992 -0.28599406388836862 0 0.31616400359283131 -0.27140021809428472 0 0.30351741442094582 -0.28364787667668517 0 0.31616400359283131 -0.27140021809428472 0 0.31565659849655159 -0.26881006701694032 0 0.30351741442094582 -0.28364787667668517 0 0.28125845178791892 -0.29011251636532881 0 0.30351741442094582 -0.28364787667668517 0 0.28930565239004458 -0.26953623553981648 0 0.29234931722919649 -0.23956849287787771 0 0.29718577407036301 -0.25519814195989071 0 0.28009493911397709 -0.25531812806766069 0 0.29718577407036301 -0.25519814195989071 0 0.28930565239004458 -0.26953623553981648 0 0.28009493911397709 -0.25531812806766069 0 0.28009493911397709 -0.25531812806766069 0 0.26295470628353768 -0.27026240406269297 0 0.26515279713901752 -0.25474276698909742 0 0.28930565239004458 -0.26953623553981648 0 0.28009493911397709 -0.25531812806766069 0 0.26295470628353768 -0.27026240406269297 0 0.27362138757170362 -0.2426007269765893 0 0.28009493911397709 -0.25531812806766069 0 0.26515279713901752 -0.25474276698909742 0 0.28930565239004458 -0.26953623553981648 0 0.26295470628353768 -0.27026240406269297 0 0.28125845178791892 -0.29011251636532881 0 0.28930565239004458 -0.26953623553981648 0 0.26295470628353768 -0.27026240406269297 0 0.28125845178791892 -0.29011251636532881 0 0.26295470628353768 -0.27026240406269297 0 0.26295470628353768 -0.27026240406269297 0 0.25920525151110962 -0.26619618175379239 0 0.2333624491378041 -0.27107789530058801 0 0.26295470628353768 -0.27026240406269297 0 0.25920525151110962 -0.26619618175379239 0 0.26515279713901752 -0.25474276698909742 0 0.25909559454287789 -0.26033526294480458 0 0.25575058308532189 -0.25269357128633052 0 0.26295470628353768 -0.27026240406269297 0 0.25920525151110962 -0.26619618175379239 0 0.25909559454287789 -0.26033526294480458 0 0.26295470628353768 -0.27026240406269297 0 0.26515279713901752 -0.25474276698909742 0 0.25909559454287789 -0.26033526294480458 0 0.25920525151110962 -0.26619618175379239 0 0.25909559454287789 -0.26033526294480458 0 0.2525593813984649 -0.26013433662011259 0 0.2525593813984649 -0.26013433662011259 0 0.25575058308532189 -0.25269357128633052 0 0.2462907050713771 -0.25204034373521428 0 0.25909559454287789 -0.26033526294480458 0 0.2525593813984649 -0.26013433662011259 0 0.25575058308532189 -0.25269357128633052 0 0.2525593813984649 -0.26013433662011259 0 0.2372713891187809 -0.25677075628574592 0 0.2333624491378041 -0.27107789530058801 0 0.2525593813984649 -0.26013433662011259 0 0.2462907050713771 -0.25204034373521428 0 0.2372713891187809 -0.25677075628574592 0 0.2525593813984649 -0.26013433662011259 0 0.2372713891187809 -0.25677075628574592 0 0.2462907050713771 -0.25204034373521428 0 0.2372713891187809 -0.25677075628574592 0 0.2374752251495614 -0.24157268794541539 0 0.26295470628353768 -0.27026240406269297 0 0.2333624491378041 -0.27107789530058801 0 0.25058364390229548 -0.28023087545190861 0 0.2333624491378041 -0.27107789530058801 0 0.24053263080688631 -0.28510356727772701 0 0.25920525151110962 -0.26619618175379239 0 0.2525593813984649 -0.26013433662011259 0 0.2333624491378041 -0.27107789530058801 0 0.25058364390229548 -0.28023087545190861 0 0.26295470628353768 -0.27026240406269297 0 0.2333624491378041 -0.27107789530058801 0 0.2333624491378041 -0.27107789530058801 0 0.22391874229476511 -0.2824004848955064 0 0.24053263080688631 -0.28510356727772701 0 0.2333624491378041 -0.27107789530058801 0 0.22198339683909701 -0.25340717595137879 0 0.22391874229476511 -0.2824004848955064 0 0.22198339683909701 -0.25340717595137879 0 0.21277476220729311 -0.27908963951381288 0 0.22391874229476511 -0.2824004848955064 0 0.22198339683909701 -0.25340717595137879 0 0.22391874229476511 -0.2824004848955064 0 0.2372713891187809 -0.25677075628574592 0 0.2333624491378041 -0.27107789530058801 0 0.22198339683909701 -0.25340717595137879 0 0.2372713891187809 -0.25677075628574592 0 0.22198339683909701 -0.25340717595137879 0 0.2374752251495614 -0.24157268794541539 0 0.2372713891187809 -0.25677075628574592 0 0.22198339683909701 -0.25340717595137879 0 0.22198339683909701 -0.25340717595137879 0 0.19767743283581299 -0.26201501502554969 0 0.19815896102696709 -0.24816545406213189 0 0.22198339683909701 -0.25340717595137879 0 0.19815896102696709 -0.24816545406213189 0 0.22198339683909701 -0.25340717595137879 0 0.2070014623020448 -0.26844420161526761 0 0.19767743283581299 -0.26201501502554969 0 0.22198339683909701 -0.25340717595137879 0 0.21277476220729311 -0.27908963951381288 0 0.2070014623020448 -0.26844420161526761 0 0.21277476220729311 -0.27908963951381288 0 0.19627752834655959 -0.27465633278028612 0 0.20552852767052071 -0.28818040814850709 0 0.21277476220729311 -0.27908963951381288 0 0.2070014623020448 -0.26844420161526761 0 0.19627752834655959 -0.27465633278028612 0 0.2070014623020448 -0.26844420161526761 0 0.19627752834655959 -0.27465633278028612 0 0.19767743283581299 -0.26201501502554969 0 0.19627752834655959 -0.27465633278028612 0 0.19767743283581299 -0.26201501502554969 0 0.1861358052291735 -0.26379397041404468 0 0.19767743283581299 -0.26201501502554969 0 0.1861358052291735 -0.26379397041404468 0 0.19815896102696709 -0.24816545406213189 0 0.1861358052291735 -0.26379397041404468 0 0.18066177981631051 -0.25348299893649828 0 0.19815896102696709 -0.24816545406213189 0 0.20129939135720101 -0.31175464383988888 0 0.20552852767052071 -0.28818040814850709 0 0.1861316223780578 -0.30340045511113362 0 0.20552852767052071 -0.28818040814850709 0 0.18615950714984131 -0.28714944863913389 0 0.1861316223780578 -0.30340045511113362 0 0.19627752834655959 -0.27465633278028612 0 0.20552852767052071 -0.28818040814850709 0 0.18615950714984131 -0.28714944863913389 0 0.21277476220729311 -0.27908963951381288 0 0.20552852767052071 -0.28818040814850709 0 0.22391874229476511 -0.2824004848955064 0 0.20552852767052071 -0.28818040814850709 0 0.21283890344555609 -0.30228465628523993 0 0.22391874229476511 -0.2824004848955064 0 0.20129939135720101 -0.31175464383988888 0 0.20552852767052071 -0.28818040814850709 0 0.21283890344555609 -0.30228465628523993 0 0.225854087750432 -0.31139379383963389 0 0.22391874229476511 -0.2824004848955064 0 0.21283890344555609 -0.30228465628523993 0 0.225854087750432 -0.31139379383963389 0 0.22391874229476511 -0.2824004848955064 0 0.225854087750432 -0.31139379383963389 0 0.22391874229476511 -0.2824004848955064 0 0.24053263080688631 -0.28510356727772701 0 0.26020915296869068 -0.2933899210744732 0 0.24053263080688631 -0.28510356727772701 0 0.24613976577650579 -0.30323365481969039 0 0.225854087750432 -0.31139379383963389 0 0.24053263080688631 -0.28510356727772701 0 0.24613976577650579 -0.30323365481969039 0 0.225854087750432 -0.31139379383963389 0 0.24613976577650579 -0.30323365481969039 0 0.24147179610371719 -0.32145365581003182 0 0.25110761996098008 -0.33756133299550262 0 0.25646807382456938 -0.31469239461157061 0 0.24147179610371719 -0.32145365581003182 0 0.25646807382456938 -0.31469239461157061 0 0.24613976577650579 -0.30323365481969039 0 0.24147179610371719 -0.32145365581003182 0 0.25110761996098008 -0.33756133299550262 0 0.24147179610371719 -0.32145365581003182 0 0.2277894332060989 -0.3403871027837615 0 0.225854087750432 -0.31139379383963389 0 0.24147179610371719 -0.32145365581003182 0 0.2277894332060989 -0.3403871027837615 0 0.225854087750432 -0.31139379383963389 0 0.2277894332060989 -0.3403871027837615 0 0.2131017443993804 -0.32550716011161479 0 0.225854087750432 -0.31139379383963389 0 0.2277894332060989 -0.3403871027837615 0 0.25620327224306561 -0.36049072758523892 0 0.23939100935974761 -0.35412122659527612 0 0.2380746425401753 -0.37739124482652259 0 0.25110761996098008 -0.33756133299550262 0 0.2277894332060989 -0.3403871027837615 0 0.23939100935974761 -0.35412122659527612 0 0.25620327224306561 -0.36049072758523892 0 0.25110761996098008 -0.33756133299550262 0 0.23939100935974761 -0.35412122659527612 0 0.2277894332060989 -0.3403871027837615 0 0.23939100935974761 -0.35412122659527612 0 0.22160146260088931 -0.35672021721344238 0 0.2277894332060989 -0.3403871027837615 0 0.22160146260088931 -0.35672021721344238 0 0.21393580002607371 -0.34141846605291087 0 0.23939100935974761 -0.35412122659527612 0 0.22160146260088931 -0.35672021721344238 0 0.2380746425401753 -0.37739124482652259 0 0.22160146260088931 -0.35672021721344238 0 0.21646245367279571 -0.38358476595235552 0 0.22160146260088931 -0.35672021721344238 0 0.2380746425401753 -0.37739124482652259 0 0.21646245367279571 -0.38358476595235552 0 0.22160146260088931 -0.35672021721344238 0 0.19836301469614079 -0.36402790855933592 0 0.2025217842010896 -0.37807387373583923 0 0.22160146260088931 -0.35672021721344238 0 0.21646245367279571 -0.38358476595235552 0 0.2025217842010896 -0.37807387373583923 0 0.22160146260088931 -0.35672021721344238 0 0.20535211274276649 -0.35018034328080122 0 0.21393580002607371 -0.34141846605291087 0 0.22160146260088931 -0.35672021721344238 0 0.20535211274276649 -0.35018034328080122 0 0.19836301469614079 -0.36402790855933592 0 0.20535211274276649 -0.35018034328080122 0 0.19180082998577391 -0.35029167033112268 0 0.20100079568597551 -0.33875735092892167 0 0.19180082998577391 -0.35029167033112268 0 0.19836301469614079 -0.36402790855933592 0 0.18636698824462991 -0.36225910140511608 0 0.19180082998577391 -0.35029167033112268 0 0.18636698824462991 -0.36225910140511608 0 0.18448777755487131 -0.35210036546502188 0 0.20535211274276649 -0.35018034328080122 0 0.19180082998577391 -0.35029167033112268 0 0.19836301469614079 -0.36402790855933592 0 0.19836301469614079 -0.36402790855933592 0 0.19083927531350181 -0.37426462870353422 0 0.18636698824462991 -0.36225910140511608 0 0.19836301469614079 -0.36402790855933592 0 0.19083927531350181 -0.37426462870353422 0 0.2025217842010896 -0.37807387373583923 0 0.20129939135720101 -0.31175464383988888 0 0.21283890344555609 -0.30228465628523993 0 0.2131017443993804 -0.32550716011161479 0 0.21283890344555609 -0.30228465628523993 0 0.225854087750432 -0.31139379383963389 0 0.2131017443993804 -0.32550716011161479 0 0.2277894332060989 -0.3403871027837615 0 0.2131017443993804 -0.32550716011161479 0 0.21393580002607371 -0.34141846605291087 0 0.2131017443993804 -0.32550716011161479 0 0.21393580002607371 -0.34141846605291087 0 0.20100079568597551 -0.33875735092892167 0 0.20535211274276649 -0.35018034328080122 0 0.21393580002607371 -0.34141846605291087 0 0.20100079568597551 -0.33875735092892167 0 0.19180082998577391 -0.35029167033112268 0 0.20100079568597551 -0.33875735092892167 0 0.1840044286915227 -0.33601373309634508 0 0.20100079568597551 -0.33875735092892167 0 0.19352690233448341 -0.32516644492614982 0 0.1840044286915227 -0.33601373309634508 0 0.2131017443993804 -0.32550716011161479 0 0.20100079568597551 -0.33875735092892167 0 0.19352690233448341 -0.32516644492614982 0 0.20129939135720101 -0.31175464383988888 0 0.2131017443993804 -0.32550716011161479 0 0.19352690233448341 -0.32516644492614982 0 0.20129939135720101 -0.31175464383988888 0 0.19352690233448341 -0.32516644492614982 0 0.1861316223780578 -0.30340045511113362 0 0.19352690233448341 -0.32516644492614982 0 0.17526094699071121 -0.32121364916979261 0 0.1840044286915227 -0.33601373309634508 0 0.19352690233448341 -0.32516644492614982 0 0.17526094699071121 -0.32121364916979261 0 0.1861316223780578 -0.30340045511113362 0 0.17526094699071121 -0.32121364916979261 0 0.1840044286915227 -0.33601373309634508 0 0.17670370261134591 -0.35101137430815987 0 0.17526094699071121 -0.32121364916979261 0 0.16632300769682529 -0.33914532989683449 0 0.17670370261134591 -0.35101137430815987 0 0.17526094699071121 -0.32121364916979261 0 0.17670370261134591 -0.35101137430815987 0 0.16632300769682529 -0.33914532989683449 0 0.15635532043033851 -0.32762317205032648 0 0.15384528835215919 -0.34888323103730828 0 0.17526094699071121 -0.32121364916979261 0 0.16632300769682529 -0.33914532989683449 0 0.15635532043033851 -0.32762317205032648 0 0.17526094699071121 -0.32121364916979261 0 0.15635532043033851 -0.32762317205032648 0 0.16613015085753399 -0.29794196337136208 0 0.19083927531350181 -0.37426462870353422 0 0.18636698824462991 -0.36225910140511608 0 0.17814645823198061 -0.38080909944652741 0 0.17670370261134591 -0.35101137430815987 0 0.1695008882053643 -0.3539014675276998 0 0.17814645823198061 -0.38080909944652741 0 0.17670370261134591 -0.35101137430815987 0 0.17814645823198061 -0.38080909944652741 0 0.18636698824462991 -0.36225910140511608 0 0.17670370261134591 -0.35101137430815987 0 0.17814645823198061 -0.38080909944652741 0 0.18636698824462991 -0.36225910140511608 0 0.18448777755487131 -0.35210036546502188 0 0.17670370261134591 -0.35101137430815987 0 0.18448777755487131 -0.35210036546502188 0 0.18424918471087839 -0.34735428580016242 0 0.17670370261134591 -0.35101137430815987 0 0.19180082998577391 -0.35029167033112268 0 0.1840044286915227 -0.33601373309634508 0 0.18424918471087839 -0.34735428580016242 0 0.1840044286915227 -0.33601373309634508 0 0.18424918471087839 -0.34735428580016242 0 0.17670370261134591 -0.35101137430815987 0 0.19180082998577391 -0.35029167033112268 0 0.18448777755487131 -0.35210036546502188 0 0.18424918471087839 -0.34735428580016242 0 0.16632300769682529 -0.33914532989683449 0 0.1695008882053643 -0.3539014675276998 0 0.15384528835215919 -0.34888323103730828 0 0.1695008882053643 -0.3539014675276998 0 0.15622266046030589 -0.36560529067035252 0 0.15384528835215919 -0.34888323103730828 0 0.16632300769682529 -0.33914532989683449 0 0.17670370261134591 -0.35101137430815987 0 0.1695008882053643 -0.3539014675276998 0 0.1695008882053643 -0.3539014675276998 0 0.15622266046030589 -0.36560529067035252 0 0.1662516937484437 -0.37945746017663878 0 0.1695008882053643 -0.3539014675276998 0 0.17814645823198061 -0.38080909944652741 0 0.1662516937484437 -0.37945746017663878 0 0.1695008882053643 -0.3539014675276998 0 0.1662516937484437 -0.37945746017663878 0 0.15622266046030589 -0.36560529067035252 0 0.15384528835215919 -0.34888323103730828 0 0.13913284643621729 -0.36987147755796063 0 0.15622266046030589 -0.36560529067035252 0 0.13913284643621729 -0.36987147755796063 0 0.15122325216971341 -0.38057118911269922 0 0.15384528835215919 -0.34888323103730828 0 0.13913284643621729 -0.36987147755796063 0 0.1385684583736729 -0.34280877879487409 0 0.1385684583736729 -0.34280877879487409 0 0.1245186505824013 -0.36113750934922573 0 0.1203073559828662 -0.34481831064573482 0 0.13913284643621729 -0.36987147755796063 0 0.1385684583736729 -0.34280877879487409 0 0.13913284643621729 -0.36987147755796063 0 0.1385684583736729 -0.34280877879487409 0 0.1245186505824013 -0.36113750934922573 0 0.13913284643621729 -0.36987147755796063 0 0.12672469353237761 -0.38193719477194499 0 0.1245186505824013 -0.36113750934922573 0 0.15635532043033851 -0.32762317205032648 0 0.13800407031112841 -0.31574608003178772 0 0.16613015085753399 -0.29794196337136208 0 0.15635532043033851 -0.32762317205032648 0 0.15384528835215919 -0.34888323103730828 0 0.1385684583736729 -0.34280877879487409 0 0.15635532043033851 -0.32762317205032648 0 0.1385684583736729 -0.34280877879487409 0 0.13800407031112841 -0.31574608003178772 0 0.1385684583736729 -0.34280877879487409 0 0.13800407031112841 -0.31574608003178772 0 0.1385684583736729 -0.34280877879487409 0 0.1252730154641265 -0.33501756179834041 0 0.127277047630593 -0.32368123984794023 0 0.1385684583736729 -0.34280877879487409 0 0.1252730154641265 -0.33501756179834041 0 0.1203073559828662 -0.34481831064573482 0 0.13800407031112841 -0.31574608003178772 0 0.127277047630593 -0.32368123984794023 0 0.1207194796176513 -0.31206082339016011 0 0.1385684583736729 -0.34280877879487409 0 0.13800407031112841 -0.31574608003178772 0 0.127277047630593 -0.32368123984794023 0 0.13800407031112841 -0.31574608003178772 0 0.13743968224858391 -0.28868338126870119 0 0.1207194796176513 -0.31206082339016011 0 0.13800407031112841 -0.31574608003178772 0 0.13743968224858391 -0.28868338126870119 0 0.13800407031112841 -0.31574608003178772 0 0.13743968224858391 -0.28868338126870119 0 0.16613015085753399 -0.29794196337136208 0 0.13743968224858391 -0.28868338126870119 0 0.16013622185265231 -0.27370264407204231 0 0.16613015085753399 -0.29794196337136208 0 0.13743968224858391 -0.28868338126870119 0 0.13687529418603939 -0.26162068250561471 0 0.13743968224858391 -0.28868338126870119 0 0.13687529418603939 -0.26162068250561471 0 0.12122917553908071 -0.27280048239714111 0 0.13687529418603939 -0.26162068250561471 0 0.15867772839633809 -0.25707915377424612 0 0.15532271566916761 -0.23874085795770611 0 0.13687529418603939 -0.26162068250561471 0 0.16013622185265231 -0.27370264407204231 0 0.15867772839633809 -0.25707915377424612 0 0.13743968224858391 -0.28868338126870119 0 0.13687529418603939 -0.26162068250561471 0 0.16013622185265231 -0.27370264407204231 0 0.16013622185265231 -0.27370264407204231 0 0.17163424862532001 -0.26348395238230132 0 0.17866520103123101 -0.27392164610568698 0 0.16013622185265231 -0.27370264407204231 0 0.15867772839633809 -0.25707915377424612 0 0.17163424862532001 -0.26348395238230132 0 0.15867772839633809 -0.25707915377424612 0 0.17163424862532001 -0.26348395238230132 0 0.17304535898525439 -0.24904788565112909 0 0.17163424862532001 -0.26348395238230132 0 0.18066177981631051 -0.25348299893649828 0 0.17304535898525439 -0.24904788565112909 0 0.17163424862532001 -0.26348395238230132 0 0.1861358052291735 -0.26379397041404468 0 0.18066177981631051 -0.25348299893649828 0 0.19627752834655959 -0.27465633278028612 0 0.17866520103123101 -0.27392164610568698 0 0.18615950714984131 -0.28714944863913389 0 0.19627752834655959 -0.27465633278028612 0 0.1861358052291735 -0.26379397041404468 0 0.17866520103123101 -0.27392164610568698 0 0.17163424862532001 -0.26348395238230132 0 0.1861358052291735 -0.26379397041404468 0 0.17866520103123101 -0.27392164610568698 0 0.17866520103123101 -0.27392164610568698 0 0.18615950714984131 -0.28714944863913389 0 0.16613015085753399 -0.29794196337136208 0 0.18615950714984131 -0.28714944863913389 0 0.1861316223780578 -0.30340045511113362 0 0.16613015085753399 -0.29794196337136208 0 0.17526094699071121 -0.32121364916979261 0 0.1861316223780578 -0.30340045511113362 0 0.16613015085753399 -0.29794196337136208 0 0.16013622185265231 -0.27370264407204231 0 0.17866520103123101 -0.27392164610568698 0 0.16613015085753399 -0.29794196337136208 0 0.19650118937966099 -0.48458767462136337 0 0.18247472509388471 -0.47020227486163019 0 0.1839174807145193 -0.49999999999999789 0 0.19650118937966099 -0.48458767462136337 0 0.2054847406710314 -0.5 0 0.1839174807145193 -0.49999999999999789 0 0.19650118937966099 -0.48458767462136337 0 0.1995265252191368 -0.47051219141525807 0 0.18247472509388471 -0.47020227486163019 0 0.19650118937966099 -0.48458767462136337 0 0.1995265252191368 -0.47051219141525807 0 0.21142085222808771 -0.48158275099342862 0 0.1995265252191368 -0.47051219141525807 0 0.21142085222808771 -0.48158275099342862 0 0.21140626781342409 -0.46122374827882839 0 0.21142085222808771 -0.48158275099342862 0 0.23068219321441441 -0.47630316546961982 0 0.21140626781342409 -0.46122374827882839 0 0.19650118937966099 -0.48458767462136337 0 0.21142085222808771 -0.48158275099342862 0 0.2054847406710314 -0.5 0 0.21142085222808771 -0.48158275099342862 0 0.2054847406710314 -0.5 0 0.22705200062754341 -0.49999999999999972 0 0.21142085222808771 -0.48158275099342862 0 0.22705200062754341 -0.49999999999999972 0 0.23068219321441441 -0.47630316546961982 0 0.22705200062754341 -0.49999999999999972 0 0.24310759435645521 -0.48732129405658853 0 0.23068219321441441 -0.47630316546961982 0 0.22705200062754341 -0.49999999999999972 0 0.23068219321441441 -0.47630316546961982 0 0.25573491640979129 -0.5 0 0.22705200062754341 -0.49999999999999972 0 0.24310759435645521 -0.48732129405658853 0 0.24310759435645521 -0.48732129405658853 0 0.24452211955108941 -0.47321082899062988 0 0.23068219321441441 -0.47630316546961982 0 0.23068219321441441 -0.47630316546961982 0 0.23431238580128549 -0.45260633093924002 0 0.23068219321441441 -0.47630316546961982 0 0.23431238580128549 -0.45260633093924002 0 0.21140626781342409 -0.46122374827882839 0 0.24452211955108941 -0.47321082899062988 0 0.23068219321441441 -0.47630316546961982 0 0.23431238580128549 -0.45260633093924002 0 0.25055382002994903 -0.45112655962101422 0 0.24452211955108941 -0.47321082899062988 0 0.23431238580128549 -0.45260633093924002 0 0.25055382002994903 -0.45112655962101422 0 0.23431238580128549 -0.45260633093924002 0 0.24845486683426421 -0.43056678600332871 0 0.23431238580128549 -0.45260633093924002 0 0.2061844358166085 -0.43731386343018219 0 0.22816721351006641 -0.42382217308135922 0 0.23431238580128549 -0.45260633093924002 0 0.21140626781342409 -0.46122374827882839 0 0.2061844358166085 -0.43731386343018219 0 0.21140626781342409 -0.46122374827882839 0 0.1958295915806266 -0.45496450832104018 0 0.2061844358166085 -0.43731386343018219 0 0.1995265252191368 -0.47051219141525807 0 0.1958295915806266 -0.45496450832104018 0 0.18247472509388471 -0.47020227486163019 0 0.1995265252191368 -0.47051219141525807 0 0.21140626781342409 -0.46122374827882839 0 0.1958295915806266 -0.45496450832104018 0 0.1958295915806266 -0.45496450832104018 0 0.2061844358166085 -0.43731386343018219 0 0.18103196947325001 -0.44040454972326271 0 0.19189840580791451 -0.42494462472696731 0 0.2061844358166085 -0.43731386343018219 0 0.18103196947325001 -0.44040454972326271 0 0.19189840580791451 -0.42494462472696731 0 0.1954291475964339 -0.41062193775622902 0 0.2113234447447021 -0.41044931469126889 0 0.19189840580791451 -0.42494462472696731 0 0.1954291475964339 -0.41062193775622902 0 0.17958921385261531 -0.41060682458489489 0 0.19189840580791451 -0.42494462472696731 0 0.2113234447447021 -0.41044931469126889 0 0.2061844358166085 -0.43731386343018219 0 0.2113234447447021 -0.41044931469126889 0 0.2061844358166085 -0.43731386343018219 0 0.22816721351006641 -0.42382217308135922 0 0.2113234447447021 -0.41044931469126889 0 0.2061844358166085 -0.43731386343018219 0 0.23431238580128549 -0.45260633093924002 0 0.22816721351006641 -0.42382217308135922 0 0.24845486683426421 -0.43056678600332871 0 0.22816721351006641 -0.42382217308135922 0 0.24845486683426421 -0.43056678600332871 0 0.24730388124056729 -0.40448370284608931 0 0.22816721351006641 -0.42382217308135922 0 0.22802948983690591 -0.39972126622214238 0 0.24730388124056729 -0.40448370284608931 0 0.2113234447447021 -0.41044931469126889 0 0.22816721351006641 -0.42382217308135922 0 0.22802948983690591 -0.39972126622214238 0 0.22802948983690591 -0.39972126622214238 0 0.24730388124056729 -0.40448370284608931 0 0.2380746425401753 -0.37739124482652259 0 0.26194523537769671 -0.38343407302417171 0 0.24730388124056729 -0.40448370284608931 0 0.2380746425401753 -0.37739124482652259 0 0.22802948983690591 -0.39972126622214238 0 0.2380746425401753 -0.37739124482652259 0 0.21646245367279571 -0.38358476595235552 0 0.21646245367279571 -0.38358476595235552 0 0.19890552598050351 -0.3964869870217847 0 0.2025217842010896 -0.37807387373583923 0 0.2113234447447021 -0.41044931469126889 0 0.22802948983690591 -0.39972126622214238 0 0.21646245367279571 -0.38358476595235552 0 0.2113234447447021 -0.41044931469126889 0 0.21646245367279571 -0.38358476595235552 0 0.2113234447447021 -0.41044931469126889 0 0.21646245367279571 -0.38358476595235552 0 0.19890552598050351 -0.3964869870217847 0 0.1954291475964339 -0.41062193775622902 0 0.2113234447447021 -0.41044931469126889 0 0.19890552598050351 -0.3964869870217847 0 0.1954291475964339 -0.41062193775622902 0 0.19890552598050351 -0.3964869870217847 0 0.17958921385261531 -0.41060682458489489 0 0.19890552598050351 -0.3964869870217847 0 0.19000045151593811 -0.3880482826985161 0 0.17958921385261531 -0.41060682458489489 0 0.19890552598050351 -0.3964869870217847 0 0.19000045151593811 -0.3880482826985161 0 0.2025217842010896 -0.37807387373583923 0 0.19083927531350181 -0.37426462870353422 0 0.19000045151593811 -0.3880482826985161 0 0.2025217842010896 -0.37807387373583923 0 0.19083927531350181 -0.37426462870353422 0 0.19000045151593811 -0.3880482826985161 0 0.17814645823198061 -0.38080909944652741 0 0.17814645823198061 -0.38080909944652741 0 0.17958921385261531 -0.41060682458489489 0 0.19000045151593811 -0.3880482826985161 0 0.17814645823198061 -0.38080909944652741 0 0.17958921385261531 -0.41060682458489489 0 0.17814645823198061 -0.38080909944652741 0 0.17073561596382039 -0.39301209499015272 0 0.17958921385261531 -0.41060682458489489 0 0.16300249929152311 -0.40501345282557782 0 0.1662516937484437 -0.37945746017663878 0 0.1548118257048379 -0.39098754083749682 0 0.17073561596382039 -0.39301209499015272 0 0.16300249929152311 -0.40501345282557782 0 0.1662516937484437 -0.37945746017663878 0 0.17073561596382039 -0.39301209499015272 0 0.16300249929152311 -0.40501345282557782 0 0.17958921385261531 -0.41060682458489489 0 0.16300249929152311 -0.40501345282557782 0 0.1662516937484437 -0.37945746017663878 0 0.1662516937484437 -0.37945746017663878 0 0.15122325216971341 -0.38057118911269922 0 0.1548118257048379 -0.39098754083749682 0 0.17814645823198061 -0.38080909944652741 0 0.17073561596382039 -0.39301209499015272 0 0.1662516937484437 -0.37945746017663878 0 0.15622266046030589 -0.36560529067035252 0 0.1662516937484437 -0.37945746017663878 0 0.15122325216971341 -0.38057118911269922 0 0.15122325216971341 -0.38057118911269922 0 0.13969723449876181 -0.39693417632104711 0 0.1548118257048379 -0.39098754083749682 0 0.13913284643621729 -0.36987147755796063 0 0.15122325216971341 -0.38057118911269922 0 0.13969723449876181 -0.39693417632104711 0 0.13913284643621729 -0.36987147755796063 0 0.12672469353237761 -0.38193719477194499 0 0.13969723449876181 -0.39693417632104711 0 0.13913284643621729 -0.36987147755796063 0 0.13969723449876181 -0.39693417632104711 0 0.12672469353237761 -0.38193719477194499 0 0.13969723449876181 -0.39693417632104711 0 0.1219351525082772 -0.40864131998943182 0 0.16300249929152311 -0.40501345282557782 0 0.13969723449876181 -0.39693417632104711 0 0.1524997256598466 -0.41582351463554701 0 0.16300249929152311 -0.40501345282557782 0 0.13969723449876181 -0.39693417632104711 0 0.1548118257048379 -0.39098754083749682 0 0.13969723449876181 -0.39693417632104711 0 0.1524997256598466 -0.41582351463554701 0 0.14026162256130631 -0.42399687508413381 0 0.13969723449876181 -0.39693417632104711 0 0.14026162256130631 -0.42399687508413381 0 0.13969723449876181 -0.39693417632104711 0 0.14026162256130631 -0.42399687508413381 0 0.1219351525082772 -0.40864131998943182 0 0.1272554141007321 -0.42571201066291808 0 0.14026162256130631 -0.42399687508413381 0 0.1219351525082772 -0.40864131998943182 0 0.13018508541287829 -0.43658956786597553 0 0.14026162256130631 -0.42399687508413381 0 0.14082601062385081 -0.45105957384722029 0 0.13018508541287829 -0.43658956786597553 0 0.1272554141007321 -0.42571201066291808 0 0.14026162256130631 -0.42399687508413381 0 0.1524997256598466 -0.41582351463554701 0 0.14026162256130631 -0.42399687508413381 0 0.15975330483460251 -0.43056944547451692 0 0.14026162256130631 -0.42399687508413381 0 0.15975330483460251 -0.43056944547451692 0 0.14082601062385081 -0.45105957384722029 0 0.16300249929152311 -0.40501345282557782 0 0.15975330483460251 -0.43056944547451692 0 0.17958921385261531 -0.41060682458489489 0 0.16300249929152311 -0.40501345282557782 0 0.15975330483460251 -0.43056944547451692 0 0.16300249929152311 -0.40501345282557782 0 0.1524997256598466 -0.41582351463554701 0 0.15975330483460251 -0.43056944547451692 0 0.15975330483460251 -0.43056944547451692 0 0.17958921385261531 -0.41060682458489489 0 0.18103196947325001 -0.44040454972326271 0 0.17958921385261531 -0.41060682458489489 0 0.18103196947325001 -0.44040454972326271 0 0.19189840580791451 -0.42494462472696731 0 0.17958921385261531 -0.41060682458489489 0 0.18103196947325001 -0.44040454972326271 0 0.18103196947325001 -0.44040454972326271 0 0.16491961284223791 -0.45249038001545161 0 0.18247472509388471 -0.47020227486163019 0 0.18103196947325001 -0.44040454972326271 0 0.18247472509388471 -0.47020227486163019 0 0.1958295915806266 -0.45496450832104018 0 0.18103196947325001 -0.44040454972326271 0 0.18247472509388471 -0.47020227486163019 0 0.16491961284223791 -0.45249038001545161 0 0.1605120541856016 -0.47021605617062739 0 0.18247472509388471 -0.47020227486163019 0 0.15975330483460251 -0.43056944547451692 0 0.18103196947325001 -0.44040454972326271 0 0.16491961284223791 -0.45249038001545161 0 0.15975330483460251 -0.43056944547451692 0 0.16491961284223791 -0.45249038001545161 0 0.14082601062385081 -0.45105957384722029 0 0.14026162256130631 -0.42399687508413381 0 0.14082601062385081 -0.45105957384722029 0 0.14082601062385081 -0.45105957384722029 0 0.12543676829432579 -0.44683393452868708 0 0.12531186358948529 -0.45757018679138572 0 0.13018508541287829 -0.43658956786597553 0 0.14082601062385081 -0.45105957384722029 0 0.12543676829432579 -0.44683393452868708 0 0.14082601062385081 -0.45105957384722029 0 0.12842365125323091 -0.46593607888014599 0 0.13328939848609819 -0.47119455711627289 0 0.14082601062385081 -0.45105957384722029 0 0.14139039868639619 -0.47812227261030682 0 0.13328939848609819 -0.47119455711627289 0 0.12842365125323091 -0.46593607888014599 0 0.12531186358948529 -0.45757018679138572 0 0.1232316263288145 -0.46410889533344052 0 0.12842365125323091 -0.46593607888014599 0 0.1245497287119053 -0.47085317529077592 0 0.12311265484265969 -0.46777846846391841 0 0.14082601062385081 -0.45105957384722029 0 0.12842365125323091 -0.46593607888014599 0 0.12531186358948529 -0.45757018679138572 0 0.16491961284223791 -0.45249038001545161 0 0.14082601062385081 -0.45105957384722029 0 0.1605120541856016 -0.47021605617062739 0 0.14082601062385081 -0.45105957384722029 0 0.14139039868639619 -0.47812227261030682 0 0.14082601062385081 -0.45105957384722029 0 0.14139039868639619 -0.47812227261030682 0 0.1605120541856016 -0.47021605617062739 0 0.14139039868639619 -0.47812227261030682 0 0.15939735020609169 -0.48906113630515408 0 0.1605120541856016 -0.47021605617062739 0 0.14139039868639619 -0.47812227261030682 0 0.15939735020609169 -0.48906113630515408 0 0.14139039868639619 -0.47812227261030682 0 0.13328939848609819 -0.47119455711627289 0 0.13520794413867351 -0.47916570768291911 0 0.14139039868639619 -0.47812227261030682 0 0.13520794413867351 -0.47916570768291911 0 0.13309005864575499 -0.48654881223837643 0 0.13328939848609819 -0.47119455711627289 0 0.13520794413867351 -0.47916570768291911 0 0.1282166063692238 -0.47963436787526348 0 0.13520794413867351 -0.47916570768291911 0 0.1282166063692238 -0.47963436787526348 0 0.13309005864575499 -0.48654881223837643 0 0.12842365125323091 -0.46593607888014599 0 0.1275076222339897 -0.47406719287555171 0 0.1245497287119053 -0.47085317529077592 0 0.12842365125323091 -0.46593607888014599 0 0.13328939848609819 -0.47119455711627289 0 0.1275076222339897 -0.47406719287555171 0 0.13328939848609819 -0.47119455711627289 0 0.1282166063692238 -0.47963436787526348 0 0.1275076222339897 -0.47406719287555171 0 0.1282166063692238 -0.47963436787526348 0 0.1275076222339897 -0.47406719287555171 0 0.12271037357175291 -0.47562361121234281 0 0.14139039868639619 -0.47812227261030682 0 0.13309005864575499 -0.48654881223837643 0 0.1417493920694651 -0.49533619053082339 0 0.1325088383252874 -0.49999999999999689 0 0.11946717228548211 -0.4870343347309507 0 0.1325088383252874 -0.49999999999999689 0 0.13309005864575499 -0.48654881223837643 0 0.11946717228548211 -0.4870343347309507 0 0.1282166063692238 -0.47963436787526348 0 0.13309005864575499 -0.48654881223837643 0 0.11946717228548211 -0.4870343347309507 0 0.1325088383252874 -0.49999999999999689 0 0.13309005864575499 -0.48654881223837643 0 0.1417493920694651 -0.49533619053082339 0 0.1325088383252874 -0.49999999999999689 0 0.1417493920694651 -0.49533619053082339 0 0.15495657002553739 -0.5 0 0.14139039868639619 -0.47812227261030682 0 0.14937342774687271 -0.49062989986157102 0 0.15939735020609169 -0.48906113630515408 0 0.14139039868639619 -0.47812227261030682 0 0.1417493920694651 -0.49533619053082339 0 0.14139039868639619 -0.47812227261030682 0 0.1417493920694651 -0.49533619053082339 0 0.14937342774687271 -0.49062989986157102 0 0.1417493920694651 -0.49533619053082339 0 0.14937342774687271 -0.49062989986157102 0 0.15495657002553739 -0.5 0 0.14937342774687271 -0.49062989986157102 0 0.15495657002553739 -0.5 0 0.15939735020609169 -0.48906113630515408 0 0.15939735020609169 -0.48906113630515408 0 0.17467337585270831 -0.48420504396041608 0 0.1774043017257875 -0.50000000000000111 0 0.15939735020609169 -0.48906113630515408 0 0.1774043017257875 -0.50000000000000111 0 0.15495657002553739 -0.5 0 0.15939735020609169 -0.48906113630515408 0 0.1774043017257875 -0.50000000000000111 0 0.15939735020609169 -0.48906113630515408 0 0.1605120541856016 -0.47021605617062739 0 0.17467337585270831 -0.48420504396041608 0 0.1605120541856016 -0.47021605617062739 0 0.17467337585270831 -0.48420504396041608 0 0.18247472509388471 -0.47020227486163019 0 0.18247472509388471 -0.47020227486163019 0 0.1839174807145193 -0.49999999999999789 0 0.17467337585270831 -0.48420504396041608 0 0.18247472509388471 -0.47020227486163019 0 0.1839174807145193 -0.49999999999999789 0 0.17467337585270831 -0.48420504396041608 0 0.1839174807145193 -0.49999999999999789 0 0.1774043017257875 -0.50000000000000111 0 0.065949985054517032 -0.48884997455687013 0 0.080677891680827868 -0.48404188118506331 0 0.084758324792090334 -0.49999999999999989 0 0.065949985054517032 -0.48884997455687013 0 0.084758324792090334 -0.49999999999999989 0 0.055728539092515517 -0.5 0 0.065949985054517032 -0.48884997455687013 0 0.069113753880103546 -0.47032146630200872 0 0.080677891680827868 -0.48404188118506331 0 0.065949985054517032 -0.48884997455687013 0 0.069113753880103546 -0.47032146630200872 0 0.057596711449277201 -0.48334309492942701 0 0.069113753880103546 -0.47032146630200872 0 0.080677891680827868 -0.48404188118506331 0 0.088790870678748121 -0.47481427013272492 0 0.069113753880103546 -0.47032146630200872 0 0.088790870678748121 -0.47481427013272492 0 0.09506323621333454 -0.46277261346061632 0 0.080677891680827868 -0.48404188118506331 0 0.088790870678748121 -0.47481427013272492 0 0.094776523998680279 -0.48622369493371298 0 0.080677891680827868 -0.48404188118506331 0 0.084758324792090334 -0.49999999999999989 0 0.094776523998680279 -0.48622369493371298 0 0.084758324792090334 -0.49999999999999989 0 0.10099043700106421 -0.499999999999999 0 0.094776523998680279 -0.48622369493371298 0 0.084758324792090334 -0.49999999999999989 0 0.094776523998680279 -0.48622369493371298 0 0.10099043700106421 -0.499999999999999 0 0.1064255062456735 -0.47406866946190801 0 0.10099043700106421 -0.499999999999999 0 0.094776523998680279 -0.48622369493371298 0 0.1064255062456735 -0.47406866946190801 0 0.10099043700106421 -0.499999999999999 0 0.11946717228548211 -0.4870343347309507 0 0.1064255062456735 -0.47406866946190801 0 0.1325088383252874 -0.49999999999999689 0 0.1167496376631757 -0.5 0 0.11946717228548211 -0.4870343347309507 0 0.10099043700106421 -0.499999999999999 0 0.1167496376631757 -0.5 0 0.11946717228548211 -0.4870343347309507 0 0.12074084002908721 -0.47045370359981148 0 0.12271037357175291 -0.47562361121234281 0 0.11625567037499381 -0.47238364776222469 0 0.12074084002908721 -0.47045370359981148 0 0.11625567037499381 -0.47238364776222469 0 0.1192823524431306 -0.4663394170250621 0 0.12074084002908721 -0.47045370359981148 0 0.1245497287119053 -0.47085317529077592 0 0.12271037357175291 -0.47562361121234281 0 0.12074084002908721 -0.47045370359981148 0 0.1245497287119053 -0.47085317529077592 0 0.12311265484265969 -0.46777846846391841 0 0.1275076222339897 -0.47406719287555171 0 0.1245497287119053 -0.47085317529077592 0 0.12271037357175291 -0.47562361121234281 0 0.1282166063692238 -0.47963436787526348 0 0.11946717228548211 -0.4870343347309507 0 0.12271037357175291 -0.47562361121234281 0 0.11946717228548211 -0.4870343347309507 0 0.12271037357175291 -0.47562361121234281 0 0.11625567037499381 -0.47238364776222469 0 0.11946717228548211 -0.4870343347309507 0 0.1064255062456735 -0.47406866946190801 0 0.11946717228548211 -0.4870343347309507 0 0.11625567037499381 -0.47238364776222469 0 0.1064255062456735 -0.47406866946190801 0 0.11625567037499381 -0.47238364776222469 0 0.1064255062456735 -0.47406866946190801 0 0.11129693947086181 -0.46795476393154728 0 0.1064255062456735 -0.47406866946190801 0 0.10479472320527 -0.47244738986742602 0 0.1075632658294263 -0.46864028970971422 0 0.1064255062456735 -0.47406866946190801 0 0.1075632658294263 -0.46864028970971422 0 0.11129693947086181 -0.46795476393154728 0 0.088790870678748121 -0.47481427013272492 0 0.094776523998680279 -0.48622369493371298 0 0.10479472320527 -0.47244738986742602 0 0.1064255062456735 -0.47406866946190801 0 0.1075632658294263 -0.46864028970971422 0 0.088790870678748121 -0.47481427013272492 0 0.10479472320527 -0.47244738986742602 0 0.09506323621333454 -0.46277261346061632 0 0.10479472320527 -0.47244738986742602 0 0.1075632658294263 -0.46864028970971422 0 0.1064255062456735 -0.47406866946190801 0 0.10479472320527 -0.47244738986742602 0 0.094776523998680279 -0.48622369493371298 0 0.1064255062456735 -0.47406866946190801 0 0.10479472320527 -0.47244738986742602 0 0.094776523998680279 -0.48622369493371298 0 0.10479472320527 -0.47244738986742602 0 0.10479472320527 -0.47244738986742602 0 0.09506323621333454 -0.46277261346061632 0 0.1060131744550812 -0.45411466011360518 0 0.1075632658294263 -0.46864028970971422 0 0.11260152047704799 -0.44460220652757759 0 0.09506323621333454 -0.46277261346061632 0 0.10011436795704159 -0.45274002486564408 0 0.091519926973447546 -0.44626784630584138 0 0.09506323621333454 -0.46277261346061632 0 0.10386028492466159 -0.46021350167150438 0 0.09506323621333454 -0.46277261346061632 0 0.10386028492466159 -0.46021350167150438 0 0.10011436795704159 -0.45274002486564408 0 0.10386028492466159 -0.46021350167150438 0 0.1060131744550812 -0.45411466011360518 0 0.10011436795704159 -0.45274002486564408 0 0.10386028492466159 -0.46021350167150438 0 0.1060131744550812 -0.45411466011360518 0 0.1075632658294263 -0.46864028970971422 0 0.10479472320527 -0.47244738986742602 0 0.09506323621333454 -0.46277261346061632 0 0.1075632658294263 -0.46864028970971422 0 0.09506323621333454 -0.46277261346061632 0 0.10386028492466159 -0.46021350167150438 0 0.1075632658294263 -0.46864028970971422 0 0.1075632658294263 -0.46864028970971422 0 0.1123560704600764 -0.46204957042440498 0 0.11260152047704799 -0.44460220652757759 0 0.1075632658294263 -0.46864028970971422 0 0.1123560704600764 -0.46204957042440498 0 0.1075632658294263 -0.46864028970971422 0 0.11129693947086181 -0.46795476393154728 0 0.1123560704600764 -0.46204957042440498 0 0.1075632658294263 -0.46864028970971422 0 0.11260152047704799 -0.44460220652757759 0 0.11129693947086181 -0.46795476393154728 0 0.1123560704600764 -0.46204957042440498 0 0.11129693947086181 -0.46795476393154728 0 0.1149697984784732 -0.46556593525158491 0 0.1123560704600764 -0.46204957042440498 0 0.11625567037499381 -0.47238364776222469 0 0.1149697984784732 -0.46556593525158491 0 0.1192823524431306 -0.4663394170250621 0 0.11625567037499381 -0.47238364776222469 0 0.11129693947086181 -0.46795476393154728 0 0.1149697984784732 -0.46556593525158491 0 0.1149697984784732 -0.46556593525158491 0 0.1123560704600764 -0.46204957042440498 0 0.118705430672609 -0.46205297743075813 0 0.1123560704600764 -0.46204957042440498 0 0.11635977570981471 -0.45654396370023359 0 0.118705430672609 -0.46205297743075813 0 0.1123560704600764 -0.46204957042440498 0 0.11635977570981471 -0.45654396370023359 0 0.12531186358948529 -0.45757018679138572 0 0.11635977570981471 -0.45654396370023359 0 0.118705430672609 -0.46205297743075813 0 0.12543676829432579 -0.44683393452868708 0 0.12531186358948529 -0.45757018679138572 0 0.11635977570981471 -0.45654396370023359 0 0.12531186358948529 -0.45757018679138572 0 0.1232316263288145 -0.46410889533344052 0 0.118705430672609 -0.46205297743075813 0 0.1232316263288145 -0.46410889533344052 0 0.12311265484265969 -0.46777846846391841 0 0.1192823524431306 -0.4663394170250621 0 0.12842365125323091 -0.46593607888014599 0 0.1232316263288145 -0.46410889533344052 0 0.12311265484265969 -0.46777846846391841 0 0.12074084002908721 -0.47045370359981148 0 0.12311265484265969 -0.46777846846391841 0 0.1192823524431306 -0.4663394170250621 0 0.1149697984784732 -0.46556593525158491 0 0.1192823524431306 -0.4663394170250621 0 0.118705430672609 -0.46205297743075813 0 0.1232316263288145 -0.46410889533344052 0 0.1192823524431306 -0.4663394170250621 0 0.118705430672609 -0.46205297743075813 0 0.1123560704600764 -0.46204957042440498 0 0.11714561148417681 -0.43534544520691831 0 0.1123560704600764 -0.46204957042440498 0 0.11260152047704799 -0.44460220652757759 0 0.11714561148417681 -0.43534544520691831 0 0.1123560704600764 -0.46204957042440498 0 0.11635977570981471 -0.45654396370023359 0 0.11714561148417681 -0.43534544520691831 0 0.12543676829432579 -0.44683393452868708 0 0.11635977570981471 -0.45654396370023359 0 0.11714561148417681 -0.43534544520691831 0 0.13018508541287829 -0.43658956786597553 0 0.12543676829432579 -0.44683393452868708 0 0.11714561148417681 -0.43534544520691831 0 0.10592643308722841 -0.44437727779358549 0 0.083881602994700072 -0.43088647549478237 0 0.10592643308722841 -0.44437727779358549 0 0.091519926973447546 -0.44626784630584138 0 0.083881602994700072 -0.43088647549478237 0 0.11260152047704799 -0.44460220652757759 0 0.10592643308722841 -0.44437727779358549 0 0.1086116799951807 -0.43095684568344572 0 0.1060131744550812 -0.45411466011360518 0 0.10592643308722841 -0.44437727779358549 0 0.10011436795704159 -0.45274002486564408 0 0.1060131744550812 -0.45411466011360518 0 0.11260152047704799 -0.44460220652757759 0 0.10592643308722841 -0.44437727779358549 0 0.10592643308722841 -0.44437727779358549 0 0.10011436795704159 -0.45274002486564408 0 0.091519926973447546 -0.44626784630584138 0 0.09506323621333454 -0.46277261346061632 0 0.073976492589610171 -0.44180875358221461 0 0.09506323621333454 -0.46277261346061632 0 0.091519926973447546 -0.44626784630584138 0 0.073976492589610171 -0.44180875358221461 0 0.091519926973447546 -0.44626784630584138 0 0.073976492589610171 -0.44180875358221461 0 0.083881602994700072 -0.43088647549478237 0 0.069113753880103546 -0.47032146630200872 0 0.09506323621333454 -0.46277261346061632 0 0.09506323621333454 -0.46277261346061632 0 0.075948319170580939 -0.45709497223106438 0 0.073976492589610171 -0.44180875358221461 0 0.069113753880103546 -0.47032146630200872 0 0.09506323621333454 -0.46277261346061632 0 0.075948319170580939 -0.45709497223106438 0 0.069113753880103546 -0.47032146630200872 0 0.075948319170580939 -0.45709497223106438 0 0.064267892493667544 -0.45245405090636609 0 0.064267892493667544 -0.45245405090636609 0 0.073976492589610171 -0.44180875358221461 0 0.061221704008603092 -0.43412854505433712 0 0.075948319170580939 -0.45709497223106438 0 0.064267892493667544 -0.45245405090636609 0 0.073976492589610171 -0.44180875358221461 0 0.083881602994700072 -0.43088647549478237 0 0.061836772902171017 -0.41739567319598042 0 0.061221704008603092 -0.43412854505433712 0 0.073976492589610171 -0.44180875358221461 0 0.083881602994700072 -0.43088647549478237 0 0.061221704008603092 -0.43412854505433712 0 0.083881602994700072 -0.43088647549478237 0 0.061836772902171017 -0.41739567319598042 0 0.087852613914545186 -0.40334306140395609 0 0.070156507476487037 -0.39917662383738439 0 0.061836772902171017 -0.41739567319598042 0 0.087852613914545186 -0.40334306140395609 0 0.061836772902171017 -0.41739567319598042 0 0.090204007114443943 -0.4177400312392191 0 0.087852613914545186 -0.40334306140395609 0 0.061836772902171017 -0.41739567319598042 0 0.090204007114443943 -0.4177400312392191 0 0.083881602994700072 -0.43088647549478237 0 0.061836772902171017 -0.41739567319598042 0 0.090204007114443943 -0.4177400312392191 0 0.083881602994700072 -0.43088647549478237 0 0.10022705322515101 -0.42809075962971732 0 0.10592643308722841 -0.44437727779358549 0 0.083881602994700072 -0.43088647549478237 0 0.10022705322515101 -0.42809075962971732 0 0.10592643308722841 -0.44437727779358549 0 0.10022705322515101 -0.42809075962971732 0 0.1086116799951807 -0.43095684568344572 0 0.10022705322515101 -0.42809075962971732 0 0.1086116799951807 -0.43095684568344572 0 0.10561771621597441 -0.41891116251106192 0 0.11260152047704799 -0.44460220652757759 0 0.11714561148417681 -0.43534544520691831 0 0.11763977512467 -0.42056412334544119 0 0.11714561148417681 -0.43534544520691831 0 0.1219351525082772 -0.40864131998943182 0 0.11260152047704799 -0.44460220652757759 0 0.11763977512467 -0.42056412334544119 0 0.11260152047704799 -0.44460220652757759 0 0.1086116799951807 -0.43095684568344572 0 0.11763977512467 -0.42056412334544119 0 0.1272554141007321 -0.42571201066291808 0 0.11714561148417681 -0.43534544520691831 0 0.1219351525082772 -0.40864131998943182 0 0.1086116799951807 -0.43095684568344572 0 0.11763977512467 -0.42056412334544119 0 0.10561771621597441 -0.41891116251106192 0 0.13018508541287829 -0.43658956786597553 0 0.1272554141007321 -0.42571201066291808 0 0.11714561148417681 -0.43534544520691831 0 0.1219351525082772 -0.40864131998943182 0 0.11763977512467 -0.42056412334544119 0 0.1226780297722921 -0.39652604016330478 0 0.11763977512467 -0.42056412334544119 0 0.1063857367604352 -0.40565829933023112 0 0.1226780297722921 -0.39652604016330478 0 0.11714561148417681 -0.43534544520691831 0 0.1219351525082772 -0.40864131998943182 0 0.11763977512467 -0.42056412334544119 0 0.11763977512467 -0.42056412334544119 0 0.1226780297722921 -0.39652604016330478 0 0.11763977512467 -0.42056412334544119 0 0.10561771621597441 -0.41891116251106192 0 0.1063857367604352 -0.40565829933023112 0 0.090204007114443943 -0.4177400312392191 0 0.1063857367604352 -0.40565829933023112 0 0.087852613914545186 -0.40334306140395609 0 0.090204007114443943 -0.4177400312392191 0 0.10561771621597441 -0.41891116251106192 0 0.1063857367604352 -0.40565829933023112 0 0.090204007114443943 -0.4177400312392191 0 0.10022705322515101 -0.42809075962971732 0 0.10561771621597441 -0.41891116251106192 0 0.1063857367604352 -0.40565829933023112 0 0.11269819459067421 -0.38831450138448881 0 0.097085641119374302 -0.38571424072610178 0 0.1063857367604352 -0.40565829933023112 0 0.097085641119374302 -0.38571424072610178 0 0.087852613914545186 -0.40334306140395609 0 0.12672469353237761 -0.38193719477194499 0 0.1219351525082772 -0.40864131998943182 0 0.1063857367604352 -0.40565829933023112 0 0.1226780297722921 -0.39652604016330478 0 0.11269819459067421 -0.38831450138448881 0 0.12672469353237761 -0.38193719477194499 0 0.1219351525082772 -0.40864131998943182 0 0.1226780297722921 -0.39652604016330478 0 0.12672469353237761 -0.38193719477194499 0 0.11269819459067421 -0.38831450138448881 0 0.1080928822255358 -0.3703790814713866 0 0.12672469353237761 -0.38193719477194499 0 0.1226780297722921 -0.39652604016330478 0 0.11269819459067421 -0.38831450138448881 0 0.11269819459067421 -0.38831450138448881 0 0.097085641119374302 -0.38571424072610178 0 0.1080928822255358 -0.3703790814713866 0 0.097085641119374302 -0.38571424072610178 0 0.078524092076429908 -0.38558307009035819 0 0.085574671404253372 -0.36606529366265911 0 0.097085641119374302 -0.38571424072610178 0 0.078524092076429908 -0.38558307009035819 0 0.087852613914545186 -0.40334306140395609 0 0.078524092076429908 -0.38558307009035819 0 0.087852613914545186 -0.40334306140395609 0 0.070156507476487037 -0.39917662383738439 0 0.078524092076429908 -0.38558307009035819 0 0.070156507476487037 -0.39917662383738439 0 0.064141871653705745 -0.38905297891460661 0 0.070156507476487037 -0.39917662383738439 0 0.058427186835583247 -0.40050833558202109 0 0.061836772902171017 -0.41739567319598042 0 0.070156507476487037 -0.39917662383738439 0 0.064141871653705745 -0.38905297891460661 0 0.058427186835583247 -0.40050833558202109 0 0.078524092076429908 -0.38558307009035819 0 0.064141871653705745 -0.38905297891460661 0 0.064781398010314309 -0.37536455347105108 0 0.078524092076429908 -0.38558307009035819 0 0.064781398010314309 -0.37536455347105108 0 0.085574671404253372 -0.36606529366265911 0 0.064781398010314309 -0.37536455347105108 0 0.05115882120843647 -0.38571757356542352 0 0.043890455581289831 -0.3709268115488259 0 0.05115882120843647 -0.38571757356542352 0 0.043890455581289831 -0.3709268115488259 0 0.064141871653705745 -0.38905297891460661 0 0.064781398010314309 -0.37536455347105108 0 0.05115882120843647 -0.38571757356542352 0 0.064141871653705745 -0.38905297891460661 0 0.05115882120843647 -0.38571757356542352 0 0.058427186835583247 -0.40050833558202109 0 0.05115882120843647 -0.38571757356542352 0 0.058427186835583247 -0.40050833558202109 0 0.05115882120843647 -0.38571757356542352 0 0.058427186835583247 -0.40050833558202109 0 0.039291666751458072 -0.38953557003537942 0 0.058427186835583247 -0.40050833558202109 0 0.03861507037192409 -0.403184658796582 0 0.039291666751458072 -0.38953557003537942 0 0.039291666751458072 -0.38953557003537942 0 0.030780854092194759 -0.38031894893150719 0 0.043890455581289831 -0.3709268115488259 0 0.05115882120843647 -0.38571757356542352 0 0.039291666751458072 -0.38953557003537942 0 0.043890455581289831 -0.3709268115488259 0 0.030780854092194759 -0.38031894893150719 0 0.043890455581289831 -0.3709268115488259 0 0.030780854092194759 -0.38031894893150719 0 0.0132535835722172 -0.37610527220974688 0 0.01539336784167648 -0.38897364439718468 0 0.039291666751458072 -0.38953557003537942 0 0.030780854092194759 -0.38031894893150719 0 0.01539336784167648 -0.38897364439718468 0 0.030780854092194759 -0.38031894893150719 0 0.0132535835722172 -0.37610527220974688 0 0.022072978528308879 -0.36937310690127451 0 -0.0078283346885702904 -0.37476262999778609 0 -0.0023576536845698339 -0.39611583857600319 0 0.01539336784167648 -0.38897364439718468 0 -0.0078283346885702904 -0.37476262999778609 0 0.01539336784167648 -0.38897364439718468 0 -0.0078283346885702904 -0.37476262999778609 0 0.0132535835722172 -0.37610527220974688 0 0.01539336784167648 -0.38897364439718468 0 -0.0023576536845698339 -0.39611583857600319 0 -0.0081630895937607941 -0.41129335178386173 0 0.01158543002224671 -0.40754374071996963 0 -0.0023576536845698339 -0.39611583857600319 0 0.01539336784167648 -0.38897364439718468 0 0.01158543002224671 -0.40754374071996963 0 0.03861507037192409 -0.403184658796582 0 0.039291666751458072 -0.38953557003537942 0 0.01539336784167648 -0.38897364439718468 0 0.03861507037192409 -0.403184658796582 0 0.01539336784167648 -0.38897364439718468 0 0.026736383496206509 -0.41290648431754168 0 0.01539336784167648 -0.38897364439718468 0 0.026736383496206509 -0.41290648431754168 0 0.01158543002224671 -0.40754374071996963 0 0.03861507037192409 -0.403184658796582 0 0.01539336784167648 -0.38897364439718468 0 0.026736383496206509 -0.41290648431754168 0 0.01158543002224671 -0.40754374071996963 0 0.01747615232015888 -0.42514842909431222 0 0.026736383496206509 -0.41290648431754168 0 0.01747615232015888 -0.42514842909431222 0 0.02768083642208749 -0.42593076319487821 0 0.01158543002224671 -0.40754374071996963 0 0.0026957591361241309 -0.41958824334712869 0 0.01747615232015888 -0.42514842909431222 0 -0.0081630895937607941 -0.41129335178386173 0 0.01158543002224671 -0.40754374071996963 0 0.0026957591361241309 -0.41958824334712869 0 0.0026957591361241309 -0.41958824334712869 0 0.003851027954898749 -0.43172418954792041 0 0.01747615232015888 -0.42514842909431222 0 0.003851027954898749 -0.43172418954792041 0 0.01410030331848921 -0.43483725365991388 0 0.01747615232015888 -0.42514842909431222 0 0.003851027954898749 -0.43172418954792041 0 0.01410030331848921 -0.43483725365991388 0 0.011432193992105429 -0.44462200732167467 0 0.01747615232015888 -0.42514842909431222 0 0.023728282280598981 -0.43798020184644493 0 0.01410030331848921 -0.43483725365991388 0 0.01747615232015888 -0.42514842909431222 0 0.023728282280598981 -0.43798020184644493 0 0.01747615232015888 -0.42514842909431222 0 0.02768083642208749 -0.42593076319487821 0 0.023728282280598981 -0.43798020184644493 0 0.026736383496206509 -0.41290648431754168 0 0.02768083642208749 -0.42593076319487821 0 0.042782527591385587 -0.42768793752121392 0 0.042782527591385587 -0.42768793752121392 0 0.023728282280598981 -0.43798020184644493 0 0.02768083642208749 -0.42593076319487821 0 0.042782527591385587 -0.42768793752121392 0 0.023728282280598981 -0.43798020184644493 0 0.042782527591385587 -0.42768793752121392 0 0.038339333849137569 -0.44224603439757942 0 0.023728282280598981 -0.43798020184644493 0 0.03861507037192409 -0.403184658796582 0 0.026736383496206509 -0.41290648431754168 0 0.042782527591385587 -0.42768793752121392 0 0.03861507037192409 -0.403184658796582 0 0.042782527591385587 -0.42768793752121392 0 0.061836772902171017 -0.41739567319598042 0 0.03861507037192409 -0.403184658796582 0 0.061836772902171017 -0.41739567319598042 0 0.058427186835583247 -0.40050833558202109 0 0.03861507037192409 -0.403184658796582 0 0.061836772902171017 -0.41739567319598042 0 0.042782527591385587 -0.42768793752121392 0 0.061836772902171017 -0.41739567319598042 0 0.061221704008603092 -0.43412854505433712 0 0.042782527591385587 -0.42768793752121392 0 0.061836772902171017 -0.41739567319598042 0 0.042782527591385587 -0.42768793752121392 0 0.061221704008603092 -0.43412854505433712 0 0.052693917870023622 -0.44730825455084611 0 0.064267892493667544 -0.45245405090636609 0 0.061221704008603092 -0.43412854505433712 0 0.052693917870023622 -0.44730825455084611 0 0.069113753880103546 -0.47032146630200872 0 0.064267892493667544 -0.45245405090636609 0 0.052594011880735161 -0.46258963849414558 0 0.064267892493667544 -0.45245405090636609 0 0.052693917870023622 -0.44730825455084611 0 0.052594011880735161 -0.46258963849414558 0 0.033446276913734967 -0.45792526049492271 0 0.024747075647264399 -0.46972246297684461 0 0.043164271546872197 -0.4778703191434 0 0.052693917870023622 -0.44730825455084611 0 0.052594011880735161 -0.46258963849414558 0 0.033446276913734967 -0.45792526049492271 0 0.052594011880735161 -0.46258963849414558 0 0.033446276913734967 -0.45792526049492271 0 0.043164271546872197 -0.4778703191434 0 0.033446276913734967 -0.45792526049492271 0 0.043164271546872197 -0.4778703191434 0 0.042782527591385587 -0.42768793752121392 0 0.052693917870023622 -0.44730825455084611 0 0.038339333849137569 -0.44224603439757942 0 0.033446276913734967 -0.45792526049492271 0 0.038339333849137569 -0.44224603439757942 0 0.023728282280598981 -0.43798020184644493 0 0.052693917870023622 -0.44730825455084611 0 0.033446276913734967 -0.45792526049492271 0 0.038339333849137569 -0.44224603439757942 0 0.023728282280598981 -0.43798020184644493 0 0.011432193992105429 -0.44462200732167467 0 0.01779212199045099 -0.45571080357091009 0 0.033446276913734967 -0.45792526049492271 0 0.023728282280598981 -0.43798020184644493 0 0.033446276913734967 -0.45792526049492271 0 0.023728282280598981 -0.43798020184644493 0 0.01779212199045099 -0.45571080357091009 0 0.023728282280598981 -0.43798020184644493 0 0.011432193992105429 -0.44462200732167467 0 0.01410030331848921 -0.43483725365991388 0 0.023728282280598981 -0.43798020184644493 0 0.011432193992105429 -0.44462200732167467 0 -0.01027783979290609 -0.4450418277695869 0 0.011432193992105429 -0.44462200732167467 0 0.0031349746952128348 -0.45732154608844711 0 -0.01027783979290609 -0.4450418277695869 0 0.003851027954898749 -0.43172418954792041 0 0.011432193992105429 -0.44462200732167467 0 0.011432193992105429 -0.44462200732167467 0 0.0031349746952128348 -0.45732154608844711 0 0.01779212199045099 -0.45571080357091009 0 -0.00094907817261298132 -0.47112804672216879 0 0.0031349746952128348 -0.45732154608844711 0 0.01026392841378935 -0.46669334269712659 0 0.0031349746952128348 -0.45732154608844711 0 0.01026392841378935 -0.46669334269712659 0 0.01779212199045099 -0.45571080357091009 0 0.01026392841378935 -0.46669334269712659 0 0.01779212199045099 -0.45571080357091009 0 0.024747075647264399 -0.46972246297684461 0 0.033446276913734967 -0.45792526049492271 0 0.01779212199045099 -0.45571080357091009 0 0.024747075647264399 -0.46972246297684461 0 0.024747075647264399 -0.46972246297684461 0 0.019392481307258409 -0.48478566889839131 0 0.043164271546872197 -0.4778703191434 0 0.01026392841378935 -0.46669334269712659 0 0.024747075647264399 -0.46972246297684461 0 0.019392481307258409 -0.48478566889839131 0 0.01026392841378935 -0.46669334269712659 0 0.0053352152350804568 -0.4807791696356124 0 0.019392481307258409 -0.48478566889839131 0 -0.0043176495648967151 -0.48070428616945038 0 -0.00094907817261298132 -0.47112804672216879 0 0.0053352152350804568 -0.4807791696356124 0 -0.00094907817261298132 -0.47112804672216879 0 0.01026392841378935 -0.46669334269712659 0 0.0053352152350804568 -0.4807791696356124 0 -0.0023310323066341181 -0.5 0 -0.0043793089323552817 -0.49170101865338262 0 0.019392481307258409 -0.48478566889839131 0 -0.0043793089323552817 -0.49170101865338262 0 0.019392481307258409 -0.48478566889839131 0 -0.0043793089323552817 -0.49170101865338262 0 0.0053352152350804568 -0.4807791696356124 0 0.019392481307258409 -0.48478566889839131 0 -0.0023310323066341181 -0.5 0 0.019392481307258409 -0.48478566889839131 0 0.026698753392940699 -0.5 0 0.019392481307258409 -0.48478566889839131 0 0.026698753392940699 -0.5 0 0.035353585390671842 -0.48974665193930511 0 0.035353585390671842 -0.48974665193930511 0 0.043164271546872197 -0.4778703191434 0 0.052158835315616027 -0.49633061971542908 0 0.026698753392940699 -0.5 0 0.055728539092515517 -0.5 0 0.052158835315616027 -0.49633061971542908 0 0.026698753392940699 -0.5 0 0.035353585390671842 -0.48974665193930511 0 0.052158835315616027 -0.49633061971542908 0 0.019392481307258409 -0.48478566889839131 0 0.035353585390671842 -0.48974665193930511 0 0.043164271546872197 -0.4778703191434 0 0.019392481307258409 -0.48478566889839131 0 0.043164271546872197 -0.4778703191434 0 0.069113753880103546 -0.47032146630200872 0 0.052594011880735161 -0.46258963849414558 0 0.043164271546872197 -0.4778703191434 0 0.069113753880103546 -0.47032146630200872 0 0.043164271546872197 -0.4778703191434 0 0.057596711449277201 -0.48334309492942701 0 0.069113753880103546 -0.47032146630200872 0 0.043164271546872197 -0.4778703191434 0 0.043164271546872197 -0.4778703191434 0 0.057596711449277201 -0.48334309492942701 0 0.052158835315616027 -0.49633061971542908 0 0.065949985054517032 -0.48884997455687013 0 0.057596711449277201 -0.48334309492942701 0 0.052158835315616027 -0.49633061971542908 0 0.043164271546872197 -0.4778703191434 0 0.052158835315616027 -0.49633061971542908 0 0.065949985054517032 -0.48884997455687013 0 0.055728539092515517 -0.5 0 0.052158835315616027 -0.49633061971542908 0 0.091646396761647708 -0.28947790237370968 0 0.07071546022358817 -0.28620470259943642 0 0.079999995207784586 -0.26983589460815821 0 0.091646396761647708 -0.28947790237370968 0 0.072783535289555654 -0.30157633939854622 0 0.07071546022358817 -0.28620470259943642 0 0.091646396761647708 -0.28947790237370968 0 0.087363613427391865 -0.30807629250996549 0 0.072783535289555654 -0.30157633939854622 0 0.072783535289555654 -0.30157633939854622 0 0.073259594084162577 -0.32259772896999273 0 0.056038135353808333 -0.31320409925325249 0 0.087363613427391865 -0.30807629250996549 0 0.072783535289555654 -0.30157633939854622 0 0.073259594084162577 -0.32259772896999273 0 0.072783535289555654 -0.30157633939854622 0 0.07071546022358817 -0.28620470259943642 0 0.04944647540011983 -0.29680206833493911 0 0.07071546022358817 -0.28620470259943642 0 0.079999995207784586 -0.26983589460815821 0 0.059700898458833078 -0.27333130828182889 0 0.06835359365392131 -0.25019388684260668 0 0.079999995207784586 -0.26983589460815821 0 0.08421140423371333 -0.243891226620808 0 0.06835359365392131 -0.25019388684260668 0 0.079999995207784586 -0.26983589460815821 0 0.06835359365392131 -0.25019388684260668 0 0.079999995207784586 -0.26983589460815821 0 0.059700898458833078 -0.27333130828182889 0 0.079999995207784586 -0.26983589460815821 0 0.097662046653794854 -0.25561444261418242 0 0.08421140423371333 -0.243891226620808 0 0.079999995207784586 -0.26983589460815821 0 0.1034904733698796 -0.27103876000237981 0 0.097662046653794854 -0.25561444261418242 0 0.091646396761647708 -0.28947790237370968 0 0.079999995207784586 -0.26983589460815821 0 0.091646396761647708 -0.28947790237370968 0 0.079999995207784586 -0.26983589460815821 0 0.1034904733698796 -0.27103876000237981 0 0.1034904733698796 -0.27103876000237981 0 0.097662046653794854 -0.25561444261418242 0 0.1147239364606354 -0.25215539330366038 0 0.13687529418603939 -0.26162068250561471 0 0.1147239364606354 -0.25215539330366038 0 0.1223190960555403 -0.2394332616338683 0 0.1034904733698796 -0.27103876000237981 0 0.1147239364606354 -0.25215539330366038 0 0.12122917553908071 -0.27280048239714111 0 0.13687529418603939 -0.26162068250561471 0 0.1147239364606354 -0.25215539330366038 0 0.12122917553908071 -0.27280048239714111 0 0.1034904733698796 -0.27103876000237981 0 0.12122917553908071 -0.27280048239714111 0 0.11361649143026541 -0.29050419490534962 0 0.13743968224858391 -0.28868338126870119 0 0.12122917553908071 -0.27280048239714111 0 0.11361649143026541 -0.29050419490534962 0 0.091646396761647708 -0.28947790237370968 0 0.11361649143026541 -0.29050419490534962 0 0.10329279831551071 -0.3091199101392611 0 0.091646396761647708 -0.28947790237370968 0 0.1034904733698796 -0.27103876000237981 0 0.11361649143026541 -0.29050419490534962 0 0.091646396761647708 -0.28947790237370968 0 0.10329279831551071 -0.3091199101392611 0 0.091646396761647708 -0.28947790237370968 0 0.087363613427391865 -0.30807629250996549 0 0.10329279831551071 -0.3091199101392611 0 0.11361649143026541 -0.29050419490534962 0 0.10329279831551071 -0.3091199101392611 0 0.1207194796176513 -0.31206082339016011 0 0.13743968224858391 -0.28868338126870119 0 0.11361649143026541 -0.29050419490534962 0 0.1207194796176513 -0.31206082339016011 0 0.10329279831551071 -0.3091199101392611 0 0.11030782598785099 -0.32334328523235578 0 0.1149391998693738 -0.32876191790481257 0 0.10329279831551071 -0.3091199101392611 0 0.1207194796176513 -0.31206082339016011 0 0.1149391998693738 -0.32876191790481257 0 0.127277047630593 -0.32368123984794023 0 0.1207194796176513 -0.31206082339016011 0 0.1149391998693738 -0.32876191790481257 0 0.1252730154641265 -0.33501756179834041 0 0.127277047630593 -0.32368123984794023 0 0.1149391998693738 -0.32876191790481257 0 0.11030782598785099 -0.32334328523235578 0 0.1149391998693738 -0.32876191790481257 0 0.1071562875265276 -0.34088406714172798 0 0.1252730154641265 -0.33501756179834041 0 0.1149391998693738 -0.32876191790481257 0 0.1203073559828662 -0.34481831064573482 0 0.1149391998693738 -0.32876191790481257 0 0.1071562875265276 -0.34088406714172798 0 0.1203073559828662 -0.34481831064573482 0 0.11030782598785099 -0.32334328523235578 0 0.1071562875265276 -0.34088406714172798 0 0.088168702518997374 -0.33920446067117932 0 0.11030782598785099 -0.32334328523235578 0 0.088168702518997374 -0.33920446067117932 0 0.11030782598785099 -0.32334328523235578 0 0.092685396428672781 -0.32103820683708328 0 0.088168702518997374 -0.33920446067117932 0 0.10329279831551071 -0.3091199101392611 0 0.11030782598785099 -0.32334328523235578 0 0.092685396428672781 -0.32103820683708328 0 0.087363613427391865 -0.30807629250996549 0 0.10329279831551071 -0.3091199101392611 0 0.092685396428672781 -0.32103820683708328 0 0.10329279831551071 -0.3091199101392611 0 0.1149391998693738 -0.32876191790481257 0 0.1245186505824013 -0.36113750934922573 0 0.111761677400382 -0.35565256239397869 0 0.1080928822255358 -0.3703790814713866 0 0.12672469353237761 -0.38193719477194499 0 0.1245186505824013 -0.36113750934922573 0 0.1080928822255358 -0.3703790814713866 0 0.1245186505824013 -0.36113750934922573 0 0.111761677400382 -0.35565256239397869 0 0.1203073559828662 -0.34481831064573482 0 0.1071562875265276 -0.34088406714172798 0 0.111761677400382 -0.35565256239397869 0 0.1203073559828662 -0.34481831064573482 0 0.1071562875265276 -0.34088406714172798 0 0.09828664694928807 -0.35383226801130691 0 0.088168702518997374 -0.33920446067117932 0 0.1071562875265276 -0.34088406714172798 0 0.111761677400382 -0.35565256239397869 0 0.09828664694928807 -0.35383226801130691 0 0.097085641119374302 -0.38571424072610178 0 0.1080928822255358 -0.3703790814713866 0 0.085574671404253372 -0.36606529366265911 0 0.111761677400382 -0.35565256239397869 0 0.09828664694928807 -0.35383226801130691 0 0.1080928822255358 -0.3703790814713866 0 0.09828664694928807 -0.35383226801130691 0 0.1080928822255358 -0.3703790814713866 0 0.085574671404253372 -0.36606529366265911 0 0.085574671404253372 -0.36606529366265911 0 0.066029579050143783 -0.35506563611000291 0 0.088168702518997374 -0.33920446067117932 0 0.09828664694928807 -0.35383226801130691 0 0.085574671404253372 -0.36606529366265911 0 0.088168702518997374 -0.33920446067117932 0 0.066029579050143783 -0.35506563611000291 0 0.088168702518997374 -0.33920446067117932 0 0.064781398010314309 -0.37536455347105108 0 0.085574671404253372 -0.36606529366265911 0 0.066029579050143783 -0.35506563611000291 0 0.066029579050143783 -0.35506563611000291 0 0.088168702518997374 -0.33920446067117932 0 0.073259594084162577 -0.32259772896999273 0 0.066029579050143783 -0.35506563611000291 0 0.073259594084162577 -0.32259772896999273 0 0.048222299164917798 -0.333319266554439 0 0.092685396428672781 -0.32103820683708328 0 0.088168702518997374 -0.33920446067117932 0 0.073259594084162577 -0.32259772896999273 0 0.087363613427391865 -0.30807629250996549 0 0.092685396428672781 -0.32103820683708328 0 0.073259594084162577 -0.32259772896999273 0 0.073259594084162577 -0.32259772896999273 0 0.056038135353808333 -0.31320409925325249 0 0.048222299164917798 -0.333319266554439 0 0.056038135353808333 -0.31320409925325249 0 0.048222299164917798 -0.333319266554439 0 0.036478772830285791 -0.31172509300834528 0 0.048222299164917798 -0.333319266554439 0 0.033610930591278822 -0.35000849021355163 0 0.023331405601267931 -0.32909016887827719 0 0.048222299164917798 -0.333319266554439 0 0.023331405601267931 -0.32909016887827719 0 0.036478772830285791 -0.31172509300834528 0 0.066029579050143783 -0.35506563611000291 0 0.048355778033110031 -0.35315995845717169 0 0.043890455581289831 -0.3709268115488259 0 0.066029579050143783 -0.35506563611000291 0 0.043890455581289831 -0.3709268115488259 0 0.064781398010314309 -0.37536455347105108 0 0.066029579050143783 -0.35506563611000291 0 0.043890455581289831 -0.3709268115488259 0 0.066029579050143783 -0.35506563611000291 0 0.048222299164917798 -0.333319266554439 0 0.048355778033110031 -0.35315995845717169 0 0.048222299164917798 -0.333319266554439 0 0.048355778033110031 -0.35315995845717169 0 0.033610930591278822 -0.35000849021355163 0 0.048355778033110031 -0.35315995845717169 0 0.033610930591278822 -0.35000849021355163 0 0.043890455581289831 -0.3709268115488259 0 0.033610930591278822 -0.35000849021355163 0 0.03286340713970079 -0.36889202113574671 0 0.043890455581289831 -0.3709268115488259 0 0.033610930591278822 -0.35000849021355163 0 0.043890455581289831 -0.3709268115488259 0 0.030780854092194759 -0.38031894893150719 0 0.03286340713970079 -0.36889202113574671 0 0.043890455581289831 -0.3709268115488259 0 0.033610930591278822 -0.35000849021355163 0 0.03286340713970079 -0.36889202113574671 0 0.022072978528308879 -0.36937310690127451 0 0.030780854092194759 -0.38031894893150719 0 0.03286340713970079 -0.36889202113574671 0 0.022072978528308879 -0.36937310690127451 0 0.033610930591278822 -0.35000849021355163 0 0.022072978528308879 -0.36937310690127451 0 0.014393680356963701 -0.35536411395587292 0 0.033610930591278822 -0.35000849021355163 0 0.014393680356963701 -0.35536411395587292 0 0.0105762414372169 -0.3395135522035268 0 -0.00014080085946228561 -0.35082738964002957 0 0.014393680356963701 -0.35536411395587292 0 0.0105762414372169 -0.3395135522035268 0 -0.00014080085946228561 -0.35082738964002957 0 0.014393680356963701 -0.35536411395587292 0 0.0058490520874761691 -0.36709803082098191 0 0.022072978528308879 -0.36937310690127451 0 0.014393680356963701 -0.35536411395587292 0 0.0058490520874761691 -0.36709803082098191 0 0.022072978528308879 -0.36937310690127451 0 0.0058490520874761691 -0.36709803082098191 0 0.0132535835722172 -0.37610527220974688 0 0.022072978528308879 -0.36937310690127451 0 0.0058490520874761691 -0.36709803082098191 0 -0.0078283346885702904 -0.37476262999778609 0 0.0132535835722172 -0.37610527220974688 0 0.0058490520874761691 -0.36709803082098191 0 0.023331405601267931 -0.32909016887827719 0 0.013051880611257029 -0.30817184754300292 0 0.023331405601267931 -0.32909016887827719 0 0.013051880611257029 -0.30817184754300292 0 0.036478772830285791 -0.31172509300834528 0 0.033610930591278822 -0.35000849021355163 0 0.023331405601267931 -0.32909016887827719 0 0.0105762414372169 -0.3395135522035268 0 0.033610930591278822 -0.35000849021355163 0 0.023331405601267931 -0.32909016887827719 0 0.023331405601267931 -0.32909016887827719 0 0.0105762414372169 -0.3395135522035268 0 3.5896068887442723e-05 -0.32803491845883598 0 -0.00014080085946228561 -0.35082738964002957 0 0.0105762414372169 -0.3395135522035268 0 3.5896068887442723e-05 -0.32803491845883598 0 -0.0063780240591087903 -0.31078717533589839 0 3.5896068887442723e-05 -0.32803491845883598 0 0.013051880611257029 -0.30817184754300292 0 0.023331405601267931 -0.32909016887827719 0 3.5896068887442723e-05 -0.32803491845883598 0 0.013051880611257029 -0.30817184754300292 0 0.013051880611257029 -0.30817184754300292 0 0.0027723556212477219 -0.28725352620772771 0 0.0027723556212477219 -0.28725352620772771 0 0.026109415510684009 -0.29202779727133188 0 -0.0017476628817073611 -0.27805551369469472 0 0.0027723556212477219 -0.28725352620772771 0 0.01602201902671789 -0.28191194131808539 0 0.013051880611257029 -0.30817184754300292 0 0.0027723556212477219 -0.28725352620772771 0 0.026109415510684009 -0.29202779727133188 0 0.0027723556212477219 -0.28725352620772771 0 0.026109415510684009 -0.29202779727133188 0 0.01602201902671789 -0.28191194131808539 0 -0.0074917523477661804 -0.29461577546968681 0 0.013051880611257029 -0.30817184754300292 0 0.0027723556212477219 -0.28725352620772771 0 -0.0017476628817073611 -0.27805551369469472 0 0.0027723556212477219 -0.28725352620772771 0 0.026109415510684009 -0.29202779727133188 0 0.01602201902671789 -0.28191194131808539 0 0.036314123194761641 -0.27872041929058161 0 0.013051880611257029 -0.30817184754300292 0 0.026109415510684009 -0.29202779727133188 0 0.036478772830285791 -0.31172509300834528 0 0.026109415510684009 -0.29202779727133188 0 0.036478772830285791 -0.31172509300834528 0 0.04944647540011983 -0.29680206833493911 0 0.026109415510684009 -0.29202779727133188 0 0.04944647540011983 -0.29680206833493911 0 0.036314123194761641 -0.27872041929058161 0 0.026109415510684009 -0.29202779727133188 0 0.04944647540011983 -0.29680206833493911 0 0.04944647540011983 -0.29680206833493911 0 0.059700898458833078 -0.27333130828182889 0 0.036314123194761641 -0.27872041929058161 0 0.07071546022358817 -0.28620470259943642 0 0.04944647540011983 -0.29680206833493911 0 0.059700898458833078 -0.27333130828182889 0 0.072783535289555654 -0.30157633939854622 0 0.04944647540011983 -0.29680206833493911 0 0.056038135353808333 -0.31320409925325249 0 0.036478772830285791 -0.31172509300834528 0 0.04944647540011983 -0.29680206833493911 0 0.072783535289555654 -0.30157633939854622 0 0.056038135353808333 -0.31320409925325249 0 0.04944647540011983 -0.29680206833493911 0 0.06835359365392131 -0.25019388684260668 0 0.044986508142045613 -0.25948109579330381 0 0.047362788675733028 -0.24199119006041811 0 0.06835359365392131 -0.25019388684260668 0 0.059700898458833078 -0.27333130828182889 0 0.044986508142045613 -0.25948109579330381 0 0.06835359365392131 -0.25019388684260668 0 0.044986508142045613 -0.25948109579330381 0 0.059700898458833078 -0.27333130828182889 0 0.036314123194761641 -0.27872041929058161 0 0.044986508142045613 -0.25948109579330381 0 0.036314123194761641 -0.27872041929058161 0 0.044986508142045613 -0.25948109579330381 0 0.02161942263016943 -0.26876830474400021 0 0.044986508142045613 -0.25948109579330381 0 0.02161942263016943 -0.26876830474400021 0 0.044986508142045613 -0.25948109579330381 0 0.029973277209287209 -0.25054958921230208 0 0.02161942263016943 -0.26876830474400021 0 0.044986508142045613 -0.25948109579330381 0 0.029973277209287209 -0.25054958921230208 0 0.047362788675733028 -0.24199119006041811 0 0.029973277209287209 -0.25054958921230208 0 0.015960739131678031 -0.25406337006458851 0 0.02161942263016943 -0.26876830474400021 0 0.01602201902671789 -0.28191194131808539 0 0.036314123194761641 -0.27872041929058161 0 0.02161942263016943 -0.26876830474400021 0 -0.0017476628817073611 -0.27805551369469472 0 0.01602201902671789 -0.28191194131808539 0 0.02161942263016943 -0.26876830474400021 0 -0.0017476628817073611 -0.27805551369469472 0 0.02161942263016943 -0.26876830474400021 0 -0.0017476628817073611 -0.27805551369469472 0 0.02161942263016943 -0.26876830474400021 0 0.0057386521092319797 -0.26220041049146298 0 0.015960739131678031 -0.25406337006458851 0 0.02161942263016943 -0.26876830474400021 0 0.0057386521092319797 -0.26220041049146298 0 0.015960739131678031 -0.25406337006458851 0 0.0057386521092319797 -0.26220041049146298 0 0.0025328853753160741 -0.24958102673793139 0 0.0010854142569982001 -0.23807309260292489 0 0.010575476039053681 -0.22730954243123891 0 0.017210747296828609 -0.24036453645492739 0 0.0010854142569982001 -0.23807309260292489 0 0.0025328853753160741 -0.24958102673793139 0 0.017210747296828609 -0.24036453645492739 0 0.015960739131678031 -0.25406337006458851 0 0.0025328853753160741 -0.24958102673793139 0 0.017210747296828609 -0.24036453645492739 0 -0.0061584899570064598 -0.22962027277065361 0 0.0010854142569982001 -0.23807309260292489 0 0.010575476039053681 -0.22730954243123891 0 -0.0061584899570064598 -0.22962027277065361 0 0.010575476039053681 -0.22730954243123891 0 0.0064165675551885711 -0.21575046092143421 0 -0.0061584899570064598 -0.22962027277065361 0 0.0064165675551885711 -0.21575046092143421 0 0.010575476039053681 -0.22730954243123891 0 0.0064165675551885711 -0.21575046092143421 0 0.021509429760601551 -0.21557394742371069 0 0.010575476039053681 -0.22730954243123891 0 0.0064165675551885711 -0.21575046092143421 0 0.010575476039053681 -0.22730954243123891 0 0.02225812238200572 -0.22838936745028471 0 0.017210747296828609 -0.24036453645492739 0 0.010575476039053681 -0.22730954243123891 0 0.02225812238200572 -0.22838936745028471 0 0.021509429760601551 -0.21557394742371069 0 0.02225812238200572 -0.22838936745028471 0 0.029479073121619459 -0.22118232130399371 0 0.021509429760601551 -0.21557394742371069 0 0.02225812238200572 -0.22838936745028471 0 0.029479073121619459 -0.22118232130399371 0 0.031866256870133697 -0.23515517363185631 0 0.029973277209287209 -0.25054958921230208 0 0.017210747296828609 -0.24036453645492739 0 0.031866256870133697 -0.23515517363185631 0 0.02225812238200572 -0.22838936745028471 0 0.017210747296828609 -0.24036453645492739 0 0.031866256870133697 -0.23515517363185631 0 0.029973277209287209 -0.25054958921230208 0 0.015960739131678031 -0.25406337006458851 0 0.017210747296828609 -0.24036453645492739 0 -0.0015622250741301779 -0.1935745667631632 0 0.01896638504685547 -0.20190848785827681 0 0.0091962193441852118 -0.18107109871456811 0 -0.0015622250741301779 -0.1935745667631632 0 0.0064165675551885711 -0.21575046092143421 0 0.01896638504685547 -0.20190848785827681 0 -0.0015622250741301779 -0.1935745667631632 0 0.0064165675551885711 -0.21575046092143421 0 0.0064165675551885711 -0.21575046092143421 0 0.01896638504685547 -0.20190848785827681 0 0.0064165675551885711 -0.21575046092143421 0 0.021509429760601551 -0.21557394742371069 0 0.01896638504685547 -0.20190848785827681 0 0.029479073121619459 -0.22118232130399371 0 0.021509429760601551 -0.21557394742371069 0 0.033558692489570878 -0.21195100443687931 0 0.021509429760601551 -0.21557394742371069 0 0.029251690937081031 -0.20258635003767089 0 0.033558692489570878 -0.21195100443687931 0 0.021509429760601551 -0.21557394742371069 0 0.01896638504685547 -0.20190848785827681 0 0.029251690937081031 -0.20258635003767089 0 0.01896638504685547 -0.20190848785827681 0 0.031516202538524517 -0.1880665147951214 0 0.0091962193441852118 -0.18107109871456811 0 0.01896638504685547 -0.20190848785827681 0 0.029251690937081031 -0.20258635003767089 0 0.031516202538524517 -0.1880665147951214 0 0.01896638504685547 -0.20190848785827681 0 0.031516202538524517 -0.1880665147951214 0 0.043838458457815248 -0.18986676967386279 0 0.039506267971797952 -0.20154200132731501 0 0.055741541871671067 -0.19352675789948551 0 0.043838458457815248 -0.18986676967386279 0 0.031516202538524517 -0.1880665147951214 0 0.039506267971797952 -0.20154200132731501 0 0.031516202538524517 -0.1880665147951214 0 0.039506267971797952 -0.20154200132731501 0 0.029251690937081031 -0.20258635003767089 0 0.031516202538524517 -0.1880665147951214 0 0.039506267971797952 -0.20154200132731501 0 0.039506267971797952 -0.20154200132731501 0 0.033558692489570878 -0.21195100443687931 0 0.047496333405074677 -0.2150174878595065 0 0.039506267971797952 -0.20154200132731501 0 0.047496333405074677 -0.2150174878595065 0 0.029251690937081031 -0.20258635003767089 0 0.039506267971797952 -0.20154200132731501 0 0.033558692489570878 -0.21195100443687931 0 0.033558692489570878 -0.21195100443687931 0 0.047496333405074677 -0.2150174878595065 0 0.033558692489570878 -0.21195100443687931 0 0.047496333405074677 -0.2150174878595065 0 0.039554961726260877 -0.22474601638733641 0 0.039506267971797952 -0.20154200132731501 0 0.047496333405074677 -0.2150174878595065 0 0.05523956109653505 -0.20714630445374671 0 0.047496333405074677 -0.2150174878595065 0 0.05523956109653505 -0.20714630445374671 0 0.064206587222380762 -0.21869398638814641 0 0.047496333405074677 -0.2150174878595065 0 0.064206587222380762 -0.21869398638814641 0 0.039506267971797952 -0.20154200132731501 0 0.05523956109653505 -0.20714630445374671 0 0.055741541871671067 -0.19352675789948551 0 0.05523956109653505 -0.20714630445374671 0 0.055741541871671067 -0.19352675789948551 0 0.069247075011750078 -0.20695128879428309 0 0.055741541871671067 -0.19352675789948551 0 0.069247075011750078 -0.20695128879428309 0 0.029973277209287209 -0.25054958921230208 0 0.031866256870133697 -0.23515517363185631 0 0.047362788675733028 -0.24199119006041811 0 0.031866256870133697 -0.23515517363185631 0 0.039554961726260877 -0.22474601638733641 0 0.047362788675733028 -0.24199119006041811 0 0.029479073121619459 -0.22118232130399371 0 0.031866256870133697 -0.23515517363185631 0 0.039554961726260877 -0.22474601638733641 0 0.029479073121619459 -0.22118232130399371 0 0.033558692489570878 -0.21195100443687931 0 0.039554961726260877 -0.22474601638733641 0 0.047496333405074677 -0.2150174878595065 0 0.05536207860111314 -0.2282833045590259 0 0.064206587222380762 -0.21869398638814641 0 0.05536207860111314 -0.2282833045590259 0 0.063311866646695691 -0.24149928944984211 0 0.064206587222380762 -0.21869398638814641 0 0.039554961726260877 -0.22474601638733641 0 0.05536207860111314 -0.2282833045590259 0 0.047362788675733028 -0.24199119006041811 0 0.047496333405074677 -0.2150174878595065 0 0.039554961726260877 -0.22474601638733641 0 0.05536207860111314 -0.2282833045590259 0 0.047496333405074677 -0.2150174878595065 0 0.05536207860111314 -0.2282833045590259 0 0.05536207860111314 -0.2282833045590259 0 0.063311866646695691 -0.24149928944984211 0 0.06835359365392131 -0.25019388684260668 0 0.047362788675733028 -0.24199119006041811 0 0.063311866646695691 -0.24149928944984211 0 0.05536207860111314 -0.2282833045590259 0 0.047362788675733028 -0.24199119006041811 0 0.063311866646695691 -0.24149928944984211 0 0.06835359365392131 -0.25019388684260668 0 0.08421140423371333 -0.243891226620808 0 0.06835359365392131 -0.25019388684260668 0 0.063311866646695691 -0.24149928944984211 0 0.063311866646695691 -0.24149928944984211 0 0.074219814037010917 -0.24224782663387789 0 0.081086434463253185 -0.23335707181355411 0 0.06835359365392131 -0.25019388684260668 0 0.063311866646695691 -0.24149928944984211 0 0.074219814037010917 -0.24224782663387789 0 0.06835359365392131 -0.25019388684260668 0 0.074219814037010917 -0.24224782663387789 0 0.08421140423371333 -0.243891226620808 0 0.08421140423371333 -0.243891226620808 0 0.081086434463253185 -0.23335707181355411 0 0.10006921481350529 -0.2375885663990091 0 0.08421140423371333 -0.243891226620808 0 0.10006921481350529 -0.2375885663990091 0 0.074219814037010917 -0.24224782663387789 0 0.08421140423371333 -0.243891226620808 0 0.081086434463253185 -0.23335707181355411 0 0.081086434463253185 -0.23335707181355411 0 0.085851572697872774 -0.2234561975504171 0 0.10006921481350529 -0.2375885663990091 0 0.085851572697872774 -0.2234561975504171 0 0.08275260815182911 -0.2203758196890806 0 0.098293187803831117 -0.21887499219370271 0 0.085851572697872774 -0.2234561975504171 0 0.10006921481350529 -0.2375885663990091 0 0.081086434463253185 -0.23335707181355411 0 0.085851572697872774 -0.2234561975504171 0 0.080916841039686133 -0.2223704849167896 0 0.085851572697872774 -0.2234561975504171 0 0.080916841039686133 -0.2223704849167896 0 0.085851572697872774 -0.2234561975504171 0 0.08275260815182911 -0.2203758196890806 0 0.080916841039686133 -0.2223704849167896 0 0.085851572697872774 -0.2234561975504171 0 0.08275260815182911 -0.2203758196890806 0 0.08275260815182911 -0.2203758196890806 0 0.080916841039686133 -0.2223704849167896 0 0.063311866646695691 -0.24149928944984211 0 0.080916841039686133 -0.2223704849167896 0 0.063311866646695691 -0.24149928944984211 0 0.080916841039686133 -0.2223704849167896 0 0.064206587222380762 -0.21869398638814641 0 0.080916841039686133 -0.2223704849167896 0 0.064206587222380762 -0.21869398638814641 0 0.063311866646695691 -0.24149928944984211 0 0.081086434463253185 -0.23335707181355411 0 0.080916841039686133 -0.2223704849167896 0 0.080916841039686133 -0.2223704849167896 0 0.064206587222380762 -0.21869398638814641 0 0.069247075011750078 -0.20695128879428309 0 0.05523956109653505 -0.20714630445374671 0 0.064206587222380762 -0.21869398638814641 0 0.069247075011750078 -0.20695128879428309 0 0.08275260815182911 -0.2203758196890806 0 0.069247075011750078 -0.20695128879428309 0 0.08275260815182911 -0.2203758196890806 0 0.080916841039686133 -0.2223704849167896 0 0.069247075011750078 -0.20695128879428309 0 0.055741541871671067 -0.19352675789948551 0 0.069247075011750078 -0.20695128879428309 0 0.070887819862862286 -0.1914088031202833 0 0.069247075011750078 -0.20695128879428309 0 0.070887819862862286 -0.1914088031202833 0 0.082832551139222166 -0.19914513048671481 0 0.070887819862862286 -0.1914088031202833 0 0.082832551139222166 -0.19914513048671481 0 0.081821336385090343 -0.18186245165470949 0 0.082832551139222166 -0.19914513048671481 0 0.097084301305641635 -0.20480362112478781 0 0.095405874932467813 -0.18887779734800569 0 0.082832551139222166 -0.19914513048671481 0 0.095405874932467813 -0.18887779734800569 0 0.081821336385090343 -0.18186245165470949 0 0.08275260815182911 -0.2203758196890806 0 0.082832551139222166 -0.19914513048671481 0 0.097084301305641635 -0.20480362112478781 0 0.08275260815182911 -0.2203758196890806 0 0.069247075011750078 -0.20695128879428309 0 0.082832551139222166 -0.19914513048671481 0 0.08275260815182911 -0.2203758196890806 0 0.097084301305641635 -0.20480362112478781 0 0.098293187803831117 -0.21887499219370271 0 0.08275260815182911 -0.2203758196890806 0 0.097084301305641635 -0.20480362112478781 0 0.097084301305641635 -0.20480362112478781 0 0.1146962174531268 -0.21673223195775559 0 0.098293187803831117 -0.21887499219370271 0 0.097084301305641635 -0.20480362112478781 0 0.095405874932467813 -0.18887779734800569 0 0.11141599445945349 -0.1892314225604943 0 0.097084301305641635 -0.20480362112478781 0 0.11141599445945349 -0.1892314225604943 0 0.097084301305641635 -0.20480362112478781 0 0.1210323504124224 -0.2015702574875764 0 0.11141599445945349 -0.1892314225604943 0 0.1210323504124224 -0.2015702574875764 0 0.11141599445945349 -0.1892314225604943 0 0.13523084618428721 -0.18276855246186111 0 0.1210323504124224 -0.2015702574875764 0 0.1146962174531268 -0.21673223195775559 0 0.13583218450739579 -0.2116030352811932 0 0.097084301305641635 -0.20480362112478781 0 0.1210323504124224 -0.2015702574875764 0 0.1146962174531268 -0.21673223195775559 0 0.1110812394106853 -0.22900709064647229 0 0.12594488917549271 -0.2231145762792166 0 0.1363109061234978 -0.23455798374252809 0 0.1110812394106853 -0.22900709064647229 0 0.1223190960555403 -0.2394332616338683 0 0.1363109061234978 -0.23455798374252809 0 0.1110812394106853 -0.22900709064647229 0 0.1363109061234978 -0.23455798374252809 0 0.1146962174531268 -0.21673223195775559 0 0.1110812394106853 -0.22900709064647229 0 0.12594488917549271 -0.2231145762792166 0 0.1110812394106853 -0.22900709064647229 0 0.1223190960555403 -0.2394332616338683 0 0.1084330749156753 -0.23426436422737831 0 0.1147239364606354 -0.25215539330366038 0 0.1223190960555403 -0.2394332616338683 0 0.1084330749156753 -0.23426436422737831 0 0.097662046653794854 -0.25561444261418242 0 0.1147239364606354 -0.25215539330366038 0 0.10006921481350529 -0.2375885663990091 0 0.1147239364606354 -0.25215539330366038 0 0.10006921481350529 -0.2375885663990091 0 0.1084330749156753 -0.23426436422737831 0 0.097662046653794854 -0.25561444261418242 0 0.08421140423371333 -0.243891226620808 0 0.10006921481350529 -0.2375885663990091 0 0.10006921481350529 -0.2375885663990091 0 0.1084330749156753 -0.23426436422737831 0 0.1147239364606354 -0.25215539330366038 0 0.10006921481350529 -0.2375885663990091 0 0.085851572697872774 -0.2234561975504171 0 0.1110812394106853 -0.22900709064647229 0 0.1146962174531268 -0.21673223195775559 0 0.1110812394106853 -0.22900709064647229 0 0.098293187803831117 -0.21887499219370271 0 0.085851572697872774 -0.2234561975504171 0 0.1110812394106853 -0.22900709064647229 0 0.098293187803831117 -0.21887499219370271 0 0.085851572697872774 -0.2234561975504171 0 0.1110812394106853 -0.22900709064647229 0 0.10006921481350529 -0.2375885663990091 0 0.1110812394106853 -0.22900709064647229 0 0.10006921481350529 -0.2375885663990091 0 0.1084330749156753 -0.23426436422737831 0 0.1040552578412003 -0.15282191894301261 0 0.1005807427949069 -0.13366374688330029 0 0.11727103389215909 -0.1361484369810822 0 0.1005807427949069 -0.13366374688330029 0 0.11727103389215909 -0.1361484369810822 0 0.1051359327507693 -0.1227177542784853 0 0.1040552578412003 -0.15282191894301261 0 0.1005807427949069 -0.13366374688330029 0 0.082362828069140165 -0.1319846138898183 0 0.11727103389215909 -0.1361484369810822 0 0.1154331983948798 -0.1174886032934183 0 0.13404900744611239 -0.12609877526333699 0 0.11727103389215909 -0.1361484369810822 0 0.1051359327507693 -0.1227177542784853 0 0.1154331983948798 -0.1174886032934183 0 0.1040552578412003 -0.15282191894301261 0 0.11727103389215909 -0.1361484369810822 0 0.1232701832726428 -0.15427141090171109 0 0.11727103389215909 -0.1361484369810822 0 0.1232701832726428 -0.15427141090171109 0 0.13444198148756639 -0.1449420832838656 0 0.1040552578412003 -0.15282191894301261 0 0.12574768761326591 -0.17365922399620121 0 0.1040552578412003 -0.15282191894301261 0 0.1002282447692335 -0.17458527697826651 0 0.12574768761326591 -0.17365922399620121 0 0.1040552578412003 -0.15282191894301261 0 0.1232701832726428 -0.15427141090171109 0 0.12574768761326591 -0.17365922399620121 0 0.11141599445945349 -0.1892314225604943 0 0.1002282447692335 -0.17458527697826651 0 0.12574768761326591 -0.17365922399620121 0 0.11141599445945349 -0.1892314225604943 0 0.12574768761326591 -0.17365922399620121 0 0.13523084618428721 -0.18276855246186111 0 0.11141599445945349 -0.1892314225604943 0 0.12574768761326591 -0.17365922399620121 0 0.095405874932467813 -0.18887779734800569 0 0.11141599445945349 -0.1892314225604943 0 0.1002282447692335 -0.17458527697826651 0 0.1040552578412003 -0.15282191894301261 0 0.1002282447692335 -0.17458527697826651 0 0.08311303581058499 -0.16124853818171381 0 0.095405874932467813 -0.18887779734800569 0 0.1002282447692335 -0.17458527697826651 0 0.081821336385090343 -0.18186245165470949 0 0.1002282447692335 -0.17458527697826651 0 0.08311303581058499 -0.16124853818171381 0 0.081821336385090343 -0.18186245165470949 0 0.08311303581058499 -0.16124853818171381 0 0.081821336385090343 -0.18186245165470949 0 0.066780308608768796 -0.17493307235476979 0 0.070887819862862286 -0.1914088031202833 0 0.081821336385090343 -0.18186245165470949 0 0.066780308608768796 -0.17493307235476979 0 0.055741541871671067 -0.19352675789948551 0 0.070887819862862286 -0.1914088031202833 0 0.066780308608768796 -0.17493307235476979 0 0.08311303581058499 -0.16124853818171381 0 0.066780308608768796 -0.17493307235476979 0 0.065413952892267702 -0.150678580858252 0 0.065413952892267702 -0.150678580858252 0 0.082362828069140165 -0.1319846138898183 0 0.08311303581058499 -0.16124853818171381 0 0.065413952892267702 -0.150678580858252 0 0.082362828069140165 -0.1319846138898183 0 0.1040552578412003 -0.15282191894301261 0 0.08311303581058499 -0.16124853818171381 0 0.082362828069140165 -0.1319846138898183 0 0.1040552578412003 -0.15282191894301261 0 0.082362828069140165 -0.1319846138898183 0 0.1005807427949069 -0.13366374688330029 0 0.082362828069140165 -0.1319846138898183 0 0.095577299328253623 -0.1174095529111252 0 0.082362828069140165 -0.1319846138898183 0 0.070308403876621794 -0.13238109852993221 0 0.069837722907261313 -0.1199532536492431 0 0.065413952892267702 -0.150678580858252 0 0.082362828069140165 -0.1319846138898183 0 0.070308403876621794 -0.13238109852993221 0 0.082362828069140165 -0.1319846138898183 0 0.069837722907261313 -0.1199532536492431 0 0.065413952892267702 -0.150678580858252 0 0.070308403876621794 -0.13238109852993221 0 0.06118566078759103 -0.13005342953014129 0 0.070308403876621794 -0.13238109852993221 0 0.06118566078759103 -0.13005342953014129 0 0.069837722907261313 -0.1199532536492431 0 0.065413952892267702 -0.150678580858252 0 0.06118566078759103 -0.13005342953014129 0 0.053245925046226952 -0.14076102386291889 0 0.06118566078759103 -0.13005342953014129 0 0.049352038069647858 -0.1295439288512826 0 0.048525659269531229 -0.11802361343548989 0 0.049352038069647858 -0.1295439288512826 0 0.053245925046226952 -0.14076102386291889 0 0.041700188437408421 -0.13409859591225329 0 0.06118566078759103 -0.13005342953014129 0 0.049352038069647858 -0.1295439288512826 0 0.053245925046226952 -0.14076102386291889 0 0.065413952892267702 -0.150678580858252 0 0.053245925046226952 -0.14076102386291889 0 0.048465077715394989 -0.16937254782668559 0 0.053245925046226952 -0.14076102386291889 0 0.040505841312838547 -0.14468304457988079 0 0.048465077715394989 -0.16937254782668559 0 0.040505841312838547 -0.14468304457988079 0 0.03393783807298914 -0.14093707321474161 0 0.030230252537669321 -0.1566253376229266 0 0.040505841312838547 -0.14468304457988079 0 0.030230252537669321 -0.1566253376229266 0 0.040505841312838547 -0.14468304457988079 0 0.03393783807298914 -0.14093707321474161 0 0.041700188437408421 -0.13409859591225329 0 0.03393783807298914 -0.14093707321474161 0 0.041700188437408421 -0.13409859591225329 0 0.024480650806643651 -0.1375151559245551 0 0.041700188437408421 -0.13409859591225329 0 0.042102756807481732 -0.1247829815156095 0 0.031290738437872938 -0.1201921761368282 0 0.049352038069647858 -0.1295439288512826 0 0.041700188437408421 -0.13409859591225329 0 0.042102756807481732 -0.1247829815156095 0 0.053245925046226952 -0.14076102386291889 0 0.040505841312838547 -0.14468304457988079 0 0.041700188437408421 -0.13409859591225329 0 0.055741541871671067 -0.19352675789948551 0 0.066780308608768796 -0.17493307235476979 0 0.048465077715394989 -0.16937254782668559 0 0.043838458457815248 -0.18986676967386279 0 0.055741541871671067 -0.19352675789948551 0 0.048465077715394989 -0.16937254782668559 0 0.066780308608768796 -0.17493307235476979 0 0.065413952892267702 -0.150678580858252 0 0.048465077715394989 -0.16937254782668559 0 0.065413952892267702 -0.150678580858252 0 0.048465077715394989 -0.16937254782668559 0 0.040505841312838547 -0.14468304457988079 0 0.048465077715394989 -0.16937254782668559 0 0.030230252537669321 -0.1566253376229266 0 0.048465077715394989 -0.16937254782668559 0 0.033338822752702377 -0.1705348433046637 0 0.030230252537669321 -0.1566253376229266 0 0.043838458457815248 -0.18986676967386279 0 0.031516202538524517 -0.1880665147951214 0 0.048465077715394989 -0.16937254782668559 0 0.031516202538524517 -0.1880665147951214 0 0.048465077715394989 -0.16937254782668559 0 0.031516202538524517 -0.1880665147951214 0 0.048465077715394989 -0.16937254782668559 0 0.033338822752702377 -0.1705348433046637 0 0.031516202538524517 -0.1880665147951214 0 0.033338822752702377 -0.1705348433046637 0 0.01995466376250531 -0.16856763066597699 0 0.031516202538524517 -0.1880665147951214 0 0.01995466376250531 -0.16856763066597699 0 0.031516202538524517 -0.1880665147951214 0 0.01995466376250531 -0.16856763066597699 0 0.0091962193441852118 -0.18107109871456811 0 0.01995466376250531 -0.16856763066597699 0 0.030230252537669321 -0.1566253376229266 0 0.008868239412810253 -0.14987004135808221 0 0.033338822752702377 -0.1705348433046637 0 0.01995466376250531 -0.16856763066597699 0 0.030230252537669321 -0.1566253376229266 0 0.01995466376250531 -0.16856763066597699 0 0.030230252537669321 -0.1566253376229266 0 -0.0025999653858941639 -0.16131422913783491 0 0.0067086063528142403 -0.16809244781376179 0 0.008868239412810253 -0.14987004135808221 0 0.01995466376250531 -0.16856763066597699 0 0.008868239412810253 -0.14987004135808221 0 0.01995466376250531 -0.16856763066597699 0 0.0067086063528142403 -0.16809244781376179 0 0.008868239412810253 -0.14987004135808221 0 -0.0084927016390539001 -0.17431231470194719 0 0.0067086063528142403 -0.16809244781376179 0 0.0091962193441852118 -0.18107109871456811 0 0.01995466376250531 -0.16856763066597699 0 0.0091962193441852118 -0.18107109871456811 0 0.01995466376250531 -0.16856763066597699 0 0.0067086063528142403 -0.16809244781376179 0 0.0091962193441852118 -0.18107109871456811 0 -0.0015622250741301779 -0.1935745667631632 0 0.0091962193441852118 -0.18107109871456811 0 0.041700188437408421 -0.13409859591225329 0 0.014197789575412951 -0.12328672932727321 0 0.031290738437872938 -0.1201921761368282 0 0.041700188437408421 -0.13409859591225329 0 0.024480650806643651 -0.1375151559245551 0 0.014197789575412951 -0.12328672932727321 0 0.041700188437408421 -0.13409859591225329 0 0.014197789575412951 -0.12328672932727321 0 0.024480650806643651 -0.1375151559245551 0 0.011332123714495041 -0.13546109466502479 0 0.014197789575412951 -0.12328672932727321 0 0.03393783807298914 -0.14093707321474161 0 0.030230252537669321 -0.1566253376229266 0 0.024480650806643651 -0.1375151559245551 0 0.030230252537669321 -0.1566253376229266 0 0.024480650806643651 -0.1375151559245551 0 0.008868239412810253 -0.14987004135808221 0 0.024480650806643651 -0.1375151559245551 0 0.008868239412810253 -0.14987004135808221 0 0.011332123714495041 -0.13546109466502479 0 -0.00221818493688669 -0.13117245205018849 0 -0.0031786103040098569 -0.14705450477373769 0 0.008868239412810253 -0.14987004135808221 0 -0.0031786103040098569 -0.14705450477373769 0 -0.0025999653858941639 -0.16131422913783491 0 0.008868239412810253 -0.14987004135808221 0 -0.00221818493688669 -0.13117245205018849 0 0.008868239412810253 -0.14987004135808221 0 -0.00221818493688669 -0.13117245205018849 0 0.011332123714495041 -0.13546109466502479 0 0.014197789575412951 -0.12328672932727321 0 -0.00221818493688669 -0.13117245205018849 0 0.008868239412810253 -0.14987004135808221 0 0.011332123714495041 -0.13546109466502479 0 -0.013304609286582791 -0.1124748627422944 0 0.014197789575412951 -0.12328672932727321 0 0.014197789575412951 -0.12328672932727321 0 0.020945276257035669 -0.1055296092587116 0 0.0046245275045138064 -0.1076828264142336 0 -0.013304609286582791 -0.1124748627422944 0 0.014197789575412951 -0.12328672932727321 0 0.0046245275045138064 -0.1076828264142336 0 0.014197789575412951 -0.12328672932727321 0 0.020945276257035669 -0.1055296092587116 0 0.031290738437872938 -0.1201921761368282 0 0.020945276257035669 -0.1055296092587116 0 0.031290738437872938 -0.1201921761368282 0 0.040241467446851142 -0.1026788937802551 0 0.020945276257035669 -0.1055296092587116 0 0.028115865357471449 -0.087896533900266943 0 0.040241467446851142 -0.1026788937802551 0 0.020945276257035669 -0.1055296092587116 0 0.0072012692200917657 -0.09144049599341271 0 0.028115865357471449 -0.087896533900266943 0 -0.0070294542012635762 -0.10327829347153671 0 0.0046245275045138064 -0.1076828264142336 0 0.0072012692200917657 -0.09144049599341271 0 0.020945276257035669 -0.1055296092587116 0 0.0046245275045138064 -0.1076828264142336 0 0.0072012692200917657 -0.09144049599341271 0 0.0072012692200917657 -0.09144049599341271 0 0.0054575408194632406 -0.073720759659108445 0 0.018511759797904249 -0.077210571545524964 0 -0.0056293594721457006 -0.082036805430144924 0 0.0072012692200917657 -0.09144049599341271 0 0.0054575408194632406 -0.073720759659108445 0 0.0054575408194632406 -0.073720759659108445 0 0.018354718881549058 -0.065167425818499949 0 0.003426744450576454 -0.054815297075420773 0 -0.0072319765520409062 -0.068818796064575097 0 0.0054575408194632406 -0.073720759659108445 0 0.003426744450576454 -0.054815297075420773 0 0.0054575408194632406 -0.073720759659108445 0 0.018354718881549058 -0.065167425818499949 0 0.018511759797904249 -0.077210571545524964 0 0.018511759797904249 -0.077210571545524964 0 0.028115865357471449 -0.087896533900266943 0 0.033429404710945708 -0.067827642356336801 0 0.018354718881549058 -0.065167425818499949 0 0.018511759797904249 -0.077210571545524964 0 0.033429404710945708 -0.067827642356336801 0 0.0072012692200917657 -0.09144049599341271 0 0.018511759797904249 -0.077210571545524964 0 0.028115865357471449 -0.087896533900266943 0 0.028115865357471449 -0.087896533900266943 0 0.044094628308957058 -0.087651847290754856 0 0.040241467446851142 -0.1026788937802551 0 0.028115865357471449 -0.087896533900266943 0 0.044094628308957058 -0.087651847290754856 0 0.033429404710945708 -0.067827642356336801 0 0.044094628308957058 -0.087651847290754856 0 0.033429404710945708 -0.067827642356336801 0 0.052580487019044733 -0.06457445167855122 0 0.052580487019044733 -0.06457445167855122 0 0.057640786708643768 -0.07951032993234286 0 0.068682665651441266 -0.069637891440837665 0 0.044094628308957058 -0.087651847290754856 0 0.052580487019044733 -0.06457445167855122 0 0.057640786708643768 -0.07951032993234286 0 0.044094628308957058 -0.087651847290754856 0 0.057640786708643768 -0.07951032993234286 0 0.064045145718632748 -0.088800152685812248 0 0.056223070490067702 -0.1049071233711502 0 0.048525659269531229 -0.11802361343548989 0 0.040241467446851142 -0.1026788937802551 0 0.044094628308957058 -0.087651847290754856 0 0.056223070490067702 -0.1049071233711502 0 0.064045145718632748 -0.088800152685812248 0 0.06118566078759103 -0.13005342953014129 0 0.056223070490067702 -0.1049071233711502 0 0.048525659269531229 -0.11802361343548989 0 0.048525659269531229 -0.11802361343548989 0 0.042102756807481732 -0.1247829815156095 0 0.031290738437872938 -0.1201921761368282 0 0.048525659269531229 -0.11802361343548989 0 0.031290738437872938 -0.1201921761368282 0 0.040241467446851142 -0.1026788937802551 0 0.049352038069647858 -0.1295439288512826 0 0.048525659269531229 -0.11802361343548989 0 0.042102756807481732 -0.1247829815156095 0 0.044094628308957058 -0.087651847290754856 0 0.056223070490067702 -0.1049071233711502 0 0.040241467446851142 -0.1026788937802551 0 0.020415517075116841 0.0076517724901667356 0 0.020207185183206099 -0.010785841930981459 0 0.039787151186370009 -0.0039594854922263374 0 0.020207185183206099 -0.010785841930981459 0 0.0047038114401232534 -0.001040937293712483 0 0.0026421611525163911 -0.019923693291100199 0 0.020415517075116841 0.0076517724901667356 0 0.020207185183206099 -0.010785841930981459 0 0.0047038114401232534 -0.001040937293712483 0 0.020207185183206099 -0.010785841930981459 0 0.0026421611525163911 -0.019923693291100199 0 0.018057611388834851 -0.030223969914345401 0 0.0026421611525163911 -0.019923693291100199 0 0.018057611388834851 -0.030223969914345401 0 0.001114662024295677 -0.034644724797188199 0 0.018057611388834851 -0.030223969914345401 0 0.03214982838215158 -0.036550164909951742 0 0.03396684481877061 -0.021771474300517551 0 0.020207185183206099 -0.010785841930981459 0 0.018057611388834851 -0.030223969914345401 0 0.03396684481877061 -0.021771474300517551 0 0.018057611388834851 -0.030223969914345401 0 0.010882918392325341 -0.043546784918672053 0 0.022583515379492949 -0.04946345385366932 0 0.018057611388834851 -0.030223969914345401 0 0.022583515379492949 -0.04946345385366932 0 0.03214982838215158 -0.036550164909951742 0 0.010882918392325341 -0.043546784918672053 0 0.001114662024295677 -0.034644724797188199 0 0.003426744450576454 -0.054815297075420773 0 0.018057611388834851 -0.030223969914345401 0 0.010882918392325341 -0.043546784918672053 0 0.001114662024295677 -0.034644724797188199 0 0.018354718881549058 -0.065167425818499949 0 0.003426744450576454 -0.054815297075420773 0 0.022583515379492949 -0.04946345385366932 0 0.010882918392325341 -0.043546784918672053 0 0.003426744450576454 -0.054815297075420773 0 0.022583515379492949 -0.04946345385366932 0 0.018354718881549058 -0.065167425818499949 0 0.033429404710945708 -0.067827642356336801 0 0.022583515379492949 -0.04946345385366932 0 0.033429404710945708 -0.067827642356336801 0 0.022583515379492949 -0.04946345385366932 0 0.040434423972952403 -0.049093231793294147 0 0.033429404710945708 -0.067827642356336801 0 0.052580487019044733 -0.06457445167855122 0 0.040434423972952403 -0.049093231793294147 0 0.052580487019044733 -0.06457445167855122 0 0.040434423972952403 -0.049093231793294147 0 0.05544232884238081 -0.044875881875575382 0 0.052580487019044733 -0.06457445167855122 0 0.05544232884238081 -0.044875881875575382 0 0.068339170937992105 -0.053424337060716878 0 0.040434423972952403 -0.049093231793294147 0 0.05544232884238081 -0.044875881875575382 0 0.045706746350707102 -0.032198694687932281 0 0.05544232884238081 -0.044875881875575382 0 0.045706746350707102 -0.032198694687932281 0 0.061157621829282929 -0.025231604425866621 0 0.040434423972952403 -0.049093231793294147 0 0.045706746350707102 -0.032198694687932281 0 0.03214982838215158 -0.036550164909951742 0 0.022583515379492949 -0.04946345385366932 0 0.040434423972952403 -0.049093231793294147 0 0.03214982838215158 -0.036550164909951742 0 0.045706746350707102 -0.032198694687932281 0 0.03214982838215158 -0.036550164909951742 0 0.03396684481877061 -0.021771474300517551 0 0.045706746350707102 -0.032198694687932281 0 0.03396684481877061 -0.021771474300517551 0 0.047710046720236987 -0.018368172826886429 0 0.061157621829282929 -0.025231604425866621 0 0.047710046720236987 -0.018368172826886429 0 0.057931869416054299 -0.0086796052278893948 0 0.045706746350707102 -0.032198694687932281 0 0.061157621829282929 -0.025231604425866621 0 0.047710046720236987 -0.018368172826886429 0 0.053306813386582982 0.0056008818424343951 0 0.057931869416054299 -0.0086796052278893948 0 0.039787151186370009 -0.0039594854922263374 0 0.047710046720236987 -0.018368172826886429 0 0.057931869416054299 -0.0086796052278893948 0 0.039787151186370009 -0.0039594854922263374 0 0.053306813386582982 0.0056008818424343951 0 0.065940651683257009 0.0024831850618150888 0 0.057931869416054299 -0.0086796052278893948 0 0.020207185183206099 -0.010785841930981459 0 0.03396684481877061 -0.021771474300517551 0 0.039787151186370009 -0.0039594854922263374 0 0.03396684481877061 -0.021771474300517551 0 0.047710046720236987 -0.018368172826886429 0 0.039787151186370009 -0.0039594854922263374 0 0.07992851590561921 0.0082161523869754144 0 0.085319843464057188 -0.007629982329875426 0 0.074177093133044117 -0.010507922444979889 0 0.07992851590561921 0.0082161523869754144 0 0.085319843464057188 -0.007629982329875426 0 0.09649789417263642 -0.0037639840011086311 0 0.093491186985964037 -0.01472799792969565 0 0.085319843464057188 -0.007629982329875426 0 0.09649789417263642 -0.0037639840011086311 0 0.093491186985964037 -0.01472799792969565 0 0.085319843464057188 -0.007629982329875426 0 0.083581835824733053 -0.016535058395947159 0 0.085319843464057188 -0.007629982329875426 0 0.074177093133044117 -0.010507922444979889 0 0.083581835824733053 -0.016535058395947159 0 0.061157621829282929 -0.025231604425866621 0 0.057931869416054299 -0.0086796052278893948 0 0.074177093133044117 -0.010507922444979889 0 0.065940651683257009 0.0024831850618150888 0 0.057931869416054299 -0.0086796052278893948 0 0.074177093133044117 -0.010507922444979889 0 0.061157621829282929 -0.025231604425866621 0 0.077044537184394621 -0.024954964190685061 0 0.071280738265345076 -0.03811759874850193 0 0.061157621829282929 -0.025231604425866621 0 0.074177093133044117 -0.010507922444979889 0 0.077044537184394621 -0.024954964190685061 0 0.077044537184394621 -0.024954964190685061 0 0.087876518356205288 -0.024854425084499782 0 0.083696735197635597 -0.035074751153617953 0 0.077044537184394621 -0.024954964190685061 0 0.083581835824733053 -0.016535058395947159 0 0.087876518356205288 -0.024854425084499782 0 0.074177093133044117 -0.010507922444979889 0 0.077044537184394621 -0.024954964190685061 0 0.083581835824733053 -0.016535058395947159 0 0.093491186985964037 -0.01472799792969565 0 0.083581835824733053 -0.016535058395947159 0 0.087876518356205288 -0.024854425084499782 0 0.093491186985964037 -0.01472799792969565 0 0.087876518356205288 -0.024854425084499782 0 0.096892307268332672 -0.02266252034611416 0 0.087876518356205288 -0.024854425084499782 0 0.093921030959280866 -0.033511072873054298 0 0.096892307268332672 -0.02266252034611416 0 0.087876518356205288 -0.024854425084499782 0 0.083696735197635597 -0.035074751153617953 0 0.093921030959280866 -0.033511072873054298 0 0.088828324516270887 -0.041348533459236683 0 0.095977453204919599 -0.050472192210401508 0 0.093921030959280866 -0.033511072873054298 0 0.088828324516270887 -0.041348533459236683 0 0.083696735197635597 -0.035074751153617953 0 0.093921030959280866 -0.033511072873054298 0 0.088828324516270887 -0.041348533459236683 0 0.081718078703247488 -0.046336117599872988 0 0.095977453204919599 -0.050472192210401508 0 0.088828324516270887 -0.041348533459236683 0 0.081718078703247488 -0.046336117599872988 0 0.083696735197635597 -0.035074751153617953 0 0.081718078703247488 -0.046336117599872988 0 0.083696735197635597 -0.035074751153617953 0 0.071280738265345076 -0.03811759874850193 0 0.05544232884238081 -0.044875881875575382 0 0.061157621829282929 -0.025231604425866621 0 0.071280738265345076 -0.03811759874850193 0 0.05544232884238081 -0.044875881875575382 0 0.071280738265345076 -0.03811759874850193 0 0.068339170937992105 -0.053424337060716878 0 0.077044537184394621 -0.024954964190685061 0 0.083696735197635597 -0.035074751153617953 0 0.071280738265345076 -0.03811759874850193 0 0.081718078703247488 -0.046336117599872988 0 0.071280738265345076 -0.03811759874850193 0 0.068339170937992105 -0.053424337060716878 0 0.081718078703247488 -0.046336117599872988 0 0.068339170937992105 -0.053424337060716878 0 0.079819511512682115 -0.059373961925762081 0 0.068339170937992105 -0.053424337060716878 0 0.079819511512682115 -0.059373961925762081 0 0.068682665651441266 -0.069637891440837665 0 0.079819511512682115 -0.059373961925762081 0 0.095977453204919599 -0.050472192210401508 0 0.084380189065810102 -0.076999271316981366 0 0.081718078703247488 -0.046336117599872988 0 0.079819511512682115 -0.059373961925762081 0 0.095977453204919599 -0.050472192210401508 0 0.095977453204919599 -0.050472192210401508 0 0.1084893608633546 -0.054995312108922077 0 0.1003826539890946 -0.069656067773248523 0 0.095977453204919599 -0.050472192210401508 0 0.1084893608633546 -0.054995312108922077 0 0.10497618281608501 -0.042163163930312997 0 0.1084893608633546 -0.054995312108922077 0 0.12021542192502691 -0.05736310542253667 0 0.11225492598618329 -0.067700646346746801 0 0.12021542192502691 -0.05736310542253667 0 0.1181844865236701 -0.045884275653046647 0 0.1350650896680477 -0.050994701792827862 0 0.1084893608633546 -0.054995312108922077 0 0.12021542192502691 -0.05736310542253667 0 0.1181844865236701 -0.045884275653046647 0 0.1084893608633546 -0.054995312108922077 0 0.1181844865236701 -0.045884275653046647 0 0.10497618281608501 -0.042163163930312997 0 0.1181844865236701 -0.045884275653046647 0 0.1169603374125384 -0.034526050343312617 0 0.10497618281608501 -0.042163163930312997 0 0.10497618281608501 -0.042163163930312997 0 0.1139069069496291 -0.021464697665753471 0 0.1169603374125384 -0.034526050343312617 0 0.10497618281608501 -0.042163163930312997 0 0.1139069069496291 -0.021464697665753471 0 0.1181844865236701 -0.045884275653046647 0 0.1169603374125384 -0.034526050343312617 0 0.1283586559847627 -0.040725310836502493 0 0.095977453204919599 -0.050472192210401508 0 0.10497618281608501 -0.042163163930312997 0 0.1075747173440291 -0.023945113103821601 0 0.095977453204919599 -0.050472192210401508 0 0.093921030959280866 -0.033511072873054298 0 0.1075747173440291 -0.023945113103821601 0 0.095977453204919599 -0.050472192210401508 0 0.1075747173440291 -0.023945113103821601 0 0.10497618281608501 -0.042163163930312997 0 0.1075747173440291 -0.023945113103821601 0 0.1139069069496291 -0.021464697665753471 0 0.093921030959280866 -0.033511072873054298 0 0.096892307268332672 -0.02266252034611416 0 0.1075747173440291 -0.023945113103821601 0 0.093491186985964037 -0.01472799792969565 0 0.096892307268332672 -0.02266252034611416 0 0.10169828607787421 -0.015923098960230999 0 0.096892307268332672 -0.02266252034611416 0 0.10169828607787421 -0.015923098960230999 0 0.1075747173440291 -0.023945113103821601 0 0.10169828607787421 -0.015923098960230999 0 0.1075747173440291 -0.023945113103821601 0 0.1082483433893755 -0.0084409933366877514 0 0.1169603374125384 -0.034526050343312617 0 0.1213672368215104 -0.025634276355807499 0 0.12969235634276979 -0.031284000123743903 0 0.1169603374125384 -0.034526050343312617 0 0.1213672368215104 -0.025634276355807499 0 0.1139069069496291 -0.021464697665753471 0 0.1213672368215104 -0.025634276355807499 0 0.1139069069496291 -0.021464697665753471 0 0.12490934658110441 -0.01526235729042 0 0.11917198148314 0.002581966002757949 0 0.1075747173440291 -0.023945113103821601 0 0.1139069069496291 -0.021464697665753471 0 0.11917198148314 0.002581966002757949 0 0.1139069069496291 -0.021464697665753471 0 0.1228376310831711 -0.00076623140119310329 0 0.11917198148314 0.002581966002757949 0 0.1075747173440291 -0.023945113103821601 0 0.1082483433893755 -0.0084409933366877514 0 0.1139069069496291 -0.021464697665753471 0 0.12490934658110441 -0.01526235729042 0 0.1228376310831711 -0.00076623140119310329 0 0.1139069069496291 -0.021464697665753471 0 0.1228376310831711 -0.00076623140119310329 0 0.11917198148314 0.002581966002757949 0 0.1075747173440291 -0.023945113103821601 0 0.11917198148314 0.002581966002757949 0 0.1105415625726717 -0.0014271332550589229 0 0.1082483433893755 -0.0084409933366877514 0 0.1078625722471533 0.0022823866337398822 0 0.1105415625726717 -0.0014271332550589229 0 0.1039166904039584 -0.0028966343462391718 0 0.1039166904039584 -0.0028966343462391718 0 0.1082483433893755 -0.0084409933366877514 0 0.10154047648190589 -0.00941290969201335 0 0.1105415625726717 -0.0014271332550589229 0 0.1039166904039584 -0.0028966343462391718 0 0.1082483433893755 -0.0084409933366877514 0 0.10169828607787421 -0.015923098960230999 0 0.1082483433893755 -0.0084409933366877514 0 0.10154047648190589 -0.00941290969201335 0 0.093491186985964037 -0.01472799792969565 0 0.10154047648190589 -0.00941290969201335 0 0.09649789417263642 -0.0037639840011086311 0 0.093491186985964037 -0.01472799792969565 0 0.10169828607787421 -0.015923098960230999 0 0.10154047648190589 -0.00941290969201335 0 0.1039166904039584 -0.0028966343462391718 0 0.10154047648190589 -0.00941290969201335 0 0.09649789417263642 -0.0037639840011086311 0 0.088046088292129038 -0.10430519341125349 0 0.072782924926700548 -0.1035263504235614 0 0.088717560391344957 -0.092993146067331611 0 0.088046088292129038 -0.10430519341125349 0 0.080670658246847674 -0.112136361820053 0 0.072782924926700548 -0.1035263504235614 0 0.088046088292129038 -0.10430519341125349 0 0.088717560391344957 -0.092993146067331611 0 0.100171096126226 -0.096028489315426471 0 0.088046088292129038 -0.10430519341125349 0 0.089116900718008318 -0.11226838151764811 0 0.096817389343646892 -0.1088784313235004 0 0.088046088292129038 -0.10430519341125349 0 0.089116900718008318 -0.11226838151764811 0 0.080670658246847674 -0.112136361820053 0 0.089116900718008318 -0.11226838151764811 0 0.082844213492092533 -0.1195429602861619 0 0.095577299328253623 -0.1174095529111252 0 0.082362828069140165 -0.1319846138898183 0 0.082844213492092533 -0.1195429602861619 0 0.095577299328253623 -0.1174095529111252 0 0.082362828069140165 -0.1319846138898183 0 0.095577299328253623 -0.1174095529111252 0 0.082362828069140165 -0.1319846138898183 0 0.082844213492092533 -0.1195429602861619 0 0.069837722907261313 -0.1199532536492431 0 0.089116900718008318 -0.11226838151764811 0 0.082844213492092533 -0.1195429602861619 0 0.080670658246847674 -0.112136361820053 0 0.080670658246847674 -0.112136361820053 0 0.069837722907261313 -0.1199532536492431 0 0.072782924926700548 -0.1035263504235614 0 0.06118566078759103 -0.13005342953014129 0 0.072782924926700548 -0.1035263504235614 0 0.06118566078759103 -0.13005342953014129 0 0.069837722907261313 -0.1199532536492431 0 0.072782924926700548 -0.1035263504235614 0 0.06118566078759103 -0.13005342953014129 0 0.056223070490067702 -0.1049071233711502 0 0.072782924926700548 -0.1035263504235614 0 0.082844213492092533 -0.1195429602861619 0 0.080670658246847674 -0.112136361820053 0 0.069837722907261313 -0.1199532536492431 0 0.056223070490067702 -0.1049071233711502 0 0.072782924926700548 -0.1035263504235614 0 0.064045145718632748 -0.088800152685812248 0 0.057640786708643768 -0.07951032993234286 0 0.064045145718632748 -0.088800152685812248 0 0.068682665651441266 -0.069637891440837665 0 0.064045145718632748 -0.088800152685812248 0 0.068682665651441266 -0.069637891440837665 0 0.084380189065810102 -0.076999271316981366 0 0.072782924926700548 -0.1035263504235614 0 0.064045145718632748 -0.088800152685812248 0 0.084380189065810102 -0.076999271316981366 0 0.052580487019044733 -0.06457445167855122 0 0.068339170937992105 -0.053424337060716878 0 0.068682665651441266 -0.069637891440837665 0 0.079819511512682115 -0.059373961925762081 0 0.068682665651441266 -0.069637891440837665 0 0.084380189065810102 -0.076999271316981366 0 0.095977453204919599 -0.050472192210401508 0 0.084380189065810102 -0.076999271316981366 0 0.1003826539890946 -0.069656067773248523 0 0.095977453204919599 -0.050472192210401508 0 0.084380189065810102 -0.076999271316981366 0 0.084380189065810102 -0.076999271316981366 0 0.095693843046354268 -0.0841642264331387 0 0.1003826539890946 -0.069656067773248523 0 0.072782924926700548 -0.1035263504235614 0 0.084380189065810102 -0.076999271316981366 0 0.072782924926700548 -0.1035263504235614 0 0.084380189065810102 -0.076999271316981366 0 0.088717560391344957 -0.092993146067331611 0 0.084380189065810102 -0.076999271316981366 0 0.088717560391344957 -0.092993146067331611 0 0.095693843046354268 -0.0841642264331387 0 0.088717560391344957 -0.092993146067331611 0 0.095693843046354268 -0.0841642264331387 0 0.100171096126226 -0.096028489315426471 0 0.095693843046354268 -0.0841642264331387 0 0.1061825878765964 -0.082065358753895937 0 0.100171096126226 -0.096028489315426471 0 0.095693843046354268 -0.0841642264331387 0 0.1061825878765964 -0.082065358753895937 0 0.1003826539890946 -0.069656067773248523 0 0.1061825878765964 -0.082065358753895937 0 0.1152940355071756 -0.093458773729521216 0 0.100171096126226 -0.096028489315426471 0 0.1061825878765964 -0.082065358753895937 0 0.1003826539890946 -0.069656067773248523 0 0.11225492598618329 -0.067700646346746801 0 0.1084893608633546 -0.054995312108922077 0 0.1003826539890946 -0.069656067773248523 0 0.11225492598618329 -0.067700646346746801 0 0.1061825878765964 -0.082065358753895937 0 0.11225492598618329 -0.067700646346746801 0 0.1171317857577618 -0.078667044940758796 0 0.1171317857577618 -0.078667044940758796 0 0.12857779857738699 -0.078718698725873171 0 0.12708324658387871 -0.067240591211139955 0 0.11225492598618329 -0.067700646346746801 0 0.1171317857577618 -0.078667044940758796 0 0.12708324658387871 -0.067240591211139955 0 0.12021542192502691 -0.05736310542253667 0 0.11225492598618329 -0.067700646346746801 0 0.12708324658387871 -0.067240591211139955 0 0.1061825878765964 -0.082065358753895937 0 0.1152940355071756 -0.093458773729521216 0 0.1171317857577618 -0.078667044940758796 0 0.1171317857577618 -0.078667044940758796 0 0.1286838548293292 -0.09135300801218077 0 0.12857779857738699 -0.078718698725873171 0 0.1152940355071756 -0.093458773729521216 0 0.1171317857577618 -0.078667044940758796 0 0.1286838548293292 -0.09135300801218077 0 0.1152940355071756 -0.093458773729521216 0 0.1230450488982011 -0.098166020395255585 0 0.1286838548293292 -0.09135300801218077 0 0.1152940355071756 -0.093458773729521216 0 0.1230450488982011 -0.098166020395255585 0 0.1196469902177196 -0.1061558951397697 0 0.1230450488982011 -0.098166020395255585 0 0.1196469902177196 -0.1061558951397697 0 0.12917406780106669 -0.1036793655145172 0 0.1196469902177196 -0.1061558951397697 0 0.1094725419179296 -0.1044020385603272 0 0.1154331983948798 -0.1174886032934183 0 0.1152940355071756 -0.093458773729521216 0 0.1196469902177196 -0.1061558951397697 0 0.1094725419179296 -0.1044020385603272 0 0.1152940355071756 -0.093458773729521216 0 0.1094725419179296 -0.1044020385603272 0 0.100171096126226 -0.096028489315426471 0 0.1094725419179296 -0.1044020385603272 0 0.096817389343646892 -0.1088784313235004 0 0.100171096126226 -0.096028489315426471 0 0.088046088292129038 -0.10430519341125349 0 0.096817389343646892 -0.1088784313235004 0 0.100171096126226 -0.096028489315426471 0 0.096817389343646892 -0.1088784313235004 0 0.1051359327507693 -0.1227177542784853 0 0.1154331983948798 -0.1174886032934183 0 0.096817389343646892 -0.1088784313235004 0 0.1154331983948798 -0.1174886032934183 0 0.1005807427949069 -0.13366374688330029 0 0.095577299328253623 -0.1174095529111252 0 0.1051359327507693 -0.1227177542784853 0 0.1094725419179296 -0.1044020385603272 0 0.096817389343646892 -0.1088784313235004 0 0.1154331983948798 -0.1174886032934183 0 0.089116900718008318 -0.11226838151764811 0 0.096817389343646892 -0.1088784313235004 0 0.095577299328253623 -0.1174095529111252 0 0.096817389343646892 -0.1088784313235004 0 0.095577299328253623 -0.1174095529111252 0 0.1051359327507693 -0.1227177542784853 0 0.1154331983948798 -0.1174886032934183 0 0.13404900744611239 -0.12609877526333699 0 0.1196469902177196 -0.1061558951397697 0 0.1154331983948798 -0.1174886032934183 0 0.12686113813069899 -0.1114359576666621 0 0.1154331983948798 -0.1174886032934183 0 0.12686113813069899 -0.1114359576666621 0 0.13390982127973511 -0.11942472678041111 0 0.1154331983948798 -0.1174886032934183 0 0.13390982127973511 -0.11942472678041111 0 0.13404900744611239 -0.12609877526333699 0 0.12686113813069899 -0.1114359576666621 0 0.13614161296009411 -0.11043119760519431 0 0.13390982127973511 -0.11942472678041111 0 0.13614161296009411 -0.11043119760519431 0 0.14023431030656019 -0.11642081500581559 0 0.13390982127973511 -0.11942472678041111 0 0.13614161296009411 -0.11043119760519431 0 0.14023431030656019 -0.11642081500581559 0 0.14347338005148061 -0.1082488085161593 0 0.13773130733042549 -0.12113088311922759 0 0.1427320902892944 -0.12257921542734659 0 0.13404900744611239 -0.12609877526333699 0 0.13390982127973511 -0.11942472678041111 0 0.13773130733042549 -0.12113088311922759 0 0.13404900744611239 -0.12609877526333699 0 0.13390982127973511 -0.11942472678041111 0 0.13404900744611239 -0.12609877526333699 0 0.14023431030656019 -0.11642081500581559 0 0.13773130733042549 -0.12113088311922759 0 0.1427320902892944 -0.12257921542734659 0 0.14023431030656019 -0.11642081500581559 0 0.13390982127973511 -0.11942472678041111 0 0.13773130733042549 -0.12113088311922759 0 0.1427320902892944 -0.12257921542734659 0 0.15192118682329561 -0.12273271218809589 0 0.1490682445489844 -0.1279194233146575 0 0.1427320902892944 -0.12257921542734659 0 0.1474293378639818 -0.11515719203513899 0 0.15192118682329561 -0.12273271218809589 0 0.14023431030656019 -0.11642081500581559 0 0.1427320902892944 -0.12257921542734659 0 0.1474293378639818 -0.11515719203513899 0 0.1474293378639818 -0.11515719203513899 0 0.15201290161170181 -0.107226104105896 0 0.14347338005148061 -0.1082488085161593 0 0.14023431030656019 -0.11642081500581559 0 0.1474293378639818 -0.11515719203513899 0 0.14347338005148061 -0.1082488085161593 0 0.1474293378639818 -0.11515719203513899 0 0.15419764536576119 -0.1149677746217292 0 0.15201290161170181 -0.107226104105896 0 0.15419764536576119 -0.1149677746217292 0 0.15201290161170181 -0.107226104105896 0 0.1590985184781393 -0.1107939778183322 0 0.15419764536576119 -0.1149677746217292 0 0.15192118682329561 -0.12273271218809589 0 0.1605262820516872 -0.11892888696118289 0 0.1474293378639818 -0.11515719203513899 0 0.15419764536576119 -0.1149677746217292 0 0.15192118682329561 -0.12273271218809589 0 0.153855148049276 -0.097460838801678593 0 0.15201290161170181 -0.107226104105896 0 0.1462355681673109 -0.099255024001954253 0 0.153855148049276 -0.097460838801678593 0 0.1462355681673109 -0.099255024001954253 0 0.1490737095502995 -0.088653392770718792 0 0.153855148049276 -0.097460838801678593 0 0.15201290161170181 -0.107226104105896 0 0.16008969536972259 -0.10263897543636979 0 0.14347338005148061 -0.1082488085161593 0 0.1462355681673109 -0.099255024001954253 0 0.13800617896953651 -0.1013117005447786 0 0.15201290161170181 -0.107226104105896 0 0.14347338005148061 -0.1082488085161593 0 0.1462355681673109 -0.099255024001954253 0 0.1462355681673109 -0.099255024001954253 0 0.13800617896953651 -0.1013117005447786 0 0.14099209077157121 -0.092629299272494275 0 0.13800617896953651 -0.1013117005447786 0 0.1286838548293292 -0.09135300801218077 0 0.14099209077157121 -0.092629299272494275 0 0.13614161296009411 -0.11043119760519431 0 0.13800617896953651 -0.1013117005447786 0 0.12917406780106669 -0.1036793655145172 0 0.13614161296009411 -0.11043119760519431 0 0.14347338005148061 -0.1082488085161593 0 0.13800617896953651 -0.1013117005447786 0 0.1196469902177196 -0.1061558951397697 0 0.12686113813069899 -0.1114359576666621 0 0.12917406780106669 -0.1036793655145172 0 0.12686113813069899 -0.1114359576666621 0 0.13614161296009411 -0.11043119760519431 0 0.12917406780106669 -0.1036793655145172 0 0.1230450488982011 -0.098166020395255585 0 0.12917406780106669 -0.1036793655145172 0 0.1286838548293292 -0.09135300801218077 0 0.13800617896953651 -0.1013117005447786 0 0.12917406780106669 -0.1036793655145172 0 0.1286838548293292 -0.09135300801218077 0 0.1286838548293292 -0.09135300801218077 0 0.12857779857738699 -0.078718698725873171 0 0.13748132505412469 -0.08396770010957226 0 0.13748132505412469 -0.08396770010957226 0 0.1367334774756912 -0.073531819827653083 0 0.14538989296775451 -0.078880163337803719 0 0.12857779857738699 -0.078718698725873171 0 0.13748132505412469 -0.08396770010957226 0 0.1367334774756912 -0.073531819827653083 0 0.1286838548293292 -0.09135300801218077 0 0.13748132505412469 -0.08396770010957226 0 0.14099209077157121 -0.092629299272494275 0 0.12857779857738699 -0.078718698725873171 0 0.12708324658387871 -0.067240591211139955 0 0.1367334774756912 -0.073531819827653083 0 0.12708324658387871 -0.067240591211139955 0 0.1367334774756912 -0.073531819827653083 0 0.14110971147140131 -0.064913967020147179 0 0.1367334774756912 -0.073531819827653083 0 0.14110971147140131 -0.064913967020147179 0 0.14964674351361701 -0.070099729323911744 0 0.14110971147140131 -0.064913967020147179 0 0.14964674351361701 -0.070099729323911744 0 0.15194569281242609 -0.056105127932606663 0 0.1367334774756912 -0.073531819827653083 0 0.14964674351361701 -0.070099729323911744 0 0.14538989296775451 -0.078880163337803719 0 0.14964674351361701 -0.070099729323911744 0 0.14538989296775451 -0.078880163337803719 0 0.15822082836811369 -0.079982126599630443 0 0.14964674351361701 -0.070099729323911744 0 0.15822082836811369 -0.079982126599630443 0 0.1603896916223197 -0.069044426588861466 0 0.14964674351361701 -0.070099729323911744 0 0.1603896916223197 -0.069044426588861466 0 0.15194569281242609 -0.056105127932606663 0 0.13748132505412469 -0.08396770010957226 0 0.14099209077157121 -0.092629299272494275 0 0.1490737095502995 -0.088653392770718792 0 0.1462355681673109 -0.099255024001954253 0 0.14099209077157121 -0.092629299272494275 0 0.1490737095502995 -0.088653392770718792 0 0.13748132505412469 -0.08396770010957226 0 0.14538989296775451 -0.078880163337803719 0 0.1490737095502995 -0.088653392770718792 0 0.14538989296775451 -0.078880163337803719 0 0.1490737095502995 -0.088653392770718792 0 0.15822082836811369 -0.079982126599630443 0 0.153855148049276 -0.097460838801678593 0 0.1490737095502995 -0.088653392770718792 0 0.1594354292934542 -0.091737259282716963 0 0.1490737095502995 -0.088653392770718792 0 0.1594354292934542 -0.091737259282716963 0 0.15822082836811369 -0.079982126599630443 0 0.1594354292934542 -0.091737259282716963 0 0.15822082836811369 -0.079982126599630443 0 0.1684140015429216 -0.087293140772549349 0 0.15822082836811369 -0.079982126599630443 0 0.1684140015429216 -0.087293140772549349 0 0.1694423915093585 -0.075846288749261012 0 0.1684140015429216 -0.087293140772549349 0 0.1776016981043757 -0.094466756631608209 0 0.16825903644140999 -0.098606158866582916 0 0.1594354292934542 -0.091737259282716963 0 0.1684140015429216 -0.087293140772549349 0 0.16825903644140999 -0.098606158866582916 0 0.15822082836811369 -0.079982126599630443 0 0.1603896916223197 -0.069044426588861466 0 0.1694423915093585 -0.075846288749261012 0 0.1603896916223197 -0.069044426588861466 0 0.1694423915093585 -0.075846288749261012 0 0.17187576892014289 -0.062138750134232333 0 0.17971720707086189 -0.073145871694163048 0 0.17187576892014289 -0.062138750134232333 0 0.19180584502786041 -0.068172372335855602 0 0.17187576892014289 -0.062138750134232333 0 0.19180584502786041 -0.068172372335855602 0 0.1694423915093585 -0.075846288749261012 0 0.17971720707086189 -0.073145871694163048 0 0.17187576892014289 -0.062138750134232333 0 0.1694423915093585 -0.075846288749261012 0 0.17971720707086189 -0.073145871694163048 0 0.17803685153179119 -0.083473416706129469 0 0.17971720707086189 -0.073145871694163048 0 0.18645595400882431 -0.078186102724248294 0 0.19180584502786041 -0.068172372335855602 0 0.1684140015429216 -0.087293140772549349 0 0.17803685153179119 -0.083473416706129469 0 0.1776016981043757 -0.094466756631608209 0 0.1684140015429216 -0.087293140772549349 0 0.1694423915093585 -0.075846288749261012 0 0.17803685153179119 -0.083473416706129469 0 0.17803685153179119 -0.083473416706129469 0 0.18645595400882431 -0.078186102724248294 0 0.18748362772352481 -0.090285751384613616 0 0.17971720707086189 -0.073145871694163048 0 0.17803685153179119 -0.083473416706129469 0 0.18645595400882431 -0.078186102724248294 0 0.17803685153179119 -0.083473416706129469 0 0.18748362772352481 -0.090285751384613616 0 0.1776016981043757 -0.094466756631608209 0 0.1776016981043757 -0.094466756631608209 0 0.1757785255420414 -0.1036637588673371 0 0.18737718651252391 -0.1018645954104864 0 0.18748362772352481 -0.090285751384613616 0 0.1776016981043757 -0.094466756631608209 0 0.18737718651252391 -0.1018645954104864 0 0.1776016981043757 -0.094466756631608209 0 0.1757785255420414 -0.1036637588673371 0 0.16825903644140999 -0.098606158866582916 0 0.1757785255420414 -0.1036637588673371 0 0.17797479248166551 -0.1125427820454727 0 0.16787713834435419 -0.11000951374301229 0 0.1757785255420414 -0.1036637588673371 0 0.18737718651252391 -0.1018645954104864 0 0.17797479248166551 -0.1125427820454727 0 0.18737718651252391 -0.1018645954104864 0 0.18701697985041221 -0.11880972375357141 0 0.17797479248166551 -0.1125427820454727 0 0.18701697985041221 -0.11880972375357141 0 0.173543926957343 -0.1211375462363173 0 0.17990838590865871 -0.12844737664361131 0 0.18701697985041221 -0.11880972375357141 0 0.173543926957343 -0.1211375462363173 0 0.17797479248166551 -0.1125427820454727 0 0.173543926957343 -0.1211375462363173 0 0.17797479248166551 -0.1125427820454727 0 0.16787713834435419 -0.11000951374301229 0 0.173543926957343 -0.1211375462363173 0 0.16787713834435419 -0.11000951374301229 0 0.1605262820516872 -0.11892888696118289 0 0.173543926957343 -0.1211375462363173 0 0.1605262820516872 -0.11892888696118289 0 0.1641162962428066 -0.126449221113482 0 0.15192118682329561 -0.12273271218809589 0 0.1605262820516872 -0.11892888696118289 0 0.1587247560068413 -0.12564209046719049 0 0.1605262820516872 -0.11892888696118289 0 0.1587247560068413 -0.12564209046719049 0 0.1641162962428066 -0.126449221113482 0 0.15419764536576119 -0.1149677746217292 0 0.1605262820516872 -0.11892888696118289 0 0.1590985184781393 -0.1107939778183322 0 0.16787713834435419 -0.11000951374301229 0 0.1605262820516872 -0.11892888696118289 0 0.1590985184781393 -0.1107939778183322 0 0.15201290161170181 -0.107226104105896 0 0.1590985184781393 -0.1107939778183322 0 0.16008969536972259 -0.10263897543636979 0 0.16787713834435419 -0.11000951374301229 0 0.1590985184781393 -0.1107939778183322 0 0.16008969536972259 -0.10263897543636979 0 0.1594354292934542 -0.091737259282716963 0 0.16008969536972259 -0.10263897543636979 0 0.16825903644140999 -0.098606158866582916 0 0.153855148049276 -0.097460838801678593 0 0.1594354292934542 -0.091737259282716963 0 0.16008969536972259 -0.10263897543636979 0 0.1757785255420414 -0.1036637588673371 0 0.16787713834435419 -0.11000951374301229 0 0.16825903644140999 -0.098606158866582916 0 0.16787713834435419 -0.11000951374301229 0 0.16008969536972259 -0.10263897543636979 0 0.16825903644140999 -0.098606158866582916 0 0.1552076984021574 -0.0047487866015848753 0 0.1380919344669613 -0.01469948322874493 0 0.1606476670511833 -0.017066892083396779 0 0.14127976741107601 0.00215554095495248 0 0.1552076984021574 -0.0047487866015848753 0 0.1380919344669613 -0.01469948322874493 0 0.14127976741107601 0.00215554095495248 0 0.1228376310831711 -0.00076623140119310329 0 0.1380919344669613 -0.01469948322874493 0 0.1228376310831711 -0.00076623140119310329 0 0.1380919344669613 -0.01469948322874493 0 0.12490934658110441 -0.01526235729042 0 0.1228376310831711 -0.00076623140119310329 0 0.1380919344669613 -0.01469948322874493 0 0.1380919344669613 -0.01469948322874493 0 0.1415761600091012 -0.038003691908970592 0 0.12969235634276979 -0.031284000123743903 0 0.1213672368215104 -0.025634276355807499 0 0.12490934658110441 -0.01526235729042 0 0.12969235634276979 -0.031284000123743903 0 0.12490934658110441 -0.01526235729042 0 0.1380919344669613 -0.01469948322874493 0 0.12969235634276979 -0.031284000123743903 0 0.1380919344669613 -0.01469948322874493 0 0.15334623785075199 -0.02863273505629621 0 0.1415761600091012 -0.038003691908970592 0 0.1380919344669613 -0.01469948322874493 0 0.15334623785075199 -0.02863273505629621 0 0.1606476670511833 -0.017066892083396779 0 0.1380919344669613 -0.01469948322874493 0 0.15334623785075199 -0.02863273505629621 0 0.15437572795414581 -0.042117567211766717 0 0.1415761600091012 -0.038003691908970592 0 0.15194569281242609 -0.056105127932606663 0 0.15334623785075199 -0.02863273505629621 0 0.15437572795414581 -0.042117567211766717 0 0.1415761600091012 -0.038003691908970592 0 0.1181844865236701 -0.045884275653046647 0 0.1283586559847627 -0.040725310836502493 0 0.1350650896680477 -0.050994701792827862 0 0.1415761600091012 -0.038003691908970592 0 0.12969235634276979 -0.031284000123743903 0 0.1283586559847627 -0.040725310836502493 0 0.1169603374125384 -0.034526050343312617 0 0.12969235634276979 -0.031284000123743903 0 0.1283586559847627 -0.040725310836502493 0 0.1415761600091012 -0.038003691908970592 0 0.1283586559847627 -0.040725310836502493 0 0.1350650896680477 -0.050994701792827862 0 0.1181844865236701 -0.045884275653046647 0 0.1350650896680477 -0.050994701792827862 0 0.12021542192502691 -0.05736310542253667 0 0.12708324658387871 -0.067240591211139955 0 0.1350650896680477 -0.050994701792827862 0 0.12708324658387871 -0.067240591211139955 0 0.14110971147140131 -0.064913967020147179 0 0.1350650896680477 -0.050994701792827862 0 0.14110971147140131 -0.064913967020147179 0 0.15194569281242609 -0.056105127932606663 0 0.1415761600091012 -0.038003691908970592 0 0.1350650896680477 -0.050994701792827862 0 0.15194569281242609 -0.056105127932606663 0 0.1350650896680477 -0.050994701792827862 0 0.15194569281242609 -0.056105127932606663 0 0.14110971147140131 -0.064913967020147179 0 0.1350650896680477 -0.050994701792827862 0 0.15194569281242609 -0.056105127932606663 0 0.15194569281242609 -0.056105127932606663 0 0.16860054123454279 -0.042565986883847551 0 0.15437572795414581 -0.042117567211766717 0 0.15194569281242609 -0.056105127932606663 0 0.16860054123454279 -0.042565986883847551 0 0.1603896916223197 -0.069044426588861466 0 0.15194569281242609 -0.056105127932606663 0 0.17187576892014289 -0.062138750134232333 0 0.15194569281242609 -0.056105127932606663 0 0.165016394264413 -0.053661354003145263 0 0.17187576892014289 -0.062138750134232333 0 0.15194569281242609 -0.056105127932606663 0 0.165016394264413 -0.053661354003145263 0 0.16860054123454279 -0.042565986883847551 0 0.15194569281242609 -0.056105127932606663 0 0.17187576892014289 -0.062138750134232333 0 0.165016394264413 -0.053661354003145263 0 0.17187576892014289 -0.062138750134232333 0 0.18345715790010181 -0.056135992415964377 0 0.165016394264413 -0.053661354003145263 0 0.18345715790010181 -0.056135992415964377 0 0.16860054123454279 -0.042565986883847551 0 0.17187576892014289 -0.062138750134232333 0 0.18345715790010181 -0.056135992415964377 0 0.19180584502786041 -0.068172372335855602 0 0.18345715790010181 -0.056135992415964377 0 0.17385144243116649 -0.043269821226828903 0 0.18595588634396351 -0.043176695624854357 0 0.18345715790010181 -0.056135992415964377 0 0.17385144243116649 -0.043269821226828903 0 0.16860054123454279 -0.042565986883847551 0 0.18345715790010181 -0.056135992415964377 0 0.16860054123454279 -0.042565986883847551 0 0.18595588634396351 -0.043176695624854357 0 0.1782733089797521 -0.034702753096601993 0 0.1941468740000297 -0.021798736782002521 0 0.17385144243116649 -0.043269821226828903 0 0.18595588634396351 -0.043176695624854357 0 0.1782733089797521 -0.034702753096601993 0 0.17385144243116649 -0.043269821226828903 0 0.1782733089797521 -0.034702753096601993 0 0.16860054123454279 -0.042565986883847551 0 0.1782733089797521 -0.034702753096601993 0 0.16860054123454279 -0.042565986883847551 0 0.17385144243116649 -0.043269821226828903 0 0.1782733089797521 -0.034702753096601993 0 0.1782733089797521 -0.034702753096601993 0 0.16860054123454279 -0.042565986883847551 0 0.1670526359884773 -0.02836254214418232 0 0.15334623785075199 -0.02863273505629621 0 0.16860054123454279 -0.042565986883847551 0 0.1670526359884773 -0.02836254214418232 0 0.15334623785075199 -0.02863273505629621 0 0.15437572795414581 -0.042117567211766717 0 0.16860054123454279 -0.042565986883847551 0 0.15334623785075199 -0.02863273505629621 0 0.16860054123454279 -0.042565986883847551 0 0.15334623785075199 -0.02863273505629621 0 0.1606476670511833 -0.017066892083396779 0 0.1670526359884773 -0.02836254214418232 0 0.1606476670511833 -0.017066892083396779 0 0.1670526359884773 -0.02836254214418232 0 0.1743954248261565 -0.018844343600769399 0 0.1782733089797521 -0.034702753096601993 0 0.1743954248261565 -0.018844343600769399 0 0.1918659379284415 -0.0083679514935210662 0 0.1782733089797521 -0.034702753096601993 0 0.1670526359884773 -0.02836254214418232 0 0.1743954248261565 -0.018844343600769399 0 0.1782733089797521 -0.034702753096601993 0 0.1918659379284415 -0.0083679514935210662 0 0.1782733089797521 -0.034702753096601993 0 0.1941468740000297 -0.021798736782002521 0 0.1743954248261565 -0.018844343600769399 0 0.17983697574181159 -0.0080573062328258595 0 0.1918659379284415 -0.0083679514935210662 0 0.1743954248261565 -0.018844343600769399 0 0.17983697574181159 -0.0080573062328258595 0 0.17056947168728639 -0.0076341498549102596 0 0.17983697574181159 -0.0080573062328258595 0 0.18580903226614379 -0.0011502469314075439 0 0.17786282304025339 -0.001583287003114023 0 0.17983697574181159 -0.0080573062328258595 0 0.18580903226614379 -0.0011502469314075439 0 0.1918659379284415 -0.0083679514935210662 0 0.17983697574181159 -0.0080573062328258595 0 0.17786282304025339 -0.001583287003114023 0 0.17056947168728639 -0.0076341498549102596 0 0.17227434920368959 0.00081991249798677823 0 0.17786282304025339 -0.001583287003114023 0 0.17056947168728639 -0.0076341498549102596 0 0.17227434920368959 0.00081991249798677823 0 0.16550177429739321 0.001625335581948511 0 0.17056947168728639 -0.0076341498549102596 0 0.1606476670511833 -0.017066892083396779 0 0.1743954248261565 -0.018844343600769399 0 0.17056947168728639 -0.0076341498549102596 0 0.1552076984021574 -0.0047487866015848753 0 0.1606476670511833 -0.017066892083396779 0 0.17056947168728639 -0.0076341498549102596 0 0.15830422717032419 0.0026668804518291322 0 0.16550177429739321 0.001625335581948511 0 0.1552076984021574 -0.0047487866015848753 0 0.16550177429739321 0.001625335581948511 0 0.1552076984021574 -0.0047487866015848753 0 0.17056947168728639 -0.0076341498549102596 0 0.21653748859829491 -0.0035968485671754561 0 0.20239897911060981 -0.0049616950454924097 0 0.1941468740000297 -0.021798736782002521 0 0.21653748859829491 -0.0035968485671754561 0 0.1941468740000297 -0.021798736782002521 0 0.20955206102217341 -0.019021580532265901 0 0.21653748859829491 -0.0035968485671754561 0 0.20955206102217341 -0.019021580532265901 0 0.22864161374710179 -0.024239001361894639 0 0.21653748859829491 -0.0035968485671754561 0 0.1941468740000297 -0.021798736782002521 0 0.20938161325362409 0.0025060029461209908 0 0.21653748859829491 -0.0035968485671754561 0 0.20239897911060981 -0.0049616950454924097 0 0.19981118715584381 0.0070254328827108366 0 0.20239897911060981 -0.0049616950454924097 0 0.1918659379284415 -0.0083679514935210662 0 0.19981118715584381 0.0070254328827108366 0 0.1918659379284415 -0.0083679514935210662 0 0.20239897911060981 -0.0049616950454924097 0 0.1918659379284415 -0.0083679514935210662 0 0.1941468740000297 -0.021798736782002521 0 0.1894192936343001 0.0060385698470956234 0 0.18580903226614379 -0.0011502469314075439 0 0.1918659379284415 -0.0083679514935210662 0 0.1894192936343001 0.0060385698470956234 0 0.1918659379284415 -0.0083679514935210662 0 0.1918659379284415 -0.0083679514935210662 0 0.1941468740000297 -0.021798736782002521 0 0.1782733089797521 -0.034702753096601993 0 0.1918659379284415 -0.0083679514935210662 0 0.1941468740000297 -0.021798736782002521 0 0.1941468740000297 -0.021798736782002521 0 0.2031559883210855 -0.029985938475911671 0 0.20955206102217341 -0.019021580532265901 0 0.20955206102217341 -0.019021580532265901 0 0.21066165658577479 -0.033085676709690801 0 0.22864161374710179 -0.024239001361894639 0 0.2031559883210855 -0.029985938475911671 0 0.20955206102217341 -0.019021580532265901 0 0.21066165658577479 -0.033085676709690801 0 0.21864271396698939 -0.038649087319523719 0 0.21066165658577479 -0.033085676709690801 0 0.21034122995680221 -0.050048420551560682 0 0.21066165658577479 -0.033085676709690801 0 0.1982633616763636 -0.046037759879686967 0 0.21034122995680221 -0.050048420551560682 0 0.2031559883210855 -0.029985938475911671 0 0.21066165658577479 -0.033085676709690801 0 0.1982633616763636 -0.046037759879686967 0 0.21864271396698939 -0.038649087319523719 0 0.21034122995680221 -0.050048420551560682 0 0.21819242210762169 -0.050823402618315167 0 0.1941468740000297 -0.021798736782002521 0 0.2031559883210855 -0.029985938475911671 0 0.1982633616763636 -0.046037759879686967 0 0.18595588634396351 -0.043176695624854357 0 0.1941468740000297 -0.021798736782002521 0 0.1982633616763636 -0.046037759879686967 0 0.1941468740000297 -0.021798736782002521 0 0.1982633616763636 -0.046037759879686967 0 0.1982633616763636 -0.046037759879686967 0 0.19180584502786041 -0.068172372335855602 0 0.20237984935269879 -0.070276782977371152 0 0.1982633616763636 -0.046037759879686967 0 0.20237984935269879 -0.070276782977371152 0 0.18345715790010181 -0.056135992415964377 0 0.1982633616763636 -0.046037759879686967 0 0.19180584502786041 -0.068172372335855602 0 0.18345715790010181 -0.056135992415964377 0 0.18595588634396351 -0.043176695624854357 0 0.1982633616763636 -0.046037759879686967 0 0.21034122995680221 -0.050048420551560682 0 0.21390737605136481 -0.061417813804776289 0 0.20237984935269879 -0.070276782977371152 0 0.1982633616763636 -0.046037759879686967 0 0.21034122995680221 -0.050048420551560682 0 0.20237984935269879 -0.070276782977371152 0 0.21034122995680221 -0.050048420551560682 0 0.21819242210762169 -0.050823402618315167 0 0.21390737605136481 -0.061417813804776289 0 0.2255736282180465 -0.056882305063223393 0 0.23627526009844421 -0.049694667024589079 0 0.23165324526163639 -0.065502610206523884 0 0.21390737605136481 -0.061417813804776289 0 0.2255736282180465 -0.056882305063223393 0 0.2221192681341374 -0.068345353637844553 0 0.21819242210762169 -0.050823402618315167 0 0.21390737605136481 -0.061417813804776289 0 0.2255736282180465 -0.056882305063223393 0 0.21819242210762169 -0.050823402618315167 0 0.2255736282180465 -0.056882305063223393 0 0.22546512762764079 -0.044057692677509197 0 0.2255736282180465 -0.056882305063223393 0 0.23627526009844421 -0.049694667024589079 0 0.22546512762764079 -0.044057692677509197 0 0.24617004458672351 -0.058202332164817121 0 0.23627526009844421 -0.049694667024589079 0 0.24390890644978661 -0.075150332687283522 0 0.23627526009844421 -0.049694667024589079 0 0.24390890644978661 -0.075150332687283522 0 0.25164978009717781 -0.053061021673298493 0 0.24617004458672351 -0.058202332164817121 0 0.24422464309495209 -0.046986837608536558 0 0.24617004458672351 -0.058202332164817121 0 0.24422464309495209 -0.046986837608536558 0 0.23627526009844421 -0.049694667024589079 0 0.25164978009717781 -0.053061021673298493 0 0.2539732262079259 -0.044675773385505282 0 0.24422464309495209 -0.046986837608536558 0 0.24422464309495209 -0.046986837608536558 0 0.23627526009844421 -0.049694667024589079 0 0.24524507923365879 -0.0330622213940093 0 0.25845033672230949 -0.02738613623275089 0 0.24422464309495209 -0.046986837608536558 0 0.24524507923365879 -0.0330622213940093 0 0.23627526009844421 -0.049694667024589079 0 0.24524507923365879 -0.0330622213940093 0 0.22864161374710179 -0.024239001361894639 0 0.21864271396698939 -0.038649087319523719 0 0.21066165658577479 -0.033085676709690801 0 0.22864161374710179 -0.024239001361894639 0 0.23627526009844421 -0.049694667024589079 0 0.22864161374710179 -0.024239001361894639 0 0.21864271396698939 -0.038649087319523719 0 0.22546512762764079 -0.044057692677509197 0 0.22864161374710179 -0.024239001361894639 0 0.23627526009844421 -0.049694667024589079 0 0.22546512762764079 -0.044057692677509197 0 0.22864161374710179 -0.024239001361894639 0 0.21864271396698939 -0.038649087319523719 0 0.21819242210762169 -0.050823402618315167 0 0.22546512762764079 -0.044057692677509197 0 0.22864161374710179 -0.024239001361894639 0 0.24437070500465241 -0.019757014484825589 0 0.23246643938152739 -0.0092251246746631842 0 0.24524507923365879 -0.0330622213940093 0 0.22864161374710179 -0.024239001361894639 0 0.24437070500465241 -0.019757014484825589 0 0.25013504981522988 -0.025019616072594848 0 0.24524507923365879 -0.0330622213940093 0 0.24437070500465241 -0.019757014484825589 0 0.25247407830029878 -0.019873092178793648 0 0.25006914023697918 -0.01208141302270524 0 0.24437070500465241 -0.019757014484825589 0 0.25013504981522988 -0.025019616072594848 0 0.25247407830029878 -0.019873092178793648 0 0.24437070500465241 -0.019757014484825589 0 0.24437070500465241 -0.019757014484825589 0 0.242989310538931 -0.0092135161021761666 0 0.23246643938152739 -0.0092251246746631842 0 0.25006914023697918 -0.01208141302270524 0 0.242989310538931 -0.0092135161021761666 0 0.2479891295484222 -0.0022684572774312019 0 0.25006914023697918 -0.01208141302270524 0 0.24437070500465241 -0.019757014484825589 0 0.242989310538931 -0.0092135161021761666 0 0.2429424487767215 0.0026164120279975069 0 0.2479891295484222 -0.0022684572774312019 0 0.24005113852307369 -0.0027355710512556022 0 0.242989310538931 -0.0092135161021761666 0 0.2479891295484222 -0.0022684572774312019 0 0.24005113852307369 -0.0027355710512556022 0 0.23517440673197429 0.0051848507458196356 0 0.24005113852307369 -0.0027355710512556022 0 0.23246643938152739 -0.0092251246746631842 0 0.242989310538931 -0.0092135161021761666 0 0.24005113852307369 -0.0027355710512556022 0 0.23246643938152739 -0.0092251246746631842 0 0.22100796739575951 0.001216664300799794 0 0.22864161374710179 -0.024239001361894639 0 0.23246643938152739 -0.0092251246746631842 0 0.23517440673197429 0.0051848507458196356 0 0.22100796739575951 0.001216664300799794 0 0.23246643938152739 -0.0092251246746631842 0 0.22100796739575951 0.001216664300799794 0 0.21653748859829491 -0.0035968485671754561 0 0.22864161374710179 -0.024239001361894639 0 0.22100796739575951 0.001216664300799794 0 0.22864161374710179 -0.024239001361894639 0 0.206496337029034 -0.094515806075055359 0 0.21061282470536921 -0.1187548291727395 0 0.206496337029034 -0.094515806075055359 0 0.22623965631488491 -0.089683688039789988 0 0.22333782165884589 -0.10574313483481231 0 0.206496337029034 -0.094515806075055359 0 0.21061282470536921 -0.1187548291727395 0 0.22333782165884589 -0.10574313483481231 0 0.18737718651252391 -0.1018645954104864 0 0.18701697985041221 -0.11880972375357141 0 0.21061282470536921 -0.1187548291727395 0 0.18701697985041221 -0.11880972375357141 0 0.21061282470536921 -0.1187548291727395 0 0.19260125287660149 -0.13207131947283501 0 0.18748362772352481 -0.090285751384613616 0 0.18737718651252391 -0.1018645954104864 0 0.206496337029034 -0.094515806075055359 0 0.18737718651252391 -0.1018645954104864 0 0.206496337029034 -0.094515806075055359 0 0.21061282470536921 -0.1187548291727395 0 0.18748362772352481 -0.090285751384613616 0 0.206496337029034 -0.094515806075055359 0 0.19448955746265811 -0.082220240722777116 0 0.206496337029034 -0.094515806075055359 0 0.19448955746265811 -0.082220240722777116 0 0.20237984935269879 -0.070276782977371152 0 0.18645595400882431 -0.078186102724248294 0 0.18748362772352481 -0.090285751384613616 0 0.19448955746265811 -0.082220240722777116 0 0.18645595400882431 -0.078186102724248294 0 0.19448955746265811 -0.082220240722777116 0 0.19180584502786041 -0.068172372335855602 0 0.19448955746265811 -0.082220240722777116 0 0.19180584502786041 -0.068172372335855602 0 0.20237984935269879 -0.070276782977371152 0 0.21390737605136481 -0.061417813804776289 0 0.20237984935269879 -0.070276782977371152 0 0.21248527081093549 -0.070330245212121473 0 0.20237984935269879 -0.070276782977371152 0 0.21248527081093549 -0.070330245212121473 0 0.2145783618208984 -0.079628257083024359 0 0.21248527081093549 -0.070330245212121473 0 0.2145783618208984 -0.079628257083024359 0 0.2221192681341374 -0.068345353637844553 0 0.21390737605136481 -0.061417813804776289 0 0.21248527081093549 -0.070330245212121473 0 0.2221192681341374 -0.068345353637844553 0 0.206496337029034 -0.094515806075055359 0 0.20237984935269879 -0.070276782977371152 0 0.2145783618208984 -0.079628257083024359 0 0.206496337029034 -0.094515806075055359 0 0.2145783618208984 -0.079628257083024359 0 0.22623965631488491 -0.089683688039789988 0 0.206496337029034 -0.094515806075055359 0 0.20237984935269879 -0.070276782977371152 0 0.2145783618208984 -0.079628257083024359 0 0.22623965631488491 -0.089683688039789988 0 0.23038916340776741 -0.077440392619678861 0 0.22623965631488491 -0.089683688039789988 0 0.23038916340776741 -0.077440392619678861 0 0.23781669784438761 -0.088769324738514177 0 0.22623965631488491 -0.089683688039789988 0 0.23781669784438761 -0.088769324738514177 0 0.23714180950183539 -0.10160942858925499 0 0.2145783618208984 -0.079628257083024359 0 0.2221192681341374 -0.068345353637844553 0 0.23038916340776741 -0.077440392619678861 0 0.2255736282180465 -0.056882305063223393 0 0.2221192681341374 -0.068345353637844553 0 0.23165324526163639 -0.065502610206523884 0 0.2221192681341374 -0.068345353637844553 0 0.23038916340776741 -0.077440392619678861 0 0.23165324526163639 -0.065502610206523884 0 0.25256726729664603 -0.064532785491330763 0 0.24617004458672351 -0.058202332164817121 0 0.24390890644978661 -0.075150332687283522 0 0.23627526009844421 -0.049694667024589079 0 0.23165324526163639 -0.065502610206523884 0 0.24390890644978661 -0.075150332687283522 0 0.23038916340776741 -0.077440392619678861 0 0.23165324526163639 -0.065502610206523884 0 0.24390890644978661 -0.075150332687283522 0 0.25154255280112903 -0.1006059983499779 0 0.24390890644978661 -0.075150332687283522 0 0.25154255280112903 -0.1006059983499779 0 0.24390890644978661 -0.075150332687283522 0 0.23781669784438761 -0.088769324738514177 0 0.23038916340776741 -0.077440392619678861 0 0.24390890644978661 -0.075150332687283522 0 0.23781669784438761 -0.088769324738514177 0 0.25154255280112903 -0.1006059983499779 0 0.23714180950183539 -0.10160942858925499 0 0.24954668948061209 -0.11284283178631641 0 0.25154255280112903 -0.1006059983499779 0 0.23781669784438761 -0.088769324738514177 0 0.23714180950183539 -0.10160942858925499 0 0.23714180950183539 -0.10160942858925499 0 0.22333782165884589 -0.10574313483481231 0 0.23542538064511609 -0.1194854446592761 0 0.22623965631488491 -0.089683688039789988 0 0.23714180950183539 -0.10160942858925499 0 0.22333782165884589 -0.10574313483481231 0 0.21061282470536921 -0.1187548291727395 0 0.22333782165884589 -0.10574313483481231 0 0.23542538064511609 -0.1194854446592761 0 0.25741251913389712 -0.1305951081492244 0 0.23542538064511609 -0.1194854446592761 0 0.24954668948061209 -0.11284283178631641 0 0.23714180950183539 -0.10160942858925499 0 0.23542538064511609 -0.1194854446592761 0 0.24954668948061209 -0.11284283178631641 0 0.25741251913389712 -0.1305951081492244 0 0.25452239946831973 -0.14829655140993131 0 0.23191914561449989 -0.13726295483178369 0 0.25741251913389712 -0.1305951081492244 0 0.23542538064511609 -0.1194854446592761 0 0.23191914561449989 -0.13726295483178369 0 0.25452239946831973 -0.14829655140993131 0 0.23782434991563151 -0.15439369078169049 0 0.23191914561449989 -0.13726295483178369 0 0.23782434991563151 -0.15439369078169049 0 0.2147293123817042 -0.1429938522704238 0 0.23782434991563151 -0.15439369078169049 0 0.2147293123817042 -0.1429938522704238 0 0.21952864142792899 -0.1712536350637954 0 0.23782434991563151 -0.15439369078169049 0 0.23191914561449989 -0.13726295483178369 0 0.2147293123817042 -0.1429938522704238 0 0.21061282470536921 -0.1187548291727395 0 0.23542538064511609 -0.1194854446592761 0 0.23191914561449989 -0.13726295483178369 0 0.21061282470536921 -0.1187548291727395 0 0.23191914561449989 -0.13726295483178369 0 0.2147293123817042 -0.1429938522704238 0 0.2147293123817042 -0.1429938522704238 0 0.19260125287660149 -0.13207131947283501 0 0.21061282470536921 -0.1187548291727395 0 0.2147293123817042 -0.1429938522704238 0 0.19260125287660149 -0.13207131947283501 0 0.21061282470536921 -0.1187548291727395 0 0.2147293123817042 -0.1429938522704238 0 0.2147293123817042 -0.1429938522704238 0 0.20548350855114439 -0.15623176612928341 0 0.19677556980284089 -0.14597147697610061 0 0.20548350855114439 -0.15623176612928341 0 0.19677556980284089 -0.14597147697610061 0 0.19325106823209409 -0.153061144976989 0 0.19677556980284089 -0.14597147697610061 0 0.19325106823209409 -0.153061144976989 0 0.18786488322971459 -0.15098965934649999 0 0.19325106823209409 -0.153061144976989 0 0.18786488322971459 -0.15098965934649999 0 0.1842505296355367 -0.15589311325690541 0 0.19677556980284089 -0.14597147697610061 0 0.18786488322971459 -0.15098965934649999 0 0.188659048266132 -0.1418371739210742 0 0.2147293123817042 -0.1429938522704238 0 0.19677556980284089 -0.14597147697610061 0 0.19260125287660149 -0.13207131947283501 0 0.19677556980284089 -0.14597147697610061 0 0.188659048266132 -0.1418371739210742 0 0.19260125287660149 -0.13207131947283501 0 0.18830323417204939 -0.1765657128700695 0 0.20313295091115369 -0.1678787213591082 0 0.20600005448239761 -0.18645800734220749 0 0.18830323417204939 -0.1765657128700695 0 0.20600005448239761 -0.18645800734220749 0 0.1956377870383576 -0.1970896374814364 0 0.19325106823209409 -0.153061144976989 0 0.18830323417204939 -0.1765657128700695 0 0.19325106823209409 -0.153061144976989 0 0.18830323417204939 -0.1765657128700695 0 0.20313295091115369 -0.1678787213591082 0 0.19325106823209409 -0.153061144976989 0 0.18830323417204939 -0.1765657128700695 0 0.18144082188941271 -0.16389154531309821 0 0.20548350855114439 -0.15623176612928341 0 0.19325106823209409 -0.153061144976989 0 0.20313295091115369 -0.1678787213591082 0 0.20548350855114439 -0.15623176612928341 0 0.20313295091115369 -0.1678787213591082 0 0.21952864142792899 -0.1712536350637954 0 0.2147293123817042 -0.1429938522704238 0 0.21952864142792899 -0.1712536350637954 0 0.2147293123817042 -0.1429938522704238 0 0.20548350855114439 -0.15623176612928341 0 0.21952864142792899 -0.1712536350637954 0 0.20600005448239761 -0.18645800734220749 0 0.21952864142792899 -0.1712536350637954 0 0.22432797047415351 -0.19951341785716731 0 0.20313295091115369 -0.1678787213591082 0 0.20600005448239761 -0.18645800734220749 0 0.21952864142792899 -0.1712536350637954 0 0.21952864142792899 -0.1712536350637954 0 0.2437278363918948 -0.18195096812212239 0 0.22432797047415351 -0.19951341785716731 0 0.21952864142792899 -0.1712536350637954 0 0.22432797047415351 -0.19951341785716731 0 0.23782434991563151 -0.15439369078169049 0 0.21952864142792899 -0.1712536350637954 0 0.2437278363918948 -0.18195096812212239 0 0.260919387449559 -0.16579352929295721 0 0.23782434991563151 -0.15439369078169049 0 0.260919387449559 -0.16579352929295721 0 0.23782434991563151 -0.15439369078169049 0 0.2437278363918948 -0.18195096812212239 0 0.2437278363918948 -0.18195096812212239 0 0.24314545538918961 -0.20571013864437751 0 0.22432797047415351 -0.19951341785716731 0 0.2593871514889205 -0.19799184377322379 0 0.2437278363918948 -0.18195096812212239 0 0.24314545538918961 -0.20571013864437751 0 0.22432797047415351 -0.19951341785716731 0 0.2342802842193491 -0.2219117808856606 0 0.21564630723174069 -0.21833189921059021 0 0.24314545538918961 -0.20571013864437751 0 0.22432797047415351 -0.19951341785716731 0 0.2342802842193491 -0.2219117808856606 0 0.2462907050713771 -0.25204034373521428 0 0.2499607574480687 -0.24385609709525671 0 0.2374752251495614 -0.24157268794541539 0 0.25134951441318748 -0.22920843539767929 0 0.2499607574480687 -0.24385609709525671 0 0.2374752251495614 -0.24157268794541539 0 0.25134951441318748 -0.22920843539767929 0 0.24314545538918961 -0.20571013864437751 0 0.2342802842193491 -0.2219117808856606 0 0.25134951441318748 -0.22920843539767929 0 0.2374752251495614 -0.24157268794541539 0 0.2342802842193491 -0.2219117808856606 0 0.2374752251495614 -0.24157268794541539 0 0.22060620183210919 -0.232775489656291 0 0.2342802842193491 -0.2219117808856606 0 0.22060620183210919 -0.232775489656291 0 0.2342802842193491 -0.2219117808856606 0 0.21564630723174069 -0.21833189921059021 0 0.22198339683909701 -0.25340717595137879 0 0.2374752251495614 -0.24157268794541539 0 0.22060620183210919 -0.232775489656291 0 0.22198339683909701 -0.25340717595137879 0 0.22060620183210919 -0.232775489656291 0 0.22198339683909701 -0.25340717595137879 0 0.22060620183210919 -0.232775489656291 0 0.20573671357227499 -0.23448295905173899 0 0.22198339683909701 -0.25340717595137879 0 0.20573671357227499 -0.23448295905173899 0 0.19815896102696709 -0.24816545406213189 0 0.22060620183210919 -0.232775489656291 0 0.20573671357227499 -0.23448295905173899 0 0.21564630723174069 -0.21833189921059021 0 0.20573671357227499 -0.23448295905173899 0 0.19801089506944891 -0.22061097325298201 0 0.21564630723174069 -0.21833189921059021 0 0.20573671357227499 -0.23448295905173899 0 0.19801089506944891 -0.22061097325298201 0 0.18862314846194941 -0.23474346369713109 0 0.19801089506944891 -0.22061097325298201 0 0.18862314846194941 -0.23474346369713109 0 0.17884496266341901 -0.22149700646801701 0 0.20573671357227499 -0.23448295905173899 0 0.18862314846194941 -0.23474346369713109 0 0.19815896102696709 -0.24816545406213189 0 0.20600005448239761 -0.18645800734220749 0 0.22432797047415351 -0.19951341785716731 0 0.20571207111442141 -0.20503903284801611 0 0.22432797047415351 -0.19951341785716731 0 0.21564630723174069 -0.21833189921059021 0 0.20571207111442141 -0.20503903284801611 0 0.19801089506944891 -0.22061097325298201 0 0.21564630723174069 -0.21833189921059021 0 0.20571207111442141 -0.20503903284801611 0 0.19801089506944891 -0.22061097325298201 0 0.19227081910603411 -0.2100117569492751 0 0.17884496266341901 -0.22149700646801701 0 0.20571207111442141 -0.20503903284801611 0 0.19227081910603411 -0.2100117569492751 0 0.1956377870383576 -0.1970896374814364 0 0.19801089506944891 -0.22061097325298201 0 0.20571207111442141 -0.20503903284801611 0 0.19227081910603411 -0.2100117569492751 0 0.18830323417204939 -0.1765657128700695 0 0.1956377870383576 -0.1970896374814364 0 0.18335540011200491 -0.20007028076315 0 0.19227081910603411 -0.2100117569492751 0 0.1956377870383576 -0.1970896374814364 0 0.18335540011200491 -0.20007028076315 0 0.1956377870383576 -0.1970896374814364 0 0.18335540011200491 -0.20007028076315 0 0.20600005448239761 -0.18645800734220749 0 0.20571207111442141 -0.20503903284801611 0 0.1956377870383576 -0.1970896374814364 0 0.18830323417204939 -0.1765657128700695 0 0.18335540011200491 -0.20007028076315 0 0.18335540011200491 -0.20007028076315 0 0.16873688803845349 -0.19227854821165941 0 0.17543185729929969 -0.18273889272689711 0 0.19227081910603411 -0.2100117569492751 0 0.18335540011200491 -0.20007028076315 0 0.17884496266341901 -0.22149700646801701 0 0.18335540011200491 -0.20007028076315 0 0.17884496266341901 -0.22149700646801701 0 0.18335540011200491 -0.20007028076315 0 0.16621660047528611 -0.21253283526692829 0 0.17884496266341901 -0.22149700646801701 0 0.16621660047528611 -0.21253283526692829 0 0.1593158439583067 -0.2059041094785751 0 0.15302060169630469 -0.2217977003443504 0 0.18335540011200491 -0.20007028076315 0 0.16621660047528611 -0.21253283526692829 0 0.1593158439583067 -0.2059041094785751 0 0.16621660047528611 -0.21253283526692829 0 0.1593158439583067 -0.2059041094785751 0 0.1593158439583067 -0.2059041094785751 0 0.15759932706250929 -0.18907488386135229 0 0.16873688803845349 -0.19227854821165941 0 0.18335540011200491 -0.20007028076315 0 0.1593158439583067 -0.2059041094785751 0 0.18335540011200491 -0.20007028076315 0 0.1593158439583067 -0.2059041094785751 0 0.16873688803845349 -0.19227854821165941 0 0.18066177981631051 -0.25348299893649828 0 0.19815896102696709 -0.24816545406213189 0 0.17433452521483719 -0.24292373217288479 0 0.19815896102696709 -0.24816545406213189 0 0.17433452521483719 -0.24292373217288479 0 0.18862314846194941 -0.23474346369713109 0 0.19815896102696709 -0.24816545406213189 0 0.17433452521483719 -0.24292373217288479 0 0.18066177981631051 -0.25348299893649828 0 0.17304535898525439 -0.24904788565112909 0 0.17433452521483719 -0.24292373217288479 0 0.17304535898525439 -0.24904788565112909 0 0.17433452521483719 -0.24292373217288479 0 0.18862314846194941 -0.23474346369713109 0 0.17433452521483719 -0.24292373217288479 0 0.17884496266341901 -0.22149700646801701 0 0.17433452521483719 -0.24292373217288479 0 0.17884496266341901 -0.22149700646801701 0 0.17433452521483719 -0.24292373217288479 0 0.17884496266341901 -0.22149700646801701 0 0.16512535944417561 -0.22744738033917331 0 0.16512535944417561 -0.22744738033917331 0 0.15532271566916761 -0.23874085795770611 0 0.15302060169630469 -0.2217977003443504 0 0.16621660047528611 -0.21253283526692829 0 0.17884496266341901 -0.22149700646801701 0 0.16512535944417561 -0.22744738033917331 0 0.16621660047528611 -0.21253283526692829 0 0.16512535944417561 -0.22744738033917331 0 0.15302060169630469 -0.2217977003443504 0 0.17304535898525439 -0.24904788565112909 0 0.17433452521483719 -0.24292373217288479 0 0.15532271566916761 -0.23874085795770611 0 0.15867772839633809 -0.25707915377424612 0 0.17304535898525439 -0.24904788565112909 0 0.15532271566916761 -0.23874085795770611 0 0.17433452521483719 -0.24292373217288479 0 0.16512535944417561 -0.22744738033917331 0 0.15532271566916761 -0.23874085795770611 0 0.17433452521483719 -0.24292373217288479 0 0.15532271566916761 -0.23874085795770611 0 0.15532271566916761 -0.23874085795770611 0 0.1363109061234978 -0.23455798374252809 0 0.13687529418603939 -0.26162068250561471 0 0.15532271566916761 -0.23874085795770611 0 0.1363109061234978 -0.23455798374252809 0 0.15532271566916761 -0.23874085795770611 0 0.15302060169630469 -0.2217977003443504 0 0.1363109061234978 -0.23455798374252809 0 0.15302060169630469 -0.2217977003443504 0 0.1363109061234978 -0.23455798374252809 0 0.13583218450739579 -0.2116030352811932 0 0.12594488917549271 -0.2231145762792166 0 0.1363109061234978 -0.23455798374252809 0 0.13583218450739579 -0.2116030352811932 0 0.1363109061234978 -0.23455798374252809 0 0.13583218450739579 -0.2116030352811932 0 0.13687529418603939 -0.26162068250561471 0 0.1363109061234978 -0.23455798374252809 0 0.13687529418603939 -0.26162068250561471 0 0.1223190960555403 -0.2394332616338683 0 0.1363109061234978 -0.23455798374252809 0 0.1593158439583067 -0.2059041094785751 0 0.15759932706250929 -0.18907488386135229 0 0.14727334507129489 -0.19433633097022029 0 0.14727334507129489 -0.19433633097022029 0 0.13523084618428721 -0.18276855246186111 0 0.1593158439583067 -0.2059041094785751 0 0.14727334507129489 -0.19433633097022029 0 0.1593158439583067 -0.2059041094785751 0 0.14727334507129489 -0.19433633097022029 0 0.13583218450739579 -0.2116030352811932 0 0.1593158439583067 -0.2059041094785751 0 0.13583218450739579 -0.2116030352811932 0 0.1593158439583067 -0.2059041094785751 0 0.15302060169630469 -0.2217977003443504 0 0.13583218450739579 -0.2116030352811932 0 0.1146962174531268 -0.21673223195775559 0 0.12594488917549271 -0.2231145762792166 0 0.13583218450739579 -0.2116030352811932 0 0.1146962174531268 -0.21673223195775559 0 0.13583218450739579 -0.2116030352811932 0 0.13583218450739579 -0.2116030352811932 0 0.13523084618428721 -0.18276855246186111 0 0.1210323504124224 -0.2015702574875764 0 0.13583218450739579 -0.2116030352811932 0 0.13523084618428721 -0.18276855246186111 0 0.14727334507129489 -0.19433633097022029 0 0.13583218450739579 -0.2116030352811932 0 0.13523084618428721 -0.18276855246186111 0 0.13523084618428721 -0.18276855246186111 0 0.13483495552902119 -0.16378539130439421 0 0.13523084618428721 -0.18276855246186111 0 0.14953284821028701 -0.17659781711855899 0 0.13483495552902119 -0.16378539130439421 0 0.12574768761326591 -0.17365922399620121 0 0.13523084618428721 -0.18276855246186111 0 0.13483495552902119 -0.16378539130439421 0 0.12574768761326591 -0.17365922399620121 0 0.13523084618428721 -0.18276855246186111 0 0.15759932706250929 -0.18907488386135229 0 0.14727334507129489 -0.19433633097022029 0 0.14953284821028701 -0.17659781711855899 0 0.14727334507129489 -0.19433633097022029 0 0.13523084618428721 -0.18276855246186111 0 0.14953284821028701 -0.17659781711855899 0 0.15759932706250929 -0.18907488386135229 0 0.14953284821028701 -0.17659781711855899 0 0.16056198994912749 -0.17787080610445691 0 0.14953284821028701 -0.17659781711855899 0 0.15118562361057611 -0.16212531631630639 0 0.13483495552902119 -0.16378539130439421 0 0.15118562361057611 -0.16212531631630639 0 0.13483495552902119 -0.16378539130439421 0 0.15272907190244081 -0.1550331303974728 0 0.15118562361057611 -0.16212531631630639 0 0.15272907190244081 -0.1550331303974728 0 0.15987479688754311 -0.1572750313981319 0 0.14953284821028701 -0.17659781711855899 0 0.15118562361057611 -0.16212531631630639 0 0.1601367247146048 -0.167216461388007 0 0.1232701832726428 -0.15427141090171109 0 0.12574768761326591 -0.17365922399620121 0 0.13483495552902119 -0.16378539130439421 0 0.12574768761326591 -0.17365922399620121 0 0.13483495552902119 -0.16378539130439421 0 0.13483495552902119 -0.16378539130439421 0 0.13444198148756639 -0.1449420832838656 0 0.14315652521050079 -0.14523933820255211 0 0.1232701832726428 -0.15427141090171109 0 0.13483495552902119 -0.16378539130439421 0 0.13444198148756639 -0.1449420832838656 0 0.13483495552902119 -0.16378539130439421 0 0.13444198148756639 -0.1449420832838656 0 0.13444198148756639 -0.1449420832838656 0 0.1434537453928684 -0.13532839273855221 0 0.14315652521050079 -0.14523933820255211 0 0.13444198148756639 -0.1449420832838656 0 0.13404900744611239 -0.12609877526333699 0 0.13444198148756639 -0.1449420832838656 0 0.13404900744611239 -0.12609877526333699 0 0.1434537453928684 -0.13532839273855221 0 0.11727103389215909 -0.1361484369810822 0 0.13444198148756639 -0.1449420832838656 0 0.13404900744611239 -0.12609877526333699 0 0.13404900744611239 -0.12609877526333699 0 0.1490682445489844 -0.1279194233146575 0 0.1609569453379138 -0.13854421730491809 0 0.13404900744611239 -0.12609877526333699 0 0.1609569453379138 -0.13854421730491809 0 0.13404900744611239 -0.12609877526333699 0 0.1434537453928684 -0.13532839273855221 0 0.1609569453379138 -0.13854421730491809 0 0.1434537453928684 -0.13532839273855221 0 0.14993504674019009 -0.14021612160814689 0 0.1609569453379138 -0.13854421730491809 0 0.1427320902892944 -0.12257921542734659 0 0.13404900744611239 -0.12609877526333699 0 0.1490682445489844 -0.1279194233146575 0 0.1434537453928684 -0.13532839273855221 0 0.14993504674019009 -0.14021612160814689 0 0.14315652521050079 -0.14523933820255211 0 0.14993504674019009 -0.14021612160814689 0 0.15469010670848909 -0.14221164189652771 0 0.1609569453379138 -0.13854421730491809 0 0.15568199284830581 -0.1296421963895899 0 0.1490682445489844 -0.1279194233146575 0 0.1609569453379138 -0.13854421730491809 0 0.15192118682329561 -0.12273271218809589 0 0.15568199284830581 -0.1296421963895899 0 0.1587247560068413 -0.12564209046719049 0 0.15192118682329561 -0.12273271218809589 0 0.15568199284830581 -0.1296421963895899 0 0.1490682445489844 -0.1279194233146575 0 0.13483495552902119 -0.16378539130439421 0 0.15469010670848909 -0.14221164189652771 0 0.13483495552902119 -0.16378539130439421 0 0.14315652521050079 -0.14523933820255211 0 0.15469010670848909 -0.14221164189652771 0 0.13483495552902119 -0.16378539130439421 0 0.15469010670848909 -0.14221164189652771 0 0.15272907190244081 -0.1550331303974728 0 0.14993504674019009 -0.14021612160814689 0 0.14315652521050079 -0.14523933820255211 0 0.15469010670848909 -0.14221164189652771 0 0.15272907190244081 -0.1550331303974728 0 0.16278769519534109 -0.1503194818261428 0 0.15987479688754311 -0.1572750313981319 0 0.16278769519534109 -0.1503194818261428 0 0.15987479688754311 -0.1572750313981319 0 0.16866771310860729 -0.15951236945753941 0 0.15469010670848909 -0.14221164189652771 0 0.15272907190244081 -0.1550331303974728 0 0.16278769519534109 -0.1503194818261428 0 0.15469010670848909 -0.14221164189652771 0 0.16278769519534109 -0.1503194818261428 0 0.1609569453379138 -0.13854421730491809 0 0.16278769519534109 -0.1503194818261428 0 0.1609569453379138 -0.13854421730491809 0 0.17433915911560069 -0.15342176620747169 0 0.16278769519534109 -0.1503194818261428 0 0.17433915911560069 -0.15342176620747169 0 0.16866771310860729 -0.15951236945753941 0 0.1609569453379138 -0.13854421730491809 0 0.16898528270356589 -0.1319020538664718 0 0.17739448715537109 -0.13831623988886119 0 0.1587247560068413 -0.12564209046719049 0 0.1613780220681113 -0.13045743568360191 0 0.1641162962428066 -0.126449221113482 0 0.15568199284830581 -0.1296421963895899 0 0.1587247560068413 -0.12564209046719049 0 0.1613780220681113 -0.13045743568360191 0 0.15568199284830581 -0.1296421963895899 0 0.1613780220681113 -0.13045743568360191 0 0.1609569453379138 -0.13854421730491809 0 0.1613780220681113 -0.13045743568360191 0 0.1609569453379138 -0.13854421730491809 0 0.16898528270356589 -0.1319020538664718 0 0.173543926957343 -0.1211375462363173 0 0.16898528270356589 -0.1319020538664718 0 0.1641162962428066 -0.126449221113482 0 0.1613780220681113 -0.13045743568360191 0 0.16898528270356589 -0.1319020538664718 0 0.1641162962428066 -0.126449221113482 0 0.173543926957343 -0.1211375462363173 0 0.16898528270356589 -0.1319020538664718 0 0.17990838590865871 -0.12844737664361131 0 0.16898528270356589 -0.1319020538664718 0 0.17739448715537109 -0.13831623988886119 0 0.17990838590865871 -0.12844737664361131 0 0.188659048266132 -0.1418371739210742 0 0.19260125287660149 -0.13207131947283501 0 0.17739448715537109 -0.13831623988886119 0 0.19260125287660149 -0.13207131947283501 0 0.17739448715537109 -0.13831623988886119 0 0.17990838590865871 -0.12844737664361131 0 0.18701697985041221 -0.11880972375357141 0 0.19260125287660149 -0.13207131947283501 0 0.17990838590865871 -0.12844737664361131 0 0.18786488322971459 -0.15098965934649999 0 0.1609569453379138 -0.13854421730491809 0 0.17433915911560069 -0.15342176620747169 0 0.18786488322971459 -0.15098965934649999 0 0.1609569453379138 -0.13854421730491809 0 0.18786488322971459 -0.15098965934649999 0 0.1609569453379138 -0.13854421730491809 0 0.17739448715537109 -0.13831623988886119 0 0.18786488322971459 -0.15098965934649999 0 0.188659048266132 -0.1418371739210742 0 0.17739448715537109 -0.13831623988886119 0 0.18786488322971459 -0.15098965934649999 0 0.17433915911560069 -0.15342176620747169 0 0.1842505296355367 -0.15589311325690541 0 0.17433915911560069 -0.15342176620747169 0 0.1842505296355367 -0.15589311325690541 0 0.18144082188941271 -0.16389154531309821 0 0.19325106823209409 -0.153061144976989 0 0.1842505296355367 -0.15589311325690541 0 0.18144082188941271 -0.16389154531309821 0 0.18830323417204939 -0.1765657128700695 0 0.18144082188941271 -0.16389154531309821 0 0.17072519494025609 -0.1704686386871877 0 0.17433915911560069 -0.15342176620747169 0 0.18144082188941271 -0.16389154531309821 0 0.16866771310860729 -0.15951236945753941 0 0.18144082188941271 -0.16389154531309821 0 0.16866771310860729 -0.15951236945753941 0 0.17072519494025609 -0.1704686386871877 0 0.18830323417204939 -0.1765657128700695 0 0.18335540011200491 -0.20007028076315 0 0.17543185729929969 -0.18273889272689711 0 0.18830323417204939 -0.1765657128700695 0 0.17543185729929969 -0.18273889272689711 0 0.17072519494025609 -0.1704686386871877 0 0.17543185729929969 -0.18273889272689711 0 0.16056198994912749 -0.17787080610445691 0 0.17072519494025609 -0.1704686386871877 0 0.16873688803845349 -0.19227854821165941 0 0.17543185729929969 -0.18273889272689711 0 0.16056198994912749 -0.17787080610445691 0 0.15759932706250929 -0.18907488386135229 0 0.16873688803845349 -0.19227854821165941 0 0.16056198994912749 -0.17787080610445691 0 0.14953284821028701 -0.17659781711855899 0 0.16056198994912749 -0.17787080610445691 0 0.1601367247146048 -0.167216461388007 0 0.16056198994912749 -0.17787080610445691 0 0.1601367247146048 -0.167216461388007 0 0.17072519494025609 -0.1704686386871877 0 0.1601367247146048 -0.167216461388007 0 0.15987479688754311 -0.1572750313981319 0 0.16866771310860729 -0.15951236945753941 0 0.15118562361057611 -0.16212531631630639 0 0.1601367247146048 -0.167216461388007 0 0.15987479688754311 -0.1572750313981319 0 0.1601367247146048 -0.167216461388007 0 0.16866771310860729 -0.15951236945753941 0 0.17072519494025609 -0.1704686386871877 0 
</DataArray>
</Points>
<Cells>
<DataArray type="UInt32" Name="connectivity" format="ascii">
0 1 2 3 4 5 6 7 8 9 10 11 12 13 14 15 16 17 18 19 20 21 22 23 24 25 26 27 28 29 30 31 32 33 34 35 36 37 38 39 40 41 42 43 44 45 46 47 48 49 50 51 52 53 54 55 56 57 58 59 60 61 62 63 64 65 66 67 68 69 70 71 72 73 74 75 76 77 78 79 80 81 82 83 84 85 86 87 88 89 90 91 92 93 94 95 96 97 98 99 100 101 102 103 104 105 106 107 108 109 110 111 112 113 114 115 116 117 118 119 120 121 122 123 124 125 126 127 128 129 130 131 132 133 134 135 136 137 138 139 140 141 142 143 144 145 146 147 148 149 150 151 152 153 154 155 156 157 158 159 160 161 162 163 164 165 166 167 168 169 170 171 172 173 174 175 176 177 178 179 180 181 182 183 184 185 186 187 188 189 190 191 192 193 194 195 196 197 198 199 200 201 202 203 204 205 206 207 208 209 210 211 212 213 214 215 216 217 218 219 220 221 222 223 224 225 226 227 228 229 230 231 232 233 234 235 236 237 238 239 240 241 242 243 244 245 246 247 248 249 250 251 252 253 254 255 256 257 258 259 260 261 262 263 264 265 266 267 268 269 270 271 272 273 274 275 276 277 278 279 280 281 282 283 284 285 286 287 288 289 290 291 292 293 294 295 296 297 298 299 300 301 302 303 304 305 306 307 308 309 310 311 312 313 314 315 316 317 318 319 320 321 322 323 324 325 326 327 328 329 330 331 332 333 334 335 336 337 338 339 340 341 342 343 344 345 346 347 348 349 350 351 352 353 354 355 356 357 358 359 360 361 362 363 364 365 366 367 368 369 370 371 372 373 374 375 376 377 378 379 380 381 382 383 384 385 386 387 388 389 390 391 392 393 394 395 396 397 398 399 400 401 402 403 404 405 406 407 408 409 410 411 412 413 414 415 416 417 418 419 420 421 422 423 424 425 426 427 428 429 430 431 432 433 434 435 436 437 438 439 440 441 442 443 444 445 446 447 448 449 450 451 452 453 454 455 456 457 458 459 460 461 462 463 464 465 466 467 468 469 470 471 472 473 474 475 476 477 478 479 480 481 482 483 484 485 486 487 488 489 490 491 492 493 494 495 496 497 498 499 500 501 502 503 504 505 506 507 508 509 510 511 512 513 514 515 516 517 518 519 520 521 522 523 524 525 526 527 528 529 530 531 532 533 534 535 536 537 538 539 540 541 542 543 544 545 546 547 548 549 550 551 552 553 554 555 556 557 558 559 560 561 562 563 564 565 566 567 568 569 570 571 572 573 574 575 576 577 578 579 580 581 582 583 584 585 586 587 588 589 590 591 592 593 594 595 596 597 598 599 600 601 602 603 604 605 606 607 608 609 610 611 612 613 614 615 616 617 618 619 620 621 622 623 624 625 626 627 628 629 630 631 632 633 634 635 636 637 638 639 640 641 642 643 644 645 646 647 648 649 650 651 652 653 654 655 656 657 658 659 660 661 662 663 664 665 666 667 668 669 670 671 672 673 674 675 676 677 678 679 680 681 682 683 684 685 686 687 688 689 690 691 692 693 694 695 696 697 698 699 700 701 702 703 704 705 706 707 708 709 710 711 712 713 714 715 716 717 718 719 720 721 722 723 724 725 726 727 728 729 730 731 732 733 734 735 736 737 738 739 740 741 742 743 744 745 746 747 748 749 750 751 752 753 754 755 756 757 758 759 760 761 762 763 764 765 766 767 768 769 770 771 772 773 774 775 776 777 778 779 780 781 782 783 784 785 786 787 788 789 790 791 792 793 794 795 796 797 798 799 800 801 802 803 804 805 806 807 808 809 810 811 812 813 814 815 816 817 818 819 820 821 822 823 824 825 826 827 828 829 830 831 832 833 834 835 836 837 838 839 840 841 842 843 844 845 846 847 848 849 850 851 852 853 854 855 856 857 858 859 860 861 862 863 864 865 866 867 868 869 870 871 872 873 874 875 876 877 878 879 880 881 882 883 884 885 886 887 888 889 890 891 892 893 894 895 896 897 898 899 900 901 902 903 904 905 906 907 908 909 910 911 912 913 914 915 916 917 918 919 920 921 922 923 924 925 926 927 928 929 930 931 932 933 934 935 936 937 938 939 940 941 942 943 944 945 946 947 948 949 950 951 952 953 954 955 956 957 958 959 960 961 962 963 964 965 966 967 968 969 970 971 972 973 974 975 976 977 978 979 980 981 982 983 984 985 986 987 988 989 990 991 992 993 994 995 996 997 998 999 1000 1001 1002 1003 1004 1005 1006 1007 1008 1009 1010 1011 1012 1013 1014 1015 1016 1017 1018 1019 1020 1021 1022 1023 1024 1025 1026 1027 1028 1029 1030 1031 1032 1033 1034 1035 1036 1037 1038 1039 1040 1041 1042 1043 1044 1045 1046 1047 1048 1049 1050 1051 1052 1053 1054 1055 1056 1057 1058 1059 1060 1061 1062 1063 1064 1065 1066 1067 1068 1069 1070 1071 1072 1073 1074 1075 1076 1077 1078 1079 1080 1081 1082 1083 1084 1085 1086 1087 1088 1089 1090 1091 1092 1093 1094 1095 1096 1097 1098 1099 1100 1101 1102 1103 1104 1105 1106 1107 1108 1109 1110 1111 1112 1113 1114 1115 1116 1117 1118 1119 1120 1121 1122 1123 1124 1125 1126 1127 1128 1129 1130 1131 1132 1133 1134 1135 1136 1137 1138 1139 1140 1141 1142 1143 1144 1145 1146 1147 1148 1149 1150 1151 1152 1153 1154 1155 1156 1157 1158 1159 1160 1161 1162 1163 1164 1165 1166 1167 1168 1169 1170 1171 1172 1173 1174 1175 1176 1177 1178 1179 1180 1181 1182 1183 1184 1185 1186 1187 1188 1189 1190 1191 1192 1193 1194 1195 1196 1197 1198 1199 1200 1201 1202 1203 1204 1205 1206 1207 1208 1209 1210 1211 1212 1213 1214 1215 1216 1217 1218 1219 1220 1221 1222 1223 1224 1225 1226 1227 1228 1229 1230 1231 1232 1233 1234 1235 1236 1237 1238 1239 1240 1241 1242 1243 1244 1245 1246 1247 1248 1249 1250 1251 1252 1253 1254 1255 1256 1257 1258 1259 1260 1261 1262 1263 1264 1265 1266 1267 1268 1269 1270 1271 1272 1273 1274 1275 1276 1277 1278 1279 1280 1281 1282 1283 1284 1285 1286 1287 1288 1289 1290 1291 1292 1293 1294 1295 1296 1297 1298 1299 1300 1301 1302 1303 1304 1305 1306 1307 1308 1309 1310 1311 1312 1313 1314 1315 1316 1317 1318 1319 1320 1321 1322 1323 1324 1325 1326 1327 1328 1329 1330 1331 1332 1333 1334 1335 1336 1337 1338 1339 1340 1341 1342 1343 1344 1345 1346 1347 1348 1349 1350 1351 1352 1353 1354 1355 1356 1357 1358 1359 1360 1361 1362 1363 1364 1365 1366 1367 1368 1369 1370 1371 1372 1373 1374 1375 1376 1377 1378 1379 1380 1381 1382 1383 1384 1385 1386 1387 1388 1389 1390 1391 1392 1393 1394 1395 1396 1397 1398 1399 1400 1401 1402 1403 1404 1405 1406 1407 1408 1409 1410 1411 1412 1413 1414 1415 1416 1417 1418 1419 1420 1421 1422 1423 1424 1425 1426 1427 1428 1429 1430 1431 1432 1433 1434 1435 1436 1437 1438 1439 1440 1441 1442 1443 1444 1445 1446 1447 1448 1449 1450 1451 1452 1453 1454 1455 1456 1457 1458 1459 1460 1461 1462 1463 1464 1465 1466 1467 1468 1469 1470 1471 1472 1473 1474 1475 1476 1477 1478 1479 1480 1481 1482 1483 1484 1485 1486 1487 1488 1489 1490 1491 1492 1493 1494 1495 1496 1497 1498 1499 1500 1501 1502 1503 1504 1505 1506 1507 1508 1509 1510 1511 1512 1513 1514 1515 1516 1517 1518 1519 1520 1521 1522 1523 1524 1525 1526 1527 1528 1529 1530 1531 1532 1533 1534 1535 1536 1537 1538 1539 1540 1541 1542 1543 1544 1545 1546 1547 1548 1549 1550 1551 1552 1553 1554 1555 1556 1557 1558 1559 1560 1561 1562 1563 1564 1565 1566 1567 1568 1569 1570 1571 1572 1573 1574 1575 1576 1577 1578 1579 1580 1581 1582 1583 1584 1585 1586 1587 1588 1589 1590 1591 1592 1593 1594 1595 1596 1597 1598 1599 1600 1601 1602 1603 1604 1605 1606 1607 1608 1609 1610 1611 1612 1613 1614 1615 1616 1617 1618 1619 1620 1621 1622 1623 1624 1625 1626 1627 1628 1629 1630 1631 1632 1633 1634 1635 1636 1637 1638 1639 1640 1641 1642 1643 1644 1645 1646 1647 1648 1649 1650 1651 1652 1653 1654 1655 1656 1657 1658 1659 1660 1661 1662 1663 1664 1665 1666 1667 1668 1669 1670 1671 1672 1673 1674 1675 1676 1677 1678 1679 1680 1681 1682 1683 1684 1685 1686 1687 1688 1689 1690 1691 1692 1693 1694 1695 1696 1697 1698 1699 1700 1701 1702 1703 1704 1705 1706 1707 1708 1709 1710 1711 1712 1713 1714 1715 1716 1717 1718 1719 1720 1721 1722 1723 1724 1725 1726 1727 1728 1729 1730 1731 1732 1733 1734 1735 1736 1737 1738 1739 1740 1741 1742 1743 1744 1745 1746 1747 1748 1749 1750 1751 1752 1753 1754 1755 1756 1757 1758 1759 1760 1761 1762 1763 1764 1765 1766 1767 1768 1769 1770 1771 1772 1773 1774 1775 1776 1777 1778 1779 1780 1781 1782 1783 1784 1785 1786 1787 1788 1789 1790 1791 1792 1793 1794 1795 1796 1797 1798 1799 1800 1801 1802 1803 1804 1805 1806 1807 1808 1809 1810 1811 1812 1813 1814 1815 1816 1817 1818 1819 1820 1821 1822 1823 1824 1825 1826 1827 1828 1829 1830 1831 1832 1833 1834 1835 1836 1837 1838 1839 1840 1841 1842 1843 1844 1845 1846 1847 1848 1849 1850 1851 1852 1853 1854 1855 1856 1857 1858 1859 1860 1861 1862 1863 1864 1865 1866 1867 1868 1869 1870 1871 1872 1873 1874 1875 1876 1877 1878 1879 1880 1881 1882 1883 1884 1885 1886 1887 1888 1889 1890 1891 1892 1893 1894 1895 1896 1897 1898 1899 1900 1901 1902 1903 1904 1905 1906 1907 1908 1909 1910 1911 1912 1913 1914 1915 1916 1917 1918 1919 1920 1921 1922 1923 1924 1925 1926 1927 1928 1929 1930 1931 1932 1933 1934 1935 1936 1937 1938 1939 1940 1941 1942 1943 1944 1945 1946 1947 1948 1949 1950 1951 1952 1953 1954 1955 1956 1957 1958 1959 1960 1961 1962 1963 1964 1965 1966 1967 1968 1969 1970 1971 1972 1973 1974 1975 1976 1977 1978 1979 1980 1981 1982 1983 1984 1985 1986 1987 1988 1989 1990 1991 1992 1993 1994 1995 1996 1997 1998 1999 2000 2001 2002 2003 2004 2005 2006 2007 2008 2009 2010 2011 2012 2013 2014 2015 2016 2017 2018 2019 2020 2021 2022 2023 2024 2025 2026 2027 2028 2029 2030 2031 2032 2033 2034 2035 2036 2037 2038 2039 2040 2041 2042 2043 2044 2045 2046 2047 2048 2049 2050 2051 2052 2053 2054 2055 2056 2057 2058 2059 2060 2061 2062 2063 2064 2065 2066 2067 2068 2069 2070 2071 2072 2073 2074 2075 2076 2077 2078 2079 2080 2081 2082 2083 2084 2085 2086 2087 2088 2089 2090 2091 2092 2093 2094 2095 2096 2097 2098 2099 2100 2101 2102 2103 2104 2105 2106 2107 2108 2109 2110 2111 2112 2113 2114 2115 2116 2117 2118 2119 2120 2121 2122 2123 2124 2125 2126 2127 2128 2129 2130 2131 2132 2133 2134 2135 2136 2137 2138 2139 2140 2141 2142 2143 2144 2145 2146 2147 2148 2149 2150 2151 2152 2153 2154 2155 2156 2157 2158 2159 2160 2161 2162 2163 2164 2165 2166 2167 2168 2169 2170 2171 2172 2173 2174 2175 2176 2177 2178 2179 2180 2181 2182 2183 2184 2185 2186 2187 2188 2189 2190 2191 2192 2193 2194 2195 2196 2197 2198 2199 2200 2201 2202 2203 2204 2205 2206 2207 2208 2209 2210 2211 2212 2213 2214 2215 2216 2217 2218 2219 2220 2221 2222 2223 2224 2225 2226 2227 2228 2229 2230 2231 2232 2233 2234 2235 2236 2237 2238 2239 2240 2241 2242 2243 2244 2245 2246 2247 2248 2249 2250 2251 2252 2253 2254 2255 2256 2257 2258 2259 2260 2261 2262 2263 2264 2265 2266 2267 2268 2269 2270 2271 2272 2273 2274 2275 2276 2277 2278 2279 2280 2281 2282 2283 2284 2285 2286 2287 2288 2289 2290 2291 2292 2293 2294 2295 2296 2297 2298 2299 2300 2301 2302 2303 2304 2305 2306 2307 2308 2309 2310 2311 2312 2313 2314 2315 2316 2317 2318 2319 2320 2321 2322 2323 2324 2325 2326 2327 2328 2329 2330 2331 2332 2333 2334 2335 2336 2337 2338 2339 2340 2341 2342 2343 2344 2345 2346 2347 2348 2349 2350 2351 2352 2353 2354 2355 2356 2357 2358 2359 2360 2361 2362 2363 2364 2365 2366 2367 2368 2369 2370 2371 2372 2373 2374 2375 2376 2377 2378 2379 2380 2381 2382 2383 2384 2385 2386 2387 2388 2389 2390 2391 2392 2393 2394 2395 2396 2397 2398 2399 2400 2401 2402 2403 2404 2405 2406 2407 2408 2409 2410 2411 2412 2413 2414 2415 2416 2417 2418 2419 2420 2421 2422 2423 2424 2425 2426 2427 2428 2429 2430 2431 2432 2433 2434 2435 2436 2437 2438 2439 2440 2441 2442 2443 2444 2445 2446 2447 2448 2449 2450 2451 2452 2453 2454 2455 2456 2457 2458 2459 2460 2461 2462 2463 2464 2465 2466 2467 2468 2469 2470 2471 2472 2473 2474 2475 2476 2477 2478 2479 2480 2481 2482 2483 2484 2485 2486 2487 2488 2489 2490 2491 2492 2493 2494 2495 2496 2497 2498 2499 2500 2501 2502 2503 2504 2505 2506 2507 2508 2509 2510 2511 2512 2513 2514 2515 2516 2517 2518 2519 2520 2521 2522 2523 2524 2525 2526 2527 2528 2529 2530 2531 2532 2533 2534 2535 2536 2537 2538 2539 2540 2541 2542 2543 2544 2545 2546 2547 2548 2549 2550 2551 2552 2553 2554 2555 2556 2557 2558 2559 2560 2561 2562 2563 2564 2565 2566 2567 2568 2569 2570 2571 2572 2573 2574 2575 2576 2577 2578 2579 2580 2581 2582 2583 2584 2585 2586 2587 2588 2589 2590 2591 2592 2593 2594 2595 2596 2597 2598 2599 2600 2601 2602 2603 2604 2605 2606 2607 2608 2609 2610 2611 2612 2613 2614 2615 2616 2617 2618 2619 2620 2621 2622 2623 2624 2625 2626 2627 2628 2629 2630 2631 2632 2633 2634 2635 2636 2637 2638 2639 2640 2641 2642 2643 2644 2645 2646 2647 2648 2649 2650 2651 2652 2653 2654 2655 2656 2657 2658 2659 2660 2661 2662 2663 2664 2665 2666 2667 2668 2669 2670 2671 2672 2673 2674 2675 2676 2677 2678 2679 2680 2681 2682 2683 2684 2685 2686 2687 2688 2689 2690 2691 2692 2693 2694 2695 2696 2697 2698 2699 2700 2701 2702 2703 2704 2705 2706 2707 2708 2709 2710 2711 2712 2713 2714 2715 2716 2717 2718 2719 2720 2721 2722 2723 2724 2725 2726 2727 2728 2729 2730 2731 2732 2733 2734 2735 2736 2737 2738 2739 2740 2741 2742 2743 2744 2745 2746 2747 2748 2749 2750 2751 2752 2753 2754 2755 2756 2757 2758 2759 2760 2761 2762 2763 2764 2765 2766 2767 2768 2769 2770 2771 2772 2773 2774 2775 2776 2777 2778 2779 2780 2781 2782 2783 2784 2785 2786 2787 2788 2789 2790 2791 2792 2793 2794 2795 2796 2797 2798 2799 2800 2801 2802 2803 2804 2805 2806 2807 2808 2809 2810 2811 2812 2813 2814 2815 2816 2817 2818 2819 2820 2821 2822 2823 2824 2825 2826 2827 2828 2829 2830 2831 2832 2833 2834 2835 2836 2837 2838 2839 2840 2841 2842 2843 2844 2845 2846 2847 2848 2849 2850 2851 2852 2853 2854 2855 2856 2857 2858 2859 2860 2861 2862 2863 2864 2865 2866 2867 2868 2869 2870 2871 2872 2873 2874 2875 2876 2877 2878 2879 2880 2881 2882 2883 2884 2885 2886 2887 2888 2889 2890 2891 2892 2893 2894 2895 2896 2897 2898 2899 2900 2901 2902 2903 2904 2905 2906 2907 2908 2909 2910 2911 2912 2913 2914 2915 2916 2917 2918 2919 2920 2921 2922 2923 2924 2925 2926 2927 2928 2929 2930 2931 2932 2933 2934 2935 2936 2937 2938 2939 2940 2941 2942 2943 2944 2945 2946 2947 2948 2949 2950 2951 2952 2953 2954 2955 2956 2957 2958 2959 2960 2961 2962 2963 2964 2965 2966 2967 2968 2969 2970 2971 2972 2973 2974 2975 2976 2977 2978 2979 2980 2981 2982 2983 2984 2985 2986 2987 2988 2989 2990 2991 2992 2993 2994 2995 2996 2997 2998 2999 3000 3001 3002 3003 3004 3005 3006 3007 3008 3009 3010 3011 3012 3013 3014 3015 3016 3017 3018 3019 3020 3021 3022 3023 3024 3025 3026 3027 3028 3029 3030 3031 3032 3033 3034 3035 3036 3037 3038 3039 3040 3041 3042 3043 3044 3045 3046 3047 3048 3049 3050 3051 3052 3053 3054 3055 3056 3057 3058 3059 3060 3061 3062 3063 3064 3065 3066 3067 3068 3069 3070 3071 3072 3073 3074 3075 3076 3077 3078 3079 3080 3081 3082 3083 3084 3085 3086 3087 3088 3089 3090 3091 3092 3093 3094 3095 3096 3097 3098 3099 3100 3101 3102 3103 3104 3105 3106 3107 3108 3109 3110 3111 3112 3113 3114 3115 3116 3117 3118 3119 3120 3121 3122 3123 3124 3125 3126 3127 3128 3129 3130 3131 3132 3133 3134 3135 3136 3137 3138 3139 3140 3141 3142 3143 3144 3145 3146 3147 3148 3149 3150 3151 3152 3153 3154 3155 3156 3157 3158 3159 3160 3161 3162 3163 3164 3165 3166 3167 3168 3169 3170 3171 3172 3173 3174 3175 3176 3177 3178 3179 3180 3181 3182 3183 3184 3185 3186 3187 3188 3189 3190 3191 3192 3193 3194 3195 3196 3197 3198 3199 3200 3201 3202 3203 3204 3205 3206 3207 3208 3209 3210 3211 3212 3213 3214 3215 3216 3217 3218 3219 3220 3221 3222 3223 3224 3225 3226 3227 3228 3229 3230 3231 3232 3233 3234 3235 3236 3237 3238 3239 3240 3241 3242 3243 3244 3245 3246 3247 3248 3249 3250 3251 3252 3253 3254 3255 3256 3257 3258 3259 3260 3261 3262 3263 3264 3265 3266 3267 3268 3269 3270 3271 3272 3273 3274 3275 3276 3277 3278 3279 3280 3281 3282 3283 3284 3285 3286 3287 3288 3289 3290 3291 3292 3293 3294 3295 3296 3297 3298 3299 3300 3301 3302 3303 3304 3305 3306 3307 3308 3309 3310 3311 3312 3313 3314 3315 3316 3317 3318 3319 3320 3321 3322 3323 3324 3325 3326 3327 3328 3329 3330 3331 3332 3333 3334 3335 3336 3337 3338 3339 3340 3341 3342 3343 3344 3345 3346 3347 3348 3349 3350 3351 3352 3353 3354 3355 3356 3357 3358 3359 3360 3361 3362 3363 3364 3365 3366 3367 3368 3369 3370 3371 3372 3373 3374 3375 3376 3377 3378 3379 3380 3381 3382 3383 3384 3385 3386 3387 3388 3389 3390 3391 3392 3393 3394 3395 3396 3397 3398 3399 3400 3401 3402 3403 3404 3405 3406 3407 3408 3409 3410 3411 3412 3413 3414 3415 3416 3417 3418 3419 3420 3421 3422 3423 3424 3425 3426 3427 3428 3429 3430 3431 3432 3433 3434 3435 3436 3437 3438 3439 3440 3441 3442 3443 3444 3445 3446 3447 3448 3449 3450 3451 3452 3453 3454 3455 3456 3457 3458 3459 3460 3461 3462 3463 3464 3465 3466 3467 3468 3469 3470 3471 3472 3473 3474 3475 3476 3477 3478 3479 3480 3481 3482 3483 3484 3485 3486 3487 3488 3489 3490 3491 3492 3493 3494 3495 3496 3497 3498 3499 3500 3501 3502 3503 3504 3505 3506 3507 3508 3509 3510 3511 3512 3513 3514 3515 3516 3517 3518 3519 3520 3521 3522 3523 3524 3525 3526 3527 3528 3529 3530 3531 3532 3533 3534 3535 3536 3537 3538 3539 3540 3541 3542 3543 3544 3545 3546 3547 3548 3549 3550 3551 3552 3553 3554 3555 3556 3557 3558 3559 3560 3561 3562 3563 3564 3565 3566 3567 3568 3569 3570 3571 3572 3573 3574 3575 3576 3577 3578 3579 3580 3581 3582 3583 3584 3585 3586 3587 3588 3589 3590 3591 3592 3593 3594 3595 3596 3597 3598 3599 3600 3601 3602 3603 3604 3605 3606 3607 3608 3609 3610 3611 3612 3613 3614 3615 3616 3617 3618 3619 3620 3621 3622 3623 3624 3625 3626 3627 3628 3629 3630 3631 3632 3633 3634 3635 3636 3637 3638 3639 3640 3641 3642 3643 3644 3645 3646 3647 3648 3649 3650 3651 3652 3653 3654 3655 3656 3657 3658 3659 3660 3661 3662 3663 3664 3665 3666 3667 3668 3669 3670 3671 3672 3673 3674 3675 3676 3677 3678 3679 3680 3681 3682 3683 3684 3685 3686 3687 3688 3689 3690 3691 3692 3693 3694 3695 3696 3697 3698 3699 3700 3701 3702 3703 3704 3705 3706 3707 3708 3709 3710 3711 3712 3713 3714 3715 3716 3717 3718 3719 3720 3721 3722 3723 3724 3725 3726 3727 3728 3729 3730 3731 3732 3733 3734 3735 3736 3737 3738 3739 3740 3741 3742 3743 3744 3745 3746 3747 3748 3749 3750 3751 3752 3753 3754 3755 3756 3757 3758 3759 3760 3761 3762 3763 3764 3765 3766 3767 3768 3769 3770 3771 3772 3773 3774 3775 3776 3777 3778 3779 3780 3781 3782 3783 3784 3785 3786 3787 3788 3789 3790 3791 3792 3793 3794 3795 3796 3797 3798 3799 3800 3801 3802 3803 3804 3805 3806 3807 3808 3809 3810 3811 3812 3813 3814 3815 3816 3817 3818 3819 3820 3821 3822 3823 3824 3825 3826 3827 3828 3829 3830 3831 3832 3833 3834 3835 3836 3837 3838 3839 3840 3841 3842 3843 3844 3845 3846 3847 3848 3849 3850 3851 3852 3853 3854 3855 3856 3857 3858 3859 3860 3861 3862 3863 3864 3865 3866 3867 3868 3869 3870 3871 3872 3873 3874 3875 3876 3877 3878 3879 3880 3881 3882 3883 3884 3885 3886 3887 3888 3889 3890 3891 3892 3893 3894 3895 3896 3897 3898 3899 3900 3901 3902 3903 3904 3905 3906 3907 3908 3909 3910 3911 3912 3913 3914 3915 3916 3917 3918 3919 3920 3921 3922 3923 3924 3925 3926 3927 3928 3929 3930 3931 3932 3933 3934 3935 3936 3937 3938 3939 3940 3941 3942 3943 3944 3945 3946 3947 3948 3949 3950 3951 3952 3953 3954 3955 3956 3957 3958 3959 3960 3961 3962 3963 3964 3965 3966 3967 3968 3969 3970 3971 3972 3973 3974 3975 3976 3977 3978 3979 3980 3981 3982 3983 3984 3985 3986 3987 3988 3989 3990 3991 3992 3993 3994 3995 3996 3997 3998 3999 4000 4001 4002 4003 4004 4005 4006 4007 4008 4009 4010 4011 4012 4013 4014 4015 4016 4017 4018 4019 4020 4021 4022 4023 4024 4025 4026 4027 4028 4029 4030 4031 4032 4033 4034 4035 4036 4037 4038 4039 4040 4041 4042 4043 4044 4045 4046 4047 4048 4049 4050 4051 4052 4053 4054 4055 4056 4057 4058 4059 4060 4061 4062 4063 4064 4065 4066 4067 4068 4069 4070 4071 4072 4073 4074 4075 4076 4077 4078 4079 4080 4081 4082 4083 4084 4085 4086 4087 4088 4089 4090 4091 4092 4093 4094 4095 4096 4097 4098 4099 4100 4101 4102 4103 4104 4105 4106 4107 4108 4109 4110 4111 4112 4113 4114 4115 4116 4117 4118 4119 4120 4121 4122 4123 4124 4125 4126 4127 4128 4129 4130 4131 4132 4133 4134 4135 4136 4137 4138 4139 4140 4141 4142 4143 4144 4145 4146 4147 4148 4149 4150 4151 4152 4153 4154 4155 4156 4157 4158 4159 4160 4161 4162 4163 4164 4165 4166 4167 4168 4169 4170 4171 4172 4173 4174 4175 4176 4177 4178 4179 4180 4181 4182 4183 4184 4185 4186 4187 4188 4189 4190 4191 4192 4193 4194 4195 4196 4197 4198 4199 4200 4201 4202 4203 4204 4205 4206 4207 4208 4209 4210 4211 4212 4213 4214 4215 4216 4217 4218 4219 4220 4221 4222 4223 4224 4225 4226 4227 4228 4229 4230 4231 4232 4233 4234 4235 4236 4237 4238 4239 4240 4241 4242 4243 4244 4245 4246 4247 4248 4249 4250 4251 4252 4253 4254 4255 4256 4257 4258 4259 4260 4261 4262 4263 4264 4265 4266 4267 4268 4269 4270 4271 4272 4273 4274 4275 4276 4277 4278 4279 4280 4281 4282 4283 4284 4285 4286 4287 4288 4289 4290 4291 4292 4293 4294 4295 4296 4297 4298 4299 4300 4301 4302 4303 4304 4305 4306 4307 4308 4309 4310 4311 4312 4313 4314 4315 4316 4317 4318 4319 4320 4321 4322 4323 4324 4325 4326 4327 4328 4329 4330 4331 4332 4333 4334 4335 4336 4337 4338 4339 4340 4341 4342 4343 4344 4345 4346 4347 4348 4349 4350 4351 4352 4353 4354 4355 4356 4357 4358 4359 4360 4361 4362 4363 4364 4365 4366 4367 4368 4369 4370 4371 4372 4373 4374 4375 4376 4377 4378 4379 4380 4381 4382 4383 4384 4385 4386 4387 4388 4389 4390 4391 4392 4393 4394 4395 4396 4397 4398 4399 4400 4401 4402 4403 4404 4405 4406 4407 4408 4409 4410 4411 4412 4413 4414 4415 4416 4417 4418 4419 4420 4421 4422 4423 4424 4425 4426 4427 4428 4429 4430 4431 4432 4433 4434 4435 4436 4437 4438 4439 4440 4441 4442 4443 4444 4445 4446 4447 4448 4449 4450 4451 4452 4453 4454 4455 4456 4457 4458 4459 4460 4461 4462 4463 4464 4465 4466 4467 4468 4469 4470 4471 4472 4473 4474 4475 4476 4477 4478 4479 4480 4481 4482 4483 4484 4485 4486 4487 4488 4489 4490 4491 4492 4493 4494 4495 4496 4497 4498 4499 4500 4501 4502 4503 4504 4505 4506 4507 4508 4509 4510 4511 4512 4513 4514 4515 4516 4517 4518 4519 4520 4521 4522 4523 4524 4525 4526 4527 4528 4529 4530 4531 4532 4533 4534 4535 4536 4537 4538 4539 4540 4541 4542 4543 4544 4545 4546 4547 4548 4549 4550 4551 4552 4553 4554 4555 4556 4557 4558 4559 4560 4561 4562 4563 4564 4565 4566 4567 4568 4569 4570 4571 4572 4573 4574 4575 4576 4577 4578 4579 4580 4581 4582 4583 4584 4585 4586 4587 4588 4589 4590 4591 4592 4593 4594 4595 4596 4597 4598 4599 4600 4601 4602 4603 4604 4605 4606 4607 4608 4609 4610 4611 4612 4613 4614 4615 4616 4617 4618 4619 4620 4621 4622 4623 4624 4625 4626 4627 4628 4629 4630 4631 4632 4633 4634 4635 4636 4637 4638 4639 4640 4641 4642 4643 4644 4645 4646 4647 4648 4649 4650 4651 4652 4653 4654 4655 4656 4657 4658 4659 4660 4661 4662 4663 4664 4665 4666 4667 4668 4669 4670 4671 4672 4673 4674 4675 4676 4677 4678 4679 4680 4681 4682 4683 4684 4685 4686 4687 4688 4689 4690 4691 4692 4693 4694 4695 4696 4697 4698 4699 4700 4701 4702 4703 4704 4705 4706 4707 4708 4709 4710 4711 4712 4713 4714 4715 4716 4717 4718 4719 4720 4721 4722 4723 4724 4725 4726 4727 4728 4729 4730 4731 4732 4733 4734 4735 4736 4737 4738 4739 4740 4741 4742 4743 4744 4745 4746 4747 4748 4749 4750 4751 4752 4753 4754 4755 4756 4757 4758 4759 4760 4761 4762 4763 4764 4765 4766 4767 4768 4769 4770 4771 4772 4773 4774 4775 4776 4777 4778 4779 4780 4781 4782 4783 4784 4785 4786 4787 4788 4789 4790 4791 4792 4793 4794 4795 4796 4797 4798 4799 4800 4801 4802 4803 4804 4805 4806 4807 4808 4809 4810 4811 4812 4813 4814 4815 4816 4817 4818 4819 4820 4821 4822 4823 4824 4825 4826 4827 4828 4829 4830 4831 4832 4833 4834 4835 4836 4837 4838 4839 4840 4841 4842 4843 4844 4845 4846 4847 4848 4849 4850 4851 4852 4853 4854 4855 4856 4857 4858 4859 4860 4861 4862 4863 4864 4865 4866 4867 4868 4869 4870 4871 4872 4873 4874 4875 4876 4877 4878 4879 4880 4881 4882 4883 4884 4885 4886 4887 4888 4889 4890 4891 4892 4893 4894 4895 4896 4897 4898 4899 4900 4901 4902 4903 4904 4905 4906 4907 4908 4909 4910 4911 4912 4913 4914 4915 4916 4917 4918 4919 4920 4921 4922 4923 4924 4925 4926 4927 4928 4929 4930 4931 4932 4933 4934 4935 4936 4937 4938 4939 4940 4941 4942 4943 4944 4945 4946 4947 4948 4949 4950 4951 4952 4953 4954 4955 4956 4957 4958 4959 4960 4961 4962 4963 4964 4965 4966 4967 4968 4969 4970 4971 4972 4973 4974 4975 4976 4977 4978 4979 4980 4981 4982 4983 4984 4985 4986 4987 4988 4989 4990 4991 4992 4993 4994 4995 4996 4997 4998 4999 5000 5001 5002 5003 5004 5005 5006 5007 5008 5009 5010 5011 5012 5013 5014 5015 5016 5017 5018 5019 5020 5021 5022 5023 5024 5025 5026 5027 5028 5029 5030 5031 5032 5033 5034 5035 5036 5037 5038 5039 5040 5041 5042 5043 5044 5045 5046 5047 5048 5049 5050 5051 5052 5053 5054 5055 5056 5057 5058 5059 5060 5061 5062 5063 5064 5065 5066 5067 5068 5069 5070 5071 5072 5073 5074 5075 5076 5077 5078 5079 5080 5081 5082 5083 5084 5085 5086 5087 5088 5089 5090 5091 5092 5093 5094 5095 5096 5097 5098 5099 5100 5101 5102 5103 5104 5105 5106 5107 5108 5109 5110 5111 5112 5113 5114 5115 5116 5117 5118 5119 5120 5121 5122 5123 5124 5125 5126 5127 5128 5129 5130 5131 5132 5133 5134 5135 5136 5137 5138 5139 5140 5141 5142 5143 5144 5145 5146 5147 5148 5149 5150 5151 5152 5153 5154 5155 5156 5157 5158 5159 5160 5161 5162 5163 5164 5165 5166 5167 5168 5169 5170 5171 5172 5173 5174 5175 5176 5177 5178 5179 5180 5181 5182 5183 5184 5185 5186 5187 5188 5189 5190 5191 5192 5193 5194 5195 5196 5197 5198 5199 5200 5201 5202 5203 5204 5205 5206 5207 5208 5209 5210 5211 5212 5213 5214 5215 5216 5217 5218 5219 5220 5221 5222 5223 5224 5225 5226 5227 5228 5229 5230 5231 5232 5233 5234 5235 5236 5237 5238 5239 5240 5241 5242 5243 5244 5245 5246 5247 5248 5249 5250 5251 5252 5253 5254 5255 5256 5257 5258 5259 5260 5261 5262 5263 5264 5265 5266 5267 5268 5269 5270 5271 5272 5273 5274 5275 5276 5277 5278 5279 5280 5281 5282 5283 5284 5285 5286 5287 5288 5289 5290 5291 5292 5293 5294 5295 5296 5297 5298 5299 5300 5301 5302 5303 5304 5305 5306 5307 5308 5309 5310 5311 5312 5313 5314 5315 5316 5317 5318 5319 5320 5321 5322 5323 5324 5325 5326 5327 5328 5329 5330 5331 5332 5333 5334 5335 5336 5337 5338 5339 5340 5341 5342 5343 5344 5345 5346 5347 5348 5349 5350 5351 5352 5353 5354 5355 5356 5357 5358 5359 5360 5361 5362 5363 5364 5365 5366 5367 5368 5369 5370 5371 5372 5373 5374 5375 5376 5377 5378 5379 5380 5381 5382 5383 5384 5385 5386 5387 5388 5389 5390 5391 5392 5393 5394 5395 5396 5397 5398 5399 5400 5401 5402 5403 5404 5405 5406 5407 5408 5409 5410 5411 5412 5413 5414 5415 5416 5417 5418 5419 5420 5421 5422 5423 5424 5425 5426 5427 5428 5429 5430 5431 5432 5433 5434 5435 5436 5437 5438 5439 5440 5441 5442 5443 5444 5445 5446 5447 5448 5449 5450 5451 5452 5453 5454 5455 5456 5457 5458 5459 5460 5461 5462 5463 5464 5465 5466 5467 5468 5469 5470 5471 5472 5473 5474 5475 5476 5477 5478 5479 5480 5481 5482 5483 5484 5485 5486 5487 5488 5489 5490 5491 5492 5493 5494 5495 5496 5497 5498 5499 5500 5501 5502 5503 5504 5505 5506 5507 5508 5509 5510 5511 5512 5513 5514 5515 5516 5517 5518 5519 5520 5521 5522 5523 5524 5525 5526 5527 5528 5529 5530 5531 5532 5533 5534 5535 5536 5537 5538 5539 5540 5541 5542 5543 5544 5545 5546 5547 5548 5549 5550 5551 5552 5553 5554 5555 5556 5557 5558 5559 5560 5561 5562 5563 5564 5565 5566 5567 5568 5569 5570 5571 5572 5573 5574 5575 5576 5577 5578 5579 5580 5581 5582 5583 5584 5585 5586 5587 5588 5589 5590 5591 5592 5593 5594 5595 5596 5597 5598 5599 5600 5601 5602 5603 5604 5605 5606 5607 5608 5609 5610 5611 5612 5613 5614 5615 5616 5617 5618 5619 5620 5621 5622 5623 5624 5625 5626 5627 5628 5629 5630 5631 5632 5633 5634 5635 5636 5637 5638 5639 5640 5641 5642 5643 5644 5645 5646 5647 5648 5649 5650 5651 5652 5653 5654 5655 5656 5657 5658 5659 5660 5661 5662 5663 5664 5665 5666 5667 5668 5669 5670 5671 5672 5673 5674 5675 5676 5677 5678 5679 5680 5681 5682 5683 5684 5685 5686 5687 5688 5689 5690 5691 5692 5693 5694 5695 5696 5697 5698 5699 5700 5701 5702 5703 5704 5705 5706 5707 5708 5709 5710 5711 5712 5713 5714 5715 5716 5717 5718 5719 5720 5721 5722 5723 5724 5725 5726 5727 5728 5729 5730 5731 5732 5733 5734 5735 5736 5737 5738 5739 5740 5741 5742 5743 5744 5745 5746 5747 5748 5749 5750 5751 5752 5753 5754 5755 5756 5757 5758 5759 5760 5761 5762 5763 5764 5765 5766 5767 5768 5769 5770 5771 5772 5773 5774 5775 5776 5777 5778 5779 5780 5781 5782 5783 5784 5785 5786 5787 5788 5789 5790 5791 5792 5793 5794 5795 5796 5797 5798 5799 5800 5801 5802 5803 5804 5805 5806 5807 5808 5809 5810 5811 5812 5813 5814 5815 5816 5817 5818 5819 5820 5821 5822 5823 5824 5825 5826 5827 5828 5829 5830 5831 5832 5833 5834 5835 5836 5837 5838 5839 5840 5841 5842 5843 5844 5845 5846 5847 5848 5849 5850 5851 5852 5853 5854 5855 5856 5857 5858 5859 5860 5861 5862 5863 5864 5865 5866 5867 5868 5869 5870 5871 5872 5873 5874 5875 5876 5877 5878 5879 5880 5881 5882 5883 5884 5885 5886 5887 5888 5889 5890 5891 5892 5893 5894 5895 5896 5897 5898 5899 5900 5901 5902 5903 5904 5905 5906 5907 5908 5909 5910 5911 5912 5913 5914 5915 5916 5917 5918 5919 5920 5921 5922 5923 5924 5925 5926 5927 5928 5929 5930 5931 5932 5933 5934 5935 5936 5937 5938 5939 5940 5941 5942 5943 5944 5945 5946 5947 5948 5949 5950 5951 5952 5953 5954 5955 5956 5957 5958 5959 5960 5961 5962 5963 5964 5965 5966 5967 5968 5969 5970 5971 5972 5973 5974 5975 5976 5977 5978 5979 5980 5981 5982 5983 5984 5985 5986 5987 5988 5989 5990 5991 5992 5993 5994 5995 5996 5997 5998 5999 6000 6001 6002 6003 6004 6005 6006 6007 6008 6009 6010 6011 6012 6013 6014 6015 6016 6017 6018 6019 6020 6021 6022 6023 6024 6025 6026 6027 6028 6029 6030 6031 6032 6033 6034 6035 6036 6037 6038 6039 6040 6041 6042 6043 6044 6045 6046 6047 6048 6049 6050 6051 6052 6053 6054 6055 6056 6057 6058 6059 6060 6061 6062 6063 6064 6065 6066 6067 6068 6069 6070 6071 6072 6073 6074 6075 6076 6077 6078 6079 6080 6081 6082 6083 6084 6085 6086 6087 6088 6089 6090 6091 6092 6093 6094 6095 6096 6097 6098 6099 6100 6101 6102 6103 6104 6105 6106 6107 6108 6109 6110 6111 6112 6113 6114 6115 6116 6117 6118 6119 6120 6121 6122 6123 6124 6125 6126 6127 6128 6129 6130 6131 6132 6133 6134 6135 6136 6137 6138 6139 6140 6141 6142 6143 6144 6145 6146 6147 6148 6149 6150 6151 6152 6153 6154 6155 6156 6157 6158 6159 6160 6161 6162 6163 6164 6165 6166 6167 6168 6169 6170 6171 6172 6173 6174 6175 6176 6177 6178 6179 6180 6181 6182 6183 6184 6185 6186 6187 6188 6189 6190 6191 6192 6193 6194 6195 6196 6197 6198 6199 6200 6201 6202 6203 6204 6205 6206 6207 6208 6209 6210 6211 6212 6213 6214 6215 6216 6217 6218 6219 6220 6221 6222 6223 6224 6225 6226 6227 6228 6229 6230 6231 6232 6233 6234 6235 6236 6237 6238 6239 6240 6241 6242 6243 6244 6245 6246 6247 6248 6249 6250 6251 6252 6253 6254 6255 6256 6257 6258 6259 6260 6261 6262 6263 6264 6265 6266 6267 6268 6269 6270 6271 6272 6273 6274 6275 6276 6277 6278 6279 6280 6281 6282 6283 6284 6285 6286 6287 6288 6289 6290 6291 6292 6293 6294 6295 6296 6297 6298 6299 6300 6301 6302 6303 6304 6305 6306 6307 6308 6309 6310 6311 6312 6313 6314 6315 6316 6317 6318 6319 6320 6321 6322 6323 6324 6325 6326 6327 6328 6329 6330 6331 6332 6333 6334 6335 6336 6337 6338 6339 6340 6341 6342 6343 6344 6345 6346 6347 6348 6349 6350 6351 6352 6353 6354 6355 6356 6357 6358 6359 6360 6361 6362 6363 6364 6365 6366 6367 6368 6369 6370 6371 6372 6373 6374 6375 6376 6377 6378 6379 6380 6381 6382 6383 6384 6385 6386 6387 6388 6389 6390 6391 6392 6393 6394 6395 6396 6397 6398 6399 6400 6401 6402 6403 6404 6405 6406 6407 6408 6409 6410 6411 6412 6413 6414 6415 6416 6417 6418 6419 6420 6421 6422 6423 6424 6425 6426 6427 6428 6429 6430 6431 6432 6433 6434 6435 6436 6437 6438 6439 6440 6441 6442 6443 6444 6445 6446 6447 6448 6449 6450 6451 6452 6453 6454 6455 6456 6457 6458 6459 6460 6461 6462 6463 6464 6465 6466 6467 6468 6469 6470 6471 6472 6473 6474 6475 6476 6477 6478 6479 6480 6481 6482 6483 6484 6485 6486 6487 6488 6489 6490 6491 6492 6493 6494 6495 6496 6497 6498 6499 6500 6501 6502 6503 6504 6505 6506 6507 6508 6509 6510 6511 6512 6513 6514 6515 6516 6517 6518 6519 6520 6521 6522 6523 6524 6525 6526 6527 6528 6529 6530 6531 6532 6533 6534 6535 6536 6537 6538 6539 6540 6541 6542 6543 6544 6545 6546 6547 6548 6549 6550 6551 6552 6553 6554 6555 6556 6557 6558 6559 6560 6561 6562 6563 6564 6565 6566 6567 6568 6569 6570 6571 6572 6573 6574 6575 6576 6577 6578 6579 6580 6581 6582 6583 6584 6585 6586 6587 6588 6589 6590 6591 6592 6593 6594 6595 6596 6597 6598 6599 6600 6601 6602 6603 6604 6605 6606 6607 6608 6609 6610 6611 6612 6613 6614 6615 6616 6617 6618 6619 6620 6621 6622 6623 6624 6625 6626 6627 6628 6629 6630 6631 6632 6633 6634 6635 6636 6637 6638 6639 6640 6641 6642 6643 6644 6645 6646 6647 6648 6649 6650 6651 6652 6653 6654 6655 6656 6657 6658 6659 6660 6661 6662 6663 6664 6665 6666 6667 6668 6669 6670 6671 6672 6673 6674 6675 6676 6677 6678 6679 6680 6681 6682 6683 6684 6685 6686 6687 6688 6689 6690 6691 6692 6693 6694 6695 6696 6697 6698 6699 6700 6701 6702 6703 6704 6705 6706 6707 6708 6709 6710 6711 6712 6713 6714 6715 6716 6717 6718 6719 6720 6721 6722 6723 6724 6725 6726 6727 6728 6729 6730 6731 6732 6733 6734 6735 6736 6737 6738 6739 6740 6741 6742 6743 6744 6745 6746 6747 6748 6749 6750 6751 6752 6753 6754 6755 6756 6757 6758 6759 6760 6761 6762 6763 6764 6765 6766 6767 6768 6769 6770 6771 6772 6773 6774 6775 6776 6777 6778 6779 6780 6781 6782 6783 6784 6785 6786 6787 6788 6789 6790 6791 6792 6793 6794 6795 6796 6797 6798 6799 6800 6801 6802 6803 6804 6805 6806 6807 6808 6809 6810 6811 6812 6813 6814 6815 6816 6817 6818 6819 6820 6821 6822 6823 6824 6825 6826 6827 6828 6829 6830 6831 6832 6833 6834 6835 6836 6837 6838 6839 6840 6841 6842 6843 6844 6845 6846 6847 6848 6849 6850 6851 6852 6853 6854 6855 6856 6857 6858 6859 6860 6861 6862 6863 6864 6865 6866 6867 6868 6869 6870 6871 6872 6873 6874 6875 6876 6877 6878 6879 6880 6881 6882 6883 6884 6885 6886 6887 6888 6889 6890 6891 6892 6893 6894 6895 6896 6897 6898 6899 6900 6901 6902 6903 6904 6905 6906 6907 6908 6909 6910 6911 6912 6913 6914 6915 6916 6917 6918 6919 6920 6921 6922 6923 6924 6925 6926 6927 6928 6929 6930 6931 6932 6933 6934 6935 6936 6937 6938 6939 6940 6941 6942 6943 6944 6945 6946 6947 6948 6949 6950 6951 6952 6953 6954 6955 6956 6957 6958 6959 6960 6961 6962 6963 6964 6965 6966 6967 6968 6969 6970 6971 6972 6973 6974 6975 6976 6977 6978 6979 6980 6981 6982 6983 6984 6985 6986 6987 6988 6989 6990 6991 6992 6993 6994 6995 6996 6997 6998 6999 7000 7001 7002 7003 7004 7005 7006 7007 7008 7009 7010 7011 7012 7013 7014 7015 7016 7017 7018 7019 7020 7021 7022 7023 7024 7025 7026 7027 7028 7029 7030 7031 7032 7033 7034 7035 7036 7037 7038 7039 7040 7041 7042 7043 7044 7045 7046 7047 7048 7049 7050 7051 7052 7053 7054 7055 7056 7057 7058 7059 7060 7061 7062 7063 7064 7065 7066 7067 7068 7069 7070 7071 7072 7073 7074 7075 7076 7077 7078 7079 7080 7081 7082 7083 7084 7085 7086 7087 7088 7089 7090 7091 7092 7093 7094 7095 7096 7097 7098 7099 7100 7101 7102 7103 7104 7105 7106 7107 7108 7109 7110 7111 7112 7113 7114 7115 7116 7117 7118 7119 7120 7121 7122 7123 7124 7125 7126 7127 7128 7129 7130 7131 7132 7133 7134 7135 7136 7137 7138 7139 7140 7141 7142 7143 7144 7145 7146 7147 7148 7149 7150 7151 7152 7153 7154 7155 7156 7157 7158 7159 7160 7161 7162 7163 7164 7165 7166 7167 7168 7169 7170 7171 7172 7173 7174 7175 7176 7177 7178 7179 7180 7181 7182 7183 7184 7185 7186 7187 7188 7189 7190 7191 7192 7193 7194 7195 7196 7197 7198 7199 7200 7201 7202 7203 7204 7205 7206 7207 7208 7209 7210 7211 7212 7213 7214 7215 7216 7217 7218 7219 7220 7221 7222 7223 7224 7225 7226 7227 7228 7229 7230 7231 7232 7233 7234 7235 7236 7237 7238 7239 7240 7241 7242 7243 7244 7245 7246 7247 7248 7249 7250 7251 7252 7253 7254 7255 7256 7257 7258 7259 7260 7261 7262 7263 7264 7265 7266 7267 7268 7269 7270 7271 7272 7273 7274 7275 7276 7277 7278 7279 7280 7281 7282 7283 7284 7285 7286 7287 7288 7289 7290 7291 7292 7293 7294 7295 7296 7297 7298 7299 7300 7301 7302 7303 7304 7305 7306 7307 7308 7309 7310 7311 7312 7313 7314 7315 7316 7317 7318 7319 7320 7321 7322 7323 7324 7325 7326 7327 7328 7329 7330 7331 7332 7333 7334 7335 7336 7337 7338 7339 7340 7341 7342 7343 7344 7345 7346 7347 7348 7349 7350 7351 7352 7353 7354 7355 7356 7357 7358 7359 7360 7361 7362 7363 7364 7365 7366 7367 7368 7369 7370 7371 7372 7373 7374 7375 7376 7377 7378 7379 7380 7381 7382 7383 7384 7385 7386 7387 7388 7389 7390 7391 7392 7393 7394 7395 7396 7397 7398 7399 7400 7401 7402 7403 7404 7405 7406 7407 7408 7409 7410 7411 7412 7413 7414 7415 7416 7417 7418 7419 7420 7421 7422 7423 7424 7425 7426 7427 7428 7429 7430 7431 7432 7433 7434 7435 7436 7437 7438 7439 7440 7441 7442 7443 7444 7445 7446 7447 7448 7449 7450 7451 7452 7453 7454 7455 7456 7457 7458 7459 7460 7461 7462 7463 7464 7465 7466 7467 7468 7469 7470 7471 7472 7473 7474 7475 7476 7477 7478 7479 7480 7481 7482 7483 7484 7485 7486 7487 7488 7489 7490 7491 7492 7493 7494 7495 7496 7497 7498 7499 7500 7501 7502 7503 7504 7505 7506 7507 7508 7509 7510 7511 7512 7513 7514 7515 7516 7517 7518 7519 7520 7521 7522 7523 7524 7525 7526 7527 7528 7529 7530 7531 7532 7533 7534 7535 7536 7537 7538 7539 7540 7541 7542 7543 7544 7545 7546 7547 7548 7549 7550 7551 7552 7553 7554 7555 7556 7557 7558 7559 7560 7561 7562 7563 7564 7565 7566 7567 7568 7569 7570 7571 7572 7573 7574 7575 7576 7577 7578 7579 7580 7581 7582 7583 7584 7585 7586 7587 7588 7589 7590 7591 7592 7593 7594 7595 7596 7597 7598 7599 7600 7601 7602 7603 7604 7605 7606 7607 7608 7609 7610 7611 7612 7613 7614 7615 7616 7617 7618 7619 7620 7621 7622 7623 7624 7625 7626 7627 7628 7629 7630 7631 7632 7633 7634 7635 7636 7637 7638 7639 7640 7641 7642 7643 7644 7645 7646 7647 7648 7649 7650 7651 7652 7653 7654 7655 7656 7657 7658 7659 7660 7661 7662 7663 7664 7665 7666 7667 7668 7669 7670 7671 7672 7673 7674 7675 7676 7677 7678 7679 7680 7681 7682 7683 7684 7685 7686 7687 7688 7689 7690 7691 7692 7693 7694 7695 7696 7697 7698 7699 7700 7701 7702 7703 7704 7705 7706 7707 7708 7709 7710 7711 7712 7713 7714 7715 7716 7717 7718 7719 7720 7721 7722 7723 7724 7725 7726 7727 7728 7729 7730 7731 7732 7733 7734 7735 7736 7737 7738 7739 7740 7741 7742 7743 7744 7745 7746 7747 7748 7749 7750 7751 7752 7753 7754 7755 7756 7757 7758 7759 7760 7761 7762 7763 7764 7765 7766 7767 7768 7769 7770 7771 7772 7773 7774 7775 7776 7777 7778 7779 7780 7781 7782 7783 7784 7785 7786 7787 7788 7789 7790 7791 7792 7793 7794 7795 7796 7797 7798 7799 7800 7801 7802 7803 7804 7805 7806 7807 7808 7809 7810 7811 7812 7813 7814 7815 7816 7817 7818 7819 7820 7821 7822 7823 7824 7825 7826 7827 7828 7829 7830 7831 7832 7833 7834 7835 7836 7837 7838 7839 7840 7841 7842 7843 7844 7845 7846 7847 7848 7849 7850 7851 7852 7853 7854 7855 7856 7857 7858 7859 7860 7861 7862 7863 7864 7865 7866 7867 7868 7869 7870 7871 7872 7873 7874 7875 7876 7877 7878 7879 7880 7881 7882 7883 7884 7885 7886 7887 7888 7889 7890 7891 7892 7893 7894 7895 7896 7897 7898 7899 7900 7901 7902 7903 7904 7905 7906 7907 7908 7909 7910 7911 7912 7913 7914 7915 7916 7917 7918 7919 7920 7921 7922 7923 7924 7925 7926 7927 7928 7929 7930 7931 7932 7933 7934 7935 7936 7937 7938 7939 7940 7941 7942 7943 7944 7945 7946 7947 7948 7949 7950 7951 7952 7953 7954 7955 7956 7957 7958 7959 7960 7961 7962 7963 7964 7965 7966 7967 7968 7969 7970 7971 7972 7973 7974 7975 7976 7977 7978 7979 7980 7981 7982 7983 7984 7985 7986 7987 7988 7989 7990 7991 7992 7993 7994 7995 7996 7997 7998 7999 8000 8001 8002 8003 8004 8005 8006 8007 8008 8009 8010 8011 8012 8013 8014 8015 8016 8017 8018 8019 8020 8021 8022 8023 8024 8025 8026 8027 8028 8029 8030 8031 8032 8033 8034 8035 8036 8037 8038 8039 8040 8041 8042 8043 8044 8045 8046 8047 8048 8049 8050 8051 8052 8053 8054 8055 8056 8057 8058 8059 8060 8061 8062 8063 8064 8065 8066 8067 8068 8069 8070 8071 8072 8073 8074 8075 8076 8077 8078 8079 8080 8081 8082 8083 8084 8085 8086 8087 8088 8089 8090 8091 8092 8093 8094 8095 8096 8097 8098 8099 8100 8101 8102 8103 8104 8105 8106 8107 8108 8109 8110 8111 8112 8113 8114 8115 8116 8117 8118 8119 8120 8121 8122 8123 8124 8125 8126 8127 8128 8129 8130 8131 8132 8133 8134 8135 8136 8137 8138 8139 8140 8141 8142 8143 8144 8145 8146 8147 8148 8149 8150 8151 8152 8153 8154 8155 8156 8157 8158 8159 8160 8161 8162 8163 8164 8165 8166 8167 8168 8169 8170 8171 8172 8173 8174 8175 8176 8177 8178 8179 8180 8181 8182 8183 8184 8185 8186 8187 8188 8189 8190 8191 8192 8193 8194 8195 8196 8197 8198 8199 8200 8201 8202 8203 8204 8205 8206 8207 8208 8209 8210 8211 8212 8213 8214 8215 8216 8217 8218 8219 8220 8221 8222 8223 8224 8225 8226 8227 8228 8229 8230 8231 8232 8233 8234 8235 8236 8237 8238 8239 8240 8241 8242 8243 8244 8245 8246 8247 8248 8249 8250 8251 8252 8253 8254 8255 8256 8257 8258 8259 8260 8261 8262 8263 8264 8265 8266 8267 8268 8269 8270 8271 8272 8273 8274 8275 8276 8277 8278 8279 8280 8281 8282 8283 8284 8285 8286 8287 8288 8289 8290 8291 8292 8293 8294 8295 8296 8297 8298 8299 8300 8301 8302 8303 8304 8305 8306 8307 8308 8309 8310 8311 8312 8313 8314 8315 8316 8317 8318 8319 8320 8321 8322 8323 8324 8325 8326 8327 8328 8329 8330 8331 8332 8333 8334 8335 8336 8337 8338 8339 8340 8341 8342 8343 8344 8345 8346 8347 8348 8349 8350 8351 8352 8353 8354 8355 8356 8357 8358 8359 8360 8361 8362 8363 8364 8365 8366 8367 8368 8369 8370 8371 8372 8373 8374 8375 8376 8377 8378 8379 8380 8381 8382 8383 8384 8385 8386 8387 8388 8389 8390 8391 8392 8393 8394 8395 8396 8397 8398 8399 8400 8401 8402 8403 8404 8405 8406 8407 8408 8409 8410 8411 8412 8413 8414 8415 8416 8417 8418 8419 8420 8421 8422 8423 8424 8425 8426 8427 8428 8429 8430 8431 8432 8433 8434 8435 8436 8437 8438 8439 8440 8441 8442 8443 8444 8445 8446 8447 8448 8449 8450 8451 8452 8453 8454 8455 8456 8457 8458 8459 8460 8461 8462 8463 8464 8465 8466 8467 8468 8469 8470 8471 8472 8473 8474 8475 8476 8477 8478 8479 8480 8481 8482 8483 8484 8485 8486 8487 8488 8489 8490 8491 8492 8493 8494 8495 8496 8497 8498 8499 8500 8501 8502 8503 8504 8505 8506 8507 8508 8509 8510 8511 8512 8513 8514 8515 8516 8517 8518 8519 8520 8521 8522 8523 8524 8525 8526 8527 8528 8529 8530 8531 8532 8533 8534 8535 8536 8537 8538 8539 8540 8541 8542 8543 8544 8545 8546 8547 8548 8549 8550 8551 8552 8553 8554 8555 8556 8557 8558 8559 8560 8561 8562 8563 8564 8565 8566 8567 8568 8569 8570 8571 8572 8573 8574 8575 8576 8577 8578 8579 8580 8581 8582 8583 8584 8585 8586 8587 8588 8589 8590 8591 8592 8593 8594 8595 8596 8597 8598 8599 8600 8601 8602 8603 8604 8605 8606 8607 8608 8609 8610 8611 8612 8613 8614 8615 8616 8617 8618 8619 8620 8621 8622 8623 8624 8625 8626 8627 8628 8629 8630 8631 8632 8633 8634 8635 8636 8637 8638 8639 8640 8641 8642 8643 8644 8645 8646 8647 8648 8649 8650 8651 8652 8653 8654 8655 8656 8657 8658 8659 8660 8661 8662 8663 8664 8665 8666 8667 8668 8669 8670 8671 8672 8673 8674 8675 8676 8677 8678 8679 8680 8681 8682 8683 8684 8685 8686 8687 8688 8689 8690 8691 8692 8693 8694 8695 8696 8697 8698 8699 8700 8701 8702 8703 8704 8705 8706 8707 8708 8709 8710 8711 8712 8713 8714 8715 8716 8717 8718 8719 8720 8721 8722 8723 8724 8725 8726 8727 8728 8729 8730 8731 8732 8733 8734 8735 8736 8737 8738 8739 8740 8741 8742 8743 8744 8745 8746 8747 8748 8749 8750 8751 8752 8753 8754 8755 8756 8757 8758 8759 8760 8761 8762 8763 8764 8765 8766 8767 8768 8769 8770 8771 8772 8773 8774 8775 8776 8777 8778 8779 8780 8781 8782 8783 8784 8785 8786 8787 8788 8789 8790 8791 8792 8793 8794 8795 8796 8797 8798 8799 8800 8801 8802 8803 8804 8805 8806 8807 8808 8809 8810 8811 8812 8813 8814 8815 8816 8817 8818 8819 8820 8821 8822 8823 8824 8825 8826 8827 8828 8829 8830 8831 8832 8833 8834 8835 8836 8837 8838 8839 8840 8841 8842 8843 8844 8845 8846 8847 8848 8849 8850 8851 8852 8853 8854 8855 8856 8857 8858 8859 8860 8861 8862 8863 8864 8865 8866 8867 8868 8869 8870 8871 8872 8873 8874 8875 8876 8877 8878 8879 8880 8881 8882 8883 8884 8885 8886 8887 8888 8889 8890 8891 8892 8893 8894 8895 8896 8897 8898 8899 8900 8901 8902 8903 8904 8905 8906 8907 8908 8909 8910 8911 8912 8913 8914 8915 8916 8917 8918 8919 8920 8921 8922 8923 8924 8925 8926 8927 8928 8929 8930 8931 8932 8933 8934 8935 8936 8937 8938 8939 8940 8941 8942 8943 8944 8945 8946 8947 8948 8949 8950 8951 8952 8953 8954 8955 8956 8957 8958 8959 8960 8961 8962 8963 8964 8965 8966 8967 8968 8969 8970 8971 8972 8973 8974 8975 8976 8977 8978 8979 8980 8981 8982 8983 8984 8985 8986 8987 8988 8989 8990 8991 8992 8993 8994 8995 8996 8997 8998 8999 9000 9001 9002 9003 9004 9005 9006 9007 9008 9009 9010 9011 9012 9013 9014 9015 9016 9017 9018 9019 9020 9021 9022 9023 9024 9025 9026 9027 9028 9029 9030 9031 9032 9033 9034 9035 9036 9037 9038 9039 9040 9041 9042 9043 9044 9045 9046 9047 9048 9049 9050 9051 9052 9053 9054 9055 9056 9057 9058 9059 9060 9061 9062 9063 9064 9065 9066 9067 9068 9069 9070 9071 9072 9073 9074 9075 9076 9077 9078 9079 9080 9081 9082 9083 9084 9085 9086 9087 9088 9089 9090 9091 9092 9093 9094 9095 9096 9097 9098 9099 9100 9101 9102 9103 9104 9105 9106 9107 9108 9109 9110 9111 9112 9113 9114 9115 9116 9117 9118 9119 9120 9121 9122 9123 9124 9125 9126 9127 9128 9129 9130 9131 9132 9133 9134 9135 9136 9137 9138 9139 9140 9141 9142 9143 9144 9145 9146 9147 9148 9149 9150 9151 9152 9153 9154 9155 9156 9157 9158 9159 9160 9161 9162 9163 9164 9165 9166 9167 9168 9169 9170 9171 9172 9173 9174 9175 9176 9177 9178 9179 9180 9181 9182 9183 9184 9185 9186 9187 9188 9189 9190 9191 9192 9193 9194 9195 9196 9197 9198 9199 9200 9201 9202 9203 9204 9205 9206 9207 9208 9209 9210 9211 9212 9213 9214 9215 9216 9217 9218 9219 9220 9221 9222 9223 9224 9225 9226 9227 9228 9229 9230 9231 9232 9233 9234 9235 9236 9237 9238 9239 9240 9241 9242 9243 9244 9245 9246 9247 9248 9249 9250 9251 9252 9253 9254 9255 9256 9257 9258 9259 9260 9261 9262 9263 9264 9265 9266 9267 9268 9269 9270 9271 9272 9273 9274 9275 9276 9277 9278 9279 9280 9281 9282 9283 9284 9285 9286 9287 9288 9289 9290 9291 9292 9293 9294 9295 9296 9297 9298 9299 9300 9301 9302 9303 9304 9305 9306 9307 9308 9309 9310 9311 9312 9313 9314 9315 9316 9317 9318 9319 9320 9321 9322 9323 9324 9325 9326 9327 9328 9329 9330 9331 9332 9333 9334 9335 9336 9337 9338 9339 9340 9341 9342 9343 9344 9345 9346 9347 9348 9349 9350 9351 9352 9353 9354 9355 9356 9357 9358 9359 9360 9361 9362 9363 9364 9365 9366 9367 9368 9369 9370 9371 9372 9373 9374 9375 9376 9377 9378 9379 9380 9381 9382 9383 9384 9385 9386 9387 9388 9389 9390 9391 9392 9393 9394 9395 9396 9397 9398 9399 9400 9401 9402 9403 9404 9405 9406 9407 9408 9409 9410 9411 9412 9413 9414 9415 9416 9417 9418 9419 9420 9421 9422 9423 9424 9425 9426 9427 9428 9429 9430 9431 9432 9433 9434 9435 9436 9437 9438 9439 9440 9441 9442 9443 9444 9445 9446 9447 9448 9449 9450 9451 9452 9453 9454 9455 9456 9457 9458 9459 9460 9461 9462 9463 9464 9465 9466 9467 9468 9469 9470 9471 9472 9473 9474 9475 9476 9477 9478 9479 9480 9481 9482 9483 9484 9485 9486 9487 9488 9489 9490 9491 9492 9493 9494 9495 9496 9497 9498 9499 9500 9501 9502 9503 9504 9505 9506 9507 9508 9509 9510 9511 9512 9513 9514 9515 9516 9517 9518 9519 9520 9521 9522 9523 9524 9525 9526 9527 9528 9529 9530 9531 9532 9533 9534 9535 9536 9537 9538 9539 9540 9541 9542 9543 9544 9545 9546 9547 9548 9549 9550 9551 9552 9553 9554 9555 9556 9557 9558 9559 9560 9561 9562 9563 9564 9565 9566 9567 9568 9569 9570 9571 9572 9573 9574 9575 9576 9577 9578 9579 9580 9581 9582 9583 9584 9585 9586 9587 9588 9589 9590 9591 9592 9593 9594 9595 9596 9597 9598 9599 9600 9601 9602 9603 9604 9605 9606 9607 9608 9609 9610 9611 9612 9613 9614 9615 9616 9617 9618 9619 9620 9621 9622 9623 9624 9625 9626 9627 9628 9629 9630 9631 9632 9633 9634 9635 9636 9637 9638 9639 9640 9641 9642 9643 9644 9645 9646 9647 9648 9649 9650 9651 9652 9653 9654 9655 9656 9657 9658 9659 9660 9661 9662 9663 9664 9665 9666 9667 9668 9669 9670 9671 9672 9673 9674 9675 9676 9677 9678 9679 9680 9681 9682 9683 9684 9685 9686 9687 9688 9689 9690 9691 9692 9693 9694 9695 9696 9697 9698 9699 9700 9701 9702 9703 9704 9705 9706 9707 9708 9709 9710 9711 9712 9713 9714 9715 9716 9717 9718 9719 9720 9721 9722 9723 9724 9725 9726 9727 9728 9729 9730 9731 9732 9733 9734 9735 9736 9737 9738 9739 9740 9741 9742 9743 9744 9745 9746 9747 9748 9749 9750 9751 9752 9753 9754 9755 9756 9757 9758 9759 9760 9761 9762 9763 9764 9765 9766 9767 9768 9769 9770 9771 9772 9773 9774 9775 9776 9777 9778 9779 9780 9781 9782 9783 9784 9785 9786 9787 9788 9789 9790 9791 9792 9793 9794 9795 9796 9797 9798 9799 9800 9801 9802 9803 9804 9805 9806 9807 9808 9809 9810 9811 9812 9813 9814 9815 9816 9817 9818 9819 9820 9821 9822 9823 9824 9825 9826 9827 9828 9829 9830 9831 9832 9833 9834 9835 9836 9837 9838 9839 9840 9841 9842 9843 9844 9845 9846 9847 9848 9849 9850 9851 9852 9853 9854 9855 9856 9857 9858 9859 9860 9861 9862 9863 9864 9865 9866 9867 9868 9869 9870 9871 9872 9873 9874 9875 9876 9877 9878 9879 9880 9881 9882 9883 9884 9885 9886 9887 9888 9889 9890 9891 9892 9893 9894 9895 9896 9897 9898 9899 9900 9901 9902 9903 9904 9905 9906 9907 9908 9909 9910 9911 9912 9913 9914 9915 9916 9917 9918 9919 9920 9921 9922 9923 9924 9925 9926 9927 9928 9929 9930 9931 9932 9933 9934 9935 9936 9937 9938 9939 9940 9941 9942 9943 9944 9945 9946 9947 9948 9949 9950 9951 9952 9953 9954 9955 9956 9957 9958 9959 9960 9961 9962 9963 9964 9965 9966 9967 9968 9969 9970 9971 9972 9973 9974 9975 9976 9977 9978 9979 9980 9981 9982 9983 9984 9985 9986 9987 9988 9989 9990 9991 9992 9993 9994 9995 9996 9997 9998 9999 10000 10001 10002 10003 10004 10005 10006 10007 10008 10009 10010 10011 10012 10013 10014 10015 10016 10017 10018 10019 10020 10021 10022 10023 10024 10025 10026 10027 10028 10029 10030 10031 10032 10033 10034 10035 10036 10037 10038 10039 10040 10041 10042 10043 10044 10045 10046 10047 10048 10049 10050 10051 10052 10053 10054 10055 10056 10057 10058 10059 10060 10061 10062 10063 10064 10065 10066 10067 10068 10069 10070 10071 10072 10073 10074 10075 10076 10077 10078 10079 10080 10081 10082 10083 10084 10085 10086 10087 10088 10089 10090 10091 10092 10093 10094 10095 10096 10097 10098 10099 10100 10101 10102 10103 10104 10105 10106 10107 10108 10109 10110 10111 10112 10113 10114 10115 10116 10117 10118 10119 10120 10121 10122 10123 10124 10125 10126 10127 10128 10129 10130 10131 10132 10133 10134 10135 10136 10137 10138 10139 10140 10141 10142 10143 10144 10145 10146 10147 10148 10149 10150 10151 10152 10153 10154 10155 10156 10157 10158 10159 10160 10161 10162 10163 10164 10165 10166 10167 10168 10169 10170 10171 10172 10173 10174 10175 10176 10177 10178 10179 10180 10181 10182 10183 10184 10185 10186 10187 10188 10189 10190 10191 10192 10193 10194 10195 10196 10197 10198 10199 10200 10201 10202 10203 10204 10205 10206 10207 10208 10209 10210 10211 10212 10213 10214 10215 10216 10217 10218 10219 10220 10221 10222 10223 10224 10225 10226 10227 10228 10229 10230 10231 10232 10233 10234 10235 10236 10237 10238 10239 10240 10241 10242 10243 10244 10245 10246 10247 10248 10249 10250 10251 10252 10253 10254 10255 10256 10257 10258 10259 10260 10261 10262 10263 10264 10265 10266 10267 10268 10269 10270 10271 10272 10273 10274 10275 10276 10277 10278 10279 10280 10281 10282 10283 10284 10285 10286 10287 10288 10289 10290 10291 10292 10293 10294 10295 10296 10297 10298 10299 10300 10301 10302 10303 10304 10305 10306 10307 10308 10309 10310 10311 10312 10313 10314 10315 10316 10317 10318 10319 10320 10321 10322 10323 10324 10325 10326 10327 10328 10329 10330 10331 10332 10333 10334 10335 10336 10337 10338 10339 10340 10341 10342 10343 10344 10345 10346 10347 10348 10349 10350 10351 10352 10353 10354 10355 10356 10357 10358 10359 10360 10361 10362 10363 10364 10365 10366 10367 10368 10369 10370 10371 10372 10373 10374 10375 10376 10377 10378 10379 10380 10381 10382 10383 10384 10385 10386 10387 10388 10389 10390 10391 10392 10393 10394 10395 10396 10397 10398 10399 10400 10401 10402 10403 10404 10405 10406 10407 10408 10409 10410 10411 10412 10413 10414 10415 10416 10417 10418 10419 10420 10421 10422 10423 10424 10425 10426 10427 10428 10429 10430 10431 10432 10433 10434 10435 10436 10437 10438 10439 10440 10441 10442 10443 10444 10445 10446 10447 10448 10449 10450 10451 10452 10453 10454 10455 10456 10457 10458 10459 10460 10461 10462 10463 10464 10465 10466 10467 10468 10469 10470 10471 10472 10473 10474 10475 10476 10477 10478 10479 10480 10481 10482 10483 10484 10485 10486 10487 10488 10489 10490 10491 10492 10493 10494 10495 10496 10497 10498 10499 10500 10501 10502 10503 10504 10505 10506 10507 10508 10509 10510 10511 10512 10513 10514 10515 10516 10517 10518 10519 10520 10521 10522 10523 10524 10525 10526 10527 10528 10529 10530 10531 10532 10533 10534 10535 10536 10537 10538 10539 10540 10541 10542 10543 10544 10545 10546 10547 10548 10549 10550 10551 10552 10553 10554 10555 10556 10557 10558 10559 10560 10561 10562 10563 10564 10565 10566 10567 10568 10569 10570 10571 10572 10573 10574 10575 10576 10577 10578 10579 10580 10581 10582 10583 10584 10585 10586 10587 10588 10589 10590 10591 10592 10593 10594 10595 10596 10597 10598 10599 10600 10601 10602 10603 10604 10605 10606 10607 10608 10609 10610 10611 10612 10613 10614 10615 10616 10617 10618 10619 10620 10621 10622 10623 10624 10625 10626 10627 10628 10629 10630 10631 10632 10633 10634 10635 10636 10637 10638 10639 10640 10641 10642 10643 10644 10645 10646 10647 10648 10649 10650 10651 10652 10653 10654 10655 10656 10657 10658 10659 10660 10661 10662 10663 10664 10665 10666 10667 10668 10669 10670 10671 10672 10673 10674 10675 10676 10677 10678 10679 10680 10681 10682 10683 10684 10685 10686 10687 10688 10689 10690 10691 10692 10693 10694 10695 10696 10697 10698 10699 10700 10701 10702 10703 10704 10705 10706 10707 10708 10709 10710 10711 10712 10713 10714 10715 10716 10717 10718 10719 10720 10721 10722 10723 10724 10725 10726 10727 10728 10729 10730 10731 10732 10733 10734 10735 10736 10737 10738 10739 10740 10741 10742 10743 10744 10745 10746 10747 10748 10749 10750 10751 10752 10753 10754 10755 10756 10757 10758 10759 10760 10761 10762 10763 10764 10765 10766 10767 10768 10769 10770 10771 10772 10773 10774 10775 10776 10777 10778 10779 10780 10781 10782 10783 10784 10785 10786 10787 10788 10789 10790 10791 10792 10793 10794 10795 10796 10797 10798 10799 10800 10801 10802 10803 10804 10805 10806 10807 10808 10809 10810 10811 10812 10813 10814 10815 10816 10817 10818 10819 10820 10821 10822 10823 10824 10825 10826 10827 10828 10829 10830 10831 10832 10833 10834 10835 10836 10837 10838 10839 10840 10841 10842 10843 10844 10845 10846 10847 10848 10849 10850 10851 10852 10853 10854 10855 10856 10857 10858 10859 10860 10861 10862 10863 10864 10865 10866 10867 10868 10869 10870 10871 10872 10873 10874 10875 10876 10877 10878 10879 10880 10881 10882 10883 10884 10885 10886 10887 10888 10889 10890 10891 10892 10893 10894 10895 10896 10897 10898 10899 10900 10901 10902 10903 10904 10905 10906 10907 10908 10909 10910 10911 10912 10913 10914 10915 10916 10917 10918 10919 10920 10921 10922 10923 10924 10925 10926 10927 10928 10929 10930 10931 10932 10933 10934 10935 10936 10937 10938 10939 10940 10941 10942 10943 10944 10945 10946 10947 10948 10949 10950 10951 10952 10953 10954 10955 10956 10957 10958 10959 10960 10961 10962 10963 10964 10965 10966 10967 10968 10969 10970 10971 10972 10973 10974 10975 10976 10977 10978 10979 10980 10981 10982 10983 10984 10985 10986 10987 10988 10989 10990 10991 10992 10993 10994 10995 10996 10997 10998 10999 11000 11001 11002 11003 11004 11005 11006 11007 11008 11009 11010 11011 11012 11013 11014 11015 11016 11017 11018 11019 11020 11021 11022 11023 11024 11025 11026 11027 11028 11029 11030 11031 11032 11033 11034 11035 11036 11037 11038 11039 11040 11041 11042 11043 11044 11045 11046 11047 11048 11049 11050 11051 11052 11053 11054 11055 11056 11057 11058 11059 11060 11061 11062 11063 11064 11065 11066 11067 11068 11069 11070 11071 11072 11073 11074 11075 11076 11077 11078 11079 11080 11081 11082 11083 11084 11085 11086 11087 11088 11089 11090 11091 11092 11093 11094 11095 11096 11097 11098 11099 11100 11101 11102 11103 11104 11105 11106 11107 11108 11109 11110 11111 11112 11113 11114 11115 11116 11117 11118 11119 11120 11121 11122 11123 11124 11125 11126 11127 11128 11129 11130 11131 11132 11133 11134 11135 11136 11137 11138 11139 11140 11141 11142 11143 11144 11145 11146 11147 11148 11149 11150 11151 11152 11153 11154 11155 11156 11157 11158 11159 11160 11161 11162 11163 11164 11165 11166 11167 11168 11169 11170 11171 11172 11173 11174 11175 11176 11177 11178 11179 11180 11181 11182 11183 11184 11185 11186 11187 11188 11189 11190 11191 11192 11193 11194 11195 11196 11197 11198 11199 11200 11201 11202 11203 11204 11205 11206 11207 11208 11209 11210 11211 11212 11213 11214 11215 11216 11217 11218 11219 11220 11221 11222 11223 11224 11225 11226 11227 11228 11229 11230 11231 11232 11233 11234 11235 11236 11237 11238 11239 11240 11241 11242 11243 11244 11245 11246 11247 11248 11249 11250 11251 11252 11253 11254 11255 11256 11257 11258 11259 11260 11261 11262 11263 11264 11265 11266 11267 11268 11269 11270 11271 11272 11273 11274 11275 11276 11277 11278 11279 11280 11281 11282 11283 11284 11285 11286 11287 11288 11289 11290 11291 11292 11293 11294 11295 11296 11297 11298 11299 11300 11301 11302 11303 11304 11305 11306 11307 11308 11309 11310 11311 11312 11313 11314 11315 11316 11317 11318 11319 11320 11321 11322 11323 11324 11325 11326 11327 11328 11329 11330 11331 11332 11333 11334 11335 11336 11337 11338 11339 11340 11341 11342 11343 11344 11345 11346 11347 11348 11349 11350 11351 11352 11353 11354 11355 11356 11357 11358 11359 11360 11361 11362 11363 11364 11365 11366 11367 11368 11369 11370 11371 11372 11373 11374 11375 11376 11377 11378 11379 11380 11381 11382 11383 11384 11385 11386 11387 11388 11389 11390 11391 11392 11393 11394 11395 11396 11397 11398 11399 11400 11401 11402 11403 11404 11405 11406 11407 11408 11409 11410 11411 11412 11413 11414 11415 11416 11417 11418 11419 11420 11421 11422 11423 11424 11425 11426 11427 11428 11429 11430 11431 11432 11433 11434 11435 11436 11437 11438 11439 11440 11441 11442 11443 11444 11445 11446 11447 11448 11449 11450 11451 11452 11453 11454 11455 11456 11457 11458 11459 11460 11461 11462 11463 11464 11465 11466 11467 11468 11469 11470 11471 11472 11473 11474 11475 11476 11477 11478 11479 11480 11481 11482 11483 11484 11485 11486 11487 11488 11489 11490 11491 11492 11493 11494 11495 11496 11497 11498 11499 11500 11501 11502 11503 11504 11505 11506 11507 11508 11509 11510 11511 11512 11513 11514 11515 11516 11517 11518 11519 11520 11521 11522 11523 11524 11525 11526 11527 11528 11529 11530 11531 11532 11533 11534 11535 11536 11537 11538 11539 11540 11541 11542 11543 11544 11545 11546 11547 11548 11549 11550 11551 11552 11553 11554 11555 11556 11557 11558 11559 11560 11561 11562 11563 11564 11565 11566 11567 11568 11569 11570 11571 11572 11573 11574 11575 11576 11577 11578 11579 11580 11581 11582 11583 11584 11585 11586 11587 11588 11589 11590 11591 11592 11593 11594 11595 11596 11597 11598 11599 11600 11601 11602 11603 11604 11605 11606 11607 11608 11609 11610 11611 11612 11613 11614 11615 11616 11617 11618 11619 11620 11621 11622 11623 11624 11625 11626 11627 11628 11629 11630 11631 11632 11633 11634 11635 11636 11637 11638 11639 11640 11641 11642 11643 11644 11645 11646 11647 11648 11649 11650 11651 11652 11653 11654 11655 11656 11657 11658 11659 11660 11661 11662 11663 11664 11665 11666 11667 11668 11669 11670 11671 11672 11673 11674 11675 11676 11677 11678 11679 11680 11681 11682 11683 11684 11685 11686 11687 11688 11689 11690 11691 11692 11693 11694 11695 11696 11697 11698 11699 11700 11701 11702 11703 11704 11705 11706 11707 11708 11709 11710 11711 11712 11713 11714 11715 11716 11717 11718 11719 11720 11721 11722 11723 11724 11725 11726 11727 11728 11729 11730 11731 11732 11733 11734 11735 11736 11737 11738 11739 11740 11741 11742 11743 11744 11745 11746 11747 11748 11749 11750 11751 11752 11753 11754 11755 11756 11757 11758 11759 11760 11761 11762 11763 11764 11765 11766 11767 11768 11769 11770 11771 11772 11773 11774 11775 11776 11777 11778 11779 11780 11781 11782 11783 11784 11785 11786 11787 11788 11789 11790 11791 11792 11793 11794 11795 11796 11797 11798 11799 11800 11801 11802 11803 11804 11805 11806 11807 11808 11809 11810 11811 11812 11813 11814 11815 11816 11817 11818 11819 11820 11821 11822 11823 11824 11825 11826 11827 11828 11829 11830 11831 11832 11833 11834 11835 11836 11837 11838 11839 11840 11841 11842 11843 11844 11845 11846 11847 11848 11849 11850 11851 11852 11853 11854 11855 11856 11857 11858 11859 11860 11861 11862 11863 11864 11865 11866 11867 11868 11869 11870 11871 11872 11873 11874 11875 11876 11877 11878 11879 11880 11881 11882 11883 11884 11885 11886 11887 11888 11889 11890 11891 11892 11893 11894 11895 11896 11897 11898 11899 11900 11901 11902 11903 11904 11905 11906 11907 11908 11909 11910 11911 11912 11913 11914 11915 11916 11917 11918 11919 11920 11921 11922 11923 11924 11925 11926 11927 11928 11929 11930 11931 11932 11933 11934 11935 11936 11937 11938 11939 11940 11941 11942 11943 11944 11945 11946 11947 11948 11949 11950 11951 11952 11953 11954 11955 11956 11957 11958 11959 11960 11961 11962 11963 11964 11965 11966 11967 11968 11969 11970 11971 11972 11973 11974 11975 11976 11977 11978 11979 11980 11981 11982 11983 11984 11985 11986 11987 11988 11989 11990 11991 11992 11993 11994 11995 11996 11997 11998 11999 12000 12001 12002 12003 12004 12005 12006 12007 12008 12009 12010 12011 12012 12013 12014 12015 12016 12017 12018 12019 12020 12021 12022 12023 12024 12025 12026 12027 12028 12029 12030 12031 12032 12033 12034 12035 12036 12037 12038 12039 12040 12041 12042 12043 12044 12045 12046 12047 12048 12049 12050 12051 12052 12053 12054 12055 12056 12057 12058 12059 12060 12061 12062 12063 12064 12065 12066 12067 12068 12069 12070 12071 12072 12073 12074 12075 12076 12077 12078 12079 12080 12081 12082 12083 12084 12085 12086 12087 12088 12089 12090 12091 12092 12093 12094 12095 12096 12097 12098 12099 12100 12101 12102 12103 12104 12105 12106 12107 12108 12109 12110 12111 12112 12113 12114 12115 12116 12117 12118 12119 12120 12121 12122 12123 12124 12125 12126 12127 12128 12129 12130 12131 12132 12133 12134 12135 12136 12137 12138 12139 12140 12141 12142 12143 12144 12145 12146 12147 12148 12149 12150 12151 12152 12153 12154 12155 12156 12157 12158 12159 12160 12161 12162 12163 12164 12165 12166 12167 12168 12169 12170 12171 12172 12173 12174 12175 12176 12177 12178 12179 12180 12181 12182 12183 12184 12185 12186 12187 12188 12189 12190 12191 12192 12193 12194 12195 12196 12197 12198 12199 12200 12201 12202 12203 12204 12205 12206 12207 12208 12209 12210 12211 12212 12213 12214 12215 12216 12217 12218 12219 12220 12221 12222 12223 12224 12225 12226 12227 12228 12229 12230 12231 12232 12233 12234 12235 12236 12237 12238 12239 12240 12241 12242 12243 12244 12245 12246 12247 12248 12249 12250 12251 12252 12253 12254 12255 12256 12257 12258 12259 12260 12261 12262 12263 12264 12265 12266 12267 12268 12269 12270 12271 12272 12273 12274 12275 12276 12277 12278 12279 12280 12281 12282 12283 12284 12285 12286 12287 12288 12289 12290 12291 12292 12293 12294 12295 12296 12297 12298 12299 12300 12301 12302 12303 12304 12305 12306 12307 12308 12309 12310 12311 12312 12313 12314 12315 12316 12317 12318 12319 12320 12321 12322 12323 12324 12325 12326 12327 12328 12329 12330 12331 12332 12333 12334 12335 12336 12337 12338 12339 12340 12341 12342 12343 12344 12345 12346 12347 12348 12349 12350 12351 12352 12353 12354 12355 12356 12357 12358 12359 12360 12361 12362 12363 12364 12365 12366 12367 12368 12369 12370 12371 12372 12373 12374 12375 12376 12377 12378 12379 12380 12381 12382 12383 12384 12385 12386 12387 12388 12389 12390 12391 12392 12393 12394 12395 12396 12397 12398 12399 12400 12401 12402 12403 12404 12405 12406 12407 12408 12409 12410 12411 12412 12413 12414 12415 12416 12417 12418 12419 12420 12421 12422 12423 12424 12425 12426 12427 12428 12429 12430 12431 12432 12433 12434 12435 12436 12437 12438 12439 12440 12441 12442 12443 12444 12445 12446 12447 12448 12449 12450 12451 12452 12453 12454 12455 12456 12457 12458 12459 12460 12461 12462 12463 12464 12465 12466 12467 12468 12469 12470 12471 12472 12473 12474 12475 12476 12477 12478 12479 12480 12481 12482 12483 12484 12485 12486 12487 12488 12489 12490 12491 12492 12493 12494 12495 12496 12497 12498 12499 12500 12501 12502 12503 12504 12505 12506 12507 12508 12509 12510 12511 12512 12513 12514 12515 12516 12517 12518 12519 12520 12521 12522 12523 12524 12525 12526 12527 12528 12529 12530 12531 12532 12533 12534 12535 12536 12537 12538 12539 12540 12541 12542 12543 12544 12545 12546 12547 12548 12549 12550 12551 12552 12553 12554 12555 12556 12557 12558 12559 12560 12561 12562 12563 12564 12565 12566 12567 12568 12569 12570 12571 12572 12573 12574 12575 12576 12577 12578 12579 12580 12581 12582 12583 12584 12585 12586 12587 12588 12589 12590 12591 12592 12593 12594 12595 12596 12597 12598 12599 12600 12601 12602 12603 12604 12605 12606 12607 12608 12609 12610 12611 12612 12613 12614 12615 12616 12617 12618 12619 12620 12621 12622 12623 12624 12625 12626 12627 12628 12629 12630 12631 12632 12633 12634 12635 12636 12637 12638 12639 12640 12641 12642 12643 12644 12645 12646 12647 12648 12649 12650 12651 12652 12653 12654 12655 12656 12657 12658 12659 12660 12661 12662 12663 12664 12665 12666 12667 12668 12669 12670 12671 12672 12673 12674 12675 12676 12677 12678 12679 12680 12681 12682 12683 12684 12685 12686 12687 12688 12689 12690 12691 12692 12693 12694 12695 12696 12697 12698 12699 12700 12701 12702 12703 12704 12705 12706 12707 12708 12709 12710 12711 12712 12713 12714 12715 12716 12717 12718 12719 12720 12721 12722 12723 12724 12725 12726 12727 12728 12729 12730 12731 12732 12733 12734 12735 12736 12737 12738 12739 12740 12741 12742 12743 12744 12745 12746 12747 12748 12749 12750 12751 12752 12753 12754 12755 12756 12757 12758 12759 12760 12761 12762 12763 12764 12765 12766 12767 12768 12769 12770 12771 12772 12773 12774 12775 12776 12777 12778 12779 12780 12781 12782 12783 12784 12785 12786 12787 12788 12789 12790 12791 12792 12793 12794 12795 12796 12797 12798 12799 12800 12801 12802 12803 12804 12805 12806 12807 12808 12809 12810 12811 12812 12813 12814 12815 12816 12817 12818 12819 12820 12821 12822 12823 12824 12825 12826 12827 12828 12829 12830 12831 12832 12833 12834 12835 12836 12837 12838 12839 12840 12841 12842 12843 12844 12845 12846 12847 12848 12849 12850 12851 12852 12853 12854 12855 12856 12857 12858 12859 12860 12861 12862 12863 12864 12865 12866 12867 12868 12869 12870 12871 12872 12873 12874 12875 12876 12877 12878 12879 12880 12881 12882 12883 12884 12885 12886 12887 12888 12889 12890 12891 12892 12893 12894 12895 12896 12897 12898 12899 12900 12901 12902 12903 12904 12905 12906 12907 12908 12909 12910 12911 12912 12913 12914 12915 12916 12917 12918 12919 12920 12921 12922 12923 12924 12925 12926 12927 12928 12929 12930 12931 12932 12933 12934 12935 12936 12937 12938 12939 12940 12941 12942 12943 12944 12945 12946 12947 12948 12949 12950 12951 12952 12953 12954 12955 12956 12957 12958 12959 12960 12961 12962 12963 12964 12965 12966 12967 12968 12969 12970 12971 12972 12973 12974 12975 12976 12977 12978 12979 12980 12981 12982 12983 12984 12985 12986 12987 12988 12989 12990 12991 12992 12993 12994 12995 12996 12997 12998 12999 13000 13001 13002 13003 13004 13005 13006 13007 13008 13009 13010 13011 13012 13013 13014 13015 13016 13017 13018 13019 13020 13021 13022 13023 13024 13025 13026 13027 13028 13029 13030 13031 13032 13033 13034 13035 13036 13037 13038 13039 13040 13041 13042 13043 13044 13045 13046 13047 13048 13049 13050 13051 13052 13053 13054 13055 13056 13057 13058 13059 13060 13061 13062 13063 13064 13065 13066 13067 13068 13069 13070 13071 13072 13073 13074 13075 13076 13077 13078 13079 13080 13081 13082 13083 13084 13085 13086 13087 13088 13089 13090 13091 13092 13093 13094 13095 13096 13097 13098 13099 13100 13101 13102 13103 13104 13105 13106 13107 13108 13109 13110 13111 13112 13113 13114 13115 13116 13117 13118 13119 13120 13121 13122 13123 13124 13125 13126 13127 13128 13129 13130 13131 13132 13133 13134 13135 13136 13137 13138 13139 13140 13141 13142 13143 13144 13145 13146 13147 13148 13149 13150 13151 13152 13153 13154 13155 13156 13157 13158 13159 13160 13161 13162 13163 13164 13165 13166 13167 13168 13169 13170 13171 13172 13173 13174 13175 13176 13177 13178 13179 13180 13181 13182 13183 13184 13185 13186 13187 13188 13189 13190 13191 13192 13193 13194 13195 13196 13197 13198 13199 13200 13201 13202 13203 13204 13205 13206 13207 13208 13209 13210 13211 13212 13213 13214 13215 13216 13217 13218 13219 13220 13221 13222 13223 13224 13225 13226 13227 13228 13229 13230 13231 13232 13233 13234 13235 13236 13237 13238 13239 13240 13241 13242 13243 13244 13245 13246 13247 13248 13249 13250 13251 13252 13253 13254 13255 13256 13257 13258 13259 13260 13261 13262 13263 13264 13265 13266 13267 13268 13269 13270 13271 13272 13273 13274 13275 13276 13277 13278 13279 13280 13281 13282 13283 13284 13285 13286 13287 13288 13289 13290 13291 13292 13293 13294 13295 13296 13297 13298 13299 13300 13301 13302 13303 13304 13305 13306 13307 13308 13309 13310 13311 13312 13313 13314 13315 13316 13317 13318 13319 13320 13321 13322 13323 13324 13325 13326 13327 13328 13329 13330 13331 13332 13333 13334 13335 13336 13337 13338 13339 13340 13341 13342 13343 13344 13345 13346 13347 13348 13349 13350 13351 13352 13353 13354 13355 13356 13357 13358 13359 13360 13361 13362 13363 13364 13365 13366 13367 13368 13369 13370 13371 13372 13373 13374 13375 13376 13377 13378 13379 13380 13381 13382 13383 13384 13385 13386 13387 13388 13389 13390 13391 13392 13393 13394 13395 13396 13397 13398 13399 13400 13401 13402 13403 13404 13405 13406 13407 13408 13409 13410 13411 13412 13413 13414 13415 13416 13417 13418 13419 13420 13421 13422 13423 13424 13425 13426 13427 13428 13429 13430 13431 13432 13433 13434 13435 13436 13437 13438 13439 13440 13441 13442 13443 13444 13445 13446 13447 13448 13449 13450 13451 13452 13453 13454 13455 13456 13457 13458 13459 13460 13461 13462 13463 13464 13465 13466 13467 13468 13469 13470 13471 13472 13473 13474 13475 13476 13477 13478 13479 13480 13481 13482 13483 13484 13485 13486 13487 13488 13489 13490 13491 13492 13493 13494 13495 13496 13497 13498 13499 13500 13501 13502 13503 13504 13505 13506 13507 13508 13509 13510 13511 13512 13513 13514 13515 13516 13517 13518 13519 13520 13521 13522 13523 13524 13525 13526 13527 13528 13529 13530 13531 13532 13533 13534 13535 13536 13537 13538 13539 13540 13541 13542 13543 13544 13545 13546 13547 13548 13549 13550 13551 13552 13553 13554 13555 13556 13557 13558 13559 13560 13561 13562 13563 13564 13565 13566 13567 13568 13569 13570 13571 13572 13573 13574 13575 13576 13577 13578 13579 13580 13581 13582 13583 13584 13585 13586 13587 13588 13589 13590 13591 13592 13593 13594 13595 13596 13597 13598 13599 13600 13601 13602 13603 13604 13605 13606 13607 13608 13609 13610 13611 13612 13613 13614 13615 13616 13617 13618 13619 13620 13621 13622 13623 13624 13625 13626 13627 13628 13629 13630 13631 13632 13633 13634 13635 13636 13637 13638 13639 13640 13641 13642 13643 13644 13645 13646 13647 13648 13649 13650 13651 13652 13653 13654 13655 13656 13657 13658 13659 13660 13661 13662 13663 13664 13665 13666 13667 13668 13669 13670 13671 13672 13673 13674 13675 13676 13677 13678 13679 13680 13681 13682 13683 13684 13685 13686 13687 13688 13689 13690 13691 13692 13693 13694 13695 13696 13697 13698 13699 13700 13701 13702 13703 13704 13705 13706 13707 13708 13709 13710 13711 13712 13713 13714 13715 13716 13717 13718 13719 13720 13721 13722 13723 13724 13725 13726 13727 13728 13729 13730 13731 13732 13733 13734 13735 13736 13737 13738 13739 13740 13741 13742 13743 13744 13745 13746 13747 13748 13749 13750 13751 13752 13753 13754 13755 13756 13757 13758 13759 13760 13761 13762 13763 13764 13765 13766 13767 13768 13769 13770 13771 13772 13773 13774 13775 13776 13777 13778 13779 13780 13781 13782 13783 13784 13785 13786 13787 13788 13789 13790 13791 13792 13793 13794 13795 13796 13797 13798 13799 13800 13801 13802 13803 13804 13805 13806 13807 13808 13809 13810 13811 13812 13813 13814 13815 13816 13817 13818 13819 13820 13821 13822 13823 13824 13825 13826 13827 13828 13829 13830 13831 13832 13833 13834 13835 13836 13837 13838 13839 13840 13841 13842 13843 13844 13845 13846 13847 13848 13849 13850 13851 13852 13853 13854 13855 13856 13857 13858 13859 13860 13861 13862 13863 13864 13865 13866 13867 13868 13869 13870 13871 13872 13873 13874 13875 13876 13877 13878 13879 13880 13881 13882 13883 13884 13885 13886 13887 13888 13889 13890 13891 13892 13893 13894 13895 13896 13897 13898 13899 13900 13901 13902 13903 13904 13905 13906 13907 13908 13909 13910 13911 13912 13913 13914 13915 13916 13917 13918 13919 13920 13921 13922 13923 13924 13925 13926 13927 13928 13929 13930 13931 13932 13933 13934 13935 13936 13937 13938 13939 13940 13941 13942 13943 13944 13945 13946 13947 13948 13949 13950 13951 13952 13953 13954 13955 13956 13957 13958 13959 13960 13961 13962 13963 13964 13965 13966 13967 13968 13969 13970 13971 13972 13973 13974 13975 13976 13977 13978 13979 13980 13981 13982 13983 13984 13985 13986 13987 13988 13989 13990 13991 13992 13993 13994 13995 13996 13997 13998 13999 14000 14001 14002 14003 14004 14005 14006 14007 14008 14009 14010 14011 14012 14013 14014 14015 14016 14017 14018 14019 14020 14021 14022 14023 14024 14025 14026 14027 14028 14029 14030 14031 14032 14033 14034 14035 14036 14037 14038 14039 14040 14041 14042 14043 14044 14045 14046 14047 14048 14049 14050 14051 14052 14053 14054 14055 14056 14057 14058 14059 14060 14061 14062 14063 14064 14065 14066 14067 14068 14069 14070 14071 14072 14073 14074 14075 14076 14077 14078 14079 14080 14081 14082 14083 14084 14085 14086 14087 14088 14089 14090 14091 14092 14093 14094 14095 14096 14097 14098 14099 14100 14101 14102 14103 14104 14105 14106 14107 14108 14109 14110 14111 14112 14113 14114 14115 14116 14117 14118 14119 14120 14121 14122 14123 14124 14125 14126 14127 14128 14129 14130 14131 14132 14133 14134 14135 14136 14137 14138 14139 14140 14141 14142 14143 14144 14145 14146 14147 14148 14149 14150 14151 14152 14153 14154 14155 14156 14157 14158 14159 14160 14161 14162 14163 14164 14165 14166 14167 14168 14169 14170 14171 14172 14173 14174 14175 14176 14177 14178 14179 14180 14181 14182 14183 14184 14185 14186 14187 14188 14189 14190 14191 14192 14193 14194 14195 14196 14197 14198 14199 14200 14201 14202 14203 14204 14205 14206 14207 14208 14209 14210 14211 14212 14213 14214 14215 14216 14217 14218 14219 14220 14221 14222 14223 14224 14225 14226 14227 14228 14229 14230 14231 14232 14233 14234 14235 14236 14237 14238 14239 14240 14241 14242 14243 14244 14245 14246 14247 14248 14249 14250 14251 14252 14253 14254 14255 14256 14257 14258 14259 14260 14261 14262 14263 14264 14265 14266 14267 14268 14269 14270 14271 14272 14273 14274 14275 14276 14277 14278 14279 14280 14281 14282 14283 14284 14285 14286 14287 14288 14289 14290 14291 14292 14293 14294 14295 14296 14297 14298 14299 14300 14301 14302 14303 14304 14305 14306 14307 14308 14309 14310 14311 14312 14313 14314 14315 14316 14317 14318 14319 14320 14321 14322 14323 14324 14325 14326 14327 14328 14329 14330 14331 14332 14333 14334 14335 14336 14337 14338 14339 14340 14341 14342 14343 14344 14345 14346 14347 14348 14349 14350 14351 14352 14353 14354 14355 14356 14357 14358 14359 14360 14361 14362 14363 14364 14365 14366 14367 14368 14369 14370 14371 14372 14373 14374 14375 14376 14377 14378 14379 14380 14381 14382 14383 14384 14385 14386 14387 14388 14389 14390 14391 14392 14393 14394 14395 14396 14397 14398 14399 14400 14401 14402 14403 14404 14405 14406 14407 14408 14409 14410 14411 14412 14413 14414 14415 14416 14417 14418 14419 14420 14421 14422 14423 14424 14425 14426 14427 14428 14429 14430 14431 14432 14433 14434 14435 14436 14437 14438 14439 14440 14441 14442 14443 14444 14445 14446 14447 14448 14449 14450 14451 14452 14453 14454 14455 14456 14457 14458 14459 14460 14461 14462 14463 14464 14465 14466 14467 14468 14469 14470 14471 14472 14473 14474 14475 14476 14477 14478 14479 14480 14481 14482 14483 14484 14485 14486 14487 14488 14489 14490 14491 14492 14493 14494 14495 14496 14497 14498 14499 14500 14501 14502 14503 14504 14505 14506 14507 14508 14509 14510 14511 14512 14513 14514 14515 14516 14517 14518 14519 14520 14521 14522 14523 14524 14525 14526 14527 14528 14529 14530 14531 14532 14533 14534 14535 14536 14537 14538 14539 14540 14541 14542 14543 14544 14545 14546 14547 14548 14549 14550 14551 14552 14553 14554 14555 14556 14557 14558 14559 14560 14561 14562 14563 14564 14565 14566 14567 14568 14569 14570 14571 14572 14573 14574 14575 14576 14577 14578 14579 14580 14581 14582 14583 14584 14585 14586 14587 14588 14589 14590 14591 14592 14593 14594 14595 14596 14597 14598 14599 14600 14601 14602 14603 14604 14605 14606 14607 14608 14609 14610 14611 14612 14613 14614 14615 14616 14617 14618 14619 14620 14621 14622 14623 14624 14625 14626 14627 14628 14629 14630 14631 14632 14633 14634 14635 14636 14637 14638 14639 14640 14641 14642 14643 14644 14645 14646 14647 14648 14649 14650 14651 14652 14653 14654 14655 14656 14657 14658 14659 14660 14661 14662 14663 14664 14665 14666 14667 14668 14669 14670 14671 14672 14673 14674 14675 14676 14677 14678 14679 14680 14681 14682 14683 14684 14685 14686 14687 14688 14689 14690 14691 14692 14693 14694 14695 14696 14697 14698 14699 14700 14701 14702 14703 14704 14705 14706 14707 14708 14709 14710 14711 14712 14713 14714 14715 14716 14717 14718 14719 14720 14721 14722 14723 14724 14725 14726 14727 14728 14729 14730 14731 14732 14733 14734 14735 14736 14737 14738 14739 14740 14741 14742 14743 14744 14745 14746 14747 14748 14749 14750 14751 14752 14753 14754 14755 14756 14757 14758 14759 14760 14761 14762 14763 14764 14765 14766 14767 14768 14769 14770 14771 14772 14773 14774 14775 14776 14777 14778 14779 14780 14781 14782 14783 14784 14785 14786 14787 14788 14789 14790 14791 14792 14793 14794 14795 14796 14797 14798 14799 14800 14801 14802 14803 14804 14805 14806 14807 14808 14809 14810 14811 14812 14813 14814 14815 14816 14817 14818 14819 14820 14821 14822 14823 14824 14825 14826 14827 14828 14829 14830 14831 14832 14833 14834 14835 14836 14837 14838 14839 14840 14841 14842 14843 14844 14845 14846 14847 14848 14849 14850 14851 14852 14853 14854 14855 14856 14857 14858 14859 14860 14861 14862 14863 14864 14865 14866 14867 14868 14869 14870 14871 14872 14873 14874 14875 14876 14877 14878 14879 14880 14881 14882 14883 14884 14885 14886 14887 14888 14889 14890 14891 14892 14893 14894 14895 14896 14897 14898 14899 14900 14901 14902 14903 14904 14905 14906 14907 14908 14909 14910 14911 14912 14913 14914 14915 14916 14917 14918 14919 14920 14921 14922 14923 14924 14925 14926 14927 14928 14929 14930 14931 14932 14933 14934 14935 14936 14937 14938 14939 14940 14941 14942 14943 14944 14945 14946 14947 14948 14949 14950 14951 14952 14953 14954 14955 14956 14957 14958 14959 14960 14961 14962 14963 14964 14965 14966 14967 14968 14969 14970 14971 14972 14973 14974 14975 14976 14977 14978 14979 14980 14981 14982 14983 14984 14985 14986 14987 14988 14989 14990 14991 14992 14993 14994 14995 14996 14997 14998 14999 15000 15001 15002 15003 15004 15005 15006 15007 15008 15009 15010 15011 15012 15013 15014 15015 15016 15017 15018 15019 15020 15021 15022 15023 15024 15025 15026 15027 15028 15029 15030 15031 15032 15033 15034 15035 15036 15037 15038 15039 15040 15041 15042 15043 15044 15045 15046 15047 15048 15049 15050 15051 15052 15053 15054 15055 15056 15057 15058 15059 15060 15061 15062 15063 15064 15065 15066 15067 15068 15069 15070 15071 15072 15073 15074 15075 15076 15077 15078 15079 15080 15081 15082 15083 15084 15085 15086 15087 15088 15089 15090 15091 15092 15093 15094 15095 15096 15097 15098 15099 15100 15101 15102 15103 15104 15105 15106 15107 15108 15109 15110 15111 15112 15113 15114 15115 15116 15117 15118 15119 15120 15121 15122 15123 15124 15125 15126 15127 15128 15129 15130 15131 15132 15133 15134 15135 15136 15137 15138 15139 15140 15141 15142 15143 15144 15145 15146 15147 15148 15149 15150 15151 15152 15153 15154 15155 15156 15157 15158 15159 15160 15161 15162 15163 15164 15165 15166 15167 15168 15169 15170 15171 15172 15173 15174 15175 15176 15177 15178 15179 15180 15181 15182 15183 15184 15185 15186 15187 15188 15189 15190 15191 15192 15193 15194 15195 15196 15197 15198 15199 15200 15201 15202 15203 15204 15205 15206 15207 15208 15209 15210 15211 15212 15213 15214 15215 15216 15217 15218 15219 15220 15221 15222 15223 15224 15225 15226 15227 15228 15229 15230 15231 15232 15233 15234 15235 15236 15237 15238 15239 15240 15241 15242 15243 15244 15245 15246 15247 15248 15249 15250 15251 15252 15253 15254 15255 15256 15257 15258 15259 15260 15261 15262 15263 15264 15265 15266 15267 15268 15269 15270 15271 15272 15273 15274 15275 15276 15277 15278 15279 15280 15281 15282 15283 15284 15285 15286 15287 15288 15289 15290 15291 15292 15293 15294 15295 15296 15297 15298 15299 15300 15301 15302 15303 15304 15305 15306 15307 15308 15309 15310 15311 15312 15313 15314 15315 15316 15317 15318 15319 15320 15321 15322 15323 15324 15325 15326 15327 15328 15329 15330 15331 15332 15333 15334 15335 15336 15337 15338 15339 15340 15341 15342 15343 15344 15345 15346 15347 15348 15349 15350 15351 15352 15353 15354 15355 15356 15357 15358 15359 15360 15361 15362 15363 15364 15365 15366 15367 15368 15369 15370 15371 15372 15373 15374 15375 15376 15377 15378 15379 15380 15381 15382 15383 15384 15385 15386 15387 15388 15389 15390 15391 15392 15393 15394 15395 15396 15397 15398 15399 15400 15401 15402 15403 15404 15405 15406 15407 15408 15409 15410 15411 15412 15413 15414 15415 15416 15417 15418 15419 15420 15421 15422 15423 15424 15425 15426 15427 15428 15429 15430 15431 15432 15433 15434 15435 15436 15437 15438 15439 15440 15441 15442 15443 15444 15445 15446 15447 15448 15449 15450 15451 15452 15453 15454 15455 15456 15457 15458 15459 15460 15461 15462 15463 15464 15465 15466 15467 15468 15469 15470 15471 15472 15473 15474 15475 15476 15477 15478 15479 15480 15481 15482 15483 15484 15485 15486 15487 15488 15489 15490 15491 15492 15493 15494 15495 15496 15497 15498 15499 15500 15501 15502 15503 15504 15505 15506 15507 15508 15509 15510 15511 15512 15513 15514 15515 15516 15517 15518 15519 15520 15521 15522 15523 15524 15525 15526 15527 15528 15529 15530 15531 15532 15533 15534 15535 15536 15537 15538 15539 15540 15541 15542 15543 15544 15545 15546 15547 15548 15549 15550 15551 15552 15553 15554 15555 15556 15557 15558 15559 15560 15561 15562 15563 15564 15565 15566 15567 15568 15569 15570 15571 15572 15573 15574 15575 15576 15577 15578 15579 15580 15581 15582 15583 15584 15585 15586 15587 15588 15589 15590 15591 15592 15593 15594 15595 15596 15597 15598 15599 15600 15601 15602 15603 15604 15605 15606 15607 15608 15609 15610 15611 15612 15613 15614 15615 15616 15617 15618 15619 15620 15621 15622 15623 15624 15625 15626 15627 15628 15629 15630 15631 15632 15633 15634 15635 15636 15637 15638 15639 15640 15641 15642 15643 15644 15645 15646 15647 15648 15649 15650 15651 15652 15653 15654 15655 15656 15657 15658 15659 15660 15661 15662 15663 15664 15665 15666 15667 15668 15669 15670 15671 15672 15673 15674 15675 15676 15677 15678 15679 15680 15681 15682 15683 15684 15685 15686 15687 15688 15689 15690 15691 15692 15693 15694 15695 15696 15697 15698 15699 15700 15701 15702 15703 15704 15705 15706 15707 15708 15709 15710 15711 15712 15713 15714 15715 15716 15717 15718 15719 15720 15721 15722 15723 15724 15725 15726 15727 15728 15729 15730 15731 15732 15733 15734 15735 15736 15737 15738 15739 15740 15741 15742 15743 15744 15745 15746 15747 15748 15749 15750 15751 15752 15753 15754 15755 15756 15757 15758 15759 15760 15761 15762 15763 15764 15765 15766 15767 15768 15769 15770 15771 15772 15773 15774 15775 15776 15777 15778 15779 15780 15781 15782 15783 15784 15785 15786 15787 15788 15789 15790 15791 15792 15793 15794 15795 15796 15797 15798 15799 15800 15801 15802 15803 15804 15805 15806 15807 15808 15809 15810 15811 15812 15813 15814 15815 15816 15817 15818 15819 15820 15821 15822 15823 15824 15825 15826 15827 15828 15829 15830 15831 15832 15833 15834 15835 15836 15837 15838 15839 15840 15841 15842 15843 15844 15845 15846 15847 15848 15849 15850 15851 15852 15853 15854 15855 15856 15857 15858 15859 15860 15861 15862 15863 15864 15865 15866 15867 15868 15869 15870 15871 15872 15873 15874 15875 15876 15877 15878 15879 15880 15881 15882 15883 15884 15885 15886 15887 15888 15889 15890 15891 15892 15893 15894 15895 15896 15897 15898 15899 15900 15901 15902 15903 15904 15905 15906 15907 15908 15909 15910 15911 15912 15913 15914 15915 15916 15917 15918 15919 15920 15921 15922 15923 15924 15925 15926 15927 15928 15929 15930 15931 15932 15933 15934 15935 15936 15937 15938 15939 15940 15941 15942 15943 15944 15945 15946 15947 15948 15949 15950 15951 15952 15953 15954 15955 15956 15957 15958 15959 15960 15961 15962 15963 15964 15965 15966 15967 15968 15969 15970 15971 15972 15973 15974 15975 15976 15977 15978 15979 15980 15981 15982 15983 15984 15985 15986 15987 15988 15989 15990 15991 15992 15993 15994 15995 15996 15997 15998 15999 16000 16001 16002 16003 16004 16005 16006 16007 16008 16009 16010 16011 16012 16013 16014 16015 16016 16017 16018 16019 16020 16021 16022 16023 16024 16025 16026 16027 16028 16029 16030 16031 16032 16033 16034 16035 16036 16037 16038 16039 16040 16041 16042 16043 16044 16045 16046 16047 16048 16049 16050 16051 16052 16053 16054 16055 16056 16057 16058 16059 16060 16061 16062 16063 16064 16065 16066 16067 16068 16069 16070 16071 16072 16073 16074 16075 16076 16077 16078 16079 16080 16081 16082 16083 16084 16085 16086 16087 16088 16089 16090 16091 16092 16093 16094 16095 16096 16097 16098 16099 16100 16101 16102 16103 16104 16105 16106 16107 16108 16109 16110 16111 16112 16113 16114 16115 16116 16117 16118 16119 16120 16121 16122 16123 16124 16125 16126 16127 16128 16129 16130 16131 16132 16133 16134 16135 16136 16137 16138 16139 16140 16141 16142 16143 16144 16145 16146 16147 16148 16149 16150 16151 16152 16153 16154 16155 16156 16157 16158 16159 16160 16161 16162 16163 16164 16165 16166 16167 16168 16169 16170 16171 16172 16173 16174 16175 16176 16177 16178 16179 16180 16181 16182 16183 16184 16185 16186 16187 16188 16189 16190 16191 16192 16193 16194 16195 16196 16197 16198 16199 16200 16201 16202 16203 16204 16205 16206 16207 16208 16209 16210 16211 16212 16213 16214 16215 16216 16217 16218 16219 16220 16221 16222 16223 16224 16225 16226 16227 16228 16229 16230 16231 16232 16233 16234 16235 16236 16237 16238 16239 16240 16241 16242 16243 16244 16245 16246 16247 16248 16249 16250 16251 16252 16253 16254 16255 16256 16257 16258 16259 16260 16261 16262 16263 16264 16265 16266 16267 16268 16269 16270 16271 16272 16273 16274 16275 16276 16277 16278 16279 16280 16281 16282 16283 16284 16285 16286 16287 16288 16289 16290 16291 16292 16293 16294 16295 16296 16297 16298 16299 16300 16301 16302 16303 16304 16305 16306 16307 16308 16309 16310 16311 16312 16313 16314 16315 16316 16317 16318 16319 16320 16321 16322 16323 16324 16325 16326 16327 16328 16329 16330 16331 16332 16333 16334 16335 16336 16337 16338 16339 16340 16341 16342 16343 16344 16345 16346 16347 16348 16349 16350 16351 16352 16353 16354 16355 16356 16357 16358 16359 16360 16361 16362 16363 16364 16365 16366 16367 16368 16369 16370 16371 16372 16373 16374 16375 16376 16377 16378 16379 16380 16381 16382 16383 16384 16385 16386 16387 16388 16389 16390 16391 16392 16393 16394 16395 16396 16397 16398 16399 16400 16401 16402 16403 16404 16405 16406 16407 16408 16409 16410 16411 16412 16413 16414 16415 16416 16417 16418 16419 16420 16421 16422 16423 16424 16425 16426 16427 16428 16429 16430 16431 16432 16433 16434 16435 16436 16437 16438 16439 16440 16441 16442 16443 16444 16445 16446 16447 16448 16449 16450 16451 16452 16453 16454 16455 16456 16457 16458 16459 16460 16461 16462 16463 16464 16465 16466 16467 16468 16469 16470 16471 16472 16473 16474 16475 16476 16477 16478 16479 16480 16481 16482 16483 16484 16485 16486 16487 16488 16489 16490 16491 16492 16493 16494 16495 16496 16497 16498 16499 16500 16501 16502 16503 16504 16505 16506 16507 16508 16509 16510 16511 16512 16513 16514 16515 16516 16517 16518 16519 16520 16521 16522 16523 16524 16525 16526 16527 16528 16529 16530 16531 16532 16533 16534 16535 16536 16537 16538 16539 16540 16541 16542 16543 16544 16545 16546 16547 16548 16549 16550 16551 16552 16553 16554 16555 16556 16557 16558 16559 16560 16561 16562 16563 16564 16565 16566 16567 16568 16569 16570 16571 16572 16573 16574 16575 16576 16577 16578 16579 16580 16581 16582 16583 16584 16585 16586 16587 16588 16589 16590 16591 16592 16593 16594 16595 16596 16597 16598 16599 16600 16601 16602 16603 16604 16605 16606 16607 16608 16609 16610 16611 16612 16613 16614 16615 16616 16617 16618 16619 16620 16621 16622 16623 16624 16625 16626 16627 16628 16629 16630 16631 16632 16633 16634 16635 16636 16637 16638 16639 16640 16641 16642 16643 16644 16645 16646 16647 16648 16649 16650 16651 16652 16653 16654 16655 16656 16657 16658 16659 16660 16661 16662 16663 16664 16665 16666 16667 16668 16669 16670 16671 16672 16673 16674 16675 16676 16677 16678 16679 16680 16681 16682 16683 16684 16685 16686 16687 16688 16689 16690 16691 16692 16693 16694 16695 16696 16697 16698 16699 16700 16701 16702 16703 16704 16705 16706 16707 16708 16709 16710 16711 16712 16713 16714 16715 16716 16717 16718 16719 16720 16721 16722 16723 16724 16725 16726 16727 16728 16729 16730 16731 16732 16733 16734 16735 16736 16737 16738 16739 16740 16741 16742 16743 16744 16745 16746 16747 16748 16749 16750 16751 16752 16753 16754 16755 16756 16757 16758 16759 16760 16761 16762 16763 16764 16765 16766 16767 16768 16769 16770 16771 16772 16773 16774 16775 16776 16777 16778 16779 16780 16781 16782 16783 16784 16785 16786 16787 16788 16789 16790 16791 16792 16793 16794 16795 16796 16797 16798 16799 16800 16801 16802 16803 16804 16805 16806 16807 16808 16809 16810 16811 16812 16813 16814 16815 16816 16817 16818 16819 16820 16821 16822 16823 16824 16825 16826 16827 16828 16829 16830 16831 16832 16833 16834 16835 16836 16837 16838 16839 16840 16841 16842 16843 16844 16845 16846 16847 16848 16849 16850 16851 16852 16853 16854 16855 16856 16857 16858 16859 16860 16861 16862 16863 16864 16865 16866 16867 16868 16869 16870 16871 16872 16873 16874 16875 16876 16877 16878 16879 16880 16881 16882 16883 16884 16885 16886 16887 16888 16889 16890 16891 16892 16893 16894 16895 16896 16897 16898 16899 16900 16901 16902 16903 16904 16905 16906 16907 16908 16909 16910 16911 16912 16913 16914 16915 16916 16917 16918 16919 16920 16921 16922 16923 16924 16925 16926 16927 16928 16929 16930 16931 16932 16933 16934 16935 16936 16937 16938 16939 16940 16941 16942 16943 16944 16945 16946 16947 16948 16949 16950 16951 16952 16953 16954 16955 16956 16957 16958 16959 16960 16961 16962 16963 16964 16965 16966 16967 16968 16969 16970 16971 16972 16973 16974 16975 16976 16977 16978 16979 16980 16981 16982 16983 16984 16985 16986 16987 16988 16989 16990 16991 16992 16993 16994 16995 16996 16997 16998 16999 17000 17001 17002 17003 17004 17005 17006 17007 17008 17009 17010 17011 17012 17013 17014 17015 17016 17017 17018 17019 17020 17021 17022 17023 17024 17025 17026 17027 17028 17029 17030 17031 17032 17033 17034 17035 17036 17037 17038 17039 17040 17041 17042 17043 17044 17045 17046 17047 17048 17049 17050 17051 17052 17053 17054 17055 17056 17057 17058 17059 17060 17061 17062 17063 17064 17065 17066 17067 17068 17069 17070 17071 17072 17073 17074 17075 17076 17077 17078 17079 17080 17081 17082 17083 17084 17085 17086 17087 17088 17089 17090 17091 17092 17093 17094 17095 17096 17097 17098 17099 17100 17101 17102 17103 17104 17105 17106 17107 17108 17109 17110 17111 17112 17113 17114 17115 17116 17117 17118 17119 17120 17121 17122 17123 17124 17125 17126 17127 17128 17129 17130 17131 17132 17133 17134 17135 17136 17137 17138 17139 17140 17141 17142 17143 17144 17145 17146 17147 17148 17149 17150 17151 17152 17153 17154 17155 17156 17157 17158 17159 17160 17161 17162 17163 17164 17165 17166 17167 17168 17169 17170 17171 17172 17173 17174 17175 17176 17177 17178 17179 17180 17181 17182 17183 17184 17185 17186 17187 17188 17189 17190 17191 17192 17193 17194 17195 17196 17197 17198 17199 17200 17201 17202 17203 17204 17205 17206 17207 17208 17209 17210 17211 17212 17213 17214 17215 17216 17217 17218 17219 17220 17221 17222 17223 17224 17225 17226 17227 17228 17229 17230 17231 17232 17233 17234 17235 17236 17237 17238 17239 17240 17241 17242 17243 17244 17245 17246 17247 17248 17249 17250 17251 17252 17253 17254 17255 17256 17257 17258 17259 17260 17261 17262 17263 17264 17265 17266 17267 17268 17269 17270 17271 17272 17273 17274 17275 17276 17277 17278 17279 17280 17281 17282 17283 17284 17285 17286 17287 17288 17289 17290 17291 17292 17293 17294 17295 17296 17297 17298 17299 17300 17301 17302 17303 17304 17305 17306 17307 17308 17309 17310 17311 17312 17313 17314 17315 17316 17317 17318 17319 17320 17321 17322 17323 17324 17325 17326 17327 17328 17329 17330 17331 17332 17333 17334 17335 17336 17337 17338 17339 17340 17341 17342 17343 17344 17345 17346 17347 17348 17349 17350 17351 17352 17353 17354 17355 17356 17357 17358 17359 17360 17361 17362 17363 17364 17365 17366 17367 17368 17369 17370 17371 17372 17373 17374 17375 17376 17377 17378 17379 17380 17381 17382 17383 17384 17385 17386 17387 17388 17389 17390 17391 17392 17393 17394 17395 17396 17397 17398 17399 17400 17401 17402 17403 17404 17405 17406 17407 17408 17409 17410 17411 17412 17413 17414 17415 17416 17417 17418 17419 17420 17421 17422 17423 17424 17425 17426 17427 17428 17429 17430 17431 17432 17433 17434 17435 17436 17437 17438 17439 17440 17441 17442 17443 17444 17445 17446 17447 17448 17449 17450 17451 17452 17453 17454 17455 17456 17457 17458 17459 17460 17461 17462 17463 17464 17465 17466 17467 17468 17469 17470 17471 17472 17473 17474 17475 17476 17477 17478 17479 17480 17481 17482 17483 17484 17485 17486 17487 17488 17489 17490 17491 17492 17493 17494 17495 17496 17497 17498 17499 17500 17501 17502 17503 17504 17505 17506 17507 17508 17509 17510 17511 17512 17513 17514 17515 17516 17517 17518 17519 17520 17521 17522 17523 17524 17525 17526 17527 17528 17529 17530 17531 17532 17533 17534 17535 17536 17537 17538 17539 17540 17541 17542 17543 17544 17545 17546 17547 17548 17549 17550 17551 17552 17553 17554 17555 17556 17557 17558 17559 17560 17561 17562 17563 17564 17565 17566 17567 17568 17569 17570 17571 17572 17573 17574 17575 17576 17577 17578 17579 17580 17581 17582 17583 17584 17585 17586 17587 17588 17589 17590 17591 17592 17593 17594 17595 17596 17597 17598 17599 17600 17601 17602 17603 17604 17605 17606 17607 17608 17609 17610 17611 17612 17613 17614 17615 17616 17617 17618 17619 17620 17621 17622 17623 17624 17625 17626 17627 17628 17629 17630 17631 17632 17633 17634 17635 17636 17637 17638 17639 17640 17641 17642 17643 17644 17645 17646 17647 17648 17649 17650 17651 17652 17653 17654 17655 17656 17657 17658 17659 17660 17661 17662 17663 17664 17665 17666 17667 17668 17669 17670 17671 17672 17673 17674 17675 17676 17677 17678 17679 17680 17681 17682 17683 17684 17685 17686 17687 17688 17689 17690 17691 17692 17693 17694 17695 17696 17697 17698 17699 17700 17701 17702 17703 17704 17705 17706 17707 17708 17709 17710 17711 17712 17713 17714 17715 17716 17717 17718 17719 17720 17721 17722 17723 17724 17725 17726 17727 17728 17729 17730 17731 17732 17733 17734 17735 17736 17737 17738 17739 17740 17741 17742 17743 17744 17745 17746 17747 17748 17749 17750 17751 17752 17753 17754 17755 17756 17757 17758 17759 17760 17761 17762 17763 17764 17765 17766 17767 17768 17769 17770 17771 17772 17773 17774 17775 17776 17777 17778 17779 17780 17781 17782 17783 17784 17785 17786 17787 17788 17789 17790 17791 17792 17793 17794 17795 17796 17797 17798 17799 17800 17801 17802 17803 17804 17805 17806 17807 17808 17809 17810 17811 17812 17813 17814 17815 17816 17817 17818 17819 17820 17821 17822 17823 17824 17825 17826 17827 17828 17829 17830 17831 17832 17833 17834 17835 17836 17837 17838 17839 17840 17841 17842 17843 17844 17845 17846 17847 17848 17849 17850 17851 17852 17853 17854 17855 17856 17857 17858 17859 17860 17861 17862 17863 17864 17865 17866 17867 17868 17869 17870 17871 17872 17873 17874 17875 17876 17877 17878 17879 17880 17881 17882 17883 17884 17885 17886 17887 17888 17889 17890 17891 17892 17893 17894 17895 17896 17897 17898 17899 17900 17901 17902 17903 17904 17905 17906 17907 17908 17909 17910 17911 17912 17913 17914 17915 17916 17917 17918 17919 17920 17921 17922 17923 17924 17925 17926 17927 17928 17929 17930 17931 17932 17933 17934 17935 17936 17937 17938 17939 17940 17941 17942 17943 17944 17945 17946 17947 17948 17949 17950 17951 17952 17953 17954 17955 17956 17957 17958 17959 17960 17961 17962 17963 17964 17965 17966 17967 17968 17969 17970 17971 17972 17973 17974 17975 17976 17977 17978 17979 17980 17981 17982 17983 17984 17985 17986 17987 17988 17989 17990 17991 17992 17993 17994 17995 17996 17997 17998 17999 18000 18001 18002 18003 18004 18005 18006 18007 18008 18009 18010 18011 18012 18013 18014 18015 18016 18017 18018 18019 18020 18021 18022 18023 18024 18025 18026 18027 18028 18029 18030 18031 18032 18033 18034 18035 18036 18037 18038 18039 18040 18041 18042 18043 18044 18045 18046 18047 18048 18049 18050 18051 18052 18053 18054 18055 18056 18057 18058 18059 18060 18061 18062 18063 18064 18065 18066 18067 18068 18069 18070 18071 18072 18073 18074 18075 18076 18077 18078 18079 18080 18081 18082 18083 18084 18085 18086 18087 18088 18089 18090 18091 18092 18093 18094 18095 18096 18097 18098 18099 18100 18101 18102 18103 18104 18105 18106 18107 18108 18109 18110 18111 18112 18113 18114 18115 18116 18117 18118 18119 18120 18121 18122 18123 18124 18125 18126 18127 18128 18129 18130 18131 18132 18133 18134 18135 18136 18137 18138 18139 18140 18141 18142 18143 18144 18145 18146 18147 18148 18149 18150 18151 18152 18153 18154 18155 18156 18157 18158 18159 18160 18161 18162 18163 18164 18165 18166 18167 18168 18169 18170 18171 18172 18173 18174 18175 18176 18177 18178 18179 18180 18181 18182 18183 18184 18185 18186 18187 18188 18189 18190 18191 18192 18193 18194 18195 18196 18197 18198 18199 18200 18201 18202 18203 18204 18205 18206 18207 18208 18209 18210 18211 18212 18213 18214 18215 18216 18217 18218 18219 18220 18221 18222 18223 18224 18225 18226 18227 18228 18229 18230 18231 18232 18233 18234 18235 18236 18237 18238 18239 18240 18241 18242 18243 18244 18245 18246 18247 18248 18249 18250 18251 18252 18253 18254 18255 18256 18257 18258 18259 18260 18261 18262 18263 18264 18265 18266 18267 18268 18269 18270 18271 18272 18273 18274 18275 18276 18277 18278 18279 18280 18281 18282 18283 18284 18285 18286 18287 18288 18289 18290 18291 18292 18293 18294 18295 18296 18297 18298 18299 18300 18301 18302 18303 18304 18305 18306 18307 18308 18309 18310 18311 18312 18313 18314 18315 18316 18317 18318 18319 18320 18321 18322 18323 18324 18325 18326 18327 18328 18329 18330 18331 18332 18333 18334 18335 18336 18337 18338 18339 18340 18341 18342 18343 18344 18345 18346 18347 18348 18349 18350 18351 18352 18353 18354 18355 18356 18357 18358 18359 18360 18361 18362 18363 18364 18365 18366 18367 18368 18369 18370 18371 18372 18373 18374 18375 18376 18377 18378 18379 18380 18381 18382 18383 18384 18385 18386 18387 18388 18389 18390 18391 18392 18393 18394 18395 18396 18397 18398 18399 18400 18401 18402 18403 18404 18405 18406 18407 18408 18409 18410 18411 18412 18413 18414 18415 18416 18417 18418 18419 18420 18421 18422 18423 18424 18425 18426 18427 18428 18429 18430 18431 18432 18433 18434 18435 18436 18437 18438 18439 18440 18441 18442 18443 18444 18445 18446 18447 18448 18449 18450 18451 18452 18453 18454 18455 18456 18457 18458 18459 18460 18461 18462 18463 18464 18465 18466 18467 18468 18469 18470 18471 18472 18473 18474 18475 18476 18477 18478 18479 18480 18481 18482 18483 18484 18485 18486 18487 18488 18489 18490 18491 18492 18493 18494 18495 18496 18497 18498 18499 18500 18501 18502 18503 18504 18505 18506 18507 18508 18509 18510 18511 18512 18513 18514 18515 18516 18517 18518 18519 18520 18521 18522 18523 18524 18525 18526 18527 18528 18529 18530 18531 18532 18533 18534 18535 18536 18537 18538 18539 18540 18541 18542 18543 18544 18545 18546 18547 18548 18549 18550 18551 18552 18553 18554 18555 18556 18557 18558 18559 18560 18561 18562 18563 18564 18565 18566 18567 18568 18569 18570 18571 18572 18573 18574 18575 18576 18577 18578 18579 18580 18581 18582 18583 18584 18585 18586 18587 18588 18589 18590 18591 18592 18593 18594 18595 18596 18597 18598 18599 18600 18601 18602 18603 18604 18605 18606 18607 18608 18609 18610 18611 18612 18613 18614 18615 18616 18617 18618 18619 18620 18621 18622 18623 18624 18625 18626 18627 18628 18629 18630 18631 18632 18633 18634 18635 18636 18637 18638 18639 18640 18641 18642 18643 18644 18645 18646 18647 18648 18649 18650 18651 18652 18653 18654 18655 18656 18657 18658 18659 18660 18661 18662 18663 18664 18665 18666 18667 18668 18669 18670 18671 18672 18673 18674 18675 18676 18677 18678 18679 18680 18681 18682 18683 18684 18685 18686 18687 18688 18689 18690 18691 18692 18693 18694 18695 18696 18697 18698 18699 18700 18701 18702 18703 18704 18705 18706 18707 18708 18709 18710 18711 18712 18713 18714 18715 18716 18717 18718 18719 18720 18721 18722 18723 18724 18725 18726 18727 18728 18729 18730 18731 18732 18733 18734 18735 18736 18737 18738 18739 18740 18741 18742 18743 18744 18745 18746 18747 18748 18749 18750 18751 18752 18753 18754 18755 18756 18757 18758 18759 18760 18761 18762 18763 18764 18765 18766 18767 18768 18769 18770 18771 18772 18773 18774 18775 18776 18777 18778 18779 18780 18781 18782 18783 18784 18785 18786 18787 18788 18789 18790 18791 18792 18793 18794 18795 18796 18797 18798 18799 18800 18801 18802 18803 18804 18805 18806 18807 18808 18809 18810 18811 18812 18813 18814 18815 18816 18817 18818 18819 18820 18821 18822 18823 18824 18825 18826 18827 18828 18829 18830 18831 18832 18833 18834 18835 18836 18837 18838 18839 18840 18841 18842 18843 18844 18845 18846 18847 18848 18849 18850 18851 18852 18853 18854 18855 18856 18857 18858 18859 18860 18861 18862 18863 18864 18865 18866 18867 18868 18869 18870 18871 18872 18873 18874 18875 18876 18877 18878 18879 18880 18881 18882 18883 18884 18885 18886 18887 18888 18889 18890 18891 18892 18893 18894 18895 18896 18897 18898 18899 18900 18901 18902 18903 18904 18905 18906 18907 18908 18909 18910 18911 18912 18913 18914 18915 18916 18917 18918 18919 18920 18921 18922 18923 18924 18925 18926 18927 18928 18929 18930 18931 18932 18933 18934 18935 18936 18937 18938 18939 18940 18941 18942 18943 18944 18945 18946 18947 18948 18949 18950 18951 18952 18953 18954 18955 18956 18957 18958 18959 18960 18961 18962 18963 18964 18965 18966 18967 18968 18969 18970 18971 18972 18973 18974 18975 18976 18977 18978 18979 18980 18981 18982 18983 18984 18985 18986 18987 18988 18989 18990 18991 18992 18993 18994 18995 18996 18997 18998 18999 19000 19001 19002 19003 19004 19005 19006 19007 19008 19009 19010 19011 19012 19013 19014 19015 19016 19017 19018 19019 19020 19021 19022 19023 19024 19025 19026 19027 19028 19029 19030 19031 19032 19033 19034 19035 19036 19037 19038 19039 19040 19041 19042 19043 19044 19045 19046 19047 19048 19049 19050 19051 19052 19053 19054 19055 19056 19057 19058 19059 19060 19061 19062 19063 19064 19065 19066 19067 19068 19069 19070 19071 19072 19073 19074 19075 19076 19077 19078 19079 19080 19081 19082 19083 19084 19085 19086 19087 19088 19089 19090 19091 19092 19093 19094 19095 19096 19097 19098 19099 19100 19101 19102 19103 19104 19105 19106 19107 19108 19109 19110 19111 19112 19113 19114 19115 19116 19117 19118 19119 19120 19121 19122 19123 19124 19125 19126 19127 19128 19129 19130 19131 19132 19133 19134 19135 19136 19137 19138 19139 19140 19141 19142 19143 19144 19145 19146 19147 19148 19149 19150 19151 19152 19153 19154 19155 19156 19157 19158 19159 19160 19161 19162 19163 19164 19165 19166 19167 19168 19169 19170 19171 19172 19173 19174 19175 19176 19177 19178 19179 19180 19181 19182 19183 19184 19185 19186 19187 19188 19189 19190 19191 19192 19193 19194 19195 19196 19197 19198 19199 19200 19201 19202 19203 19204 19205 19206 19207 19208 19209 19210 19211 19212 19213 19214 19215 19216 19217 19218 19219 19220 19221 19222 19223 19224 19225 19226 19227 19228 19229 19230 19231 19232 19233 19234 19235 19236 19237 19238 19239 19240 19241 19242 19243 19244 19245 19246 19247 19248 19249 19250 19251 19252 19253 19254 19255 19256 19257 19258 19259 19260 19261 19262 19263 19264 19265 19266 19267 19268 19269 19270 19271 19272 19273 19274 19275 19276 19277 19278 19279 19280 19281 19282 19283 19284 19285 19286 19287 19288 19289 19290 19291 19292 19293 19294 19295 19296 19297 19298 19299 19300 19301 19302 19303 19304 19305 19306 19307 19308 19309 19310 19311 19312 19313 19314 19315 19316 19317 19318 19319 19320 19321 19322 19323 19324 19325 19326 19327 19328 19329 19330 19331 19332 19333 19334 19335 19336 19337 19338 19339 19340 19341 19342 19343 19344 19345 19346 19347 19348 19349 19350 19351 19352 19353 19354 19355 19356 19357 19358 19359 19360 19361 19362 19363 19364 19365 19366 19367 19368 19369 19370 19371 19372 19373 19374 19375 19376 19377 19378 19379 19380 19381 19382 19383 19384 19385 19386 19387 19388 19389 19390 19391 19392 19393 19394 19395 19396 19397 19398 19399 19400 19401 19402 19403 19404 19405 19406 19407 19408 19409 19410 19411 19412 19413 19414 19415 19416 19417 19418 19419 19420 19421 19422 19423 19424 19425 19426 19427 19428 19429 19430 19431 19432 19433 19434 19435 19436 19437 19438 19439 19440 19441 19442 19443 19444 19445 19446 19447 19448 19449 19450 19451 19452 19453 19454 19455 19456 19457 19458 19459 19460 19461 19462 19463 19464 19465 19466 19467 19468 19469 19470 19471 19472 19473 19474 19475 19476 19477 19478 19479 19480 19481 19482 19483 19484 19485 19486 19487 19488 19489 19490 19491 19492 19493 19494 19495 19496 19497 19498 19499 19500 19501 19502 19503 19504 19505 19506 19507 19508 19509 19510 19511 19512 19513 19514 19515 19516 19517 19518 19519 19520 19521 19522 19523 19524 19525 19526 19527 19528 19529 19530 19531 19532 19533 19534 19535 19536 19537 19538 19539 19540 19541 19542 19543 19544 19545 19546 19547 19548 19549 19550 19551 19552 19553 19554 19555 19556 19557 19558 19559 19560 19561 19562 19563 19564 19565 19566 19567 19568 19569 19570 19571 19572 19573 19574 19575 19576 19577 19578 19579 19580 19581 19582 19583 19584 19585 19586 19587 19588 19589 19590 19591 19592 19593 19594 19595 19596 19597 19598 19599 19600 19601 19602 19603 19604 19605 19606 19607 19608 19609 19610 19611 19612 19613 19614 19615 19616 19617 19618 19619 19620 19621 19622 19623 19624 19625 19626 19627 19628 19629 19630 19631 19632 19633 19634 19635 19636 19637 19638 19639 19640 19641 19642 19643 19644 19645 19646 19647 19648 19649 19650 19651 19652 19653 19654 19655 19656 19657 19658 19659 19660 19661 19662 19663 19664 19665 19666 19667 19668 19669 19670 19671 19672 19673 19674 19675 19676 19677 19678 19679 19680 19681 19682 19683 19684 19685 19686 19687 19688 19689 19690 19691 19692 19693 19694 19695 19696 19697 19698 19699 19700 19701 19702 19703 19704 19705 19706 19707 19708 19709 19710 19711 19712 19713 19714 19715 19716 19717 19718 19719 19720 19721 19722 19723 19724 19725 19726 19727 19728 19729 19730 19731 19732 19733 19734 19735 19736 19737 19738 19739 19740 19741 19742 19743 19744 19745 19746 19747 19748 19749 19750 19751 19752 19753 19754 19755 19756 19757 19758 19759 19760 19761 19762 19763 19764 19765 19766 19767 19768 19769 19770 19771 19772 19773 19774 19775 19776 19777 19778 19779 19780 19781 19782 19783 19784 19785 19786 19787 19788 19789 19790 19791 19792 19793 19794 19795 19796 19797 19798 19799 19800 19801 19802 19803 19804 19805 19806 19807 19808 19809 19810 19811 19812 19813 19814 19815 19816 19817 19818 19819 19820 19821 19822 19823 19824 19825 19826 19827 19828 19829 19830 19831 19832 19833 19834 19835 19836 19837 19838 19839 19840 19841 19842 19843 19844 19845 19846 19847 19848 19849 19850 19851 19852 19853 19854 19855 19856 19857 19858 19859 19860 19861 19862 19863 19864 19865 19866 19867 19868 19869 19870 19871 19872 19873 19874 19875 19876 19877 19878 19879 19880 19881 19882 19883 19884 19885 19886 19887 19888 19889 19890 19891 19892 19893 19894 19895 19896 19897 19898 19899 19900 19901 19902 19903 19904 19905 19906 19907 19908 19909 19910 19911 19912 19913 19914 19915 19916 19917 19918 19919 19920 19921 19922 19923 19924 19925 19926 19927 19928 19929 19930 19931 19932 19933 19934 19935 19936 19937 19938 19939 19940 19941 19942 19943 19944 19945 19946 19947 19948 19949 19950 19951 19952 19953 19954 19955 19956 19957 19958 19959 19960 19961 19962 19963 19964 19965 19966 19967 19968 19969 19970 19971 19972 19973 19974 19975 19976 19977 19978 19979 19980 19981 19982 19983 19984 19985 19986 19987 19988 19989 19990 19991 19992 19993 19994 19995 19996 19997 19998 19999 20000 20001 20002 20003 20004 20005 20006 20007 20008 20009 20010 20011 20012 20013 20014 20015 20016 20017 20018 20019 20020 20021 20022 20023 20024 20025 20026 20027 20028 20029 20030 20031 20032 20033 20034 20035 20036 20037 20038 20039 20040 20041 20042 20043 20044 20045 20046 20047 20048 20049 20050 20051 20052 20053 20054 20055 20056 20057 20058 20059 20060 20061 20062 20063 20064 20065 20066 20067 20068 20069 20070 20071 20072 20073 20074 20075 20076 20077 20078 20079 20080 20081 20082 20083 20084 20085 20086 20087 20088 20089 20090 20091 20092 20093 20094 20095 20096 20097 20098 20099 20100 20101 20102 20103 20104 20105 20106 20107 20108 20109 20110 20111 20112 20113 20114 20115 20116 20117 20118 20119 20120 20121 20122 20123 20124 20125 20126 20127 20128 20129 20130 20131 20132 20133 20134 20135 20136 20137 20138 20139 20140 20141 20142 20143 20144 20145 20146 20147 20148 20149 20150 20151 20152 20153 20154 20155 20156 20157 20158 20159 20160 20161 20162 20163 20164 20165 20166 20167 20168 20169 20170 20171 20172 20173 20174 20175 20176 20177 20178 20179 20180 20181 20182 20183 20184 20185 20186 20187 20188 20189 20190 20191 20192 20193 20194 20195 20196 20197 20198 20199 20200 20201 20202 20203 20204 20205 20206 20207 20208 20209 20210 20211 20212 20213 20214 20215 20216 20217 20218 20219 20220 20221 20222 20223 20224 20225 20226 20227 20228 20229 20230 20231 20232 20233 20234 20235 20236 20237 20238 20239 20240 20241 20242 20243 20244 20245 20246 20247 20248 20249 20250 20251 20252 20253 20254 20255 20256 20257 20258 20259 20260 20261 20262 20263 20264 20265 20266 20267 20268 20269 20270 20271 20272 20273 20274 20275 20276 20277 20278 20279 20280 20281 20282 20283 20284 20285 20286 20287 20288 20289 20290 20291 20292 20293 20294 20295 20296 20297 20298 20299 20300 20301 20302 20303 20304 20305 20306 20307 20308 20309 20310 20311 20312 20313 20314 20315 20316 20317 20318 20319 20320 20321 20322 20323 20324 20325 20326 20327 20328 20329 20330 20331 20332 20333 20334 20335 20336 20337 20338 20339 20340 20341 20342 20343 20344 20345 20346 20347 20348 20349 20350 20351 20352 20353 20354 20355 20356 20357 20358 20359 20360 20361 20362 20363 20364 20365 20366 20367 20368 20369 20370 20371 20372 20373 20374 20375 20376 20377 20378 20379 20380 20381 20382 20383 20384 20385 20386 20387 20388 20389 20390 20391 20392 20393 20394 20395 20396 20397 20398 20399 20400 20401 20402 20403 20404 20405 20406 20407 20408 20409 20410 20411 20412 20413 20414 20415 20416 20417 20418 20419 20420 20421 20422 20423 20424 20425 20426 20427 20428 20429 20430 20431 20432 20433 20434 20435 20436 20437 20438 20439 20440 20441 20442 20443 20444 20445 20446 20447 20448 20449 20450 20451 20452 20453 20454 20455 20456 20457 20458 20459 20460 20461 20462 20463 20464 20465 20466 20467 20468 20469 20470 20471 20472 20473 20474 20475 20476 20477 20478 20479 20480 20481 20482 20483 20484 20485 20486 20487 20488 20489 20490 20491 20492 20493 20494 20495 20496 20497 20498 20499 20500 20501 20502 20503 20504 20505 20506 20507 20508 20509 20510 20511 20512 20513 20514 20515 20516 20517 20518 20519 20520 20521 20522 20523 20524 20525 20526 20527 20528 20529 20530 20531 20532 20533 20534 20535 20536 20537 20538 20539 20540 20541 20542 20543 20544 20545 20546 20547 20548 20549 20550 20551 20552 20553 20554 20555 20556 20557 20558 20559 20560 20561 20562 20563 20564 20565 20566 20567 20568 20569 20570 20571 20572 20573 20574 20575 20576 20577 20578 20579 20580 20581 20582 20583 20584 20585 20586 20587 20588 20589 20590 20591 20592 20593 20594 20595 20596 20597 20598 20599 20600 20601 20602 20603 20604 20605 20606 20607 20608 20609 20610 20611 20612 20613 20614 20615 20616 20617 20618 20619 20620 20621 20622 20623 20624 20625 20626 20627 20628 20629 20630 20631 20632 20633 20634 20635 20636 20637 20638 20639 20640 20641 20642 20643 20644 20645 20646 20647 20648 20649 20650 20651 20652 20653 20654 20655 20656 20657 20658 20659 20660 20661 20662 20663 20664 20665 20666 20667 20668 20669 20670 20671 20672 20673 20674 20675 20676 20677 20678 20679 20680 20681 20682 20683 20684 20685 20686 20687 20688 20689 20690 20691 20692 20693 20694 20695 20696 20697 20698 20699 20700 20701 20702 20703 20704 20705 20706 20707 20708 20709 20710 20711 20712 20713 20714 20715 20716 20717 20718 20719 20720 20721 20722 20723 20724 20725 20726 20727 20728 20729 20730 20731 20732 20733 20734 20735 20736 20737 20738 20739 20740 20741 20742 20743 20744 20745 20746 20747 20748 20749 20750 20751 20752 20753 20754 20755 20756 20757 20758 20759 20760 20761 20762 20763 20764 20765 20766 20767 20768 20769 20770 20771 20772 20773 20774 20775 20776 20777 20778 20779 20780 20781 20782 20783 20784 20785 20786 20787 20788 20789 20790 20791 20792 20793 20794 20795 20796 20797 20798 20799 20800 20801 20802 20803 20804 20805 20806 20807 20808 20809 20810 20811 20812 20813 20814 20815 20816 20817 20818 20819 20820 20821 20822 20823 20824 20825 20826 20827 20828 20829 20830 20831 20832 20833 20834 20835 20836 20837 20838 20839 20840 20841 20842 20843 20844 20845 20846 20847 20848 20849 20850 20851 20852 20853 20854 20855 20856 20857 20858 20859 20860 20861 20862 20863 20864 20865 20866 20867 20868 20869 20870 20871 20872 20873 20874 20875 20876 20877 20878 20879 20880 20881 20882 20883 20884 20885 20886 20887 20888 20889 20890 20891 20892 20893 20894 20895 20896 20897 20898 20899 20900 20901 20902 20903 20904 20905 20906 20907 20908 20909 20910 20911 20912 20913 20914 20915 20916 20917 20918 20919 20920 20921 20922 20923 20924 20925 20926 20927 20928 20929 20930 20931 20932 20933 20934 20935 20936 20937 20938 20939 20940 20941 20942 20943 20944 20945 20946 20947 20948 20949 20950 20951 20952 20953 20954 20955 20956 20957 20958 20959 20960 20961 20962 20963 20964 20965 20966 20967 20968 20969 20970 20971 20972 20973 20974 20975 20976 20977 20978 20979 20980 20981 20982 20983 20984 20985 20986 20987 20988 20989 20990 20991 20992 20993 20994 20995 20996 20997 20998 20999 21000 21001 21002 21003 21004 21005 21006 21007 21008 21009 21010 21011 21012 21013 21014 21015 21016 21017 21018 21019 21020 21021 21022 21023 21024 21025 21026 21027 21028 21029 21030 21031 21032 21033 21034 21035 21036 21037 21038 21039 21040 21041 21042 21043 21044 21045 21046 21047 21048 21049 21050 21051 21052 21053 21054 21055 21056 21057 21058 21059 21060 21061 21062 21063 21064 21065 21066 21067 21068 21069 21070 21071 21072 21073 21074 21075 21076 21077 21078 21079 21080 21081 21082 21083 21084 21085 21086 21087 21088 21089 21090 21091 21092 21093 21094 21095 21096 21097 21098 21099 21100 21101 21102 21103 21104 21105 21106 21107 21108 21109 21110 21111 21112 21113 21114 21115 21116 21117 21118 21119 21120 21121 21122 21123 21124 21125 21126 21127 21128 21129 21130 21131 21132 21133 21134 21135 21136 21137 21138 21139 21140 21141 21142 21143 21144 21145 21146 21147 21148 21149 21150 21151 21152 21153 21154 21155 21156 21157 21158 21159 21160 21161 21162 21163 21164 21165 21166 21167 21168 21169 21170 21171 21172 21173 21174 21175 21176 21177 21178 21179 21180 21181 21182 21183 21184 21185 21186 21187 21188 21189 21190 21191 21192 21193 21194 21195 21196 21197 21198 21199 21200 21201 21202 21203 21204 21205 21206 21207 21208 21209 21210 21211 21212 21213 21214 21215 21216 21217 21218 21219 21220 21221 21222 21223 21224 21225 21226 21227 21228 21229 21230 21231 21232 21233 21234 21235 21236 21237 21238 21239 21240 21241 21242 21243 21244 21245 21246 21247 21248 21249 21250 21251 21252 21253 21254 21255 21256 21257 21258 21259 21260 21261 21262 21263 21264 21265 21266 21267 21268 21269 21270 21271 21272 21273 21274 21275 21276 21277 21278 21279 21280 21281 21282 21283 21284 21285 21286 21287 21288 21289 21290 21291 21292 21293 21294 21295 21296 21297 21298 21299 21300 21301 21302 21303 21304 21305 21306 21307 21308 21309 21310 21311 21312 21313 21314 21315 21316 21317 21318 21319 21320 21321 21322 21323 21324 21325 21326 21327 21328 21329 21330 21331 21332 21333 21334 21335 21336 21337 21338 21339 21340 21341 21342 21343 21344 21345 21346 21347 21348 21349 21350 21351 21352 21353 21354 21355 21356 21357 21358 21359 21360 21361 21362 21363 21364 21365 21366 21367 21368 21369 21370 21371 21372 21373 21374 21375 21376 21377 21378 21379 21380 21381 21382 21383 21384 21385 21386 21387 21388 21389 21390 21391 21392 21393 21394 21395 21396 21397 21398 21399 21400 21401 21402 21403 21404 21405 21406 21407 21408 21409 21410 21411 21412 21413 21414 21415 21416 21417 21418 21419 21420 21421 21422 21423 21424 21425 21426 21427 21428 21429 21430 21431 21432 21433 21434 21435 21436 21437 21438 21439 21440 21441 21442 21443 21444 21445 21446 21447 21448 21449 21450 21451 21452 21453 21454 21455 21456 21457 21458 21459 21460 21461 21462 21463 21464 21465 21466 21467 21468 21469 21470 21471 21472 21473 21474 21475 21476 21477 21478 21479 21480 21481 21482 21483 21484 21485 21486 21487 21488 21489 21490 21491 21492 21493 21494 21495 21496 21497 21498 21499 21500 21501 21502 21503 21504 21505 21506 21507 21508 21509 21510 21511 21512 21513 21514 21515 21516 21517 21518 21519 21520 21521 21522 21523 21524 21525 21526 21527 21528 21529 21530 21531 21532 21533 21534 21535 21536 21537 21538 21539 21540 21541 21542 21543 21544 21545 21546 21547 21548 21549 21550 21551 21552 21553 21554 21555 21556 21557 21558 21559 21560 21561 21562 21563 21564 21565 21566 21567 21568 21569 21570 21571 21572 21573 21574 21575 21576 21577 21578 21579 21580 21581 21582 21583 21584 21585 21586 21587 21588 21589 21590 21591 21592 21593 21594 21595 21596 21597 21598 21599 21600 21601 21602 21603 21604 21605 21606 21607 21608 21609 21610 21611 21612 21613 21614 21615 21616 21617 21618 21619 21620 21621 21622 21623 21624 21625 21626 21627 21628 21629 21630 21631 21632 21633 21634 21635 21636 21637 21638 21639 21640 21641 21642 21643 21644 21645 21646 21647 21648 21649 21650 21651 21652 21653 21654 21655 21656 21657 21658 21659 21660 21661 21662 21663 21664 21665 21666 21667 21668 21669 21670 21671 21672 21673 21674 21675 21676 21677 21678 21679 21680 21681 21682 21683 21684 21685 21686 21687 21688 21689 21690 21691 21692 21693 21694 21695 21696 21697 21698 21699 21700 21701 21702 21703 21704 21705 21706 21707 21708 21709 21710 21711 21712 21713 21714 21715 21716 21717 21718 21719 21720 21721 21722 21723 21724 21725 21726 21727 21728 21729 21730 21731 21732 21733 21734 21735 21736 21737 21738 21739 21740 21741 21742 21743 21744 21745 21746 21747 21748 21749 21750 21751 21752 21753 21754 21755 21756 21757 21758 21759 21760 21761 21762 21763 21764 21765 21766 21767 21768 21769 21770 21771 21772 21773 21774 21775 21776 21777 21778 21779 21780 21781 21782 21783 21784 21785 21786 21787 21788 21789 21790 21791 21792 21793 21794 21795 21796 21797 21798 21799 21800 21801 21802 21803 21804 21805 21806 21807 21808 21809 21810 21811 21812 21813 21814 21815 21816 21817 21818 21819 21820 21821 21822 21823 21824 21825 21826 21827 21828 21829 21830 21831 21832 21833 21834 21835 21836 21837 21838 21839 21840 21841 21842 21843 21844 21845 21846 21847 21848 21849 21850 21851 21852 21853 21854 21855 21856 21857 21858 21859 21860 21861 21862 21863 21864 21865 21866 21867 21868 21869 21870 21871 21872 21873 21874 21875 21876 21877 21878 21879 21880 21881 21882 21883 21884 21885 21886 21887 21888 21889 21890 21891 21892 21893 21894 21895 21896 21897 21898 21899 21900 21901 21902 21903 21904 21905 21906 21907 21908 21909 21910 21911 21912 21913 21914 21915 21916 21917 21918 21919 21920 21921 21922 21923 21924 21925 21926 21927 21928 21929 21930 21931 21932 21933 21934 21935 21936 21937 21938 21939 21940 21941 21942 21943 21944 21945 21946 21947 21948 21949 21950 21951 21952 21953 21954 21955 21956 21957 21958 21959 21960 21961 21962 21963 21964 21965 21966 21967 21968 21969 21970 21971 21972 21973 21974 21975 21976 21977 21978 21979 21980 21981 21982 21983 21984 21985 21986 21987 21988 21989 21990 21991 21992 21993 21994 21995 21996 21997 21998 21999 22000 22001 22002 22003 22004 22005 22006 22007 22008 22009 22010 22011 22012 22013 22014 22015 22016 22017 22018 22019 22020 22021 22022 22023 22024 22025 22026 22027 22028 22029 22030 22031 22032 22033 22034 22035 22036 22037 22038 22039 22040 22041 22042 22043 22044 22045 22046 22047 22048 22049 22050 22051 22052 22053 22054 22055 22056 22057 22058 22059 22060 22061 22062 22063 22064 22065 22066 22067 22068 22069 22070 22071 22072 22073 22074 22075 22076 22077 22078 22079 22080 22081 22082 22083 22084 22085 22086 22087 22088 22089 22090 22091 22092 22093 22094 22095 22096 22097 22098 22099 22100 22101 22102 22103 22104 22105 22106 22107 22108 22109 22110 22111 22112 22113 22114 22115 22116 22117 22118 22119 22120 22121 22122 22123 22124 22125 22126 22127 22128 22129 22130 22131 22132 22133 22134 22135 22136 22137 22138 22139 22140 22141 22142 22143 22144 22145 22146 22147 22148 22149 22150 22151 22152 22153 22154 22155 22156 22157 22158 22159 22160 22161 22162 22163 22164 22165 22166 22167 22168 22169 22170 22171 22172 22173 22174 22175 22176 22177 22178 22179 22180 22181 22182 22183 22184 22185 22186 22187 22188 22189 22190 22191 22192 22193 22194 22195 22196 22197 22198 22199 22200 22201 22202 22203 22204 22205 22206 22207 22208 22209 22210 22211 22212 22213 22214 22215 22216 22217 22218 22219 22220 22221 22222 22223 22224 22225 22226 22227 22228 22229 22230 22231 22232 22233 22234 22235 22236 22237 22238 22239 22240 22241 22242 22243 22244 22245 22246 22247 22248 22249 22250 22251 22252 22253 22254 22255 22256 22257 22258 22259 22260 22261 22262 22263 22264 22265 22266 22267 22268 22269 22270 22271 22272 22273 22274 22275 22276 22277 22278 22279 22280 22281 22282 22283 22284 22285 22286 22287 22288 22289 22290 22291 22292 22293 22294 22295 22296 22297 22298 22299 22300 22301 22302 22303 22304 22305 22306 22307 22308 22309 22310 22311 22312 22313 22314 22315 22316 22317 22318 22319 22320 22321 22322 22323 22324 22325 22326 22327 22328 22329 22330 22331 22332 22333 22334 22335 22336 22337 22338 22339 22340 22341 22342 22343 22344 22345 22346 22347 22348 22349 22350 22351 22352 22353 22354 22355 22356 22357 22358 22359 22360 22361 22362 22363 22364 22365 22366 22367 22368 22369 22370 22371 22372 22373 22374 22375 22376 22377 22378 22379 22380 22381 22382 22383 22384 22385 22386 22387 22388 22389 22390 22391 22392 22393 22394 22395 22396 22397 22398 22399 22400 22401 22402 22403 22404 22405 22406 22407 22408 22409 22410 22411 22412 22413 22414 22415 22416 22417 22418 22419 22420 22421 22422 22423 22424 22425 22426 22427 22428 22429 22430 22431 22432 22433 22434 22435 22436 22437 22438 22439 22440 22441 22442 22443 22444 22445 22446 22447 22448 22449 22450 22451 22452 22453 22454 22455 22456 22457 22458 22459 22460 22461 22462 22463 22464 22465 22466 22467 22468 22469 22470 22471 22472 22473 22474 22475 22476 22477 22478 22479 22480 22481 22482 22483 22484 22485 22486 22487 22488 22489 22490 22491 22492 22493 22494 22495 22496 22497 22498 22499 22500 22501 22502 22503 22504 22505 22506 22507 22508 22509 22510 22511 22512 22513 22514 22515 22516 22517 22518 22519 22520 22521 22522 22523 22524 22525 22526 22527 22528 22529 22530 22531 22532 22533 22534 22535 22536 22537 22538 22539 22540 22541 22542 22543 22544 22545 22546 22547 22548 22549 22550 22551 22552 22553 22554 22555 22556 22557 22558 22559 22560 22561 22562 22563 22564 22565 22566 22567 22568 22569 22570 22571 22572 22573 22574 22575 22576 22577 22578 22579 22580 22581 22582 22583 22584 22585 22586 22587 22588 22589 22590 22591 22592 22593 22594 22595 22596 22597 22598 22599 22600 22601 22602 22603 22604 22605 22606 22607 22608 22609 22610 22611 22612 22613 22614 22615 22616 22617 22618 22619 22620 22621 22622 22623 22624 22625 22626 22627 22628 22629 22630 22631 22632 22633 22634 22635 22636 22637 22638 22639 22640 22641 22642 22643 22644 22645 22646 22647 22648 22649 22650 22651 22652 22653 22654 22655 22656 22657 22658 22659 22660 22661 22662 22663 22664 22665 22666 22667 22668 22669 22670 22671 22672 22673 22674 22675 22676 22677 22678 22679 22680 22681 22682 22683 22684 22685 22686 22687 22688 22689 22690 22691 22692 22693 22694 22695 22696 22697 22698 22699 22700 22701 22702 22703 22704 22705 22706 22707 22708 22709 22710 22711 22712 22713 22714 22715 22716 22717 22718 22719 22720 22721 22722 22723 22724 22725 22726 22727 22728 22729 22730 22731 22732 22733 22734 22735 22736 22737 22738 22739 22740 22741 22742 22743 22744 22745 22746 22747 22748 22749 22750 22751 22752 22753 22754 22755 22756 22757 22758 22759 22760 22761 22762 22763 22764 22765 22766 22767 22768 22769 22770 22771 22772 22773 22774 22775 22776 22777 22778 22779 22780 22781 22782 22783 22784 22785 22786 22787 22788 22789 22790 22791 22792 22793 22794 22795 22796 22797 22798 22799 22800 22801 22802 22803 22804 22805 22806 22807 22808 22809 22810 22811 22812 22813 22814 22815 22816 22817 22818 22819 22820 22821 22822 22823 22824 22825 22826 22827 22828 22829 22830 22831 22832 22833 22834 22835 22836 22837 22838 22839 22840 22841 22842 22843 22844 22845 22846 22847 22848 22849 22850 22851 22852 22853 22854 22855 22856 22857 22858 22859 22860 22861 22862 22863 22864 22865 22866 22867 22868 22869 22870 22871 22872 22873 22874 22875 22876 22877 22878 22879 22880 22881 22882 22883 22884 22885 22886 22887 22888 22889 22890 22891 22892 22893 22894 22895 22896 22897 22898 22899 22900 22901 22902 22903 22904 22905 22906 22907 22908 22909 22910 22911 22912 22913 22914 22915 22916 22917 22918 22919 22920 22921 22922 22923 22924 22925 22926 22927 22928 22929 22930 22931 22932 22933 22934 22935 22936 22937 22938 22939 22940 22941 22942 22943 22944 22945 22946 22947 22948 22949 22950 22951 22952 22953 22954 22955 22956 22957 22958 22959 22960 22961 22962 22963 22964 22965 22966 22967 22968 22969 22970 22971 22972 22973 22974 22975 22976 22977 22978 22979 22980 22981 22982 22983 22984 22985 22986 22987 22988 22989 22990 22991 22992 22993 22994 22995 22996 22997 22998 22999 23000 23001 23002 23003 23004 23005 23006 23007 23008 23009 23010 23011 23012 23013 23014 23015 23016 23017 23018 23019 23020 23021 23022 23023 23024 23025 23026 23027 23028 23029 23030 23031 23032 23033 23034 23035 23036 23037 23038 23039 23040 23041 23042 23043 23044 23045 23046 23047 23048 23049 23050 23051 23052 23053 23054 23055 23056 23057 23058 23059 23060 23061 23062 23063 23064 23065 23066 23067 23068 23069 23070 23071 23072 23073 23074 23075 23076 23077 23078 23079 23080 23081 23082 23083 23084 23085 23086 23087 23088 23089 23090 23091 23092 23093 23094 23095 23096 23097 23098 23099 23100 23101 23102 23103 23104 23105 23106 23107 23108 23109 23110 23111 23112 23113 23114 23115 23116 23117 23118 23119 23120 23121 23122 23123 23124 23125 23126 23127 23128 23129 23130 23131 23132 23133 23134 23135 23136 23137 23138 23139 23140 23141 23142 23143 23144 23145 23146 23147 23148 23149 23150 23151 23152 23153 23154 23155 23156 23157 23158 23159 23160 23161 23162 23163 23164 23165 23166 23167 23168 23169 23170 23171 23172 23173 23174 23175 23176 23177 23178 23179 23180 23181 23182 23183 23184 23185 23186 23187 23188 23189 23190 23191 23192 23193 23194 23195 23196 23197 23198 23199 23200 23201 23202 23203 23204 23205 23206 23207 23208 23209 23210 23211 23212 23213 23214 23215 23216 23217 23218 23219 23220 23221 23222 23223 23224 23225 23226 23227 23228 23229 23230 23231 23232 23233 23234 23235 23236 23237 23238 23239 23240 23241 23242 23243 23244 23245 23246 23247 23248 23249 23250 23251 23252 23253 23254 23255 23256 23257 23258 23259 23260 23261 23262 23263 23264 23265 23266 23267 23268 23269 23270 23271 23272 23273 23274 23275 23276 23277 23278 23279 23280 23281 23282 23283 23284 23285 23286 23287 23288 23289 23290 23291 23292 23293 23294 23295 23296 23297 23298 23299 23300 23301 23302 23303 23304 23305 23306 23307 23308 23309 23310 23311 23312 23313 23314 23315 23316 23317 23318 23319 23320 23321 23322 23323 23324 23325 23326 23327 23328 23329 23330 23331 23332 23333 23334 23335 23336 23337 23338 23339 23340 23341 23342 23343 23344 23345 23346 23347 23348 23349 23350 23351 23352 23353 23354 23355 23356 23357 23358 23359 23360 23361 23362 23363 23364 23365 23366 23367 23368 23369 23370 23371 23372 23373 23374 23375 23376 23377 23378 23379 23380 23381 23382 23383 23384 23385 23386 23387 23388 23389 23390 23391 23392 23393 23394 23395 23396 23397 23398 23399 23400 23401 23402 23403 23404 23405 23406 23407 23408 23409 23410 23411 23412 23413 23414 23415 23416 23417 23418 23419 23420 23421 23422 23423 23424 23425 23426 23427 23428 23429 23430 23431 23432 23433 23434 23435 23436 23437 23438 23439 23440 23441 23442 23443 23444 23445 23446 23447 23448 23449 23450 23451 23452 23453 23454 23455 23456 23457 23458 23459 23460 23461 23462 23463 23464 23465 23466 23467 23468 23469 23470 23471 23472 23473 23474 23475 23476 23477 23478 23479 23480 23481 23482 23483 23484 23485 23486 23487 23488 23489 23490 23491 23492 23493 23494 23495 23496 23497 23498 23499 23500 23501 23502 23503 23504 23505 23506 23507 23508 23509 23510 23511 23512 23513 23514 23515 23516 23517 23518 23519 23520 23521 23522 23523 23524 23525 23526 23527 23528 23529 23530 23531 23532 23533 23534 23535 23536 23537 23538 23539 23540 23541 23542 23543 23544 23545 23546 23547 23548 23549 23550 23551 23552 23553 23554 23555 23556 23557 23558 23559 23560 23561 23562 23563 23564 23565 23566 23567 23568 23569 23570 23571 23572 23573 23574 23575 23576 23577 23578 23579 23580 23581 23582 23583 23584 23585 23586 23587 23588 23589 23590 23591 23592 23593 23594 23595 23596 23597 23598 23599 23600 23601 23602 23603 23604 23605 23606 23607 23608 23609 23610 23611 23612 23613 23614 23615 23616 23617 23618 23619 23620 23621 23622 23623 23624 23625 23626 23627 23628 23629 23630 23631 23632 23633 23634 23635 23636 23637 23638 23639 23640 23641 23642 23643 23644 23645 23646 23647 23648 23649 23650 23651 23652 23653 23654 23655 23656 23657 23658 23659 23660 23661 23662 23663 23664 23665 23666 23667 23668 23669 23670 23671 23672 23673 23674 23675 23676 23677 23678 23679 23680 23681 23682 23683 23684 23685 23686 23687 23688 23689 23690 23691 23692 23693 23694 23695 23696 23697 23698 23699 23700 23701 23702 23703 23704 23705 23706 23707 23708 23709 23710 23711 23712 23713 23714 23715 23716 23717 23718 23719 23720 23721 23722 23723 23724 23725 23726 23727 23728 23729 23730 23731 23732 23733 23734 23735 23736 23737 23738 23739 23740 23741 23742 23743 23744 23745 23746 23747 23748 23749 23750 23751 23752 23753 23754 23755 23756 23757 23758 23759 23760 23761 23762 23763 23764 23765 23766 23767 23768 23769 23770 23771 23772 23773 23774 23775 23776 23777 23778 23779 23780 23781 23782 23783 23784 23785 23786 23787 23788 23789 23790 23791 23792 23793 23794 23795 23796 23797 23798 23799 23800 23801 23802 23803 23804 23805 23806 23807 23808 23809 23810 23811 23812 23813 23814 23815 23816 23817 23818 23819 23820 23821 23822 23823 23824 23825 23826 23827 23828 23829 23830 23831 23832 23833 23834 23835 23836 23837 23838 23839 23840 23841 23842 23843 23844 23845 23846 23847 23848 23849 23850 23851 23852 23853 23854 23855 23856 23857 23858 23859 23860 23861 23862 23863 23864 23865 23866 23867 23868 23869 23870 23871 23872 23873 23874 23875 23876 23877 23878 23879 23880 23881 23882 23883 23884 23885 23886 23887 23888 23889 23890 23891 23892 23893 23894 23895 23896 23897 23898 23899 23900 23901 23902 23903 23904 23905 23906 23907 23908 23909 23910 23911 23912 23913 23914 23915 23916 23917 23918 23919 23920 23921 23922 23923 23924 23925 23926 23927 23928 23929 23930 23931 23932 23933 23934 23935 23936 23937 23938 23939 23940 23941 23942 23943 23944 23945 23946 23947 23948 23949 23950 23951 23952 23953 23954 23955 23956 23957 23958 23959 23960 23961 23962 23963 23964 23965 23966 23967 23968 23969 23970 23971 23972 23973 23974 23975 23976 23977 23978 23979 23980 23981 23982 23983 23984 23985 23986 23987 23988 23989 23990 23991 23992 23993 23994 23995 23996 23997 23998 23999 24000 24001 24002 24003 24004 24005 24006 24007 24008 24009 24010 24011 24012 24013 24014 24015 24016 24017 24018 24019 24020 24021 24022 24023 24024 24025 24026 24027 24028 24029 24030 24031 24032 24033 24034 24035 24036 24037 24038 24039 24040 24041 24042 24043 24044 24045 24046 24047 24048 24049 24050 24051 24052 24053 24054 24055 24056 24057 24058 24059 24060 24061 24062 24063 24064 24065 24066 24067 24068 24069 24070 24071 24072 24073 24074 24075 24076 24077 24078 24079 24080 24081 24082 24083 24084 24085 24086 24087 24088 24089 24090 24091 24092 24093 24094 24095 24096 24097 24098 24099 24100 24101 24102 24103 24104 24105 24106 24107 24108 24109 24110 24111 24112 24113 24114 24115 24116 24117 24118 24119 24120 24121 24122 24123 24124 24125 24126 24127 24128 24129 24130 24131 24132 24133 24134 24135 24136 24137 24138 24139 24140 24141 24142 24143 24144 24145 24146 24147 24148 24149 24150 24151 24152 24153 24154 24155 24156 24157 24158 24159 24160 24161 24162 24163 24164 24165 24166 24167 24168 24169 24170 24171 24172 24173 24174 24175 24176 24177 24178 24179 24180 24181 24182 24183 24184 24185 24186 24187 24188 24189 24190 24191 24192 24193 24194 24195 24196 24197 24198 24199 24200 24201 24202 24203 24204 24205 24206 24207 24208 24209 24210 24211 24212 24213 24214 24215 24216 24217 24218 24219 24220 24221 24222 24223 24224 24225 24226 24227 24228 24229 24230 24231 24232 24233 24234 24235 24236 24237 24238 24239 24240 24241 24242 24243 24244 24245 24246 24247 24248 24249 24250 24251 24252 24253 24254 24255 24256 24257 24258 24259 24260 24261 24262 24263 24264 24265 24266 24267 24268 24269 24270 24271 24272 24273 24274 24275 24276 24277 24278 24279 24280 24281 24282 24283 24284 24285 24286 24287 24288 24289 24290 24291 24292 24293 24294 24295 24296 24297 24298 24299 24300 24301 24302 24303 24304 24305 24306 24307 24308 24309 24310 24311 24312 24313 24314 24315 24316 24317 24318 24319 24320 24321 24322 24323 24324 24325 24326 24327 24328 24329 24330 24331 24332 24333 24334 24335 24336 24337 24338 24339 24340 24341 24342 24343 24344 24345 24346 24347 24348 24349 24350 24351 24352 24353 24354 24355 24356 24357 24358 24359 24360 24361 24362 24363 24364 24365 24366 24367 24368 24369 24370 24371 24372 24373 24374 24375 24376 24377 24378 24379 24380 24381 24382 24383 24384 24385 24386 24387 24388 24389 24390 24391 24392 24393 24394 24395 24396 24397 24398 24399 24400 24401 24402 24403 24404 24405 24406 24407 24408 24409 24410 24411 24412 24413 24414 24415 24416 24417 24418 24419 24420 24421 24422 24423 24424 24425 24426 24427 24428 24429 24430 24431 24432 24433 24434 24435 24436 24437 24438 24439 24440 24441 24442 24443 24444 24445 24446 24447 24448 24449 24450 24451 24452 24453 24454 24455 24456 24457 24458 24459 24460 24461 24462 24463 24464 24465 24466 24467 24468 24469 24470 24471 24472 24473 24474 24475 24476 24477 24478 24479 24480 24481 24482 24483 24484 24485 24486 24487 24488 24489 24490 24491 24492 24493 24494 24495 24496 24497 24498 24499 24500 24501 24502 24503 24504 24505 24506 24507 24508 24509 24510 24511 24512 24513 24514 24515 24516 24517 24518 24519 24520 24521 24522 24523 24524 24525 24526 24527 24528 24529 24530 24531 24532 24533 24534 24535 24536 24537 24538 24539 24540 24541 24542 24543 24544 24545 24546 24547 24548 24549 24550 24551 24552 24553 24554 24555 24556 24557 24558 24559 24560 24561 24562 24563 24564 24565 24566 24567 24568 24569 24570 24571 24572 24573 24574 24575 24576 24577 24578 24579 24580 24581 24582 24583 24584 24585 24586 24587 24588 24589 24590 24591 24592 24593 24594 24595 24596 24597 24598 24599 24600 24601 24602 24603 24604 24605 24606 24607 24608 24609 24610 24611 24612 24613 24614 24615 24616 24617 24618 24619 24620 24621 24622 24623 24624 24625 24626 24627 24628 24629 24630 24631 24632 24633 24634 24635 24636 24637 24638 24639 24640 24641 24642 24643 24644 24645 24646 24647 24648 24649 24650 24651 24652 24653 24654 24655 24656 24657 24658 24659 24660 24661 24662 24663 24664 24665 24666 24667 24668 24669 24670 24671 24672 24673 24674 24675 24676 24677 24678 24679 24680 24681 24682 24683 24684 24685 24686 24687 24688 24689 24690 24691 24692 24693 24694 24695 24696 24697 24698 24699 24700 24701 24702 24703 24704 24705 24706 24707 24708 24709 24710 24711 24712 24713 24714 24715 24716 24717 24718 24719 24720 24721 24722 24723 24724 24725 24726 24727 24728 24729 24730 24731 24732 24733 24734 24735 24736 24737 24738 24739 24740 24741 24742 24743 24744 24745 24746 24747 24748 24749 24750 24751 24752 24753 24754 24755 24756 24757 24758 24759 24760 24761 24762 24763 24764 24765 24766 24767 24768 24769 24770 24771 24772 24773 24774 24775 24776 24777 24778 24779 24780 24781 24782 24783 24784 24785 24786 24787 24788 24789 24790 24791 24792 24793 24794 24795 24796 24797 24798 24799 24800 24801 24802 24803 24804 24805 24806 24807 24808 24809 24810 24811 24812 24813 24814 24815 24816 24817 24818 24819 24820 24821 24822 24823 24824 24825 24826 24827 24828 24829 24830 24831 24832 24833 24834 24835 24836 24837 24838 24839 24840 24841 24842 24843 24844 24845 24846 24847 24848 24849 24850 24851 24852 24853 24854 24855 24856 24857 24858 24859 24860 24861 24862 24863 24864 24865 24866 24867 24868 24869 24870 24871 24872 24873 24874 24875 24876 24877 24878 24879 24880 24881 24882 24883 24884 24885 24886 24887 24888 24889 24890 24891 24892 24893 24894 24895 24896 24897 24898 24899 24900 24901 24902 24903 24904 24905 24906 24907 24908 24909 24910 24911 24912 24913 24914 24915 24916 24917 24918 24919 24920 24921 24922 24923 24924 24925 24926 24927 24928 24929 24930 24931 24932 24933 24934 24935 24936 24937 24938 24939 24940 24941 24942 24943 24944 24945 24946 24947 24948 24949 24950 24951 24952 24953 24954 24955 24956 24957 24958 24959 24960 24961 24962 24963 24964 24965 24966 24967 24968 24969 24970 24971 24972 24973 24974 24975 24976 24977 24978 24979 24980 24981 24982 24983 24984 24985 24986 24987 24988 24989 24990 24991 24992 24993 24994 24995 24996 24997 24998 24999 25000 25001 25002 25003 25004 25005 25006 25007 25008 25009 25010 25011 25012 25013 25014 25015 25016 25017 25018 25019 25020 25021 25022 25023 25024 25025 25026 25027 25028 25029 25030 25031 25032 25033 25034 25035 25036 25037 25038 25039 25040 25041 25042 25043 25044 25045 25046 25047 25048 25049 25050 25051 25052 25053 25054 25055 25056 25057 25058 25059 25060 25061 25062 25063 25064 25065 25066 25067 25068 25069 25070 25071 25072 25073 25074 25075 25076 25077 25078 25079 25080 25081 25082 25083 25084 25085 25086 25087 25088 25089 25090 25091 25092 25093 25094 25095 25096 25097 25098 25099 25100 25101 25102 25103 25104 25105 25106 25107 25108 25109 25110 25111 25112 25113 25114 25115 25116 25117 25118 25119 25120 25121 25122 25123 25124 25125 25126 25127 25128 25129 25130 25131 25132 25133 25134 25135 25136 25137 25138 25139 25140 25141 25142 25143 25144 25145 25146 25147 25148 25149 25150 25151 25152 25153 25154 25155 25156 25157 25158 25159 25160 25161 25162 25163 25164 25165 25166 25167 25168 25169 25170 25171 25172 25173 25174 25175 25176 25177 25178 25179 25180 25181 25182 25183 25184 25185 25186 25187 25188 25189 25190 25191 25192 25193 25194 25195 25196 25197 25198 25199 25200 25201 25202 25203 25204 25205 25206 25207 25208 25209 25210 25211 25212 25213 25214 25215 25216 25217 25218 25219 25220 25221 25222 25223 25224 25225 25226 25227 25228 25229 25230 25231 25232 25233 25234 25235 25236 25237 25238 25239 25240 25241 25242 25243 25244 25245 25246 25247 25248 25249 25250 25251 25252 25253 25254 25255 25256 25257 25258 25259 25260 25261 25262 25263 25264 25265 25266 25267 25268 25269 25270 25271 25272 25273 25274 25275 25276 25277 25278 25279 25280 25281 25282 25283 25284 25285 25286 25287 25288 25289 25290 25291 25292 25293 25294 25295 25296 25297 25298 25299 25300 25301 25302 25303 25304 25305 25306 25307 25308 25309 25310 25311 25312 25313 25314 25315 25316 25317 25318 25319 25320 25321 25322 25323 25324 25325 25326 25327 25328 25329 25330 25331 25332 25333 25334 25335 25336 25337 25338 25339 25340 25341 25342 25343 25344 25345 25346 25347 25348 25349 25350 25351 25352 25353 25354 25355 25356 25357 25358 25359 25360 25361 25362 25363 25364 25365 25366 25367 25368 25369 25370 25371 25372 25373 25374 25375 25376 25377 25378 25379 25380 25381 25382 25383 25384 25385 25386 25387 25388 25389 25390 25391 25392 25393 25394 25395 25396 25397 25398 25399 25400 25401 25402 25403 25404 25405 25406 25407 25408 25409 25410 25411 25412 25413 25414 25415 25416 25417 25418 25419 25420 25421 25422 25423 25424 25425 25426 25427 25428 25429 25430 25431 25432 25433 25434 25435 25436 25437 25438 25439 25440 25441 25442 25443 25444 25445 25446 25447 25448 25449 25450 25451 25452 25453 25454 25455 25456 25457 25458 25459 25460 25461 25462 25463 25464 25465 25466 25467 25468 25469 25470 25471 25472 25473 25474 25475 25476 25477 25478 25479 25480 25481 25482 25483 25484 25485 25486 25487 25488 25489 25490 25491 25492 25493 25494 25495 25496 25497 25498 25499 25500 25501 25502 25503 25504 25505 25506 25507 25508 25509 25510 25511 25512 25513 25514 25515 25516 25517 25518 25519 25520 25521 25522 25523 25524 25525 25526 25527 25528 25529 25530 25531 25532 25533 25534 25535 25536 25537 25538 25539 25540 25541 25542 25543 25544 25545 25546 25547 25548 25549 25550 25551 25552 25553 25554 25555 25556 25557 25558 25559 25560 25561 25562 25563 25564 25565 25566 25567 25568 25569 25570 25571 25572 25573 25574 25575 25576 25577 25578 25579 25580 25581 25582 25583 25584 25585 25586 25587 25588 25589 25590 25591 25592 25593 25594 25595 25596 25597 25598 25599 25600 25601 25602 25603 25604 25605 25606 25607 25608 25609 25610 25611 25612 25613 25614 25615 25616 25617 25618 25619 25620 25621 25622 25623 25624 25625 25626 25627 25628 25629 25630 25631 25632 25633 25634 25635 25636 25637 25638 25639 25640 25641 25642 25643 25644 25645 25646 25647 25648 25649 25650 25651 25652 25653 25654 25655 25656 25657 25658 25659 25660 25661 25662 25663 25664 25665 25666 25667 25668 25669 25670 25671 25672 25673 25674 25675 25676 25677 25678 25679 25680 25681 25682 25683 25684 25685 25686 25687 25688 25689 25690 25691 25692 25693 25694 25695 25696 25697 25698 25699 25700 25701 25702 25703 25704 25705 25706 25707 25708 25709 25710 25711 25712 25713 25714 25715 25716 25717 25718 25719 25720 25721 25722 25723 25724 25725 25726 25727 25728 25729 25730 25731 25732 25733 25734 25735 25736 25737 25738 25739 25740 25741 25742 25743 25744 25745 25746 25747 25748 25749 25750 25751 25752 25753 25754 25755 25756 25757 25758 25759 25760 25761 25762 25763 25764 25765 25766 25767 25768 25769 25770 25771 25772 25773 25774 25775 25776 25777 25778 25779 25780 25781 25782 25783 25784 25785 25786 25787 25788 25789 25790 25791 25792 25793 25794 25795 25796 25797 25798 25799 25800 25801 25802 25803 25804 25805 25806 25807 25808 25809 25810 25811 25812 25813 25814 25815 25816 25817 25818 25819 25820 25821 25822 25823 25824 25825 25826 25827 25828 25829 25830 25831 25832 25833 25834 25835 25836 25837 25838 25839 25840 25841 25842 25843 25844 25845 25846 25847 25848 25849 25850 25851 25852 25853 25854 25855 25856 25857 25858 25859 25860 25861 25862 25863 25864 25865 25866 25867 25868 25869 25870 25871 25872 25873 25874 25875 25876 25877 25878 25879 25880 25881 25882 25883 25884 25885 25886 25887 25888 25889 25890 25891 25892 25893 25894 25895 25896 25897 25898 25899 25900 25901 25902 25903 25904 25905 25906 25907 25908 25909 25910 25911 25912 25913 25914 25915 25916 25917 25918 25919 25920 25921 25922 25923 25924 25925 25926 25927 25928 25929 25930 25931 25932 25933 25934 25935 25936 25937 25938 25939 25940 25941 25942 25943 25944 25945 25946 25947 25948 25949 25950 25951 25952 25953 25954 25955 25956 25957 25958 25959 25960 25961 25962 25963 25964 25965 25966 25967 25968 25969 25970 25971 25972 25973 25974 25975 25976 25977 25978 25979 25980 25981 25982 25983 25984 25985 25986 25987 25988 25989 25990 25991 25992 25993 25994 25995 25996 25997 25998 25999 26000 26001 26002 26003 26004 26005 26006 26007 26008 26009 26010 26011 26012 26013 26014 26015 26016 26017 26018 26019 26020 26021 26022 26023 26024 26025 26026 26027 26028 26029 26030 26031 26032 26033 26034 26035 26036 26037 26038 26039 26040 26041 26042 26043 26044 26045 26046 26047 26048 26049 26050 26051 26052 26053 26054 26055 26056 26057 26058 26059 26060 26061 26062 26063 26064 26065 26066 26067 26068 26069 26070 26071 26072 26073 26074 26075 26076 26077 26078 26079 26080 26081 26082 26083 26084 26085 26086 26087 26088 26089 26090 26091 26092 26093 26094 26095 26096 26097 26098 26099 26100 26101 26102 26103 26104 26105 26106 26107 26108 26109 26110 26111 26112 26113 26114 26115 26116 26117 26118 26119 26120 26121 26122 26123 26124 26125 26126 26127 26128 26129 26130 26131 26132 26133 26134 26135 26136 26137 26138 26139 26140 26141 26142 26143 26144 26145 26146 26147 26148 26149 26150 26151 26152 26153 26154 26155 26156 26157 26158 26159 26160 26161 26162 26163 26164 26165 26166 26167 26168 26169 26170 26171 26172 26173 26174 26175 26176 26177 26178 26179 26180 26181 26182 26183 26184 26185 26186 26187 26188 26189 26190 26191 26192 26193 26194 26195 26196 26197 26198 26199 26200 26201 26202 26203 26204 26205 26206 26207 26208 26209 26210 26211 26212 26213 26214 26215 26216 26217 26218 26219 26220 26221 26222 26223 26224 26225 26226 26227 26228 26229 26230 26231 26232 26233 26234 26235 26236 26237 26238 26239 26240 26241 26242 26243 26244 26245 26246 26247 26248 26249 26250 26251 26252 26253 26254 26255 26256 26257 26258 26259 26260 26261 26262 26263 26264 26265 26266 26267 26268 26269 26270 26271 26272 26273 26274 26275 26276 26277 26278 26279 26280 26281 26282 26283 26284 26285 26286 26287 26288 26289 26290 26291 26292 26293 26294 26295 26296 26297 26298 26299 26300 26301 26302 26303 26304 26305 26306 26307 26308 26309 26310 26311 26312 26313 26314 26315 26316 26317 26318 26319 26320 26321 26322 26323 26324 26325 26326 26327 26328 26329 26330 26331 26332 26333 26334 26335 26336 26337 26338 26339 26340 26341 26342 26343 26344 26345 26346 26347 26348 26349 26350 26351 26352 26353 26354 26355 26356 26357 26358 26359 26360 26361 26362 26363 26364 26365 26366 26367 26368 26369 26370 26371 26372 26373 26374 26375 26376 26377 26378 26379 26380 26381 26382 26383 26384 26385 26386 26387 26388 26389 26390 26391 26392 26393 26394 26395 26396 26397 26398 26399 26400 26401 26402 26403 26404 26405 26406 26407 26408 26409 26410 26411 26412 26413 26414 26415 26416 26417 26418 26419 26420 26421 26422 26423 26424 26425 26426 26427 26428 26429 26430 26431 26432 26433 26434 26435 26436 26437 26438 26439 26440 26441 26442 26443 26444 26445 26446 26447 26448 26449 26450 26451 26452 26453 26454 26455 26456 26457 26458 26459 26460 26461 26462 26463 26464 26465 26466 26467 26468 26469 26470 26471 26472 26473 26474 26475 26476 26477 26478 26479 26480 26481 26482 26483 26484 26485 26486 26487 26488 26489 26490 26491 26492 26493 26494 26495 26496 26497 26498 26499 26500 26501 26502 26503 26504 26505 26506 26507 26508 26509 26510 26511 26512 26513 26514 26515 26516 26517 26518 26519 26520 26521 26522 26523 26524 26525 26526 26527 26528 26529 26530 26531 26532 26533 26534 26535 26536 26537 26538 26539 26540 26541 26542 26543 26544 26545 26546 26547 26548 26549 26550 26551 26552 26553 26554 26555 26556 26557 26558 26559 26560 26561 26562 26563 26564 26565 26566 26567 26568 26569 26570 26571 26572 26573 26574 26575 26576 26577 26578 26579 26580 26581 26582 26583 26584 26585 26586 26587 26588 26589 26590 26591 26592 26593 26594 26595 26596 26597 26598 26599 26600 26601 26602 26603 26604 26605 26606 26607 26608 26609 26610 26611 26612 26613 26614 26615 26616 26617 26618 26619 26620 26621 26622 26623 26624 26625 26626 26627 26628 26629 26630 26631 26632 26633 26634 26635 26636 26637 26638 26639 26640 26641 26642 26643 26644 26645 26646 26647 26648 26649 26650 26651 26652 26653 26654 26655 26656 26657 26658 26659 26660 26661 26662 26663 26664 26665 26666 26667 26668 26669 26670 26671 26672 26673 26674 26675 26676 26677 26678 26679 26680 26681 26682 26683 26684 26685 26686 26687 26688 26689 26690 26691 26692 26693 26694 26695 26696 26697 26698 26699 26700 26701 26702 26703 26704 26705 26706 26707 26708 26709 26710 26711 26712 26713 26714 26715 26716 26717 26718 26719 26720 26721 26722 26723 26724 26725 26726 26727 26728 26729 26730 26731 26732 26733 26734 26735 26736 26737 26738 26739 26740 26741 26742 26743 26744 26745 26746 26747 26748 26749 26750 26751 26752 26753 26754 26755 26756 26757 26758 26759 26760 26761 26762 26763 26764 26765 26766 26767 26768 26769 26770 26771 26772 26773 26774 26775 26776 26777 26778 26779 26780 26781 26782 26783 26784 26785 26786 26787 26788 26789 26790 26791 26792 26793 26794 26795 26796 26797 26798 26799 26800 26801 26802 26803 26804 26805 26806 26807 26808 26809 26810 26811 26812 26813 26814 26815 26816 26817 26818 26819 26820 26821 26822 26823 26824 26825 26826 26827 26828 26829 26830 26831 26832 26833 26834 26835 26836 26837 26838 26839 26840 26841 26842 26843 26844 26845 26846 26847 26848 26849 26850 26851 26852 26853 26854 26855 26856 26857 26858 26859 26860 26861 26862 26863 26864 26865 26866 26867 26868 26869 26870 26871 26872 26873 26874 26875 26876 26877 26878 26879 26880 26881 26882 26883 26884 26885 26886 26887 26888 26889 26890 26891 26892 26893 26894 26895 26896 26897 26898 26899 26900 26901 26902 26903 26904 26905 26906 26907 26908 26909 26910 26911 26912 26913 26914 26915 26916 26917 26918 26919 26920 26921 26922 26923 26924 26925 26926 26927 26928 26929 26930 26931 26932 26933 26934 26935 26936 26937 26938 26939 26940 26941 26942 26943 26944 26945 26946 26947 26948 26949 26950 26951 26952 26953 26954 26955 26956 26957 26958 26959 26960 26961 26962 26963 26964 26965 26966 26967 26968 26969 26970 26971 26972 26973 26974 26975 26976 26977 26978 26979 26980 26981 26982 26983 26984 26985 26986 26987 26988 26989 26990 26991 26992 26993 26994 26995 26996 26997 26998 26999 27000 27001 27002 27003 27004 27005 27006 27007 27008 27009 27010 27011 27012 27013 27014 27015 27016 27017 27018 27019 27020 27021 27022 27023 27024 27025 27026 27027 27028 27029 27030 27031 27032 27033 27034 27035 27036 27037 27038 27039 27040 27041 27042 27043 27044 27045 27046 27047 27048 27049 27050 27051 27052 27053 27054 27055 27056 27057 27058 27059 27060 27061 27062 27063 27064 27065 27066 27067 27068 27069 27070 27071 27072 27073 27074 27075 27076 27077 27078 27079 27080 27081 27082 27083 27084 27085 27086 27087 27088 27089 27090 27091 27092 27093 27094 27095 27096 27097 27098 27099 27100 27101 27102 27103 27104 27105 27106 27107 27108 27109 27110 27111 27112 27113 27114 27115 27116 27117 27118 27119 27120 27121 27122 27123 27124 27125 27126 27127 27128 27129 27130 27131 27132 27133 27134 27135 27136 27137 27138 27139 27140 27141 27142 27143 27144 27145 27146 27147 27148 27149 27150 27151 27152 27153 27154 27155 27156 27157 27158 27159 27160 27161 27162 27163 27164 27165 27166 27167 27168 27169 27170 27171 27172 27173 27174 27175 27176 27177 27178 27179 27180 27181 27182 27183 27184 27185 27186 27187 27188 27189 27190 27191 27192 27193 27194 27195 27196 27197 27198 27199 27200 27201 27202 27203 27204 27205 27206 27207 27208 27209 27210 27211 27212 27213 27214 27215 27216 27217 27218 27219 27220 27221 27222 27223 27224 27225 27226 27227 27228 27229 27230 27231 27232 27233 27234 27235 27236 27237 27238 27239 27240 27241 27242 27243 27244 27245 27246 27247 27248 27249 27250 27251 27252 27253 27254 27255 27256 27257 27258 27259 27260 27261 27262 27263 27264 27265 27266 27267 27268 27269 27270 27271 27272 27273 27274 27275 27276 27277 27278 27279 27280 27281 27282 27283 27284 27285 27286 27287 27288 27289 27290 27291 27292 27293 27294 27295 27296 27297 27298 27299 27300 27301 27302 27303 27304 27305 27306 27307 27308 27309 27310 27311 27312 27313 27314 27315 27316 27317 27318 27319 27320 27321 27322 27323 27324 27325 27326 27327 27328 27329 27330 27331 27332 27333 27334 27335 27336 27337 27338 27339 27340 27341 27342 27343 27344 27345 27346 27347 27348 27349 27350 27351 27352 27353 27354 27355 27356 27357 27358 27359 27360 27361 27362 27363 27364 27365 27366 27367 27368 27369 27370 27371 27372 27373 27374 27375 27376 27377 27378 27379 27380 27381 27382 27383 27384 27385 27386 27387 27388 27389 27390 27391 27392 27393 27394 27395 27396 27397 27398 27399 27400 27401 27402 27403 27404 27405 27406 27407 27408 27409 27410 27411 27412 27413 27414 27415 27416 27417 27418 27419 27420 27421 27422 27423 27424 27425 27426 27427 27428 27429 27430 27431 27432 27433 27434 27435 27436 27437 27438 27439 27440 27441 27442 27443 27444 27445 27446 27447 27448 27449 27450 27451 27452 27453 27454 27455 27456 27457 27458 27459 27460 27461 27462 27463 27464 27465 27466 27467 27468 27469 27470 27471 27472 27473 27474 27475 27476 27477 27478 27479 27480 27481 27482 27483 27484 27485 27486 27487 27488 27489 27490 27491 27492 27493 27494 27495 27496 27497 27498 27499 27500 27501 27502 27503 27504 27505 27506 27507 27508 27509 27510 27511 27512 27513 27514 27515 27516 27517 27518 27519 27520 27521 27522 27523 27524 27525 27526 27527 27528 27529 27530 27531 27532 27533 27534 27535 27536 27537 27538 27539 27540 27541 27542 27543 27544 27545 27546 27547 27548 27549 27550 27551 27552 27553 27554 27555 27556 27557 27558 27559 27560 27561 27562 27563 27564 27565 27566 27567 27568 27569 27570 27571 27572 27573 27574 27575 27576 27577 27578 27579 27580 27581 27582 27583 27584 27585 27586 27587 27588 27589 27590 27591 27592 27593 27594 27595 27596 27597 27598 27599 27600 27601 27602 27603 27604 27605 27606 27607 27608 27609 27610 27611 27612 27613 27614 27615 27616 27617 27618 27619 27620 27621 27622 27623 27624 27625 27626 27627 27628 27629 27630 27631 27632 27633 27634 27635 27636 27637 27638 27639 27640 27641 27642 27643 27644 27645 27646 27647 27648 27649 27650 27651 27652 27653 27654 27655 27656 27657 27658 27659 27660 27661 27662 27663 27664 27665 27666 27667 27668 27669 27670 27671 27672 27673 27674 27675 27676 27677 27678 27679 27680 27681 27682 27683 27684 27685 27686 27687 27688 27689 27690 27691 27692 27693 27694 27695 27696 27697 27698 27699 27700 27701 27702 27703 27704 27705 27706 27707 27708 27709 27710 27711 27712 27713 27714 27715 27716 27717 27718 27719 27720 27721 27722 27723 27724 27725 27726 27727 27728 27729 27730 27731 27732 27733 27734 27735 27736 27737 27738 27739 27740 27741 27742 27743 27744 27745 27746 27747 27748 27749 27750 27751 27752 27753 27754 27755 27756 27757 27758 27759 27760 27761 27762 27763 27764 27765 27766 27767 27768 27769 27770 27771 27772 27773 27774 27775 27776 27777 27778 27779 27780 27781 27782 27783 27784 27785 27786 27787 27788 27789 27790 27791 27792 27793 27794 27795 27796 27797 27798 27799 27800 27801 27802 27803 27804 27805 27806 27807 27808 27809 27810 27811 27812 27813 27814 27815 27816 27817 27818 27819 27820 27821 27822 27823 27824 27825 27826 27827 27828 27829 27830 27831 27832 27833 27834 27835 27836 27837 27838 27839 27840 27841 27842 27843 27844 27845 27846 27847 27848 27849 27850 27851 27852 27853 27854 27855 27856 27857 27858 27859 27860 27861 27862 27863 27864 27865 27866 27867 27868 27869 27870 27871 27872 27873 27874 27875 27876 27877 27878 27879 27880 27881 27882 27883 27884 27885 27886 27887 27888 27889 27890 27891 27892 27893 27894 27895 27896 27897 27898 27899 27900 27901 27902 27903 27904 27905 27906 27907 27908 27909 27910 27911 27912 27913 27914 27915 27916 27917 27918 27919 27920 27921 27922 27923 27924 27925 27926 27927 27928 27929 27930 27931 27932 27933 27934 27935 27936 27937 27938 27939 27940 27941 27942 27943 27944 27945 27946 27947 27948 27949 27950 27951 27952 27953 27954 27955 27956 27957 27958 27959 27960 27961 27962 27963 27964 27965 27966 27967 27968 27969 27970 27971 27972 27973 27974 27975 27976 27977 27978 27979 27980 27981 27982 27983 27984 27985 27986 27987 27988 27989 27990 27991 27992 27993 27994 27995 27996 27997 27998 27999 28000 28001 28002 28003 28004 28005 28006 28007 28008 28009 28010 28011 28012 28013 28014 28015 28016 28017 28018 28019 28020 28021 28022 28023 28024 28025 28026 28027 28028 28029 28030 28031 28032 28033 28034 28035 28036 28037 28038 28039 28040 28041 28042 28043 28044 28045 28046 28047 28048 28049 28050 28051 28052 28053 28054 28055 28056 28057 28058 28059 28060 28061 28062 28063 28064 28065 28066 28067 28068 28069 28070 28071 28072 28073 28074 28075 28076 28077 28078 28079 28080 28081 28082 28083 28084 28085 28086 28087 28088 28089 28090 28091 28092 28093 28094 28095 28096 28097 28098 28099 28100 28101 28102 28103 28104 28105 28106 28107 28108 28109 28110 28111 28112 28113 28114 28115 28116 28117 28118 28119 28120 28121 28122 28123 28124 28125 28126 28127 28128 28129 28130 28131 28132 28133 28134 28135 28136 28137 28138 28139 28140 28141 28142 28143 28144 28145 28146 28147 28148 28149 28150 28151 28152 28153 28154 28155 28156 28157 28158 28159 28160 28161 28162 28163 28164 28165 28166 28167 28168 28169 28170 28171 28172 28173 28174 28175 28176 28177 28178 28179 28180 28181 28182 28183 28184 28185 28186 28187 28188 28189 28190 28191 28192 28193 28194 28195 28196 28197 28198 28199 28200 28201 28202 28203 28204 28205 28206 28207 28208 28209 28210 28211 28212 28213 28214 28215 28216 28217 28218 28219 28220 28221 28222 28223 28224 28225 28226 28227 28228 28229 28230 28231 28232 28233 28234 28235 28236 28237 28238 28239 28240 28241 28242 28243 28244 28245 28246 28247 28248 28249 28250 28251 28252 28253 28254 28255 28256 28257 28258 28259 28260 28261 28262 28263 28264 28265 28266 28267 28268 28269 28270 28271 28272 28273 28274 28275 28276 28277 28278 28279 28280 28281 28282 28283 28284 28285 28286 28287 28288 28289 28290 28291 28292 28293 28294 28295 28296 28297 28298 28299 28300 28301 28302 28303 28304 28305 28306 28307 28308 28309 28310 28311 28312 28313 28314 28315 28316 28317 28318 28319 28320 28321 28322 28323 28324 28325 28326 28327 28328 28329 28330 28331 28332 28333 28334 28335 28336 28337 28338 28339 28340 28341 28342 28343 28344 28345 28346 28347 28348 28349 28350 28351 28352 28353 28354 28355 28356 28357 28358 28359 28360 28361 28362 28363 28364 28365 28366 28367 28368 28369 28370 28371 28372 28373 28374 28375 28376 28377 28378 28379 28380 28381 28382 28383 28384 28385 28386 28387 28388 28389 28390 28391 28392 28393 28394 28395 28396 28397 28398 28399 28400 28401 28402 28403 28404 28405 28406 28407 28408 28409 28410 28411 28412 28413 28414 28415 28416 28417 28418 28419 28420 28421 28422 28423 28424 28425 28426 28427 28428 28429 28430 28431 28432 28433 28434 28435 28436 28437 28438 28439 28440 28441 28442 28443 28444 28445 28446 28447 28448 28449 28450 28451 28452 28453 28454 28455 28456 28457 28458 28459 28460 28461 28462 28463 28464 28465 28466 28467 28468 28469 28470 28471 28472 28473 28474 28475 28476 28477 28478 28479 28480 28481 28482 28483 28484 28485 28486 28487 28488 28489 28490 28491 28492 28493 28494 28495 28496 28497 28498 28499 28500 28501 28502 28503 28504 28505 28506 28507 28508 28509 28510 28511 28512 28513 28514 28515 28516 28517 28518 28519 28520 28521 28522 28523 28524 28525 28526 28527 28528 28529 28530 28531 28532 28533 28534 28535 28536 28537 28538 28539 28540 28541 28542 28543 28544 28545 28546 28547 28548 28549 28550 28551 28552 28553 28554 28555 28556 28557 28558 28559 28560 28561 28562 28563 28564 28565 28566 28567 28568 28569 28570 28571 28572 28573 28574 28575 28576 28577 28578 28579 28580 28581 28582 28583 28584 28585 28586 28587 28588 28589 28590 28591 28592 28593 28594 28595 28596 28597 28598 28599 28600 28601 28602 28603 28604 28605 28606 28607 28608 28609 28610 28611 28612 28613 28614 28615 28616 28617 28618 28619 28620 28621 28622 28623 28624 28625 28626 28627 28628 28629 28630 28631 28632 28633 28634 28635 28636 28637 28638 28639 28640 28641 28642 28643 28644 28645 28646 28647 28648 28649 28650 28651 28652 28653 28654 28655 28656 28657 28658 28659 28660 28661 28662 28663 28664 28665 28666 28667 28668 28669 28670 28671 28672 28673 28674 28675 28676 28677 28678 28679 28680 28681 28682 28683 28684 28685 28686 28687 28688 28689 28690 28691 28692 28693 28694 28695 28696 28697 28698 28699 28700 28701 28702 28703 28704 28705 28706 28707 28708 28709 28710 28711 28712 28713 28714 28715 28716 28717 28718 28719 28720 28721 28722 28723 28724 28725 28726 28727 28728 28729 28730 28731 28732 28733 28734 28735 28736 28737 28738 28739 28740 28741 28742 28743 28744 28745 28746 28747 28748 28749 28750 28751 28752 28753 28754 28755 28756 28757 28758 28759 28760 28761 28762 28763 28764 28765 28766 28767 28768 28769 28770 28771 28772 28773 28774 28775 28776 28777 28778 28779 28780 28781 28782 28783 28784 28785 28786 28787 28788 28789 28790 28791 28792 28793 28794 28795 28796 28797 28798 28799 28800 28801 28802 28803 28804 28805 28806 28807 28808 28809 28810 28811 28812 28813 28814 28815 28816 28817 28818 28819 28820 28821 28822 28823 28824 28825 28826 28827 28828 28829 28830 28831 28832 28833 28834 28835 28836 28837 28838 28839 28840 28841 28842 28843 28844 28845 28846 28847 28848 28849 28850 28851 28852 28853 28854 28855 28856 28857 28858 28859 28860 28861 28862 28863 28864 28865 28866 28867 28868 28869 28870 28871 28872 28873 28874 28875 28876 28877 28878 28879 28880 28881 28882 28883 28884 28885 28886 28887 28888 28889 28890 28891 28892 28893 28894 28895 28896 28897 28898 28899 28900 28901 28902 28903 28904 28905 28906 28907 28908 28909 28910 28911 28912 28913 28914 28915 28916 28917 28918 28919 28920 28921 28922 28923 28924 28925 28926 28927 28928 28929 28930 28931 28932 28933 28934 28935 28936 28937 28938 28939 28940 28941 28942 28943 28944 28945 28946 28947 28948 28949 28950 28951 28952 28953 28954 28955 28956 28957 28958 28959 28960 28961 28962 28963 28964 28965 28966 28967 28968 28969 28970 28971 28972 28973 28974 28975 28976 28977 28978 28979 28980 28981 28982 28983 28984 28985 28986 28987 28988 28989 28990 28991 28992 28993 28994 28995 28996 28997 28998 28999 29000 29001 29002 29003 29004 29005 29006 29007 29008 29009 29010 29011 29012 29013 29014 29015 29016 29017 29018 29019 29020 29021 29022 29023 29024 29025 29026 29027 29028 29029 29030 29031 29032 29033 29034 29035 29036 29037 29038 29039 29040 29041 29042 29043 29044 29045 29046 29047 29048 29049 29050 29051 29052 29053 29054 29055 29056 29057 29058 29059 29060 29061 29062 29063 29064 29065 29066 29067 29068 29069 29070 29071 29072 29073 29074 29075 29076 29077 29078 29079 29080 29081 29082 29083 29084 29085 29086 29087 29088 29089 29090 29091 29092 29093 29094 29095 29096 29097 29098 29099 29100 29101 29102 29103 29104 29105 29106 29107 29108 29109 29110 29111 29112 29113 29114 29115 29116 29117 29118 29119 29120 29121 29122 29123 29124 29125 29126 29127 29128 29129 29130 29131 29132 29133 29134 29135 29136 29137 29138 29139 29140 29141 29142 29143 29144 29145 29146 29147 29148 29149 29150 29151 29152 29153 29154 29155 29156 29157 29158 29159 29160 29161 29162 29163 29164 29165 29166 29167 29168 29169 29170 29171 29172 29173 29174 29175 29176 29177 29178 29179 29180 29181 29182 29183 29184 29185 29186 29187 29188 29189 29190 29191 29192 29193 29194 29195 29196 29197 29198 29199 29200 29201 29202 29203 29204 29205 29206 29207 29208 29209 29210 29211 29212 29213 29214 29215 29216 29217 29218 29219 29220 29221 29222 29223 29224 29225 29226 29227 29228 29229 29230 29231 29232 29233 29234 29235 29236 29237 29238 29239 29240 29241 29242 29243 29244 29245 29246 29247 29248 29249 29250 29251 29252 29253 29254 29255 29256 29257 29258 29259 29260 29261 29262 29263 29264 29265 29266 29267 29268 29269 29270 29271 29272 29273 29274 29275 29276 29277 29278 29279 29280 29281 29282 29283 29284 29285 29286 29287 29288 29289 29290 29291 29292 29293 29294 29295 29296 29297 29298 29299 29300 29301 29302 29303 29304 29305 29306 29307 29308 29309 29310 29311 29312 29313 29314 29315 29316 29317 29318 29319 29320 29321 29322 29323 29324 29325 29326 29327 29328 29329 29330 29331 29332 29333 29334 29335 29336 29337 29338 29339 29340 29341 29342 29343 29344 29345 29346 29347 29348 29349 29350 29351 29352 29353 29354 29355 29356 29357 29358 29359 29360 29361 29362 29363 29364 29365 29366 29367 29368 29369 29370 29371 29372 29373 29374 29375 29376 29377 29378 29379 29380 29381 29382 29383 29384 29385 29386 29387 29388 29389 29390 29391 29392 29393 29394 29395 29396 29397 29398 29399 29400 29401 29402 29403 29404 29405 29406 29407 29408 29409 29410 29411 29412 29413 29414 29415 29416 29417 29418 29419 29420 29421 29422 29423 29424 29425 29426 29427 29428 29429 29430 29431 29432 29433 29434 29435 29436 29437 29438 29439 29440 29441 29442 29443 29444 29445 29446 29447 29448 29449 29450 29451 29452 29453 29454 29455 29456 29457 29458 29459 29460 29461 29462 29463 29464 29465 29466 29467 29468 29469 29470 29471 29472 29473 29474 29475 29476 29477 29478 29479 29480 29481 29482 29483 29484 29485 29486 29487 29488 29489 29490 29491 29492 29493 29494 29495 29496 29497 29498 29499 29500 29501 29502 29503 29504 29505 29506 29507 29508 29509 29510 29511 29512 29513 29514 29515 29516 29517 29518 29519 29520 29521 29522 29523 29524 29525 29526 29527 29528 29529 29530 29531 29532 29533 29534 29535 29536 29537 29538 29539 29540 29541 29542 29543 29544 29545 29546 29547 29548 29549 29550 29551 29552 29553 29554 29555 29556 29557 29558 29559 29560 29561 29562 29563 29564 29565 29566 29567 29568 29569 29570 29571 29572 29573 29574 29575 29576 29577 29578 29579 29580 29581 29582 29583 29584 29585 29586 29587 29588 29589 29590 29591 29592 29593 29594 29595 29596 29597 29598 29599 29600 29601 29602 29603 29604 29605 29606 29607 29608 29609 29610 29611 29612 29613 29614 29615 29616 29617 29618 29619 29620 29621 29622 29623 29624 29625 29626 29627 29628 29629 29630 29631 29632 29633 29634 29635 29636 29637 29638 29639 29640 29641 29642 29643 29644 29645 29646 29647 29648 29649 29650 29651 29652 29653 29654 29655 29656 29657 29658 29659 29660 29661 29662 29663 29664 29665 29666 29667 29668 29669 29670 29671 29672 29673 29674 29675 29676 29677 29678 29679 29680 29681 29682 29683 29684 29685 29686 29687 29688 29689 29690 29691 29692 29693 29694 29695 29696 29697 29698 29699 29700 29701 29702 29703 29704 29705 29706 29707 29708 29709 29710 29711 29712 29713 29714 29715 29716 29717 29718 29719 29720 29721 29722 29723 29724 29725 29726 29727 29728 29729 29730 29731 29732 29733 29734 29735 29736 29737 29738 29739 29740 29741 29742 29743 29744 29745 29746 29747 29748 29749 29750 29751 29752 29753 29754 29755 29756 29757 29758 29759 29760 29761 29762 29763 29764 29765 29766 29767 29768 29769 29770 29771 29772 29773 29774 29775 29776 29777 29778 29779 29780 29781 29782 29783 29784 29785 29786 29787 29788 29789 29790 29791 29792 29793 29794 29795 29796 29797 29798 29799 29800 29801 29802 29803 29804 29805 29806 29807 29808 29809 29810 29811 29812 29813 29814 29815 29816 29817 29818 29819 29820 29821 29822 29823 29824 29825 29826 29827 29828 29829 29830 29831 29832 29833 29834 29835 29836 29837 29838 29839 29840 29841 29842 29843 29844 29845 29846 29847 29848 29849 29850 29851 29852 29853 29854 29855 29856 29857 29858 29859 29860 29861 29862 29863 29864 29865 29866 29867 29868 29869 29870 29871 29872 29873 29874 29875 29876 29877 29878 29879 29880 29881 29882 29883 29884 29885 29886 29887 29888 29889 29890 29891 29892 29893 29894 29895 29896 29897 29898 29899 29900 29901 29902 29903 29904 29905 29906 29907 29908 29909 29910 29911 29912 29913 29914 29915 29916 29917 29918 29919 29920 29921 29922 29923 29924 29925 29926 29927 29928 29929 29930 29931 29932 29933 29934 29935 29936 29937 29938 29939 29940 29941 29942 29943 29944 29945 29946 29947 29948 29949 29950 29951 29952 29953 29954 29955 29956 29957 29958 29959 29960 29961 29962 29963 29964 29965 29966 29967 29968 29969 29970 29971 29972 29973 29974 29975 29976 29977 29978 29979 29980 29981 29982 29983 29984 29985 29986 29987 29988 29989 29990 29991 29992 29993 29994 29995 29996 29997 29998 29999 30000 30001 30002 30003 30004 30005 30006 30007 30008 30009 30010 30011 30012 30013 30014 30015 30016 30017 30018 30019 30020 30021 30022 30023 30024 30025 30026 30027 30028 30029 30030 30031 30032 30033 30034 30035 30036 30037 30038 30039 30040 30041 30042 30043 30044 30045 30046 30047 30048 30049 30050 30051 30052 30053 30054 30055 30056 30057 30058 30059 30060 30061 30062 30063 30064 30065 30066 30067 30068 30069 30070 30071 30072 30073 30074 30075 30076 30077 30078 30079 30080 30081 30082 30083 30084 30085 30086 30087 30088 30089 30090 30091 30092 30093 30094 30095 30096 30097 30098 30099 30100 30101 30102 30103 30104 30105 30106 30107 30108 30109 30110 30111 30112 30113 30114 30115 30116 30117 30118 30119 30120 30121 30122 30123 30124 30125 30126 30127 30128 30129 30130 30131 30132 30133 30134 30135 30136 30137 30138 30139 30140 30141 30142 30143 30144 30145 30146 30147 30148 30149 30150 30151 30152 30153 30154 30155 30156 30157 30158 30159 30160 30161 30162 30163 30164 30165 30166 30167 30168 30169 30170 30171 30172 30173 30174 30175 30176 30177 30178 30179 30180 30181 30182 30183 30184 30185 30186 30187 30188 30189 30190 30191 30192 30193 30194 30195 30196 30197 30198 30199 30200 30201 30202 30203 30204 30205 30206 30207 30208 30209 30210 30211 30212 30213 30214 30215 30216 30217 30218 30219 30220 30221 30222 30223 30224 30225 30226 30227 30228 30229 30230 30231 30232 30233 30234 30235 30236 30237 30238 30239 30240 30241 30242 30243 30244 30245 30246 30247 30248 30249 30250 30251 30252 30253 30254 30255 30256 30257 30258 30259 30260 30261 30262 30263 30264 30265 30266 30267 30268 30269 30270 30271 30272 30273 30274 30275 30276 30277 30278 30279 30280 30281 30282 30283 30284 30285 30286 30287 30288 30289 30290 30291 30292 30293 30294 30295 30296 30297 30298 30299 30300 30301 30302 30303 30304 30305 30306 30307 30308 30309 30310 30311 30312 30313 30314 30315 30316 30317 30318 30319 30320 30321 30322 30323 30324 30325 30326 30327 30328 30329 30330 30331 30332 30333 30334 30335 30336 30337 30338 30339 30340 30341 30342 30343 30344 30345 30346 30347 30348 30349 30350 30351 30352 30353 30354 30355 30356 30357 30358 30359 30360 30361 30362 30363 30364 30365 30366 30367 30368 30369 30370 30371 30372 30373 30374 30375 30376 30377 30378 30379 30380 30381 30382 30383 30384 30385 30386 30387 30388 30389 30390 30391 30392 30393 30394 30395 30396 30397 30398 30399 30400 30401 30402 30403 30404 30405 30406 30407 30408 30409 30410 30411 30412 30413 30414 30415 30416 30417 30418 30419 30420 30421 30422 30423 30424 30425 30426 30427 30428 30429 30430 30431 30432 30433 30434 30435 30436 30437 30438 30439 30440 30441 30442 30443 30444 30445 30446 30447 30448 30449 30450 30451 30452 30453 30454 30455 30456 30457 30458 30459 30460 30461 30462 30463 30464 30465 30466 30467 30468 30469 30470 30471 30472 30473 30474 30475 30476 30477 30478 30479 30480 30481 30482 30483 30484 30485 30486 30487 30488 30489 30490 30491 30492 30493 30494 30495 30496 30497 30498 30499 30500 30501 30502 30503 30504 30505 30506 30507 30508 30509 30510 30511 30512 30513 30514 30515 30516 30517 30518 30519 30520 30521 30522 30523 30524 30525 30526 30527 30528 30529 30530 30531 30532 30533 30534 30535 30536 30537 30538 30539 30540 30541 30542 30543 30544 30545 30546 30547 30548 30549 30550 30551 30552 30553 30554 30555 30556 30557 30558 30559 30560 30561 30562 30563 30564 30565 30566 30567 30568 30569 30570 30571 30572 30573 30574 30575 30576 30577 
</DataArray>
<DataArray type="UInt32" Name="offsets" format="ascii">
3 6 9 12 15 18 20 23 26 29 31 34 37 40 42 45 48 51 54 57 60 62 64 67 70 73 76 78 80 83 85 87 90 92 95 98 101 103 106 109 111 114 117 120 123 126 129 132 134 137 140 143 146 149 152 155 158 160 163 166 168 171 173 176 178 181 183 186 189 192 195 198 201 204 207 210 213 216 219 222 225 228 231 233 236 239 242 245 248 251 254 257 259 262 265 267 269 272 275 278 281 284 287 290 293 296 299 302 305 307 310 313 316 319 322 324 327 330 332 335 338 341 344 347 350 353 356 359 362 365 368 371 374 377 380 383 386 389 391 394 397 400 403 406 408 411 414 417 420 423 426 429 432 435 438 441 444 447 450 453 456 459 462 465 468 471 474 477 480 482 485 487 490 493 496 498 501 504 507 509 512 515 518 520 522 525 528 530 533 536 539 542 544 547 550 553 556 559 561 564 567 570 573 575 578 580 583 586 588 591 594 597 599 602 605 607 610 613 616 619 622 625 628 631 634 637 639 642 645 647 650 653 656 659 662 665 668 670 673 676 679 682 685 688 691 694 697 700 703 706 709 712 715 718 721 724 727 730 733 735 738 740 743 746 749 752 755 757 760 763 766 769 772 775 778 781 783 786 789 792 794 797 800 802 805 808 811 814 816 819 822 824 827 830 833 836 839 841 844 846 849 852 855 858 861 864 867 870 873 876 879 882 885 888 891 894 897 900 902 905 908 911 914 917 919 921 924 927 930 933 936 939 942 945 948 951 953 956 959 962 965 968 971 974 977 980 982 985 988 990 992 995 998 1001 1003 1006 1009 1011 1014 1017 1020 1023 1026 1029 1032 1035 1038 1041 1044 1047 1050 1053 1056 1058 1061 1064 1067 1070 1073 1076 1079 1082 1084 1087 1090 1092 1095 1098 1101 1104 1106 1109 1112 1115 1118 1121 1124 1127 1130 1133 1136 1139 1142 1145 1148 1150 1152 1155 1158 1160 1162 1165 1167 1170 1172 1175 1177 1180 1183 1185 1188 1191 1194 1197 1200 1203 1206 1209 1212 1214 1216 1219 1222 1224 1227 1230 1233 1236 1239 1241 1244 1247 1249 1252 1255 1258 1261 1263 1266 1269 1272 1274 1277 1280 1283 1285 1288 1290 1293 1296 1298 1301 1304 1307 1310 1313 1316 1319 1322 1325 1328 1331 1333 1336 1339 1342 1345 1348 1351 1353 1356 1359 1362 1364 1367 1370 1373 1376 1379 1382 1385 1387 1390 1393 1396 1399 1402 1404 1407 1409 1412 1415 1418 1421 1424 1426 1428 1431 1434 1437 1439 1441 1444 1446 1449 1452 1455 1458 1461 1464 1467 1469 1472 1475 1478 1481 1484 1487 1490 1493 1496 1499 1502 1505 1508 1511 1513 1516 1519 1521 1524 1526 1529 1532 1535 1538 1541 1544 1547 1550 1553 1556 1559 1562 1565 1568 1570 1573 1576 1579 1582 1585 1588 1591 1594 1597 1600 1603 1606 1609 1612 1615 1618 1620 1623 1626 1629 1632 1635 1638 1641 1644 1647 1650 1653 1655 1657 1660 1663 1666 1669 1672 1675 1678 1681 1684 1687 1690 1693 1696 1699 1702 1705 1707 1710 1713 1716 1719 1722 1725 1728 1730 1733 1736 1739 1742 1745 1748 1751 1754 1756 1759 1762 1765 1767 1770 1773 1776 1779 1782 1785 1788 1791 1794 1797 1800 1803 1806 1809 1812 1815 1818 1821 1824 1827 1830 1833 1836 1839 1842 1845 1848 1851 1853 1856 1858 1861 1864 1867 1870 1873 1876 1879 1882 1885 1888 1891 1894 1897 1899 1902 1905 1908 1910 1913 1916 1919 1922 1925 1928 1931 1934 1937 1940 1943 1946 1949 1951 1953 1956 1959 1962 1965 1968 1971 1974 1976 1979 1982 1985 1988 1991 1994 1997 2000 2003 2006 2009 2011 2014 2017 2020 2023 2026 2029 2032 2034 2037 2040 2043 2046 2049 2052 2055 2058 2061 2064 2067 2070 2073 2076 2079 2082 2085 2087 2090 2093 2096 2099 2102 2105 2108 2111 2114 2117 2119 2122 2125 2128 2131 2134 2136 2139 2142 2145 2147 2150 2153 2156 2159 2161 2164 2167 2170 2173 2176 2179 2182 2184 2187 2189 2192 2195 2197 2200 2202 2205 2208 2211 2214 2217 2220 2223 2226 2229 2232 2235 2238 2241 2244 2247 2250 2253 2256 2259 2262 2265 2268 2271 2274 2277 2280 2283 2286 2289 2292 2295 2298 2301 2304 2307 2309 2312 2314 2316 2319 2322 2325 2328 2331 2334 2337 2340 2343 2346 2349 2351 2354 2357 2360 2363 2366 2369 2372 2374 2377 2379 2382 2384 2387 2390 2393 2396 2399 2402 2404 2407 2409 2411 2414 2417 2420 2423 2426 2429 2432 2435 2438 2441 2444 2447 2450 2453 2456 2459 2462 2464 2467 2470 2473 2476 2479 2482 2485 2488 2491 2494 2497 2500 2503 2506 2508 2511 2514 2517 2520 2523 2526 2529 2532 2535 2538 2541 2544 2547 2549 2552 2555 2558 2561 2564 2567 2570 2573 2576 2578 2581 2584 2587 2590 2593 2595 2597 2600 2603 2606 2609 2611 2613 2616 2619 2622 2625 2628 2631 2634 2637 2640 2643 2646 2648 2651 2654 2657 2660 2662 2665 2668 2671 2674 2677 2680 2682 2685 2688 2690 2693 2695 2698 2701 2704 2706 2709 2712 2715 2718 2721 2724 2727 2729 2732 2735 2738 2741 2743 2745 2748 2751 2753 2756 2759 2762 2764 2766 2768 2770 2773 2776 2778 2781 2784 2787 2790 2793 2796 2799 2802 2804 2806 2809 2812 2815 2818 2821 2824 2826 2829 2831 2834 2837 2840 2842 2845 2848 2851 2854 2857 2860 2863 2866 2869 2872 2875 2878 2881 2884 2887 2890 2893 2896 2899 2902 2905 2908 2911 2914 2917 2920 2923 2926 2928 2931 2934 2937 2940 2943 2946 2949 2952 2955 2958 2961 2964 2967 2970 2973 2976 2979 2982 2985 2988 2991 2993 2996 2999 3002 3005 3008 3011 3014 3017 3020 3022 3025 3028 3031 3034 3037 3040 3042 3045 3048 3051 3054 3057 3059 3062 3065 3068 3071 3074 3076 3079 3082 3085 3088 3091 3094 3097 3100 3103 3106 3108 3111 3114 3117 3120 3122 3124 3127 3130 3132 3135 3138 3141 3144 3146 3149 3152 3154 3157 3160 3163 3166 3169 3171 3173 3176 3179 3182 3185 3188 3191 3193 3196 3199 3202 3205 3208 3211 3214 3216 3218 3221 3224 3227 3229 3232 3235 3238 3240 3243 3246 3248 3251 3253 3256 3259 3262 3264 3267 3270 3272 3274 3277 3280 3283 3286 3289 3292 3294 3297 3299 3302 3304 3307 3310 3313 3315 3317 3320 3322 3325 3328 3331 3334 3337 3340 3343 3346 3349 3352 3355 3358 3361 3364 3367 3370 3372 3375 3378 3381 3384 3387 3390 3393 3395 3398 3401 3404 3407 3410 3412 3415 3418 3421 3423 3426 3429 3432 3435 3437 3440 3442 3445 3447 3450 3453 3456 3459 3461 3464 3467 3469 3472 3475 3478 3481 3484 3487 3490 3493 3496 3499 3502 3504 3507 3510 3513 3516 3518 3521 3524 3527 3530 3532 3535 3538 3541 3544 3547 3550 3552 3555 3558 3561 3563 3566 3568 3570 3573 3576 3579 3582 3585 3588 3591 3594 3597 3600 3603 3606 3609 3612 3615 3618 3621 3624 3627 3630 3633 3636 3639 3642 3645 3648 3651 3654 3656 3659 3662 3664 3666 3669 3671 3674 3677 3680 3683 3685 3688 3691 3693 3696 3699 3702 3705 3708 3711 3714 3717 3720 3723 3726 3729 3732 3735 3738 3741 3744 3747 3750 3753 3756 3759 3762 3765 3768 3771 3774 3777 3779 3782 3785 3788 3791 3794 3797 3800 3803 3805 3808 3811 3814 3817 3820 3823 3826 3828 3831 3833 3836 3839 3842 3844 3847 3850 3853 3856 3859 3862 3865 3867 3870 3872 3875 3878 3881 3884 3887 3889 3892 3895 3898 3901 3904 3907 3910 3913 3916 3919 3922 3925 3928 3931 3934 3937 3940 3943 3946 3949 3952 3955 3958 3961 3964 3967 3970 3973 3976 3979 3982 3985 3988 3991 3994 3997 4000 4003 4006 4008 4010 4013 4016 4018 4021 4024 4027 4029 4032 4035 4038 4040 4042 4045 4048 4050 4053 4056 4059 4062 4065 4068 4071 4074 4077 4080 4083 4086 4089 4092 4095 4098 4101 4104 4107 4110 4113 4115 4118 4120 4123 4126 4129 4132 4135 4138 4141 4144 4147 4150 4153 4156 4159 4162 4165 4168 4171 4174 4177 4180 4183 4186 4189 4192 4195 4198 4201 4204 4207 4210 4213 4216 4219 4222 4225 4228 4231 4234 4237 4240 4243 4246 4249 4252 4255 4257 4260 4262 4265 4267 4270 4273 4275 4278 4281 4284 4287 4290 4293 4296 4299 4302 4305 4308 4311 4314 4317 4320 4323 4326 4329 4332 4335 4338 4341 4344 4347 4350 4353 4356 4358 4361 4364 4367 4370 4373 4376 4379 4382 4385 4388 4391 4394 4397 4400 4403 4406 4409 4412 4415 4418 4421 4424 4427 4430 4433 4436 4439 4442 4445 4448 4451 4454 4457 4460 4463 4466 4469 4472 4475 4478 4481 4484 4487 4490 4493 4496 4499 4502 4505 4507 4510 4513 4516 4519 4521 4524 4527 4530 4533 4536 4539 4542 4545 4547 4550 4553 4556 4559 4562 4564 4566 4568 4571 4574 4577 4580 4582 4584 4587 4590 4592 4595 4598 4601 4604 4607 4610 4613 4616 4619 4622 4625 4628 4631 4634 4636 4638 4641 4643 4646 4649 4652 4655 4658 4661 4664 4667 4670 4673 4676 4679 4682 4685 4688 4691 4694 4697 4699 4702 4705 4708 4711 4714 4717 4719 4722 4725 4728 4731 4734 4737 4740 4743 4746 4749 4752 4755 4758 4761 4764 4767 4770 4773 4775 4778 4781 4784 4787 4790 4793 4796 4799 4802 4804 4807 4810 4812 4815 4818 4821 4824 4827 4830 4833 4836 4839 4842 4845 4848 4851 4854 4857 4860 4862 4865 4867 4870 4873 4876 4879 4881 4884 4886 4889 4892 4894 4896 4899 4902 4904 4907 4910 4913 4915 4918 4921 4924 4927 4930 4933 4935 4938 4941 4944 4946 4949 4952 4955 4958 4960 4963 4966 4969 4972 4975 4978 4981 4983 4986 4989 4992 4995 4998 5000 5003 5006 5008 5011 5014 5017 5020 5023 5026 5029 5031 5034 5037 5040 5042 5044 5047 5050 5053 5055 5058 5061 5064 5067 5070 5072 5074 5076 5079 5082 5085 5088 5091 5094 5097 5100 5103 5105 5107 5110 5112 5115 5118 5121 5124 5127 5129 5132 5135 5137 5140 5142 5145 5148 5151 5153 5156 5159 5161 5164 5167 5170 5173 5176 5179 5182 5184 5187 5190 5192 5194 5197 5200 5202 5205 5207 5210 5213 5215 5218 5221 5223 5226 5228 5231 5234 5237 5239 5242 5245 5247 5250 5252 5255 5258 5260 5263 5265 5268 5271 5274 5277 5279 5281 5284 5287 5290 5293 5296 5299 5302 5305 5308 5310 5313 5316 5319 5322 5325 5328 5331 5334 5337 5340 5343 5346 5349 5352 5355 5358 5361 5364 5366 5368 5371 5374 5377 5379 5382 5385 5388 5391 5393 5396 5399 5401 5404 5407 5410 5412 5415 5418 5420 5423 5426 5429 5432 5434 5437 5440 5443 5446 5449 5451 5454 5457 5460 5462 5464 5467 5470 5472 5475 5478 5481 5484 5487 5489 5491 5494 5497 5500 5503 5505 5508 5511 5514 5517 5519 5522 5525 5528 5531 5534 5537 5540 5543 5546 5549 5552 5555 5558 5561 5564 5567 5570 5573 5576 5579 5582 5585 5588 5591 5594 5597 5600 5603 5605 5608 5611 5614 5617 5620 5623 5626 5629 5632 5635 5638 5640 5643 5646 5649 5652 5654 5657 5660 5663 5665 5668 5671 5673 5676 5679 5682 5685 5688 5690 5693 5696 5699 5702 5705 5708 5711 5714 5717 5720 5723 5726 5729 5732 5735 5738 5741 5744 5747 5750 5752 5755 5758 5761 5764 5767 5769 5772 5775 5778 5781 5784 5787 5790 5792 5795 5798 5801 5804 5807 5810 5813 5816 5819 5822 5825 5828 5831 5833 5836 5839 5842 5845 5848 5850 5852 5855 5858 5861 5864 5866 5869 5871 5874 5877 5880 5882 5884 5887 5890 5892 5895 5898 5901 5903 5906 5909 5912 5915 5917 5920 5923 5925 5927 5930 5933 5936 5939 5942 5945 5947 5950 5953 5955 5958 5961 5964 5967 5969 5972 5975 5978 5981 5984 5987 5990 5993 5996 5999 6002 6005 6008 6011 6014 6017 6020 6023 6026 6028 6031 6033 6036 6039 6042 6044 6047 6049 6052 6054 6057 6060 6062 6065 6068 6070 6072 6074 6077 6080 6083 6085 6088 6091 6094 6097 6100 6103 6105 6108 6111 6114 6117 6120 6123 6126 6128 6131 6133 6136 6139 6142 6145 6148 6151 6154 6156 6159 6162 6165 6168 6171 6174 6177 6180 6183 6186 6189 6191 6194 6197 6199 6202 6205 6208 6211 6214 6217 6220 6223 6226 6229 6232 6235 6238 6241 6244 6247 6249 6252 6255 6258 6261 6264 6267 6270 6273 6276 6279 6282 6285 6288 6291 6294 6297 6300 6303 6306 6309 6312 6314 6317 6320 6323 6325 6328 6331 6334 6337 6340 6343 6346 6349 6352 6355 6357 6360 6363 6366 6369 6372 6375 6378 6381 6384 6387 6389 6392 6395 6398 6401 6404 6407 6409 6412 6415 6418 6420 6423 6426 6429 6432 6435 6438 6441 6444 6447 6450 6453 6456 6459 6462 6465 6468 6471 6474 6477 6480 6483 6485 6488 6491 6494 6497 6500 6502 6505 6508 6510 6513 6516 6519 6522 6525 6528 6530 6533 6536 6539 6542 6544 6547 6550 6553 6556 6559 6562 6565 6568 6571 6574 6577 6580 6583 6586 6589 6592 6595 6598 6600 6603 6606 6609 6612 6615 6617 6620 6623 6626 6628 6631 6633 6636 6639 6642 6645 6648 6651 6654 6656 6659 6662 6665 6667 6669 6672 6675 6678 6681 6684 6686 6689 6692 6695 6697 6700 6703 6706 6709 6712 6715 6718 6721 6724 6727 6730 6733 6736 6739 6742 6744 6747 6750 6753 6756 6759 6762 6764 6767 6770 6773 6776 6779 6782 6785 6788 6791 6794 6797 6799 6802 6805 6808 6811 6814 6817 6820 6823 6826 6828 6831 6834 6837 6840 6842 6844 6847 6850 6853 6856 6859 6862 6865 6868 6870 6872 6875 6877 6880 6883 6886 6889 6892 6894 6897 6900 6903 6906 6909 6912 6914 6917 6919 6922 6925 6928 6931 6934 6937 6940 6943 6946 6949 6951 6954 6957 6960 6963 6966 6969 6971 6974 6977 6980 6983 6986 6989 6992 6995 6997 7000 7003 7006 7009 7012 7014 7017 7020 7022 7025 7028 7031 7034 7037 7040 7042 7045 7048 7051 7054 7057 7060 7063 7066 7068 7071 7074 7077 7080 7082 7085 7088 7091 7094 7097 7100 7103 7106 7109 7112 7114 7117 7120 7123 7126 7129 7132 7135 7138 7141 7143 7146 7149 7152 7155 7157 7160 7163 7166 7169 7172 7175 7178 7181 7183 7186 7188 7191 7194 7197 7199 7202 7205 7208 7211 7214 7217 7220 7223 7225 7228 7231 7234 7236 7239 7242 7245 7247 7250 7253 7255 7258 7261 7264 7267 7270 7273 7276 7279 7282 7285 7288 7291 7294 7297 7300 7303 7306 7309 7312 7315 7318 7321 7324 7327 7330 7333 7336 7339 7342 7345 7348 7351 7354 7357 7360 7363 7366 7369 7372 7375 7378 7381 7384 7387 7390 7393 7396 7399 7402 7405 7408 7411 7414 7416 7419 7422 7425 7427 7430 7433 7436 7439 7442 7445 7447 7450 7452 7455 7458 7461 7464 7466 7468 7471 7474 7477 7480 7483 7486 7489 7492 7495 7498 7501 7504 7507 7510 7513 7516 7519 7522 7525 7528 7531 7534 7536 7539 7542 7544 7547 7550 7553 7555 7558 7561 7564 7567 7570 7573 7576 7579 7582 7585 7588 7591 7594 7597 7599 7602 7604 7607 7609 7612 7615 7618 7621 7624 7627 7630 7633 7636 7639 7642 7645 7648 7651 7654 7657 7660 7662 7665 7668 7671 7674 7677 7680 7683 7686 7689 7692 7695 7698 7701 7704 7707 7710 7713 7716 7719 7722 7725 7728 7731 7734 7737 7740 7743 7746 7749 7752 7755 7758 7761 7763 7766 7769 7772 7775 7778 7781 7783 7786 7789 7791 7794 7796 7799 7802 7804 7807 7810 7813 7815 7818 7821 7824 7827 7830 7833 7836 7839 7842 7845 7848 7851 7854 7857 7860 7863 7866 7869 7872 7875 7878 7881 7884 7887 7890 7892 7895 7898 7901 7904 7906 7909 7912 7914 7917 7920 7923 7926 7929 7932 7935 7938 7941 7944 7947 7950 7953 7956 7959 7962 7965 7968 7971 7974 7977 7980 7983 7986 7989 7992 7995 7998 8001 8004 8006 8009 8012 8015 8017 8020 8023 8026 8029 8031 8034 8037 8040 8043 8046 8048 8051 8054 8057 8060 8062 8065 8068 8071 8074 8077 8080 8083 8086 8089 8092 8095 8098 8101 8104 8106 8108 8111 8113 8116 8118 8121 8124 8127 8130 8133 8136 8139 8142 8145 8148 8151 8154 8157 8160 8163 8166 8169 8172 8175 8178 8181 8184 8187 8190 8193 8195 8197 8200 8203 8205 8208 8211 8213 8216 8219 8222 8225 8228 8231 8234 8237 8240 8243 8246 8248 8251 8254 8256 8259 8262 8265 8268 8271 8274 8277 8280 8283 8286 8289 8292 8295 8298 8300 8302 8305 8307 8309 8312 8315 8318 8321 8323 8326 8329 8332 8334 8336 8339 8342 8345 8348 8351 8354 8357 8359 8362 8365 8368 8371 8374 8377 8380 8383 8386 8389 8392 8395 8398 8401 8404 8407 8409 8412 8415 8418 8421 8423 8426 8429 8432 8435 8438 8441 8444 8446 8449 8452 8455 8458 8461 8464 8467 8469 8472 8475 8477 8480 8483 8486 8489 8492 8495 8498 8501 8504 8507 8510 8513 8516 8519 8522 8524 8527 8530 8533 8536 8539 8542 8545 8548 8550 8553 8556 8559 8562 8565 8568 8571 8573 8576 8579 8582 8585 8588 8590 8593 8596 8599 8602 8604 8607 8610 8613 8616 8619 8622 8625 8628 8631 8634 8637 8640 8642 8645 8648 8651 8654 8657 8660 8663 8666 8669 8672 8675 8678 8681 8684 8686 8689 8692 8695 8698 8701 8704 8707 8710 8713 8716 8719 8722 8725 8727 8729 8732 8735 8737 8740 8743 8746 8749 8751 8754 8757 8760 8762 8765 8768 8770 8773 8776 8779 8782 8784 8787 8790 8793 8796 8799 8802 8805 8808 8811 8814 8817 8820 8823 8826 8829 8832 8835 8838 8841 8844 8847 8850 8853 8856 8859 8862 8865 8868 8871 8874 8877 8880 8883 8886 8888 8891 8894 8897 8899 8902 8904 8907 8910 8913 8916 8919 8922 8925 8928 8931 8934 8937 8940 8943 8946 8948 8951 8954 8957 8960 8963 8966 8969 8972 8974 8977 8980 8983 8985 8988 8991 8994 8997 9000 9003 9006 9008 9011 9013 9016 9019 9022 9025 9028 9031 9034 9037 9040 9043 9046 9049 9052 9055 9057 9060 9063 9065 9068 9071 9074 9077 9080 9083 9086 9088 9091 9094 9097 9100 9103 9106 9109 9112 9115 9118 9121 9124 9127 9130 9133 9136 9139 9142 9145 9148 9151 9154 9157 9160 9163 9166 9169 9171 9174 9177 9179 9182 9185 9188 9190 9193 9196 9198 9201 9204 9207 9210 9213 9216 9219 9222 9225 9228 9231 9234 9237 9240 9243 9246 9249 9252 9255 9257 9260 9263 9266 9269 9272 9275 9278 9281 9284 9287 9290 9293 9296 9298 9301 9304 9307 9310 9313 9316 9319 9322 9325 9328 9331 9334 9337 9340 9343 9346 9349 9352 9355 9357 9360 9363 9366 9369 9372 9375 9378 9381 9384 9387 9390 9393 9396 9399 9402 9405 9407 9410 9413 9415 9418 9421 9424 9426 9429 9432 9434 9437 9440 9443 9446 9449 9452 9455 9458 9461 9464 9467 9470 9473 9476 9478 9481 9484 9486 9489 9492 9495 9498 9501 9504 9507 9510 9513 9516 9519 9522 9525 9528 9531 9534 9537 9540 9543 9546 9549 9552 9555 9558 9561 9564 9567 9570 9573 9576 9579 9582 9585 9588 9591 9594 9596 9599 9602 9605 9608 9610 9613 9616 9619 9622 9625 9628 9631 9634 9637 9640 9643 9646 9649 9652 9655 9657 9660 9662 9664 9667 9670 9672 9675 9677 9680 9683 9686 9689 9692 9695 9698 9701 9703 9706 9709 9711 9714 9717 9720 9723 9725 9727 9730 9732 9735 9738 9741 9744 9747 9750 9753 9756 9759 9762 9765 9768 9771 9774 9777 9780 9783 9786 9789 9792 9795 9797 9800 9803 9806 9809 9812 9815 9818 9821 9824 9827 9830 9833 9836 9839 9842 9845 9848 9851 9854 9857 9860 9863 9866 9869 9872 9874 9877 9880 9883 9886 9889 9891 9894 9897 9900 9903 9906 9909 9912 9915 9918 9920 9923 9926 9929 9932 9935 9938 9941 9944 9947 9950 9953 9956 9959 9962 9965 9968 9971 9973 9975 9978 9981 9983 9986 9989 9992 9994 9997 10000 10003 10006 10009 10012 10015 10018 10021 10024 10026 10029 10032 10034 10037 10039 10042 10045 10048 10051 10053 10056 10059 10062 10064 10067 10070 10073 10076 10079 10082 10084 10087 10090 10093 10096 10099 10102 10104 10107 10110 10113 10116 10119 10122 10125 10128 10131 10134 10137 10140 10143 10146 10148 10151 10154 10156 10159 10162 10165 10167 10169 10172 10175 10178 10181 10184 10187 10190 10193 10196 10199 10201 10204 10207 10210 10212 10215 10218 10221 10224 10226 10229 10232 10235 10238 10241 10244 10247 10250 10252 10255 10258 10261 10264 10267 10269 10271 10274 10277 10280 10282 10285 10287 10289 10292 10295 10298 10301 10304 10306 10309 10312 10315 10318 10321 10324 10326 10329 10332 10335 10338 10341 10344 10347 10349 10352 10355 10357 10360 10363 10365 10368 10371 10374 10377 10380 10383 10386 10389 10392 10395 10398 10401 10404 10407 10409 10412 10415 10418 10420 10423 10426 10428 10431 10434 10437 10440 10442 10445 10448 10451 10454 10457 10460 10463 10466 10468 10471 10474 10477 10480 10482 10485 10488 10491 10494 10497 10500 10503 10506 10508 10511 10514 10517 10520 10523 10526 10529 10532 10535 10537 10540 10543 10546 10548 10551 10554 10556 10559 10562 10564 10567 10570 10573 10576 10579 10582 10585 10588 10591 10593 10596 10599 10602 10605 10608 10611 10614 10617 10620 10623 10626 10629 10632 10635 10638 10641 10643 10646 10649 10652 10655 10658 10661 10664 10667 10670 10673 10676 10679 10682 10685 10688 10691 10694 10697 10700 10703 10706 10709 10712 10715 10718 10721 10723 10726 10728 10731 10734 10737 10740 10743 10746 10749 10752 10755 10758 10760 10763 10766 10768 10771 10774 10777 10780 10783 10786 10789 10792 10795 10798 10801 10804 10807 10810 10813 10816 10819 10822 10825 10828 10831 10833 10836 10839 10842 10845 10848 10851 10854 10857 10860 10862 10865 10867 10870 10873 10876 10879 10882 10885 10888 10890 10893 10895 10898 10901 10904 10907 10910 10913 10916 10919 10922 10925 10928 10930 10933 10936 10939 10942 10944 10947 10949 10952 10955 10958 10961 10964 10967 10969 10972 10975 10977 10980 10983 10985 10988 10991 10994 10996 10998 11000 11003 11006 11009 11012 11015 11018 11021 11024 11027 11030 11033 11036 11039 11041 11044 11047 11050 11053 11056 11059 11062 11064 11067 11069 11072 11074 11077 11080 11082 11084 11087 11090 11093 11096 11099 11102 11104 11107 11110 11113 11116 11118 11121 11123 11126 11128 11131 11133 11136 11139 11142 11145 11147 11150 11153 11156 11159 11162 11164 11167 11170 11173 11176 11179 11182 11185 11188 11191 11194 11197 11200 11203 11206 11208 11211 11214 11217 11220 11223 11225 11228 11231 11234 11236 11239 11242 11245 11248 11251 11254 11257 11260 11263 11266 11269 11272 11275 11278 11281 11284 11287 11289 11292 11295 11298 11301 11303 11306 11309 11312 11315 11318 11321 11323 11326 11329 11332 11335 11338 11341 11344 11347 11350 11353 11355 11358 11361 11363 11366 11368 11371 11374 11377 11380 11383 11386 11389 11392 11395 11398 11401 11403 11406 11409 11412 11415 11418 11421 11423 11426 11428 11430 11433 11435 11438 11441 11444 11447 11450 11453 11456 11458 11461 11464 11467 11470 11473 11476 11479 11482 11485 11488 11491 11494 11497 11500 11503 11506 11508 11511 11514 11517 11520 11523 11526 11529 11532 11535 11538 11540 11543 11546 11549 11552 11555 11558 11561 11564 11567 11570 11572 11575 11578 11581 11584 11586 11589 11592 11595 11598 11601 11603 11606 11609 11612 11615 11617 11620 11623 11626 11629 11632 11635 11638 11641 11644 11647 11650 11653 11656 11659 11662 11665 11668 11671 11673 11676 11679 11682 11685 11688 11691 11694 11697 11699 11702 11704 11706 11709 11712 11715 11718 11721 11723 11726 11729 11732 11735 11738 11741 11744 11747 11750 11753 11756 11759 11762 11765 11767 11770 11773 11775 11778 11780 11782 11785 11788 11791 11794 11797 11800 11802 11805 11808 11811 11814 11816 11819 11821 11824 11827 11829 11832 11835 11838 11841 11844 11847 11849 11851 11854 11857 11860 11863 11866 11869 11872 11875 11878 11881 11884 11887 11890 11893 11896 11898 11901 11904 11907 11910 11913 11916 11919 11921 11924 11926 11929 11932 11935 11937 11940 11942 11945 11948 11951 11954 11957 11960 11963 11966 11968 11971 11974 11977 11980 11983 11985 11988 11990 11993 11996 11999 12002 12004 12007 12010 12013 12016 12019 12021 12024 12027 12030 12033 12036 12039 12042 12045 12048 12051 12054 12057 12060 12063 12066 12069 12072 12075 12078 12081 12084 12087 12090 12093 12095 12098 12101 12104 12106 12109 12111 12114 12117 12120 12122 12125 12128 12131 12134 12137 12140 12143 12146 12149 12152 12155 12158 12161 12164 12167 12170 12173 12175 12177 12179 12181 12184 12187 12190 12193 12196 12199 12201 12204 12207 12210 12212 12215 12218 12221 12224 12227 12230 12233 12236 12239 12242 12244 12246 12248 12251 12254 12256 12258 12261 12264 12267 12270 12273 12276 12279 12282 12285 12287 12290 12293 12296 12299 12302 12305 12308 12311 12313 12315 12318 12321 12324 12326 12329 12332 12335 12338 12341 12344 12347 12350 12353 12356 12359 12361 12364 12366 12369 12372 12375 12378 12381 12383 12385 12388 12391 12393 12395 12398 12401 12404 12407 12410 12413 12416 12419 12422 12425 12428 12431 12434 12437 12440 12443 12446 12449 12452 12455 12458 12461 12464 12467 12470 12473 12476 12479 12482 12485 12488 12491 12494 12497 12500 12503 12506 12509 12512 12515 12518 12521 12523 12525 12528 12531 12534 12537 12540 12543 12546 12549 12552 12555 12558 12561 12564 12567 12570 12573 12576 12579 12582 12585 12587 12590 12593 12596 12599 12602 12605 12608 12611 12614 12617 12620 12623 12626 12629 12632 12635 12637 12640 12642 12645 12648 12651 12654 12657 12660 12663 12666 12668 12671 12674 12677 12680 12683 12686 12689 12692 12695 12698 12701 12703 12706 12709 12711 12714 12717 12719 12722 12725 12728 12731 12733 12736 12739 12742 12745 12747 12750 12753 12755 12758 12760 12763 12766 12769 12772 12775 12777 12780 12783 12786 12789 12792 12795 12798 12800 12803 12806 12809 12812 12815 12818 12821 12824 12827 12830 12833 12836 12839 12842 12845 12848 12851 12854 12857 12860 12863 12866 12869 12872 12874 12877 12880 12883 12885 12888 12891 12893 12896 12899 12902 12904 12907 12910 12913 12916 12918 12921 12923 12926 12929 12932 12935 12938 12941 12944 12947 12949 12952 12955 12958 12961 12964 12967 12970 12973 12976 12979 12981 12984 12987 12989 12992 12995 12997 13000 13003 13005 13007 13010 13013 13016 13019 13022 13025 13028 13030 13032 13035 13038 13041 13043 13046 13049 13051 13053 13056 13059 13062 13064 13066 13069 13071 13074 13077 13079 13082 13085 13088 13091 13093 13096 13098 13100 13103 13106 13109 13111 13114 13116 13118 13121 13123 13125 13127 13129 13132 13134 13137 13139 13142 13144 13147 13150 13153 13155 13158 13161 13163 13166 13168 13170 13173 13176 13179 13182 13184 13187 13189 13191 13194 13197 13200 13202 13204 13207 13210 13212 13214 13217 13220 13223 13226 13228 13231 13234 13237 13240 13242 13245 13248 13251 13254 13256 13259 13261 13264 13266 13269 13271 13274 13276 13279 13281 13284 13287 13290 13293 13296 13298 13301 13304 13306 13308 13310 13313 13316 13318 13320 13323 13325 13328 13331 13333 13336 13339 13342 13345 13348 13351 13353 13356 13359 13361 13364 13366 13369 13372 13375 13378 13380 13383 13385 13388 13390 13393 13396 13399 13401 13404 13407 13409 13412 13414 13417 13419 13422 13425 13428 13431 13434 13436 13439 13442 13445 13448 13451 13454 13457 13460 13463 13466 13468 13471 13474 13477 13480 13482 13485 13488 13490 13493 13496 13499 13502 13505 13507 13510 13513 13515 13518 13521 13524 13526 13529 13531 13534 13537 13540 13542 13545 13548 13551 13554 13556 13559 13562 13565 13568 13570 13572 13575 13578 13581 13584 13587 13590 13592 13595 13598 13600 13603 13606 13609 13612 13615 13618 13621 13624 13627 13630 13633 13636 13639 13642 13645 13648 13651 13654 13657 13660 13663 13666 13669 13672 13675 13678 13681 13684 13687 13690 13693 13696 13699 13702 13705 13708 13711 13714 13717 13720 13723 13726 13729 13732 13735 13738 13741 13744 13747 13750 13753 13756 13759 13762 13765 13768 13771 13774 13776 13779 13782 13785 13788 13791 13794 13797 13800 13803 13806 13809 13812 13814 13817 13820 13822 13825 13828 13831 13833 13836 13839 13842 13845 13848 13851 13854 13857 13860 13863 13866 13869 13872 13875 13878 13880 13883 13886 13889 13892 13895 13898 13901 13904 13907 13910 13913 13916 13919 13922 13925 13928 13930 13933 13936 13939 13942 13945 13948 13951 13954 13957 13960 13963 13966 13969 13971 13974 13977 13979 13982 13985 13987 13990 13992 13995 13998 14001 14004 14007 14010 14013 14015 14018 14021 14024 14027 14030 14033 14036 14039 14042 14045 14048 14051 14053 14056 14059 14062 14064 14067 14070 14073 14076 14079 14082 14085 14088 14091 14093 14096 14099 14102 14105 14108 14111 14113 14116 14119 14122 14125 14128 14131 14133 14136 14139 14142 14144 14147 14150 14153 14156 14159 14162 14165 14167 14170 14173 14176 14179 14182 14185 14188 14191 14194 14197 14199 14202 14205 14208 14211 14214 14217 14220 14223 14226 14229 14232 14235 14238 14241 14244 14247 14249 14252 14254 14257 14260 14263 14266 14269 14272 14275 14278 14281 14284 14286 14289 14291 14294 14297 14300 14303 14306 14309 14312 14315 14318 14321 14324 14326 14329 14332 14335 14338 14341 14344 14347 14350 14353 14356 14359 14361 14364 14367 14370 14373 14376 14379 14382 14384 14387 14390 14393 14396 14399 14402 14405 14407 14410 14413 14416 14419 14422 14425 14428 14431 14434 14437 14440 14442 14445 14448 14451 14454 14457 14460 14463 14466 14468 14471 14473 14476 14479 14482 14485 14488 14491 14494 14497 14500 14503 14505 14508 14511 14514 14516 14519 14522 14525 14528 14531 14534 14537 14540 14543 14545 14548 14551 14554 14557 14560 14563 14566 14569 14572 14575 14578 14581 14584 14587 14590 14593 14595 14598 14601 14604 14607 14610 14613 14616 14619 14622 14625 14628 14631 14634 14637 14640 14643 14646 14649 14651 14654 14657 14659 14662 14665 14667 14670 14673 14676 14679 14682 14684 14687 14690 14693 14696 14699 14702 14705 14708 14711 14714 14717 14720 14723 14726 14729 14732 14735 14738 14741 14744 14747 14750 14753 14756 14759 14762 14765 14768 14771 14774 14777 14780 14783 14786 14789 14792 14795 14798 14801 14804 14807 14810 14813 14816 14819 14822 14825 14828 14831 14834 14837 14840 14843 14846 14849 14852 14855 14858 14861 14863 14866 14869 14871 14874 14877 14880 14883 14886 14889 14892 14895 14898 14901 14904 14907 14910 14913 14916 14919 14922 14925 14928 14931 14934 14937 14940 14943 14945 14947 14950 14953 14956 14959 14962 14965 14968 14971 14974 14977 14980 14983 14986 14989 14992 14995 14997 14999 15002 15005 15008 15011 15014 15017 15020 15022 15025 15027 15030 15033 15035 15037 15040 15043 15046 15049 15052 15055 15058 15061 15064 15067 15070 15072 15075 15077 15080 15083 15086 15088 15091 15094 15097 15099 15102 15104 15107 15110 15113 15116 15119 15121 15123 15126 15129 15132 15135 15138 15141 15144 15147 15150 15153 15156 15159 15162 15165 15168 15171 15174 15177 15180 15183 15186 15189 15192 15195 15198 15201 15204 15207 15210 15213 15216 15219 15222 15225 15228 15231 15234 15237 15240 15243 15246 15249 15252 15255 15258 15261 15264 15267 15270 15273 15276 15279 15282 15285 15288 15291 15294 15297 15300 15303 15306 15309 15312 15315 15318 15321 15324 15327 15330 15333 15336 15339 15342 15345 15348 15351 15354 15357 15360 15363 15366 15369 15372 15375 15378 15381 15384 15387 15390 15393 15396 15399 15402 15405 15408 15411 15414 15417 15420 15423 15426 15429 15432 15435 15437 15439 15442 15444 15447 15449 15452 15455 15457 15460 15463 15466 15469 15471 15474 15477 15480 15483 15486 15489 15492 15494 15496 15498 15501 15504 15507 15510 15513 15515 15517 15520 15523 15526 15529 15532 15535 15538 15541 15544 15547 15550 15553 15556 15559 15562 15565 15568 15571 15574 15577 15580 15583 15586 15589 15592 15595 15598 15601 15604 15607 15610 15613 15616 15619 15621 15624 15627 15629 15632 15635 15638 15641 15644 15647 15650 15653 15656 15659 15662 15664 15667 15670 15673 15676 15679 15682 15685 15687 15690 15693 15696 15699 15702 15705 15708 15711 15714 15717 15720 15723 15726 15729 15732 15735 15737 15740 15743 15745 15748 15751 15754 15757 15760 15763 15766 15769 15772 15775 15778 15781 15784 15787 15790 15793 15796 15799 15802 15805 15808 15811 15814 15816 15819 15822 15824 15827 15830 15832 15835 15838 15841 15844 15847 15850 15853 15855 15858 15861 15864 15867 15870 15873 15875 15878 15881 15883 15886 15889 15892 15895 15897 15900 15902 15905 15908 15910 15913 15916 15919 15922 15924 15927 15929 15932 15935 15937 15940 15943 15946 15949 15952 15955 15958 15961 15964 15967 15970 15973 15975 15978 15981 15984 15986 15989 15992 15994 15997 16000 16003 16006 16008 16011 16014 16017 16020 16023 16026 16029 16032 16035 16038 16040 16043 16046 16049 16052 16055 16058 16061 16064 16067 16070 16072 16075 16078 16081 16084 16087 16090 16093 16096 16099 16102 16105 16108 16110 16113 16116 16118 16121 16124 16127 16130 16133 16136 16139 16142 16145 16148 16150 16153 16156 16159 16162 16165 16167 16170 16172 16174 16177 16180 16182 16185 16188 16191 16194 16197 16200 16203 16206 16209 16211 16213 16216 16219 16222 16225 16228 16231 16233 16236 16239 16242 16245 16248 16251 16254 16257 16260 16263 16266 16269 16272 16275 16278 16281 16284 16287 16290 16293 16296 16299 16302 16305 16308 16310 16313 16316 16319 16322 16325 16328 16331 16334 16337 16340 16343 16346 16349 16352 16355 16358 16361 16364 16367 16370 16373 16376 16379 16382 16385 16388 16391 16394 16397 16400 16403 16406 16409 16412 16415 16418 16421 16424 16427 16430 16432 16435 16438 16441 16444 16447 16450 16453 16456 16459 16462 16464 16467 16470 16473 16475 16478 16480 16483 16486 16489 16491 16494 16497 16500 16502 16505 16507 16510 16512 16515 16517 16519 16522 16525 16527 16530 16533 16536 16538 16541 16544 16547 16550 16553 16555 16558 16561 16564 16567 16569 16572 16575 16578 16580 16583 16586 16589 16592 16594 16597 16599 16602 16605 16608 16611 16614 16617 16620 16623 16626 16629 16632 16635 16638 16641 16643 16646 16649 16652 16655 16657 16660 16663 16665 16668 16671 16673 16675 16678 16681 16683 16686 16688 16691 16694 16697 16699 16701 16703 16705 16708 16711 16713 16716 16719 16722 16725 16727 16730 16732 16735 16738 16740 16742 16744 16747 16749 16752 16755 16757 16759 16761 16764 16767 16770 16773 16776 16779 16782 16785 16788 16790 16792 16795 16798 16801 16804 16806 16808 16811 16814 16817 16819 16822 16824 16827 16830 16833 16836 16839 16842 16845 16848 16851 16854 16857 16859 16862 16865 16868 16871 16874 16877 16880 16883 16886 16889 16892 16895 16898 16901 16904 16907 16910 16913 16916 16919 16922 16925 16928 16930 16933 16936 16939 16942 16945 16948 16951 16954 16957 16960 16963 16966 16969 16972 16975 16978 16980 16983 16986 16988 16991 16994 16997 17000 17003 17006 17009 17012 17015 17017 17020 17023 17026 17028 17030 17033 17036 17038 17041 17044 17047 17050 17053 17055 17058 17060 17063 17066 17069 17071 17074 17077 17080 17083 17086 17089 17092 17094 17097 17100 17102 17105 17108 17111 17114 17116 17119 17122 17125 17127 17129 17132 17135 17137 17140 17143 17146 17148 17151 17154 17157 17160 17163 17166 17169 17171 17174 17177 17179 17182 17184 17186 17188 17191 17193 17196 17198 17200 17203 17206 17209 17212 17215 17218 17220 17223 17226 17228 17231 17234 17237 17240 17243 17246 17249 17252 17255 17258 17261 17264 17267 17270 17273 17276 17279 17282 17285 17288 17291 17294 17297 17300 17303 17306 17309 17312 17315 17318 17321 17324 17327 17330 17333 17335 17337 17340 17343 17346 17349 17352 17355 17358 17361 17363 17365 17367 17369 17372 17375 17377 17380 17383 17386 17389 17392 17395 17398 17401 17403 17406 17409 17411 17414 17417 17420 17422 17425 17428 17431 17434 17436 17439 17442 17445 17448 17451 17454 17457 17460 17463 17466 17469 17472 17475 17478 17480 17483 17486 17489 17492 17495 17497 17500 17503 17506 17509 17512 17515 17518 17521 17523 17526 17529 17532 17534 17536 17539 17542 17544 17546 17549 17552 17555 17558 17561 17563 17566 17569 17572 17575 17578 17581 17583 17586 17588 17591 17594 17597 17600 17603 17606 17609 17612 17614 17616 17619 17621 17623 17625 17628 17630 17633 17636 17639 17642 17645 17648 17650 17653 17656 17659 17662 17665 17668 17671 17673 17676 17679 17682 17685 17688 17691 17694 17697 17700 17703 17706 17709 17712 17715 17718 17721 17724 17727 17730 17733 17736 17739 17742 17745 17748 17751 17754 17757 17760 17763 17766 17769 17772 17775 17778 17781 17784 17787 17790 17793 17796 17799 17802 17805 17808 17811 17814 17817 17820 17823 17826 17829 17832 17835 17838 17841 17844 17846 17849 17852 17855 17858 17861 17864 17867 17869 17872 17875 17877 17880 17883 17886 17888 17891 17893 17896 17899 17901 17904 17907 17910 17913 17916 17919 17922 17924 17927 17930 17933 17935 17938 17941 17944 17947 17950 17953 17956 17958 17961 17963 17966 17969 17972 17975 17978 17981 17984 17987 17990 17993 17996 17999 18002 18005 18008 18011 18014 18017 18020 18023 18026 18029 18032 18035 18038 18040 18042 18045 18047 18050 18053 18056 18059 18062 18065 18068 18070 18073 18075 18078 18080 18082 18084 18087 18090 18092 18095 18098 18100 18103 18106 18109 18111 18114 18117 18120 18123 18126 18129 18132 18134 18136 18139 18142 18144 18147 18150 18153 18155 18158 18161 18164 18167 18169 18172 18174 18177 18180 18183 18186 18189 18192 18194 18197 18199 18202 18205 18208 18211 18214 18216 18219 18222 18224 18227 18230 18233 18236 18239 18242 18245 18248 18251 18254 18257 18260 18263 18266 18269 18272 18274 18277 18280 18282 18284 18287 18289 18292 18295 18298 18301 18304 18307 18310 18313 18315 18318 18321 18324 18327 18330 18333 18336 18339 18342 18345 18348 18351 18354 18357 18360 18363 18365 18368 18371 18374 18376 18379 18382 18384 18387 18390 18393 18396 18399 18402 18404 18407 18410 18413 18416 18419 18422 18425 18428 18431 18434 18437 18440 18443 18446 18449 18452 18455 18458 18461 18463 18465 18468 18471 18474 18477 18480 18483 18486 18488 18491 18494 18497 18499 18502 18505 18507 18510 18512 18515 18518 18520 18523 18525 18527 18530 18532 18535 18537 18540 18542 18545 18548 18551 18554 18557 18560 18563 18566 18569 18572 18575 18578 18581 18584 18587 18589 18591 18594 18597 18600 18603 18606 18609 18612 18614 18617 18620 18623 18626 18629 18632 18635 18638 18641 18644 18647 18650 18653 18656 18659 18661 18664 18666 18669 18672 18675 18678 18681 18684 18686 18689 18692 18695 18697 18700 18703 18706 18708 18711 18714 18717 18720 18723 18726 18729 18732 18735 18738 18741 18744 18747 18750 18753 18756 18759 18762 18765 18768 18771 18773 18776 18779 18782 18785 18787 18790 18793 18796 18799 18802 18804 18807 18810 18813 18815 18818 18821 18824 18827 18830 18833 18836 18839 18842 18845 18848 18851 18853 18856 18859 18862 18865 18867 18870 18873 18876 18879 18882 18885 18888 18891 18893 18896 18899 18902 18905 18908 18911 18914 18916 18919 18922 18925 18928 18930 18933 18936 18939 18942 18945 18948 18951 18954 18956 18959 18962 18965 18968 18971 18974 18977 18980 18983 18985 18988 18991 18994 18997 19000 19003 19006 19009 19012 19015 19018 19021 19024 19027 19030 19033 19036 19039 19042 19045 19048 19051 19054 19057 19060 19063 19066 19069 19071 19074 19077 19080 19083 19086 19089 19092 19094 19097 19100 19103 19106 19109 19112 19115 19118 19121 19124 19127 19130 19133 19136 19139 19142 19145 19148 19151 19154 19157 19160 19163 19166 19169 19172 19175 19178 19181 19183 19186 19189 19192 19195 19198 19201 19204 19207 19210 19213 19216 19219 19222 19225 19228 19231 19234 19237 19240 19243 19246 19249 19252 19255 19258 19261 19264 19267 19270 19273 19276 19279 19281 19284 19287 19289 19292 19295 19298 19301 19303 19306 19309 19311 19314 19317 19320 19323 19325 19328 19331 19334 19336 19339 19342 19345 19347 19350 19353 19356 19359 19362 19365 19368 19371 19374 19377 19379 19382 19385 19387 19390 19393 19396 19399 19402 19405 19407 19410 19413 19416 19419 19422 19424 19427 19430 19433 19436 19438 19441 19444 19447 19450 19453 19456 19459 19462 19465 19468 19470 19473 19476 19479 19482 19485 19488 19491 19494 19497 19499 19502 19505 19508 19511 19514 19517 19520 19523 19526 19529 19532 19535 19538 19540 19543 19546 19549 19552 19555 19558 19561 19563 19566 19569 19572 19575 19578 19580 19583 19586 19589 19592 19595 19598 19601 19604 19607 19610 19613 19616 19619 19622 19624 19627 19630 19633 19636 19639 19642 19645 19648 19650 19653 19656 19659 19662 19665 19668 19671 19674 19677 19680 19683 19686 19689 19692 19695 19698 19701 19704 19707 19710 19713 19716 19719 19722 19725 19728 19731 19734 19737 19740 19743 19746 19749 19751 19754 19757 19760 19763 19765 19767 19770 19773 19775 19778 19781 19783 19786 19789 19791 19794 19797 19800 19803 19806 19809 19812 19815 19818 19821 19824 19827 19830 19833 19836 19839 19842 19845 19848 19850 19853 19856 19859 19862 19864 19867 19870 19873 19876 19879 19882 19885 19888 19891 19894 19897 19900 19903 19906 19909 19912 19915 19918 19921 19924 19927 19930 19933 19936 19939 19942 19945 19948 19951 19954 19957 19960 19963 19966 19969 19972 19975 19978 19981 19984 19987 19990 19993 19996 19999 20002 20005 20008 20011 20014 20017 20020 20023 20026 20029 20032 20035 20038 20041 20044 20047 20050 20053 20056 20059 20062 20065 20068 20071 20074 20077 20079 20082 20085 20088 20091 20093 20096 20098 20101 20104 20106 20109 20112 20115 20118 20120 20123 20126 20128 20131 20134 20137 20140 20143 20146 20149 20152 20155 20158 20161 20164 20167 20170 20173 20176 20179 20182 20185 20188 20191 20194 20197 20200 20203 20206 20209 20212 20215 20218 20221 20224 20227 20230 20233 20236 20239 20242 20245 20248 20251 20254 20257 20260 20263 20266 20269 20272 20275 20278 20281 20284 20287 20290 20293 20296 20299 20302 20305 20308 20310 20313 20316 20319 20322 20325 20328 20331 20334 20337 20339 20342 20345 20348 20351 20354 20357 20360 20362 20365 20368 20371 20374 20377 20380 20383 20386 20389 20392 20395 20398 20401 20404 20407 20410 20413 20416 20419 20421 20423 20426 20429 20431 20434 20436 20439 20442 20445 20448 20451 20454 20457 20460 20463 20466 20469 20472 20475 20478 20481 20484 20487 20490 20493 20496 20499 20502 20505 20508 20511 20514 20517 20520 20523 20526 20529 20532 20535 20538 20541 20544 20547 20550 20553 20556 20559 20562 20565 20568 20571 20574 20577 20580 20583 20586 20589 20592 20595 20598 20601 20603 20605 20608 20611 20614 20617 20620 20623 20626 20629 20632 20635 20638 20641 20644 20647 20650 20653 20656 20659 20662 20665 20667 20670 20673 20676 20679 20682 20685 20688 20691 20694 20697 20699 20702 20705 20708 20710 20713 20716 20719 20722 20725 20728 20730 20733 20736 20739 20742 20745 20748 20751 20754 20757 20760 20763 20766 20769 20771 20774 20777 20780 20783 20786 20789 20791 20793 20796 20798 20801 20804 20806 20809 20812 20815 20817 20820 20823 20826 20828 20831 20834 20837 20840 20843 20845 20848 20850 20853 20856 20859 20862 20864 20867 20870 20873 20876 20878 20881 20883 20886 20889 20891 20893 20896 20899 20902 20905 20908 20910 20913 20916 20919 20922 20925 20927 20929 20931 20934 20936 20939 20941 20944 20947 20950 20953 20956 20958 20961 20964 20967 20970 20973 20976 20979 20982 20984 20986 20989 20992 20994 20997 21000 21003 21006 21008 21011 21014 21016 21019 21022 21024 21027 21030 21033 21036 21039 21042 21045 21048 21051 21053 21056 21059 21062 21065 21068 21071 21074 21077 21079 21082 21085 21088 21091 21094 21097 21100 21103 21106 21108 21110 21113 21116 21119 21122 21125 21128 21131 21134 21137 21140 21143 21146 21149 21152 21155 21158 21161 21164 21167 21170 21173 21176 21179 21182 21185 21188 21191 21194 21197 21200 21203 21206 21209 21212 21215 21217 21220 21223 21226 21229 21231 21234 21237 21240 21243 21246 21249 21252 21255 21258 21261 21264 21267 21270 21273 21276 21279 21281 21283 21286 21289 21292 21295 21298 21301 21304 21307 21310 21312 21315 21318 21321 21324 21326 21329 21332 21334 21337 21340 21343 21346 21349 21352 21355 21358 21361 21364 21367 21370 21373 21375 21378 21381 21384 21387 21390 21393 21396 21399 21402 21405 21408 21411 21414 21417 21420 21423 21426 21429 21432 21435 21438 21441 21444 21447 21450 21452 21455 21458 21461 21464 21467 21469 21472 21475 21478 21480 21483 21486 21489 21491 21493 21496 21499 21502 21505 21508 21511 21514 21517 21520 21523 21526 21529 21532 21535 21537 21540 21543 21546 21548 21551 21554 21557 21560 21562 21564 21567 21570 21573 21576 21579 21582 21585 21588 21591 21594 21597 21600 21603 21606 21609 21612 21615 21618 21621 21624 21627 21630 21633 21635 21638 21641 21644 21647 21650 21653 21656 21659 21662 21664 21667 21670 21673 21676 21678 21681 21683 21686 21689 21692 21695 21697 21700 21703 21706 21709 21712 21715 21718 21721 21724 21727 21730 21733 21736 21739 21742 21744 21747 21750 21752 21755 21758 21761 21764 21767 21770 21773 21776 21779 21782 21784 21786 21789 21792 21795 21798 21800 21803 21806 21809 21811 21814 21817 21820 21823 21825 21827 21830 21832 21835 21837 21840 21842 21845 21848 21850 21853 21856 21858 21861 21864 21866 21869 21872 21875 21877 21880 21883 21885 21888 21890 21893 21895 21898 21901 21903 21906 21909 21912 21915 21918 21921 21924 21927 21930 21933 21936 21939 21942 21944 21947 21950 21953 21956 21959 21962 21965 21968 21971 21974 21977 21980 21983 21986 21989 21992 21994 21996 21999 22002 22005 22008 22011 22013 22016 22019 22022 22025 22027 22030 22033 22035 22038 22041 22044 22047 22049 22052 22055 22058 22061 22064 22067 22070 22073 22076 22079 22082 22085 22088 22091 22094 22097 22100 22103 22106 22109 22112 22115 22118 22121 22124 22127 22130 22133 22136 22139 22142 22145 22148 22151 22154 22157 22160 22163 22165 22168 22171 22174 22177 22180 22183 22186 22189 22192 22195 22198 22201 22204 22206 22209 22211 22214 22217 22220 22223 22225 22228 22231 22234 22237 22240 22243 22246 22249 22252 22255 22258 22261 22264 22267 22270 22273 22276 22279 22281 22284 22286 22289 22292 22294 22297 22300 22303 22305 22308 22311 22314 22317 22320 22323 22326 22329 22332 22335 22338 22341 22344 22347 22350 22353 22356 22359 22362 22365 22368 22371 22374 22377 22380 22383 22386 22388 22391 22394 22396 22399 22402 22405 22408 22411 22414 22417 22420 22423 22426 22429 22432 22435 22438 22441 22444 22447 22450 22453 22456 22459 22462 22465 22468 22471 22474 22477 22480 22483 22486 22489 22492 22495 22498 22501 22503 22506 22508 22511 22514 22517 22520 22523 22526 22529 22532 22535 22538 22541 22544 22547 22550 22553 22556 22559 22561 22563 22566 22569 22572 22575 22578 22580 22583 22586 22589 22592 22594 22597 22600 22603 22606 22608 22611 22614 22617 22620 22623 22626 22629 22632 22635 22638 22641 22644 22647 22650 22653 22656 22659 22662 22664 22667 22670 22673 22676 22679 22682 22684 22687 22690 22692 22695 22698 22701 22704 22707 22710 22713 22716 22719 22722 22725 22728 22730 22733 22736 22738 22741 22744 22747 22750 22753 22756 22759 22762 22764 22767 22770 22773 22776 22779 22782 22784 22787 22790 22792 22795 22798 22801 22804 22807 22810 22813 22816 22819 22822 22825 22828 22831 22834 22837 22840 22843 22846 22849 22852 22855 22858 22861 22864 22867 22870 22873 22876 22879 22882 22885 22888 22891 22894 22897 22900 22902 22905 22908 22911 22913 22916 22919 22921 22924 22927 22930 22933 22936 22939 22941 22944 22947 22950 22953 22956 22958 22961 22964 22967 22970 22973 22976 22978 22981 22984 22987 22990 22992 22995 22997 23000 23003 23005 23008 23011 23014 23016 23019 23022 23025 23028 23031 23034 23037 23040 23043 23046 23049 23052 23055 23057 23060 23063 23066 23069 23072 23075 23078 23081 23084 23087 23090 23093 23096 23099 23102 23105 23108 23111 23114 23117 23120 23123 23126 23129 23131 23134 23136 23139 23141 23144 23146 23149 23152 23155 23158 23160 23163 23166 23169 23172 23174 23177 23180 23183 23186 23189 23192 23195 23198 23201 23204 23207 23210 23213 23216 23218 23221 23224 23227 23229 23232 23235 23238 23240 23243 23246 23248 23251 23254 23257 23259 23262 23265 23268 23271 23273 23276 23279 23282 23285 23287 23290 23293 23296 23299 23302 23305 23308 23311 23314 23317 23319 23322 23325 23328 23331 23334 23336 23339 23341 23344 23347 23350 23353 23356 23358 23360 23363 23366 23368 23371 23373 23376 23379 23381 23384 23387 23390 23393 23396 23399 23402 23405 23408 23411 23414 23417 23420 23422 23425 23428 23431 23434 23437 23439 23442 23445 23448 23451 23454 23457 23460 23463 23466 23469 23471 23474 23476 23479 23482 23484 23487 23490 23492 23495 23497 23500 23502 23505 23508 23511 23514 23517 23519 23521 23524 23527 23530 23533 23536 23539 23542 23545 23548 23551 23554 23556 23559 23562 23565 23568 23571 23573 23576 23579 23582 23584 23587 23589 23592 23595 23598 23601 23604 23607 23610 23613 23616 23619 23622 23625 23628 23631 23634 23636 23639 23642 23645 23648 23650 23653 23656 23659 23662 23665 23668 23671 23674 23677 23680 23683 23686 23689 23692 23695 23698 23701 23704 23707 23710 23713 23716 23719 23721 23724 23727 23729 23732 23735 23738 23741 23744 23747 23750 23752 23755 23758 23760 23763 23765 23768 23771 23774 23777 23780 23783 23786 23789 23792 23794 23797 23800 23802 23805 23808 23811 23813 23816 23819 23822 23825 23828 23831 23834 23836 23839 23842 23845 23848 23850 23852 23855 23858 23861 23864 23867 23870 23873 23876 23879 23881 23884 23887 23890 23893 23896 23899 23902 23905 23908 23911 23914 23917 23920 23923 23926 23929 23931 23934 23936 23939 23942 23945 23947 23950 23953 23956 23959 23962 23965 23968 23971 23974 23977 23980 23983 23986 23988 23991 23994 23997 24000 24003 24005 24008 24011 24014 24016 24018 24021 24024 24027 24029 24032 24035 24037 24040 24043 24046 24049 24051 24053 24056 24059 24062 24064 24067 24070 24072 24075 24078 24081 24084 24086 24089 24091 24094 24097 24100 24102 24105 24108 24111 24114 24117 24120 24123 24126 24129 24132 24135 24138 24141 24144 24147 24150 24153 24156 24159 24162 24165 24167 24170 24173 24176 24179 24182 24185 24188 24191 24194 24196 24199 24202 24205 24207 24210 24212 24215 24218 24221 24224 24227 24230 24233 24236 24239 24242 24245 24247 24250 24253 24256 24259 24262 24264 24267 24270 24273 24276 24279 24281 24284 24287 24290 24293 24296 24299 24302 24305 24308 24311 24314 24317 24320 24323 24326 24329 24331 24334 24337 24340 24343 24346 24349 24352 24355 24358 24360 24363 24366 24369 24372 24375 24378 24381 24384 24387 24390 24393 24396 24399 24402 24405 24407 24410 24413 24416 24419 24422 24425 24428 24431 24434 24437 24440 24443 24446 24449 24452 24455 24458 24461 24464 24467 24470 24473 24476 24479 24482 24485 24488 24491 24494 24496 24499 24502 24505 24508 24510 24513 24515 24517 24520 24523 24526 24529 24532 24535 24537 24540 24542 24545 24548 24551 24553 24556 24559 24561 24564 24567 24570 24573 24576 24579 24581 24584 24587 24590 24593 24596 24599 24602 24604 24607 24610 24613 24616 24618 24621 24624 24627 24630 24633 24636 24638 24641 24644 24647 24650 24653 24656 24659 24662 24665 24668 24671 24674 24676 24679 24681 24684 24687 24690 24693 24696 24699 24702 24704 24706 24709 24712 24715 24718 24721 24724 24727 24730 24732 24735 24738 24741 24743 24746 24749 24751 24754 24757 24760 24763 24766 24769 24772 24775 24778 24781 24784 24787 24790 24793 24796 24799 24802 24805 24808 24811 24814 24817 24820 24823 24826 24828 24831 24834 24836 24839 24842 24845 24848 24851 24853 24856 24859 24861 24864 24866 24869 24872 24875 24877 24880 24883 24886 24889 24891 24894 24897 24899 24901 24904 24907 24910 24913 24916 24918 24921 24924 24926 24929 24932 24935 24938 24941 24943 24946 24949 24952 24955 24958 24961 24964 24967 24970 24972 24975 24978 24981 24984 24986 24989 24992 24995 24998 25001 25004 25006 25009 25011 25014 25017 25020 25022 25025 25027 25030 25033 25035 25038 25040 25043 25046 25049 25051 25054 25057 25060 25063 25066 25069 25072 25075 25078 25081 25084 25087 25090 25092 25095 25098 25101 25104 25106 25109 25112 25115 25118 25121 25124 25126 25129 25132 25135 25138 25141 25144 25147 25149 25152 25155 25158 25161 25164 25167 25169 25172 25175 25178 25181 25184 25187 25190 25192 25195 25198 25200 25203 25206 25209 25212 25215 25218 25221 25224 25227 25229 25231 25234 25237 25240 25243 25246 25249 25252 25255 25258 25261 25264 25267 25269 25272 25275 25278 25281 25284 25287 25290 25292 25295 25298 25301 25303 25306 25308 25311 25314 25316 25319 25322 25325 25328 25331 25333 25336 25339 25342 25344 25347 25350 25353 25356 25358 25361 25364 25367 25369 25372 25375 25378 25381 25384 25387 25390 25392 25395 25398 25400 25403 25406 25409 25411 25414 25417 25420 25422 25425 25428 25431 25434 25436 25439 25442 25445 25447 25450 25453 25456 25459 25462 25465 25468 25471 25474 25476 25479 25482 25485 25488 25491 25494 25497 25500 25503 25505 25508 25511 25514 25517 25519 25522 25525 25527 25530 25533 25536 25539 25542 25545 25548 25551 25554 25557 25560 25563 25566 25569 25572 25575 25578 25581 25584 25587 25590 25593 25596 25599 25602 25605 25607 25610 25613 25616 25619 25622 25625 25628 25631 25634 25637 25640 25642 25645 25648 25651 25653 25656 25659 25662 25665 25668 25671 25673 25676 25679 25682 25685 25688 25691 25694 25697 25700 25703 25706 25709 25712 25715 25718 25721 25724 25727 25730 25733 25736 25739 25742 25745 25748 25751 25753 25756 25758 25761 25764 25766 25768 25771 25774 25777 25780 25783 25786 25789 25792 25795 25798 25801 25804 25807 25810 25813 25816 25819 25821 25824 25827 25830 25833 25836 25839 25842 25845 25848 25851 25854 25857 25860 25863 25866 25869 25872 25875 25878 25881 25884 25887 25890 25893 25896 25899 25902 25905 25908 25911 25914 25917 25920 25923 25926 25929 25932 25935 25938 25941 25944 25947 25950 25953 25956 25959 25962 25965 25968 25971 25974 25977 25980 25983 25986 25989 25992 25995 25998 26001 26004 26006 26009 26012 26014 26017 26020 26023 26026 26028 26031 26034 26037 26040 26043 26046 26049 26052 26055 26058 26060 26063 26065 26068 26071 26074 26076 26079 26082 26085 26087 26090 26092 26095 26098 26101 26103 26106 26108 26111 26113 26116 26119 26122 26124 26127 26130 26133 26136 26138 26141 26143 26146 26149 26152 26155 26158 26160 26163 26165 26167 26170 26173 26176 26179 26182 26185 26187 26190 26193 26196 26198 26201 26204 26207 26210 26213 26216 26219 26222 26225 26228 26231 26234 26237 26240 26243 26246 26249 26252 26255 26257 26260 26263 26266 26268 26270 26273 26276 26279 26282 26285 26287 26290 26293 26296 26299 26302 26305 26308 26311 26314 26317 26320 26323 26326 26329 26331 26334 26337 26339 26342 26344 26347 26350 26353 26355 26358 26360 26363 26366 26368 26371 26374 26377 26380 26383 26386 26389 26392 26395 26398 26401 26403 26406 26409 26412 26415 26418 26421 26424 26427 26430 26433 26435 26437 26440 26443 26446 26449 26452 26455 26458 26460 26463 26466 26469 26472 26475 26478 26481 26484 26487 26490 26493 26496 26499 26502 26504 26507 26510 26513 26516 26519 26522 26525 26528 26531 26534 26536 26539 26542 26545 26547 26550 26552 26554 26557 26560 26563 26566 26569 26572 26575 26578 26580 26583 26586 26589 26592 26595 26598 26601 26604 26607 26609 26612 26614 26617 26619 26622 26625 26628 26631 26634 26637 26640 26643 26645 26648 26650 26653 26656 26659 26662 26665 26668 26670 26673 26676 26678 26681 26683 26686 26689 26692 26695 26698 26701 26704 26707 26710 26713 26716 26719 26722 26725 26727 26730 26733 26736 26739 26742 26745 26748 26751 26754 26757 26759 26762 26765 26768 26771 26774 26777 26779 26782 26785 26788 26791 26794 26797 26800 26803 26806 26809 26812 26815 26818 26821 26824 26827 26830 26833 26836 26839 26842 26845 26848 26851 26854 26856 26859 26862 26865 26868 26871 26873 26876 26879 26882 26885 26888 26891 26894 26897 26900 26903 26906 26908 26911 26914 26917 26920 26922 26925 26928 26931 26934 26937 26939 26942 26945 26948 26951 26954 26956 26959 26962 26964 26967 26970 26973 26976 26979 26982 26985 26988 26991 26994 26997 27000 27003 27006 27009 27012 27015 27018 27021 27024 27027 27030 27033 27036 27039 27042 27044 27047 27050 27052 27055 27058 27061 27064 27067 27070 27073 27076 27079 27082 27085 27088 27091 27094 27097 27099 27102 27105 27108 27111 27114 27117 27120 27123 27126 27128 27131 27134 27137 27140 27143 27146 27149 27151 27154 27157 27160 27163 27166 27168 27171 27174 27177 27180 27183 27186 27188 27191 27194 27197 27200 27202 27205 27208 27211 27214 27217 27220 27223 27225 27228 27231 27233 27236 27239 27241 27244 27247 27250 27253 27255 27258 27261 27264 27267 27270 27273 27276 27279 27281 27284 27287 27289 27292 27295 27298 27301 27304 27307 27310 27313 27316 27318 27321 27324 27327 27330 27333 27335 27338 27341 27344 27347 27349 27352 27355 27358 27360 27363 27366 27369 27372 27375 27378 27381 27384 27387 27390 27393 27395 27397 27400 27403 27406 27409 27412 27415 27418 27421 27424 27427 27430 27432 27435 27438 27441 27444 27447 27449 27452 27454 27456 27459 27461 27463 27466 27469 27471 27474 27477 27480 27483 27486 27489 27491 27494 27496 27498 27501 27504 27507 27510 27513 27515 27518 27521 27524 27527 27530 27533 27536 27539 27541 27544 27547 27550 27553 27555 27558 27561 27564 27567 27570 27572 27575 27578 27580 27583 27586 27589 27592 27595 27598 27601 27603 27606 27608 27611 27614 27617 27620 27623 27626 27629 27631 27633 27636 27639 27642 27645 27648 27651 27654 27656 27659 27662 27665 27668 27671 27674 27676 27679 27682 27685 27688 27691 27694 27697 27700 27703 27706 27709 27712 27715 27718 27720 27723 27726 27728 27731 27734 27737 27740 27742 27745 27748 27751 27754 27756 27759 27762 27765 27768 27771 27774 27776 27779 27782 27785 27788 27791 27794 27797 27799 27802 27805 27808 27810 27813 27816 27819 27822 27824 27827 27830 27832 27835 27838 27841 27844 27847 27850 27853 27855 27858 27861 27864 27867 27869 27872 27874 27877 27880 27883 27886 27889 27892 27895 27898 27901 27904 27907 27910 27913 27916 27918 27921 27924 27927 27930 27933 27936 27939 27941 27944 27947 27949 27952 27955 27957 27960 27963 27966 27969 27972 27975 27978 27981 27984 27986 27989 27992 27995 27997 28000 28003 28006 28009 28012 28015 28018 28021 28024 28026 28029 28032 28035 28038 28041 28044 28047 28050 28053 28056 28059 28061 28064 28067 28070 28072 28075 28078 28081 28084 28087 28090 28093 28096 28099 28102 28105 28107 28110 28113 28116 28119 28122 28125 28128 28131 28134 28137 28139 28142 28145 28148 28151 28154 28156 28159 28162 28165 28168 28171 28174 28177 28180 28182 28185 28188 28190 28193 28196 28198 28201 28204 28207 28210 28212 28214 28217 28220 28223 28226 28228 28231 28234 28237 28240 28242 28245 28248 28250 28253 28256 28259 28262 28264 28267 28270 28272 28275 28278 28281 28284 28287 28289 28292 28295 28298 28301 28304 28307 28310 28313 28315 28318 28320 28323 28326 28329 28332 28335 28338 28341 28344 28347 28349 28351 28354 28357 28360 28363 28366 28369 28371 28374 28377 28379 28382 28385 28387 28390 28392 28395 28398 28401 28403 28406 28409 28411 28414 28417 28420 28423 28426 28429 28432 28435 28437 28439 28442 28445 28447 28449 28452 28455 28458 28461 28463 28466 28469 28472 28474 28477 28479 28482 28484 28486 28488 28491 28493 28496 28499 28502 28504 28507 28510 28513 28516 28519 28522 28525 28528 28531 28533 28536 28539 28541 28544 28547 28550 28553 28556 28559 28561 28564 28567 28570 28573 28576 28579 28581 28583 28585 28588 28591 28594 28597 28600 28603 28606 28609 28612 28615 28618 28620 28623 28626 28629 28632 28634 28637 28640 28643 28646 28649 28652 28655 28658 28660 28663 28666 28668 28671 28674 28677 28679 28682 28685 28688 28691 28694 28697 28700 28703 28706 28708 28711 28714 28717 28720 28723 28726 28729 28732 28734 28737 28740 28743 28745 28748 28751 28753 28756 28759 28762 28764 28767 28769 28772 28775 28777 28780 28782 28785 28788 28790 28793 28796 28799 28802 28805 28808 28810 28813 28816 28818 28821 28824 28827 28830 28833 28836 28839 28842 28845 28848 28851 28854 28857 28860 28863 28866 28869 28872 28875 28878 28881 28884 28887 28890 28893 28896 28899 28902 28905 28908 28911 28914 28917 28920 28923 28926 28929 28932 28935 28938 28941 28944 28947 28950 28953 28956 28959 28962 28965 28968 28971 28974 28977 28980 28983 28986 28989 28992 28995 28998 29001 29004 29007 29010 29013 29016 29019 29022 29025 29028 29031 29034 29037 29040 29043 29046 29049 29052 29055 29058 29061 29064 29067 29070 29073 29076 29079 29082 29085 29088 29091 29094 29097 29100 29103 29106 29108 29111 29114 29117 29120 29122 29125 29128 29131 29134 29137 29140 29143 29146 29149 29152 29155 29158 29160 29162 29165 29168 29171 29174 29177 29180 29183 29186 29189 29192 29195 29198 29201 29204 29207 29209 29212 29215 29218 29220 29223 29226 29229 29232 29235 29238 29241 29244 29247 29250 29252 29255 29257 29260 29263 29266 29269 29272 29275 29278 29281 29284 29287 29290 29293 29296 29299 29302 29305 29308 29311 29314 29317 29320 29323 29326 29329 29331 29334 29337 29340 29343 29345 29348 29351 29354 29357 29360 29363 29366 29369 29371 29374 29377 29380 29383 29386 29389 29392 29395 29398 29401 29404 29407 29410 29413 29416 29419 29422 29425 29428 29431 29434 29437 29440 29443 29446 29449 29452 29455 29458 29461 29464 29467 29470 29473 29476 29479 29482 29485 29488 29491 29494 29497 29500 29503 29506 29509 29512 29515 29518 29520 29523 29526 29529 29532 29535 29538 29541 29544 29547 29550 29553 29556 29559 29562 29565 29568 29571 29574 29577 29580 29583 29586 29589 29592 29595 29598 29601 29604 29607 29610 29613 29616 29618 29621 29624 29627 29630 29633 29636 29638 29641 29644 29647 29650 29653 29656 29658 29661 29664 29666 29669 29671 29674 29676 29679 29682 29685 29688 29690 29693 29696 29699 29702 29705 29707 29710 29713 29716 29718 29720 29723 29726 29729 29731 29734 29737 29740 29743 29745 29747 29750 29753 29756 29759 29762 29765 29768 29771 29774 29777 29780 29783 29786 29789 29791 29794 29797 29799 29802 29805 29807 29809 29812 29815 29818 29821 29824 29827 29830 29833 29836 29839 29841 29844 29846 29849 29852 29855 29858 29861 29864 29867 29870 29873 29876 29879 29881 29884 29887 29890 29893 29896 29899 29902 29904 29907 29910 29913 29916 29919 29922 29925 29928 29931 29934 29937 29940 29943 29946 29949 29952 29955 29958 29960 29962 29965 29968 29971 29974 29977 29980 29983 29986 29989 29992 29995 29998 30001 30004 30007 30010 30013 30015 30018 30021 30024 30027 30030 30033 30036 30039 30042 30044 30047 30050 30053 30056 30059 30062 30065 30068 30071 30074 30077 30080 30082 30085 30088 30091 30094 30096 30099 30101 30104 30107 30110 30113 30116 30119 30122 30125 30128 30130 30133 30136 30139 30142 30144 30147 30150 30153 30156 30158 30161 30163 30166 30169 30172 30175 30178 30181 30184 30187 30190 30193 30196 30199 30201 30204 30207 30210 30213 30216 30219 30222 30225 30228 30231 30234 30237 30240 30243 30246 30248 30251 30253 30256 30259 30261 30264 30267 30270 30272 30275 30277 30280 30283 30285 30288 30291 30293 30296 30298 30301 30304 30307 30310 30313 30316 30319 30321 30323 30326 30329 30332 30335 30337 30339 30342 30345 30347 30349 30352 30354 30357 30360 30362 30364 30367 30370 30372 30375 30378 30380 30383 30386 30389 30392 30395 30398 30401 30404 30406 30409 30412 30414 30417 30419 30422 30425 30428 30430 30433 30436 30439 30442 30445 30448 30451 30454 30456 30459 30462 30465 30468 30471 30474 30477 30480 30483 30486 30489 30492 30495 30498 30501 30504 30507 30510 30513 30516 30519 30522 30524 30527 30530 30533 30536 30539 30542 30545 30548 30551 30554 30557 30560 30563 30566 30569 30572 30575 30578 
</DataArray>
<DataArray type="UInt32" Name="types" format="ascii">
5 5 5 5 5 5 3 5 5 5 3 5 5 5 3 5 5 5 5 5 5 3 3 5 5 5 5 3 3 5 3 3 5 3 5 5 5 3 5 5 3 5 5 5 5 5 5 5 3 5 5 5 5 5 5 5 5 3 5 5 3 5 3 5 3 5 3 5 5 5 5 5 5 5 5 5 5 5 5 5 5 5 5 3 5 5 5 5 5 5 5 5 3 5 5 3 3 5 5 5 5 5 5 5 5 5 5 5 5 3 5 5 5 5 5 3 5 5 3 5 5 5 5 5 5 5 5 5 5 5 5 5 5 5 5 5 5 5 3 5 5 5 5 5 3 5 5 5 5 5 5 5 5 5 5 5 5 5 5 5 5 5 5 5 5 5 5 5 5 3 5 3 5 5 5 3 5 5 5 3 5 5 5 3 3 5 5 3 5 5 5 5 3 5 5 5 5 5 3 5 5 5 5 3 5 3 5 5 3 5 5 5 3 5 5 3 5 5 5 5 5 5 5 5 5 5 3 5 5 3 5 5 5 5 5 5 5 3 5 5 5 5 5 5 5 5 5 5 5 5 5 5 5 5 5 5 5 5 5 3 5 3 5 5 5 5 5 3 5 5 5 5 5 5 5 5 3 5 5 5 3 5 5 3 5 5 5 5 3 5 5 3 5 5 5 5 5 3 5 3 5 5 5 5 5 5 5 5 5 5 5 5 5 5 5 5 5 5 3 5 5 5 5 5 3 3 5 5 5 5 5 5 5 5 5 5 3 5 5 5 5 5 5 5 5 5 3 5 5 3 3 5 5 5 3 5 5 3 5 5 5 5 5 5 5 5 5 5 5 5 5 5 5 3 5 5 5 5 5 5 5 5 3 5 5 3 5 5 5 5 3 5 5 5 5 5 5 5 5 5 5 5 5 5 5 3 3 5 5 3 3 5 3 5 3 5 3 5 5 3 5 5 5 5 5 5 5 5 5 3 3 5 5 3 5 5 5 5 5 3 5 5 3 5 5 5 5 3 5 5 5 3 5 5 5 3 5 3 5 5 3 5 5 5 5 5 5 5 5 5 5 5 3 5 5 5 5 5 5 3 5 5 5 3 5 5 5 5 5 5 5 3 5 5 5 5 5 3 5 3 5 5 5 5 5 3 3 5 5 5 3 3 5 3 5 5 5 5 5 5 5 3 5 5 5 5 5 5 5 5 5 5 5 5 5 5 3 5 5 3 5 3 5 5 5 5 5 5 5 5 5 5 5 5 5 5 3 5 5 5 5 5 5 5 5 5 5 5 5 5 5 5 5 3 5 5 5 5 5 5 5 5 5 5 5 3 3 5 5 5 5 5 5 5 5 5 5 5 5 5 5 5 5 3 5 5 5 5 5 5 5 3 5 5 5 5 5 5 5 5 3 5 5 5 3 5 5 5 5 5 5 5 5 5 5 5 5 5 5 5 5 5 5 5 5 5 5 5 5 5 5 5 5 3 5 3 5 5 5 5 5 5 5 5 5 5 5 5 5 3 5 5 5 3 5 5 5 5 5 5 5 5 5 5 5 5 5 3 3 5 5 5 5 5 5 5 3 5 5 5 5 5 5 5 5 5 5 5 3 5 5 5 5 5 5 5 3 5 5 5 5 5 5 5 5 5 5 5 5 5 5 5 5 5 3 5 5 5 5 5 5 5 5 5 5 3 5 5 5 5 5 3 5 5 5 3 5 5 5 5 3 5 5 5 5 5 5 5 3 5 3 5 5 3 5 3 5 5 5 5 5 5 5 5 5 5 5 5 5 5 5 5 5 5 5 5 5 5 5 5 5 5 5 5 5 5 5 5 5 5 5 3 5 3 3 5 5 5 5 5 5 5 5 5 5 5 3 5 5 5 5 5 5 5 3 5 3 5 3 5 5 5 5 5 5 3 5 3 3 5 5 5 5 5 5 5 5 5 5 5 5 5 5 5 5 5 3 5 5 5 5 5 5 5 5 5 5 5 5 5 5 3 5 5 5 5 5 5 5 5 5 5 5 5 5 3 5 5 5 5 5 5 5 5 5 3 5 5 5 5 5 3 3 5 5 5 5 3 3 5 5 5 5 5 5 5 5 5 5 5 3 5 5 5 5 3 5 5 5 5 5 5 3 5 5 3 5 3 5 5 5 3 5 5 5 5 5 5 5 3 5 5 5 5 3 3 5 5 3 5 5 5 3 3 3 3 5 5 3 5 5 5 5 5 5 5 5 3 3 5 5 5 5 5 5 3 5 3 5 5 5 3 5 5 5 5 5 5 5 5 5 5 5 5 5 5 5 5 5 5 5 5 5 5 5 5 5 5 5 5 3 5 5 5 5 5 5 5 5 5 5 5 5 5 5 5 5 5 5 5 5 5 3 5 5 5 5 5 5 5 5 5 3 5 5 5 5 5 5 3 5 5 5 5 5 3 5 5 5 5 5 3 5 5 5 5 5 5 5 5 5 5 3 5 5 5 5 3 3 5 5 3 5 5 5 5 3 5 5 3 5 5 5 5 5 3 3 5 5 5 5 5 5 3 5 5 5 5 5 5 5 3 3 5 5 5 3 5 5 5 3 5 5 3 5 3 5 5 5 3 5 5 3 3 5 5 5 5 5 5 3 5 3 5 3 5 5 5 3 3 5 3 5 5 5 5 5 5 5 5 5 5 5 5 5 5 5 5 3 5 5 5 5 5 5 5 3 5 5 5 5 5 3 5 5 5 3 5 5 5 5 3 5 3 5 3 5 5 5 5 3 5 5 3 5 5 5 5 5 5 5 5 5 5 5 3 5 5 5 5 3 5 5 5 5 3 5 5 5 5 5 5 3 5 5 5 3 5 3 3 5 5 5 5 5 5 5 5 5 5 5 5 5 5 5 5 5 5 5 5 5 5 5 5 5 5 5 5 3 5 5 3 3 5 3 5 5 5 5 3 5 5 3 5 5 5 5 5 5 5 5 5 5 5 5 5 5 5 5 5 5 5 5 5 5 5 5 5 5 5 5 3 5 5 5 5 5 5 5 5 3 5 5 5 5 5 5 5 3 5 3 5 5 5 3 5 5 5 5 5 5 5 3 5 3 5 5 5 5 5 3 5 5 5 5 5 5 5 5 5 5 5 5 5 5 5 5 5 5 5 5 5 5 5 5 5 5 5 5 5 5 5 5 5 5 5 5 5 5 5 3 3 5 5 3 5 5 5 3 5 5 5 3 3 5 5 3 5 5 5 5 5 5 5 5 5 5 5 5 5 5 5 5 5 5 5 5 5 3 5 3 5 5 5 5 5 5 5 5 5 5 5 5 5 5 5 5 5 5 5 5 5 5 5 5 5 5 5 5 5 5 5 5 5 5 5 5 5 5 5 5 5 5 5 5 5 3 5 3 5 3 5 5 3 5 5 5 5 5 5 5 5 5 5 5 5 5 5 5 5 5 5 5 5 5 5 5 5 5 5 5 3 5 5 5 5 5 5 5 5 5 5 5 5 5 5 5 5 5 5 5 5 5 5 5 5 5 5 5 5 5 5 5 5 5 5 5 5 5 5 5 5 5 5 5 5 5 5 5 5 5 3 5 5 5 5 3 5 5 5 5 5 5 5 5 3 5 5 5 5 5 3 3 3 5 5 5 5 3 3 5 5 3 5 5 5 5 5 5 5 5 5 5 5 5 5 5 3 3 5 3 5 5 5 5 5 5 5 5 5 5 5 5 5 5 5 5 5 5 3 5 5 5 5 5 5 3 5 5 5 5 5 5 5 5 5 5 5 5 5 5 5 5 5 5 3 5 5 5 5 5 5 5 5 5 3 5 5 3 5 5 5 5 5 5 5 5 5 5 5 5 5 5 5 5 3 5 3 5 5 5 5 3 5 3 5 5 3 3 5 5 3 5 5 5 3 5 5 5 5 5 5 3 5 5 5 3 5 5 5 5 3 5 5 5 5 5 5 5 3 5 5 5 5 5 3 5 5 3 5 5 5 5 5 5 5 3 5 5 5 3 3 5 5 5 3 5 5 5 5 5 3 3 3 5 5 5 5 5 5 5 5 5 3 3 5 3 5 5 5 5 5 3 5 5 3 5 3 5 5 5 3 5 5 3 5 5 5 5 5 5 5 3 5 5 3 3 5 5 3 5 3 5 5 3 5 5 3 5 3 5 5 5 3 5 5 3 5 3 5 5 3 5 3 5 5 5 5 3 3 5 5 5 5 5 5 5 5 5 3 5 5 5 5 5 5 5 5 5 5 5 5 5 5 5 5 5 5 3 3 5 5 5 3 5 5 5 5 3 5 5 3 5 5 5 3 5 5 3 5 5 5 5 3 5 5 5 5 5 3 5 5 5 3 3 5 5 3 5 5 5 5 5 3 3 5 5 5 5 3 5 5 5 5 3 5 5 5 5 5 5 5 5 5 5 5 5 5 5 5 5 5 5 5 5 5 5 5 5 5 5 5 5 3 5 5 5 5 5 5 5 5 5 5 5 3 5 5 5 5 3 5 5 5 3 5 5 3 5 5 5 5 5 3 5 5 5 5 5 5 5 5 5 5 5 5 5 5 5 5 5 5 5 5 3 5 5 5 5 5 3 5 5 5 5 5 5 5 3 5 5 5 5 5 5 5 5 5 5 5 5 5 3 5 5 5 5 5 3 3 5 5 5 5 3 5 3 5 5 5 3 3 5 5 3 5 5 5 3 5 5 5 5 3 5 5 3 3 5 5 5 5 5 5 3 5 5 3 5 5 5 5 3 5 5 5 5 5 5 5 5 5 5 5 5 5 5 5 5 5 5 5 3 5 3 5 5 5 3 5 3 5 3 5 5 3 5 5 3 3 3 5 5 5 3 5 5 5 5 5 5 3 5 5 5 5 5 5 5 3 5 3 5 5 5 5 5 5 5 3 5 5 5 5 5 5 5 5 5 5 5 3 5 5 3 5 5 5 5 5 5 5 5 5 5 5 5 5 5 5 5 3 5 5 5 5 5 5 5 5 5 5 5 5 5 5 5 5 5 5 5 5 5 3 5 5 5 3 5 5 5 5 5 5 5 5 5 5 3 5 5 5 5 5 5 5 5 5 5 3 5 5 5 5 5 5 3 5 5 5 3 5 5 5 5 5 5 5 5 5 5 5 5 5 5 5 5 5 5 5 5 5 3 5 5 5 5 5 3 5 5 3 5 5 5 5 5 5 3 5 5 5 5 3 5 5 5 5 5 5 5 5 5 5 5 5 5 5 5 5 5 5 3 5 5 5 5 5 3 5 5 5 3 5 3 5 5 5 5 5 5 5 3 5 5 5 3 3 5 5 5 5 5 3 5 5 5 3 5 5 5 5 5 5 5 5 5 5 5 5 5 5 5 3 5 5 5 5 5 5 3 5 5 5 5 5 5 5 5 5 5 5 3 5 5 5 5 5 5 5 5 5 3 5 5 5 5 3 3 5 5 5 5 5 5 5 5 3 3 5 3 5 5 5 5 5 3 5 5 5 5 5 5 3 5 3 5 5 5 5 5 5 5 5 5 5 3 5 5 5 5 5 5 3 5 5 5 5 5 5 5 5 3 5 5 5 5 5 3 5 5 3 5 5 5 5 5 5 3 5 5 5 5 5 5 5 5 3 5 5 5 5 3 5 5 5 5 5 5 5 5 5 5 3 5 5 5 5 5 5 5 5 5 3 5 5 5 5 3 5 5 5 5 5 5 5 5 3 5 3 5 5 5 3 5 5 5 5 5 5 5 5 3 5 5 5 3 5 5 5 3 5 5 3 5 5 5 5 5 5 5 5 5 5 5 5 5 5 5 5 5 5 5 5 5 5 5 5 5 5 5 5 5 5 5 5 5 5 5 5 5 5 5 5 5 5 5 5 5 5 5 5 5 5 5 5 5 3 5 5 5 3 5 5 5 5 5 5 3 5 3 5 5 5 5 3 3 5 5 5 5 5 5 5 5 5 5 5 5 5 5 5 5 5 5 5 5 5 5 3 5 5 3 5 5 5 3 5 5 5 5 5 5 5 5 5 5 5 5 5 5 3 5 3 5 3 5 5 5 5 5 5 5 5 5 5 5 5 5 5 5 5 5 3 5 5 5 5 5 5 5 5 5 5 5 5 5 5 5 5 5 5 5 5 5 5 5 5 5 5 5 5 5 5 5 5 5 3 5 5 5 5 5 5 3 5 5 3 5 3 5 5 3 5 5 5 3 5 5 5 5 5 5 5 5 5 5 5 5 5 5 5 5 5 5 5 5 5 5 5 5 5 3 5 5 5 5 3 5 5 3 5 5 5 5 5 5 5 5 5 5 5 5 5 5 5 5 5 5 5 5 5 5 5 5 5 5 5 5 5 5 3 5 5 5 3 5 5 5 5 3 5 5 5 5 5 3 5 5 5 5 3 5 5 5 5 5 5 5 5 5 5 5 5 5 5 3 3 5 3 5 3 5 5 5 5 5 5 5 5 5 5 5 5 5 5 5 5 5 5 5 5 5 5 5 5 5 3 3 5 5 3 5 5 3 5 5 5 5 5 5 5 5 5 5 5 3 5 5 3 5 5 5 5 5 5 5 5 5 5 5 5 5 5 3 3 5 3 3 5 5 5 5 3 5 5 5 3 3 5 5 5 5 5 5 5 3 5 5 5 5 5 5 5 5 5 5 5 5 5 5 5 5 3 5 5 5 5 3 5 5 5 5 5 5 5 3 5 5 5 5 5 5 5 3 5 5 3 5 5 5 5 5 5 5 5 5 5 5 5 5 5 5 3 5 5 5 5 5 5 5 5 3 5 5 5 5 5 5 5 3 5 5 5 5 5 3 5 5 5 5 3 5 5 5 5 5 5 5 5 5 5 5 5 3 5 5 5 5 5 5 5 5 5 5 5 5 5 5 3 5 5 5 5 5 5 5 5 5 5 5 5 5 3 3 5 5 3 5 5 5 5 3 5 5 5 3 5 5 3 5 5 5 5 3 5 5 5 5 5 5 5 5 5 5 5 5 5 5 5 5 5 5 5 5 5 5 5 5 5 5 5 5 5 5 5 5 5 5 3 5 5 5 3 5 3 5 5 5 5 5 5 5 5 5 5 5 5 5 5 3 5 5 5 5 5 5 5 5 3 5 5 5 3 5 5 5 5 5 5 5 3 5 3 5 5 5 5 5 5 5 5 5 5 5 5 5 5 3 5 5 3 5 5 5 5 5 5 5 3 5 5 5 5 5 5 5 5 5 5 5 5 5 5 5 5 5 5 5 5 5 5 5 5 5 5 5 3 5 5 3 5 5 5 3 5 5 3 5 5 5 5 5 5 5 5 5 5 5 5 5 5 5 5 5 5 5 3 5 5 5 5 5 5 5 5 5 5 5 5 5 3 5 5 5 5 5 5 5 5 5 5 5 5 5 5 5 5 5 5 5 3 5 5 5 5 5 5 5 5 5 5 5 5 5 5 5 5 3 5 5 3 5 5 5 3 5 5 3 5 5 5 5 5 5 5 5 5 5 5 5 5 5 3 5 5 3 5 5 5 5 5 5 5 5 5 5 5 5 5 5 5 5 5 5 5 5 5 5 5 5 5 5 5 5 5 5 5 5 5 5 5 5 3 5 5 5 5 3 5 5 5 5 5 5 5 5 5 5 5 5 5 5 5 3 5 3 3 5 5 3 5 3 5 5 5 5 5 5 5 5 3 5 5 3 5 5 5 5 3 3 5 3 5 5 5 5 5 5 5 5 5 5 5 5 5 5 5 5 5 5 5 5 5 3 5 5 5 5 5 5 5 5 5 5 5 5 5 5 5 5 5 5 5 5 5 5 5 5 5 3 5 5 5 5 5 3 5 5 5 5 5 5 5 5 5 3 5 5 5 5 5 5 5 5 5 5 5 5 5 5 5 5 5 3 3 5 5 3 5 5 5 3 5 5 5 5 5 5 5 5 5 5 3 5 5 3 5 3 5 5 5 5 3 5 5 5 3 5 5 5 5 5 5 3 5 5 5 5 5 5 3 5 5 5 5 5 5 5 5 5 5 5 5 5 5 3 5 5 3 5 5 5 3 3 5 5 5 5 5 5 5 5 5 5 3 5 5 5 3 5 5 5 5 3 5 5 5 5 5 5 5 5 3 5 5 5 5 5 3 3 5 5 5 3 5 3 3 5 5 5 5 5 3 5 5 5 5 5 5 3 5 5 5 5 5 5 5 3 5 5 3 5 5 3 5 5 5 5 5 5 5 5 5 5 5 5 5 5 3 5 5 5 3 5 5 3 5 5 5 5 3 5 5 5 5 5 5 5 5 3 5 5 5 5 3 5 5 5 5 5 5 5 5 3 5 5 5 5 5 5 5 5 5 3 5 5 5 3 5 5 3 5 5 3 5 5 5 5 5 5 5 5 5 3 5 5 5 5 5 5 5 5 5 5 5 5 5 5 5 5 3 5 5 5 5 5 5 5 5 5 5 5 5 5 5 5 5 5 5 5 5 5 5 5 5 5 5 3 5 3 5 5 5 5 5 5 5 5 5 5 3 5 5 3 5 5 5 5 5 5 5 5 5 5 5 5 5 5 5 5 5 5 5 5 5 3 5 5 5 5 5 5 5 5 5 3 5 3 5 5 5 5 5 5 5 3 5 3 5 5 5 5 5 5 5 5 5 5 5 3 5 5 5 5 3 5 3 5 5 5 5 5 5 3 5 5 3 5 5 3 5 5 5 3 3 3 5 5 5 5 5 5 5 5 5 5 5 5 5 3 5 5 5 5 5 5 5 3 5 3 5 3 5 5 3 3 5 5 5 5 5 5 3 5 5 5 5 3 5 3 5 3 5 3 5 5 5 5 3 5 5 5 5 5 3 5 5 5 5 5 5 5 5 5 5 5 5 5 5 3 5 5 5 5 5 3 5 5 5 3 5 5 5 5 5 5 5 5 5 5 5 5 5 5 5 5 5 3 5 5 5 5 3 5 5 5 5 5 5 3 5 5 5 5 5 5 5 5 5 5 3 5 5 3 5 3 5 5 5 5 5 5 5 5 5 5 5 3 5 5 5 5 5 5 3 5 3 3 5 3 5 5 5 5 5 5 5 3 5 5 5 5 5 5 5 5 5 5 5 5 5 5 5 5 3 5 5 5 5 5 5 5 5 5 5 3 5 5 5 5 5 5 5 5 5 5 3 5 5 5 5 3 5 5 5 5 5 3 5 5 5 5 3 5 5 5 5 5 5 5 5 5 5 5 5 5 5 5 5 5 5 3 5 5 5 5 5 5 5 5 3 5 3 3 5 5 5 5 5 3 5 5 5 5 5 5 5 5 5 5 5 5 5 5 3 5 5 3 5 3 3 5 5 5 5 5 5 3 5 5 5 5 3 5 3 5 5 3 5 5 5 5 5 5 3 3 5 5 5 5 5 5 5 5 5 5 5 5 5 5 5 3 5 5 5 5 5 5 5 3 5 3 5 5 5 3 5 3 5 5 5 5 5 5 5 5 3 5 5 5 5 5 3 5 3 5 5 5 5 3 5 5 5 5 5 3 5 5 5 5 5 5 5 5 5 5 5 5 5 5 5 5 5 5 5 5 5 5 5 5 3 5 5 5 3 5 3 5 5 5 3 5 5 5 5 5 5 5 5 5 5 5 5 5 5 5 5 5 3 3 3 3 5 5 5 5 5 5 3 5 5 5 3 5 5 5 5 5 5 5 5 5 5 3 3 3 5 5 3 3 5 5 5 5 5 5 5 5 5 3 5 5 5 5 5 5 5 5 3 3 5 5 5 3 5 5 5 5 5 5 5 5 5 5 5 3 5 3 5 5 5 5 5 3 3 5 5 3 3 5 5 5 5 5 5 5 5 5 5 5 5 5 5 5 5 5 5 5 5 5 5 5 5 5 5 5 5 5 5 5 5 5 5 5 5 5 5 5 5 5 5 3 3 5 5 5 5 5 5 5 5 5 5 5 5 5 5 5 5 5 5 5 5 3 5 5 5 5 5 5 5 5 5 5 5 5 5 5 5 5 3 5 3 5 5 5 5 5 5 5 5 3 5 5 5 5 5 5 5 5 5 5 5 3 5 5 3 5 5 3 5 5 5 5 3 5 5 5 5 3 5 5 3 5 3 5 5 5 5 5 3 5 5 5 5 5 5 5 3 5 5 5 5 5 5 5 5 5 5 5 5 5 5 5 5 5 5 5 5 5 5 5 5 3 5 5 5 3 5 5 3 5 5 5 3 5 5 5 5 3 5 3 5 5 5 5 5 5 5 5 3 5 5 5 5 5 5 5 5 5 5 3 5 5 3 5 5 3 5 5 3 3 5 5 5 5 5 5 5 3 3 5 5 5 3 5 5 3 3 5 5 5 3 3 5 3 5 5 3 5 5 5 5 3 5 3 3 5 5 5 3 5 3 3 5 3 3 3 3 5 3 5 3 5 3 5 5 5 3 5 5 3 5 3 3 5 5 5 5 3 5 3 3 5 5 5 3 3 5 5 3 3 5 5 5 5 3 5 5 5 5 3 5 5 5 5 3 5 3 5 3 5 3 5 3 5 3 5 5 5 5 5 3 5 5 3 3 3 5 5 3 3 5 3 5 5 3 5 5 5 5 5 5 3 5 5 3 5 3 5 5 5 5 3 5 3 5 3 5 5 5 3 5 5 3 5 3 5 3 5 5 5 5 5 3 5 5 5 5 5 5 5 5 5 5 3 5 5 5 5 3 5 5 3 5 5 5 5 5 3 5 5 3 5 5 5 3 5 3 5 5 5 3 5 5 5 5 3 5 5 5 5 3 3 5 5 5 5 5 5 3 5 5 3 5 5 5 5 5 5 5 5 5 5 5 5 5 5 5 5 5 5 5 5 5 5 5 5 5 5 5 5 5 5 5 5 5 5 5 5 5 5 5 5 5 5 5 5 5 5 5 5 5 5 5 5 5 5 5 5 5 5 3 5 5 5 5 5 5 5 5 5 5 5 5 3 5 5 3 5 5 5 3 5 5 5 5 5 5 5 5 5 5 5 5 5 5 5 3 5 5 5 5 5 5 5 5 5 5 5 5 5 5 5 5 3 5 5 5 5 5 5 5 5 5 5 5 5 5 3 5 5 3 5 5 3 5 3 5 5 5 5 5 5 5 3 5 5 5 5 5 5 5 5 5 5 5 5 3 5 5 5 3 5 5 5 5 5 5 5 5 5 3 5 5 5 5 5 5 3 5 5 5 5 5 5 3 5 5 5 3 5 5 5 5 5 5 5 3 5 5 5 5 5 5 5 5 5 5 3 5 5 5 5 5 5 5 5 5 5 5 5 5 5 5 5 3 5 3 5 5 5 5 5 5 5 5 5 5 3 5 3 5 5 5 5 5 5 5 5 5 5 5 3 5 5 5 5 5 5 5 5 5 5 5 3 5 5 5 5 5 5 5 3 5 5 5 5 5 5 5 3 5 5 5 5 5 5 5 5 5 5 5 3 5 5 5 5 5 5 5 5 3 5 3 5 5 5 5 5 5 5 5 5 5 3 5 5 5 3 5 5 5 5 5 5 5 5 5 3 5 5 5 5 5 5 5 5 5 5 5 5 5 5 5 5 3 5 5 5 5 5 5 5 5 5 5 5 5 5 5 5 5 5 5 3 5 5 3 5 5 3 5 5 5 5 5 3 5 5 5 5 5 5 5 5 5 5 5 5 5 5 5 5 5 5 5 5 5 5 5 5 5 5 5 5 5 5 5 5 5 5 5 5 5 5 5 5 5 5 5 5 5 5 5 5 5 5 5 5 5 5 5 5 5 5 5 3 5 5 3 5 5 5 5 5 5 5 5 5 5 5 5 5 5 5 5 5 5 5 5 5 5 5 5 3 3 5 5 5 5 5 5 5 5 5 5 5 5 5 5 5 5 3 3 5 5 5 5 5 5 5 3 5 3 5 5 3 3 5 5 5 5 5 5 5 5 5 5 5 3 5 3 5 5 5 3 5 5 5 3 5 3 5 5 5 5 5 3 3 5 5 5 5 5 5 5 5 5 5 5 5 5 5 5 5 5 5 5 5 5 5 5 5 5 5 5 5 5 5 5 5 5 5 5 5 5 5 5 5 5 5 5 5 5 5 5 5 5 5 5 5 5 5 5 5 5 5 5 5 5 5 5 5 5 5 5 5 5 5 5 5 5 5 5 5 5 5 5 5 5 5 5 5 5 5 5 5 5 5 5 5 5 5 5 5 5 5 5 5 5 5 5 5 3 3 5 3 5 3 5 5 3 5 5 5 5 3 5 5 5 5 5 5 5 3 3 3 5 5 5 5 5 3 3 5 5 5 5 5 5 5 5 5 5 5 5 5 5 5 5 5 5 5 5 5 5 5 5 5 5 5 5 5 5 5 5 5 5 3 5 5 3 5 5 5 5 5 5 5 5 5 5 5 3 5 5 5 5 5 5 5 3 5 5 5 5 5 5 5 5 5 5 5 5 5 5 5 5 3 5 5 3 5 5 5 5 5 5 5 5 5 5 5 5 5 5 5 5 5 5 5 5 5 5 5 3 5 5 3 5 5 3 5 5 5 5 5 5 5 3 5 5 5 5 5 5 3 5 5 3 5 5 5 5 3 5 3 5 5 3 5 5 5 5 3 5 3 5 5 3 5 5 5 5 5 5 5 5 5 5 5 5 3 5 5 5 3 5 5 3 5 5 5 5 3 5 5 5 5 5 5 5 5 5 5 3 5 5 5 5 5 5 5 5 5 5 3 5 5 5 5 5 5 5 5 5 5 5 5 3 5 5 3 5 5 5 5 5 5 5 5 5 5 3 5 5 5 5 5 3 5 3 3 5 5 3 5 5 5 5 5 5 5 5 5 3 3 5 5 5 5 5 5 3 5 5 5 5 5 5 5 5 5 5 5 5 5 5 5 5 5 5 5 5 5 5 5 5 5 3 5 5 5 5 5 5 5 5 5 5 5 5 5 5 5 5 5 5 5 5 5 5 5 5 5 5 5 5 5 5 5 5 5 5 5 5 5 5 5 5 3 5 5 5 5 5 5 5 5 5 5 3 5 5 5 3 5 3 5 5 5 3 5 5 5 3 5 3 5 3 5 3 3 5 5 3 5 5 5 3 5 5 5 5 5 3 5 5 5 5 3 5 5 5 3 5 5 5 5 3 5 3 5 5 5 5 5 5 5 5 5 5 5 5 5 5 3 5 5 5 5 3 5 5 3 5 5 3 3 5 5 3 5 3 5 5 5 3 3 3 3 5 5 3 5 5 5 5 3 5 3 5 5 3 3 3 5 3 5 5 3 3 3 5 5 5 5 5 5 5 5 5 3 3 5 5 5 5 3 3 5 5 5 3 5 3 5 5 5 5 5 5 5 5 5 5 5 3 5 5 5 5 5 5 5 5 5 5 5 5 5 5 5 5 5 5 5 5 5 5 5 3 5 5 5 5 5 5 5 5 5 5 5 5 5 5 5 5 3 5 5 3 5 5 5 5 5 5 5 5 5 3 5 5 5 3 3 5 5 3 5 5 5 5 5 3 5 3 5 5 5 3 5 5 5 5 5 5 5 3 5 5 3 5 5 5 5 3 5 5 5 3 3 5 5 3 5 5 5 3 5 5 5 5 5 5 5 3 5 5 3 5 3 3 3 5 3 5 3 3 5 5 5 5 5 5 3 5 5 3 5 5 5 5 5 5 5 5 5 5 5 5 5 5 5 5 5 5 5 5 5 5 5 5 5 5 5 5 5 5 5 5 5 5 5 3 3 5 5 5 5 5 5 5 5 3 3 3 3 5 5 3 5 5 5 5 5 5 5 5 3 5 5 3 5 5 5 3 5 5 5 5 3 5 5 5 5 5 5 5 5 5 5 5 5 5 5 3 5 5 5 5 5 3 5 5 5 5 5 5 5 5 3 5 5 5 3 3 5 5 3 3 5 5 5 5 5 3 5 5 5 5 5 5 3 5 3 5 5 5 5 5 5 5 5 3 3 5 3 3 3 5 3 5 5 5 5 5 5 3 5 5 5 5 5 5 5 3 5 5 5 5 5 5 5 5 5 5 5 5 5 5 5 5 5 5 5 5 5 5 5 5 5 5 5 5 5 5 5 5 5 5 5 5 5 5 5 5 5 5 5 5 5 5 5 5 5 5 5 5 5 5 5 5 5 3 5 5 5 5 5 5 5 3 5 5 3 5 5 5 3 5 3 5 5 3 5 5 5 5 5 5 5 3 5 5 5 3 5 5 5 5 5 5 5 3 5 3 5 5 5 5 5 5 5 5 5 5 5 5 5 5 5 5 5 5 5 5 5 5 5 5 5 3 3 5 3 5 5 5 5 5 5 5 3 5 3 5 3 3 3 5 5 3 5 5 3 5 5 5 3 5 5 5 5 5 5 5 3 3 5 5 3 5 5 5 3 5 5 5 5 3 5 3 5 5 5 5 5 5 3 5 3 5 5 5 5 5 3 5 5 3 5 5 5 5 5 5 5 5 5 5 5 5 5 5 5 5 3 5 5 3 3 5 3 5 5 5 5 5 5 5 5 3 5 5 5 5 5 5 5 5 5 5 5 5 5 5 5 5 3 5 5 5 3 5 5 3 5 5 5 5 5 5 3 5 5 5 5 5 5 5 5 5 5 5 5 5 5 5 5 5 5 5 3 3 5 5 5 5 5 5 5 3 5 5 5 3 5 5 3 5 3 5 5 3 5 3 3 5 3 5 3 5 3 5 5 5 5 5 5 5 5 5 5 5 5 5 5 5 3 3 5 5 5 5 5 5 5 3 5 5 5 5 5 5 5 5 5 5 5 5 5 5 5 3 5 3 5 5 5 5 5 5 3 5 5 5 3 5 5 5 3 5 5 5 5 5 5 5 5 5 5 5 5 5 5 5 5 5 5 5 5 5 3 5 5 5 5 3 5 5 5 5 5 3 5 5 5 3 5 5 5 5 5 5 5 5 5 5 5 5 3 5 5 5 5 3 5 5 5 5 5 5 5 5 3 5 5 5 5 5 5 5 3 5 5 5 5 3 5 5 5 5 5 5 5 5 3 5 5 5 5 5 5 5 5 5 3 5 5 5 5 5 5 5 5 5 5 5 5 5 5 5 5 5 5 5 5 5 5 5 5 5 5 5 5 3 5 5 5 5 5 5 5 3 5 5 5 5 5 5 5 5 5 5 5 5 5 5 5 5 5 5 5 5 5 5 5 5 5 5 5 5 5 3 5 5 5 5 5 5 5 5 5 5 5 5 5 5 5 5 5 5 5 5 5 5 5 5 5 5 5 5 5 5 5 5 3 5 5 3 5 5 5 5 3 5 5 3 5 5 5 5 3 5 5 5 3 5 5 5 3 5 5 5 5 5 5 5 5 5 5 3 5 5 3 5 5 5 5 5 5 3 5 5 5 5 5 3 5 5 5 5 3 5 5 5 5 5 5 5 5 5 5 3 5 5 5 5 5 5 5 5 5 3 5 5 5 5 5 5 5 5 5 5 5 5 5 3 5 5 5 5 5 5 5 3 5 5 5 5 5 3 5 5 5 5 5 5 5 5 5 5 5 5 5 5 3 5 5 5 5 5 5 5 5 3 5 5 5 5 5 5 5 5 5 5 5 5 5 5 5 5 5 5 5 5 5 5 5 5 5 5 5 5 5 5 5 5 5 3 5 5 5 5 3 3 5 5 3 5 5 3 5 5 3 5 5 5 5 5 5 5 5 5 5 5 5 5 5 5 5 5 5 5 3 5 5 5 5 3 5 5 5 5 5 5 5 5 5 5 5 5 5 5 5 5 5 5 5 5 5 5 5 5 5 5 5 5 5 5 5 5 5 5 5 5 5 5 5 5 5 5 5 5 5 5 5 5 5 5 5 5 5 5 5 5 5 5 5 5 5 5 5 5 5 5 5 5 5 5 5 3 5 5 5 5 3 5 3 5 5 3 5 5 5 5 3 5 5 3 5 5 5 5 5 5 5 5 5 5 5 5 5 5 5 5 5 5 5 5 5 5 5 5 5 5 5 5 5 5 5 5 5 5 5 5 5 5 5 5 5 5 5 5 5 5 5 5 5 5 5 5 5 5 5 5 5 5 5 5 3 5 5 5 5 5 5 5 5 5 3 5 5 5 5 5 5 5 3 5 5 5 5 5 5 5 5 5 5 5 5 5 5 5 5 5 5 5 3 3 5 5 3 5 3 5 5 5 5 5 5 5 5 5 5 5 5 5 5 5 5 5 5 5 5 5 5 5 5 5 5 5 5 5 5 5 5 5 5 5 5 5 5 5 5 5 5 5 5 5 5 5 5 5 5 5 5 5 5 5 3 3 5 5 5 5 5 5 5 5 5 5 5 5 5 5 5 5 5 5 5 5 3 5 5 5 5 5 5 5 5 5 5 3 5 5 5 3 5 5 5 5 5 5 3 5 5 5 5 5 5 5 5 5 5 5 5 5 3 5 5 5 5 5 5 3 3 5 3 5 5 3 5 5 5 3 5 5 5 3 5 5 5 5 5 3 5 3 5 5 5 5 3 5 5 5 5 3 5 3 5 5 3 3 5 5 5 5 5 3 5 5 5 5 5 3 3 3 5 3 5 3 5 5 5 5 5 3 5 5 5 5 5 5 5 5 3 3 5 5 3 5 5 5 5 3 5 5 3 5 5 3 5 5 5 5 5 5 5 5 5 3 5 5 5 5 5 5 5 5 3 5 5 5 5 5 5 5 5 5 3 3 5 5 5 5 5 5 5 5 5 5 5 5 5 5 5 5 5 5 5 5 5 5 5 5 5 5 5 5 5 5 5 5 5 5 5 3 5 5 5 5 3 5 5 5 5 5 5 5 5 5 5 5 5 5 5 5 5 3 3 5 5 5 5 5 5 5 5 5 3 5 5 5 5 3 5 5 3 5 5 5 5 5 5 5 5 5 5 5 5 5 3 5 5 5 5 5 5 5 5 5 5 5 5 5 5 5 5 5 5 5 5 5 5 5 5 5 3 5 5 5 5 5 3 5 5 5 3 5 5 5 3 3 5 5 5 5 5 5 5 5 5 5 5 5 5 5 3 5 5 5 3 5 5 5 5 3 3 5 5 5 5 5 5 5 5 5 5 5 5 5 5 5 5 5 5 5 5 5 5 5 3 5 5 5 5 5 5 5 5 5 3 5 5 5 5 3 5 3 5 5 5 5 3 5 5 5 5 5 5 5 5 5 5 5 5 5 5 5 3 5 5 3 5 5 5 5 5 5 5 5 5 5 3 3 5 5 5 5 3 5 5 5 3 5 5 5 5 3 3 5 3 5 3 5 3 5 5 3 5 5 3 5 5 3 5 5 5 3 5 5 3 5 3 5 3 5 5 3 5 5 5 5 5 5 5 5 5 5 5 5 5 3 5 5 5 5 5 5 5 5 5 5 5 5 5 5 5 5 3 3 5 5 5 5 5 3 5 5 5 5 3 5 5 3 5 5 5 5 3 5 5 5 5 5 5 5 5 5 5 5 5 5 5 5 5 5 5 5 5 5 5 5 5 5 5 5 5 5 5 5 5 5 5 5 5 5 5 3 5 5 5 5 5 5 5 5 5 5 5 5 5 3 5 3 5 5 5 5 3 5 5 5 5 5 5 5 5 5 5 5 5 5 5 5 5 5 5 3 5 3 5 5 3 5 5 5 3 5 5 5 5 5 5 5 5 5 5 5 5 5 5 5 5 5 5 5 5 5 5 5 5 5 5 5 3 5 5 3 5 5 5 5 5 5 5 5 5 5 5 5 5 5 5 5 5 5 5 5 5 5 5 5 5 5 5 5 5 5 5 5 5 5 5 3 5 3 5 5 5 5 5 5 5 5 5 5 5 5 5 5 5 5 5 3 3 5 5 5 5 5 3 5 5 5 5 3 5 5 5 5 3 5 5 5 5 5 5 5 5 5 5 5 5 5 5 5 5 5 5 3 5 5 5 5 5 5 3 5 5 3 5 5 5 5 5 5 5 5 5 5 5 5 3 5 5 3 5 5 5 5 5 5 5 5 3 5 5 5 5 5 5 3 5 5 3 5 5 5 5 5 5 5 5 5 5 5 5 5 5 5 5 5 5 5 5 5 5 5 5 5 5 5 5 5 5 5 5 5 5 5 5 3 5 5 5 3 5 5 3 5 5 5 5 5 5 3 5 5 5 5 5 3 5 5 5 5 5 5 3 5 5 5 5 3 5 3 5 5 3 5 5 5 3 5 5 5 5 5 5 5 5 5 5 5 5 5 3 5 5 5 5 5 5 5 5 5 5 5 5 5 5 5 5 5 5 5 5 5 5 5 5 3 5 3 5 3 5 3 5 5 5 5 3 5 5 5 5 3 5 5 5 5 5 5 5 5 5 5 5 5 5 5 3 5 5 5 3 5 5 5 3 5 5 3 5 5 5 3 5 5 5 5 3 5 5 5 5 3 5 5 5 5 5 5 5 5 5 5 3 5 5 5 5 5 3 5 3 5 5 5 5 5 3 3 5 5 3 5 3 5 5 3 5 5 5 5 5 5 5 5 5 5 5 5 5 3 5 5 5 5 5 3 5 5 5 5 5 5 5 5 5 5 3 5 3 5 5 3 5 5 3 5 3 5 3 5 5 5 5 5 3 3 5 5 5 5 5 5 5 5 5 5 5 3 5 5 5 5 5 3 5 5 5 3 5 3 5 5 5 5 5 5 5 5 5 5 5 5 5 5 5 3 5 5 5 5 3 5 5 5 5 5 5 5 5 5 5 5 5 5 5 5 5 5 5 5 5 5 5 5 3 5 5 3 5 5 5 5 5 5 5 3 5 5 3 5 3 5 5 5 5 5 5 5 5 5 3 5 5 3 5 5 5 3 5 5 5 5 5 5 5 3 5 5 5 5 3 3 5 5 5 5 5 5 5 5 5 3 5 5 5 5 5 5 5 5 5 5 5 5 5 5 5 5 3 5 3 5 5 5 3 5 5 5 5 5 5 5 5 5 5 5 5 5 3 5 5 5 5 5 3 5 5 5 3 3 5 5 5 3 5 5 3 5 5 5 5 3 3 5 5 5 3 5 5 3 5 5 5 5 3 5 3 5 5 5 3 5 5 5 5 5 5 5 5 5 5 5 5 5 5 5 5 5 5 5 5 5 3 5 5 5 5 5 5 5 5 5 3 5 5 5 3 5 3 5 5 5 5 5 5 5 5 5 5 5 3 5 5 5 5 5 3 5 5 5 5 5 3 5 5 5 5 5 5 5 5 5 5 5 5 5 5 5 5 3 5 5 5 5 5 5 5 5 5 3 5 5 5 5 5 5 5 5 5 5 5 5 5 5 5 3 5 5 5 5 5 5 5 5 5 5 5 5 5 5 5 5 5 5 5 5 5 5 5 5 5 5 5 5 5 3 5 5 5 5 3 5 3 3 5 5 5 5 5 5 3 5 3 5 5 5 3 5 5 3 5 5 5 5 5 5 3 5 5 5 5 5 5 5 3 5 5 5 5 3 5 5 5 5 5 5 3 5 5 5 5 5 5 5 5 5 5 5 5 3 5 3 5 5 5 5 5 5 5 3 3 5 5 5 5 5 5 5 5 3 5 5 5 3 5 5 3 5 5 5 5 5 5 5 5 5 5 5 5 5 5 5 5 5 5 5 5 5 5 5 5 5 3 5 5 3 5 5 5 5 5 3 5 5 3 5 3 5 5 5 3 5 5 5 5 3 5 5 3 3 5 5 5 5 5 3 5 5 3 5 5 5 5 5 3 5 5 5 5 5 5 5 5 5 3 5 5 5 5 3 5 5 5 5 5 5 3 5 3 5 5 5 3 5 3 5 5 3 5 3 5 5 5 3 5 5 5 5 5 5 5 5 5 5 5 5 5 3 5 5 5 5 3 5 5 5 5 5 5 3 5 5 5 5 5 5 5 3 5 5 5 5 5 5 3 5 5 5 5 5 5 5 3 5 5 3 5 5 5 5 5 5 5 5 5 3 3 5 5 5 5 5 5 5 5 5 5 5 5 3 5 5 5 5 5 5 5 3 5 5 5 3 5 3 5 5 3 5 5 5 5 5 3 5 5 5 3 5 5 5 5 3 5 5 5 3 5 5 5 5 5 5 5 3 5 5 3 5 5 5 3 5 5 5 3 5 5 5 5 3 5 5 5 3 5 5 5 5 5 5 5 5 5 3 5 5 5 5 5 5 5 5 5 3 5 5 5 5 3 5 5 3 5 5 5 5 5 5 5 5 5 5 5 5 5 5 5 5 5 5 5 5 5 5 5 5 5 5 3 5 5 5 5 5 5 5 5 5 5 5 3 5 5 5 3 5 5 5 5 5 5 3 5 5 5 5 5 5 5 5 5 5 5 5 5 5 5 5 5 5 5 5 5 5 5 5 5 5 3 5 3 5 5 3 3 5 5 5 5 5 5 5 5 5 5 5 5 5 5 5 5 5 3 5 5 5 5 5 5 5 5 5 5 5 5 5 5 5 5 5 5 5 5 5 5 5 5 5 5 5 5 5 5 5 5 5 5 5 5 5 5 5 5 5 5 5 5 5 5 5 5 5 5 5 5 5 5 5 5 5 5 5 5 5 3 5 5 3 5 5 5 5 3 5 5 5 5 5 5 5 5 5 5 3 5 3 5 5 5 3 5 5 5 3 5 3 5 5 5 3 5 3 5 3 5 5 5 3 5 5 5 5 3 5 3 5 5 5 5 5 3 5 3 3 5 5 5 5 5 5 3 5 5 5 3 5 5 5 5 5 5 5 5 5 5 5 5 5 5 5 5 5 5 5 3 5 5 5 3 3 5 5 5 5 5 3 5 5 5 5 5 5 5 5 5 5 5 5 5 5 3 5 5 3 5 3 5 5 5 3 5 3 5 5 3 5 5 5 5 5 5 5 5 5 5 5 3 5 5 5 5 5 5 5 5 5 5 3 3 5 5 5 5 5 5 5 3 5 5 5 5 5 5 5 5 5 5 5 5 5 5 3 5 5 5 5 5 5 5 5 5 5 3 5 5 5 3 5 3 3 5 5 5 5 5 5 5 5 3 5 5 5 5 5 5 5 5 5 3 5 3 5 3 5 5 5 5 5 5 5 5 3 5 3 5 5 5 5 5 5 3 5 5 3 5 3 5 5 5 5 5 5 5 5 5 5 5 5 5 5 3 5 5 5 5 5 5 5 5 5 5 3 5 5 5 5 5 5 3 5 5 5 5 5 5 5 5 5 5 5 5 5 5 5 5 5 5 5 5 5 5 5 5 5 3 5 5 5 5 5 3 5 5 5 5 5 5 5 5 5 5 5 3 5 5 5 5 3 5 5 5 5 5 3 5 5 5 5 5 3 5 5 3 5 5 5 5 5 5 5 5 5 5 5 5 5 5 5 5 5 5 5 5 5 5 5 5 5 5 3 5 5 3 5 5 5 5 5 5 5 5 5 5 5 5 5 5 5 3 5 5 5 5 5 5 5 5 5 3 5 5 5 5 5 5 5 3 5 5 5 5 5 3 5 5 5 5 5 5 3 5 5 5 5 3 5 5 5 5 5 5 5 3 5 5 3 5 5 3 5 5 5 5 3 5 5 5 5 5 5 5 5 3 5 5 3 5 5 5 5 5 5 5 5 5 3 5 5 5 5 5 3 5 5 5 5 3 5 5 5 3 5 5 5 5 5 5 5 5 5 5 5 3 3 5 5 5 5 5 5 5 5 5 5 5 3 5 5 5 5 5 3 5 3 3 5 3 3 5 5 3 5 5 5 5 5 5 3 5 3 3 5 5 5 5 5 3 5 5 5 5 5 5 5 5 3 5 5 5 5 3 5 5 5 5 5 3 5 5 3 5 5 5 5 5 5 5 3 5 3 5 5 5 5 5 5 5 3 3 5 5 5 5 5 5 5 3 5 5 5 5 5 5 3 5 5 5 5 5 5 5 5 5 5 5 5 5 5 3 5 5 3 5 5 5 5 3 5 5 5 5 3 5 5 5 5 5 5 3 5 5 5 5 5 5 5 3 5 5 5 3 5 5 5 5 3 5 5 3 5 5 5 5 5 5 5 3 5 5 5 5 3 5 3 5 5 5 5 5 5 5 5 5 5 5 5 5 5 3 5 5 5 5 5 5 5 3 5 5 3 5 5 3 5 5 5 5 5 5 5 5 5 3 5 5 5 3 5 5 5 5 5 5 5 5 5 3 5 5 5 5 5 5 5 5 5 5 5 3 5 5 5 3 5 5 5 5 5 5 5 5 5 5 5 3 5 5 5 5 5 5 5 5 5 5 3 5 5 5 5 5 3 5 5 5 5 5 5 5 5 3 5 5 3 5 5 3 5 5 5 5 3 3 5 5 5 5 3 5 5 5 5 3 5 5 3 5 5 5 5 3 5 5 3 5 5 5 5 5 3 5 5 5 5 5 5 5 5 3 5 3 5 5 5 5 5 5 5 5 5 3 3 5 5 5 5 5 5 3 5 5 3 5 5 3 5 3 5 5 5 3 5 5 3 5 5 5 5 5 5 5 5 3 3 5 5 3 3 5 5 5 5 3 5 5 5 3 5 3 5 3 3 3 5 3 5 5 5 3 5 5 5 5 5 5 5 5 5 3 5 5 3 5 5 5 5 5 5 3 5 5 5 5 5 5 3 3 3 5 5 5 5 5 5 5 5 5 5 5 3 5 5 5 5 3 5 5 5 5 5 5 5 5 3 5 5 3 5 5 5 3 5 5 5 5 5 5 5 5 5 3 5 5 5 5 5 5 5 5 3 5 5 5 3 5 5 3 5 5 5 3 5 3 5 5 3 5 3 5 5 3 5 5 5 5 5 5 3 5 5 3 5 5 5 5 5 5 5 5 5 5 5 5 5 5 5 5 5 5 5 5 5 5 5 5 5 5 5 5 5 5 5 5 5 5 5 5 5 5 5 5 5 5 5 5 5 5 5 5 5 5 5 5 5 5 5 5 5 5 5 5 5 5 5 5 5 5 5 5 5 5 5 5 5 5 5 5 5 5 5 5 5 5 5 5 5 5 5 5 5 5 5 5 5 5 5 5 3 5 5 5 5 3 5 5 5 5 5 5 5 5 5 5 5 5 3 3 5 5 5 5 5 5 5 5 5 5 5 5 5 5 5 3 5 5 5 3 5 5 5 5 5 5 5 5 5 5 3 5 3 5 5 5 5 5 5 5 5 5 5 5 5 5 5 5 5 5 5 5 5 5 5 5 5 3 5 5 5 5 3 5 5 5 5 5 5 5 5 3 5 5 5 5 5 5 5 5 5 5 5 5 5 5 5 5 5 5 5 5 5 5 5 5 5 5 5 5 5 5 5 5 5 5 5 5 5 5 5 5 5 5 5 5 5 5 5 5 5 3 5 5 5 5 5 5 5 5 5 5 5 5 5 5 5 5 5 5 5 5 5 5 5 5 5 5 5 5 5 5 5 5 3 5 5 5 5 5 5 3 5 5 5 5 5 5 3 5 5 3 5 3 5 3 5 5 5 5 3 5 5 5 5 5 3 5 5 5 3 3 5 5 5 3 5 5 5 5 3 3 5 5 5 5 5 5 5 5 5 5 5 5 5 5 3 5 5 3 5 5 3 3 5 5 5 5 5 5 5 5 5 5 3 5 3 5 5 5 5 5 5 5 5 5 5 5 3 5 5 5 5 5 5 5 3 5 5 5 5 5 5 5 5 5 5 5 5 5 5 5 5 5 5 3 3 5 5 5 5 5 5 5 5 5 5 5 5 5 5 5 5 5 3 5 5 5 5 5 5 5 5 5 3 5 5 5 5 5 5 5 5 5 5 5 5 3 5 5 5 5 3 5 3 5 5 5 5 5 5 5 5 5 3 5 5 5 5 3 5 5 5 5 3 5 3 5 5 5 5 5 5 5 5 5 5 5 5 3 5 5 5 5 5 5 5 5 5 5 5 5 5 5 5 3 5 3 5 5 3 5 5 5 3 5 3 5 5 3 5 5 3 5 3 5 5 5 5 5 5 5 3 3 5 5 5 5 3 3 5 5 3 3 5 3 5 5 3 3 5 5 3 5 5 3 5 5 5 5 5 5 5 5 3 5 5 3 5 3 5 5 5 3 5 5 5 5 5 5 5 5 3 5 5 5 5 5 5 5 5 5 5 5 5 5 5 5 5 5 5 5 5 5 5 3 5 5 5 5 5 5 5 5 5 5 5 5 5 5 5 5 5 5 
</DataArray>
</Cells>
<PointData Scalars="" Vectors="displacement," Tensors="">
<DataArray type="Float64" Name="displacement" NumberOfComponents="3" format="ascii">
8.4637858428873541e-07 0.054996666505939866 0 0.00035040093935240273 0.053820505168475197 0 -9.389082516237401e-08 0.049244954682194204 0 8.4637858428873541e-07 0.054996666505939866 0 0.00035040093935240273 0.053820505168475197 0 4.9337479689797294e-07 0.054997422078496304 0 0.00035040093935240273 0.053820505168475197 0 0.00023875395473109946 0.053976327413772653 0 4.9337479689797294e-07 0.054997422078496304 0 0.00035040093935240273 0.053820505168475197 0 0.00023875395473109946 0.053976327413772653 0 9.161114222297999e-05 0.053179700889342207 0 0.00023875395473109946 0.053976327413772653 0 0.00022328755494241333 0.054000540516709293 0 9.161114222297999e-05 0.053179700889342207 0 0.00023875395473109946 0.053976327413772653 0 0.00022328755494241333 0.054000540516709293 0 4.9337479689797294e-07 0.054997422078496304 0 4.2641708956414605e-05 0.054067343350021675 0 8.927329530998553e-08 0.054999686541157423 0 -0.00021516253146276081 0.053363493980853445 0 -0.00030668147239863085 0.053501418308087807 0 -0.00016694045474769918 0.053845839053955243 0 0.00022328755494241333 0.054000540516709293 0 -0.00037132717034274627 0.05310249239527913 0 9.161114222297999e-05 0.053179700889342207 0 -0.00013422201652529722 0.054107561447470212 0 -0.00021516253146276081 0.053363493980853445 0 -0.00016694045474769918 0.053845839053955243 0 4.2641708956414605e-05 0.054067343350021675 0 -0.00030324909041299616 0.053241910431932112 0 9.161114222297999e-05 0.053179700889342207 0 -9.4367091629161669e-05 0.051688195194683526 0 -0.00050537634102269747 0.052534727591060537 0 -0.00037132717034274627 0.05310249239527913 0 9.161114222297999e-05 0.053179700889342207 0 -0.00050537634102269747 0.052534727591060537 0 -9.4367091629161669e-05 0.051688195194683526 0 -0.0006289466521026165 0.052291910561395379 0 -0.00050537634102269747 0.052534727591060537 0 0.00015236869631996038 0.051500449093344919 0 -0.00044841488161434788 0.051148266359133901 0 0.00035040093935240273 0.053820505168475197 0 -9.4367091629161669e-05 0.051688195194683526 0 -9.389082516237401e-08 0.049244954682194204 0 0.00035040093935240273 0.053820505168475197 0 9.161114222297999e-05 0.053179700889342207 0 -9.4367091629161669e-05 0.051688195194683526 0 -9.4367091629161669e-05 0.051688195194683526 0 -9.389082516237401e-08 0.049244954682194204 0 -0.00012039902360156025 0.049478071514557548 0 -9.389082516237401e-08 0.049244954682194204 0 -0.00010066270231180923 0.046549418542367223 0 -0.00012039902360156025 0.049478071514557548 0 -9.389082516237401e-08 0.049244954682194204 0 -0.00010066270231180923 0.046549418542367223 0 -1.5367952421577766e-06 0.041698618091141434 0 -0.00010066270231180923 0.046549418542367223 0 -0.0026084089426000262 0.048859865527370247 0 -0.00012039902360156025 0.049478071514557548 0 -0.00018642640153668084 0.04620090757963121 0 -0.00082681504003331288 0.047881599326732235 0 -0.00082681504003331288 0.047881599326732235 0 -0.00044841488161434788 0.051148266359133901 0 -0.00076410743261841937 0.052342701490393981 0 -0.0006289466521026165 0.052291910561395379 0 -0.0006750646650039413 0.052700894554021202 0 -0.00010066270231180923 0.046549418542367223 0 7.9291626426996305e-05 0.044694798432381999 0 -1.5367952421577766e-06 0.041698618091141434 0 -3.7058712250059272e-06 0.041690325268535881 0 -0.0013242371961132244 0.039360813906878338 0 -9.615891798463996e-05 0.039037013392655015 0 7.9291626426996305e-05 0.044694798432381999 0 -1.5367952421577766e-06 0.041698618091141434 0 -0.00024630300573269033 0.043299705447727467 0 -0.0011196621744305202 0.041119654754222017 0 -0.00039492560441904294 0.039122862872028749 0 -3.0588134885355362e-07 0.04169540779996566 0 -0.0011196621744305202 0.041119654754222017 0 -0.00018741615470380541 0.045135890211254998 0 -0.0016112520913175821 0.044893422025594432 0 -0.0011485142074434717 0.046129701038593957 0 -0.00082681504003331288 0.047881599326732235 0 -0.0011196621744305202 0.041119654754222017 0 -0.00082681504003331288 0.047881599326732235 0 -0.00075196337791500704 0.047147965911710922 0 -0.0014448649448459254 0.038855333333448656 0 -0.0011065488317994723 0.037955185324272611 0 -0.0018847603495304552 0.037744731482591554 0 -0.0011196621744305202 0.041119654754222017 0 -0.00075196337791500704 0.047147965911710922 0 -0.0014448649448459254 0.038855333333448656 0 -0.0011065488317994723 0.037955185324272611 0 -9.615891798463996e-05 0.039037013392655015 0 -1.2361936394735954e-06 0.053050968545863338 0 -0.00013237900486768816 0.052755712664666408 0 0.00050718451536344283 0.052759288335551199 0 -0.0011065488317994723 0.037955185324272611 0 -0.0018847603495304552 0.037744731482591554 0 -0.00098657748589746916 0.03702962460696288 0 -0.00075196337791500704 0.047147965911710922 0 -0.00020386080039181263 0.044810599718866917 0 -0.00076410743261841937 0.052342701490393981 0 -0.00084567824790224158 0.052559644492541524 0 -0.0006750646650039413 0.052700894554021202 0 -0.00084567824790224158 0.052559644492541524 0 -0.0006129761395500809 0.052757797191421901 0 -0.0006750646650039413 0.052700894554021202 0 -0.00075196337791500704 0.047147965911710922 0 -0.00013012700640633467 0.054926542344110638 0 -1.2361936394735954e-06 0.053050968545863338 0 -0.0006129761395500809 0.052757797191421901 0 -0.00013237900486768816 0.052755712664666408 0 -0.0006129761395500809 0.052757797191421901 0 -0.00053817748083613353 0.052634794146266373 0 -0.00013237900486768816 0.052755712664666408 0 0.00019359612447241681 0.052416442058596788 0 0.00050718451536344283 0.052759288335551199 0 0.001414045480040191 0.05190345592451915 0 -0.00013237900486768816 0.052755712664666408 0 0.00019359612447241681 0.052416442058596788 0 0.00050718451536344283 0.052759288335551199 0 -0.00053817748083613353 0.052634794146266373 0 0.00019359612447241681 0.052416442058596788 0 -7.6528864767260685e-05 0.051730170004503119 0 -0.00053817748083613353 0.052634794146266373 0 -0.00013237900486768816 0.052755712664666408 0 0.00019359612447241681 0.052416442058596788 0 -0.0006289466521026165 0.052291910561395379 0 -0.00050537634102269747 0.052534727591060537 0 -0.0006750646650039413 0.052700894554021202 0 -0.00030324909041299616 0.053241910431932112 0 -0.0006786754453741977 0.052761380828869019 0 -0.00037132717034274627 0.05310249239527913 0 -0.00050537634102269747 0.052534727591060537 0 -0.0006750646650039413 0.052700894554021202 0 -0.0006129761395500809 0.052757797191421901 0 -0.0006750646650039413 0.052700894554021202 0 -0.00049474963555407687 0.053134204655556849 0 -0.00021516253146276081 0.053363493980853445 0 -0.0006750646650039413 0.052700894554021202 0 -0.00049474963555407687 0.053134204655556849 0 -0.00021516253146276081 0.053363493980853445 0 -0.00049474963555407687 0.053134204655556849 0 -0.00030668147239863085 0.053501418308087807 0 -0.00030668147239863085 0.053501418308087807 0 -0.00051247668949603957 0.053302682467944472 0 -0.00021764317753047717 0.053836693533943943 0 -0.00049474963555407687 0.053134204655556849 0 -0.00030668147239863085 0.053501418308087807 0 -0.00051247668949603957 0.053302682467944472 0 -0.0006129761395500809 0.052757797191421901 0 -0.00049474963555407687 0.053134204655556849 0 -0.00051247668949603957 0.053302682467944472 0 0.001678872878017887 0.050875437365724197 0 0.0017720512970444259 0.050819978789103555 0 0.0016667934416285089 0.050806235767208642 0 0.00072038926880637006 0.052434381342301162 0 0.00076899877698915066 0.052144682286569856 0 0.001678872878017887 0.050875437365724197 0 0.0016667934416285089 0.050806235767208642 0 0.0016502809390320512 0.0508401337548667 0 0.00019359612447241681 0.052416442058596788 0 -7.6528864767260685e-05 0.051730170004503119 0 0.001414045480040191 0.05190345592451915 0 0.00027849756114374237 0.04950604040884414 0 0.00048132225123346617 0.04334722459218196 0 -0.00053817748083613353 0.052634794146266373 0 -0.00051247668949603957 0.053302682467944472 0 -0.00067447544132037598 0.052818036587066033 0 0.00072038926880637006 0.052434381342301162 0 0.00027849756114374237 0.04950604040884414 0 -0.0006129761395500809 0.052757797191421901 0 -0.00053817748083613353 0.052634794146266373 0 -0.00051247668949603957 0.053302682467944472 0 -0.0010399852038784846 0.052851319677117044 0 0.00027849756114374237 0.04950604040884414 0 0.001678872878017887 0.050875437365724197 0 0.0018134743492305956 0.050921903239275 0 0.0017720512970444259 0.050819978789103555 0 0.00027849756114374237 0.04950604040884414 0 0.000893083286732503 0.047006389645297873 0 0.0018134743492305956 0.050921903239275 0 0.0017720512970444259 0.050819978789103555 0 0.0019564112390041762 0.050773450773035141 0 0.0017720512970444259 0.050819978789103555 0 0.0019131774622280142 0.050674045269112081 0 0.0019564112390041762 0.050773450773035141 0 0.0017720512970444259 0.050819978789103555 0 0.0019131774622280142 0.050674045269112081 0 0.0017693204115286894 0.050741844662191504 0 0.0017720512970444259 0.050819978789103555 0 0.0017693204115286894 0.050741844662191504 0 0.0016667934416285089 0.050806235767208642 0 0.0017693204115286894 0.050741844662191504 0 0.0016948737566745344 0.050716949075340037 0 0.001865334611449951 0.050418274008601965 0 0.0019131774622280142 0.050674045269112081 0 0.0019764903810385896 0.050514760459684109 0 0.001865334611449951 0.050418274008601965 0 0.0019131774622280142 0.050674045269112081 0 0.0017693204115286894 0.050741844662191504 0 0.001865334611449951 0.050418274008601965 0 0.0016667934416285089 0.050806235767208642 0 0.0016511778070095536 0.050824891156983833 0 0.0016502809390320512 0.0508401337548667 0 0.0016667934416285089 0.050806235767208642 0 0.0016333072445723696 0.050809395710681465 0 0.0016511778070095536 0.050824891156983833 0 0.0017693204115286894 0.050741844662191504 0 0.0016667934416285089 0.050806235767208642 0 0.0016948737566745344 0.050716949075340037 0 0.0016667934416285089 0.050806235767208642 0 0.0016948737566745344 0.050716949075340037 0 0.0016333072445723696 0.050809395710681465 0 0.0016948737566745344 0.050716949075340037 0 0.0016333072445723696 0.050809395710681465 0 0.0016771989581173211 0.050709431415341344 0 0.0016333072445723696 0.050809395710681465 0 0.0016511778070095536 0.050824891156983833 0 0.0016239452410506533 0.05093644655237288 0 0.0016511778070095536 0.050824891156983833 0 0.0017462747653958105 0.050862752522690735 0 0.0016239452410506533 0.05093644655237288 0 0.0016793408421437292 0.050836019291900771 0 0.0016511778070095536 0.050824891156983833 0 0.0017462747653958105 0.050862752522690735 0 0.0016793408421437292 0.050836019291900771 0 0.0016511778070095536 0.050824891156983833 0 0.0016502809390320512 0.0508401337548667 0 0.0015636719525345601 0.052451784343019725 0 0.00030869374189125559 0.05358190576879495 0 0.0011764084795798518 0.05434985809930433 0 0.00021426949644738134 0.054900924414991503 0 0.00045221401661245121 0.055484877258280836 0 0.0016793408421437292 0.050836019291900771 0 0.0017462747653958105 0.050862752522690735 0 0.0016785812811088445 0.050847729339964773 0 0.0011764084795798518 0.05434985809930433 0 0.00012010597541832321 0.054522044856727694 0 0.00021426949644738134 0.054900924414991503 0 0.00012010597541832321 0.054522044856727694 0 2.4994943723170795e-05 0.054854308372305274 0 9.5627377996500458e-05 0.054889090883316685 0 0.00012010597541832321 0.054522044856727694 0 2.4994943723170795e-05 0.054854308372305274 0 0.00021426949644738134 0.054900924414991503 0 1.5630213243106673e-07 0.054999652708569415 0 2.4994943723170795e-05 0.054854308372305274 0 -2.3839751394111112e-07 0.055000063916122666 0 1.5630213243106673e-07 0.054999652708569415 0 2.4994943723170795e-05 0.054854308372305274 0 9.5627377996500458e-05 0.054889090883316685 0 2.4994943723170795e-05 0.054854308372305274 0 -2.3839751394111112e-07 0.055000063916122666 0 3.8413621084936234e-05 0.055139581111652597 0 -6.3158598196061046e-09 0.05500002382927234 0 4.7991340087118028e-05 0.055052786906479641 0 3.8413621084936234e-05 0.055139581111652597 0 0.00021426949644738134 0.054900924414991503 0 0.00045221401661245121 0.055484877258280836 0 2.4994943723170795e-05 0.054854308372305274 0 3.8413621084936234e-05 0.055139581111652597 0 0.00021426949644738134 0.054900924414991503 0 4.7991340087118028e-05 0.055052786906479641 0 0.00030869374189125559 0.05358190576879495 0 -0.00030355299057757359 0.054682796420927646 0 0.00030869374189125559 0.05358190576879495 0 -2.9496877621077655e-05 0.054766693870629483 0 -0.00016272902160239527 0.054355220259034692 0 -0.00031413836495417869 0.054865384069843939 0 -4.6219033100284116e-05 0.054944336224964911 0 -2.9496877621077655e-05 0.054766693870629483 0 -0.00031413836495417869 0.054865384069843939 0 -4.6219033100284116e-05 0.054944336224964911 0 -2.9496877621077655e-05 0.054766693870629483 0 2.1721880765065568e-08 0.054999819528299534 0 -3.9137322572518422e-08 0.055000055572295273 0 -4.6219033100284116e-05 0.054944336224964911 0 2.1721880765065568e-08 0.054999819528299534 0 -2.9496877621077655e-05 0.054766693870629483 0 2.1721880765065568e-08 0.054999819528299534 0 1.5270261764058979e-07 0.054999078528826406 0 -2.9496877621077655e-05 0.054766693870629483 0 1.5270261764058979e-07 0.054999078528826406 0 -0.00016272902160239527 0.054355220259034692 0 -0.00013422201652529722 0.054107561447470212 0 1.5270261764058979e-07 0.054999078528826406 0 -0.00016272902160239527 0.054355220259034692 0 -0.00016272902160239527 0.054355220259034692 0 -0.00014767337726849682 0.054007463173023559 0 -0.00016694045474769918 0.053845839053955243 0 -0.00013422201652529722 0.054107561447470212 0 -0.00016272902160239527 0.054355220259034692 0 -0.00016694045474769918 0.053845839053955243 0 -0.00030668147239863085 0.053501418308087807 0 -0.00016694045474769918 0.053845839053955243 0 -0.00021764317753047717 0.053836693533943943 0 -0.00014767337726849682 0.054007463173023559 0 -0.00016694045474769918 0.053845839053955243 0 -0.00021764317753047717 0.053836693533943943 0 -0.00014767337726849682 0.054007463173023559 0 -0.00021764317753047717 0.053836693533943943 0 -0.00015544541082337222 0.054011730943053039 0 0.00076899877698915066 0.052144682286569856 0 0.00030869374189125559 0.05358190576879495 0 0.0016793408421437292 0.050836019291900771 0 0.0016502809390320512 0.0508401337548667 0 0.0016785812811088445 0.050847729339964773 0 -0.00016272902160239527 0.054355220259034692 0 -0.00014767337726849682 0.054007463173023559 0 -0.00015544541082337222 0.054011730943053039 0 -0.00020678920214242826 0.026323030827917742 0 -0.00023317488262954907 0.026241672521823294 0 -0.00017588886617456945 0.02630629016475455 0 -0.00030296698418825682 0.026281742031405722 0 -0.00020678920214242826 0.026323030827917742 0 -0.00023317488262954907 0.026241672521823294 0 0.00031767189856642857 0.032164879834975617 0 0.00032769467636500129 0.032196738442635063 0 -0.00010273851574289924 0.031897060110150831 0 6.1705362036304005e-05 0.029064981092400168 0 -0.0001405972075122006 0.029104541856705649 0 0.00032769467636500129 0.032196738442635063 0 0.0002638016325591113 0.030883545059185481 0 0.00033487353285745474 0.032380244790728173 0 0.00032769467636500129 0.032196738442635063 0 -0.00010273851574289924 0.031897060110150831 0 0.0002638016325591113 0.030883545059185481 0 -0.0001405972075122006 0.029104541856705649 0 -0.00023729143314165545 0.028021892042645557 0 -0.00010273851574289924 0.031897060110150831 0 0.0002638016325591113 0.030883545059185481 0 -0.00068344557378526699 0.029980475103895111 0 2.2367572819387533e-05 0.029293582993452406 0 0.0002638016325591113 0.030883545059185481 0 -0.00068344557378526699 0.029980475103895111 0 2.2367572819387533e-05 0.029293582993452406 0 -2.4596830606411491e-07 0.027507479974313999 0 7.7532091493834444e-07 0.030345317694690156 0 2.2367572819387533e-05 0.029293582993452406 0 -2.4596830606411491e-07 0.027507479974313999 0 -0.00020307982968712721 0.028008074891220074 0 2.2367572819387533e-05 0.029293582993452406 0 7.7532091493834444e-07 0.030345317694690156 0 0.0002638016325591113 0.030883545059185481 0 7.7532091493834444e-07 0.030345317694690156 0 0.0002638016325591113 0.030883545059185481 0 0.00022171268895680626 0.032077330152500923 0 0.0002638016325591113 0.030883545059185481 0 0.00033487353285745474 0.032380244790728173 0 0.00022171268895680626 0.032077330152500923 0 0.00033487353285745474 0.032380244790728173 0 0.00022171268895680626 0.032077330152500923 0 8.6961751579685054e-05 0.033592200769825407 0 7.7532091493834444e-07 0.030345317694690156 0 0.00022171268895680626 0.032077330152500923 0 3.6029367231508661e-07 0.033182591770535501 0 0.00022171268895680626 0.032077330152500923 0 3.6029367231508661e-07 0.033182591770535501 0 8.6961751579685054e-05 0.033592200769825407 0 3.6029367231508661e-07 0.033182591770535501 0 8.6961751579685054e-05 0.033592200769825407 0 -3.4436553843290601e-07 0.036019265221187306 0 0.00033487353285745474 0.032380244790728173 0 8.6961751579685054e-05 0.033592200769825407 0 6.0931502222664629e-05 0.032770117145321333 0 8.6961751579685054e-05 0.033592200769825407 0 6.0931502222664629e-05 0.032770117145321333 0 -0.00032884386220465245 0.035027958129493976 0 0.00032769467636500129 0.032196738442635063 0 0.00033487353285745474 0.032380244790728173 0 6.0931502222664629e-05 0.032770117145321333 0 0.00032769467636500129 0.032196738442635063 0 6.0931502222664629e-05 0.032770117145321333 0 -5.6640654182355584e-05 0.032170923028594235 0 0.00031767189856642857 0.032164879834975617 0 0.00032769467636500129 0.032196738442635063 0 -5.6640654182355584e-05 0.032170923028594235 0 6.0931502222664629e-05 0.032770117145321333 0 -5.6640654182355584e-05 0.032170923028594235 0 -0.0006477281288867154 0.032124453770644171 0 -0.0006477281288867154 0.032124453770644171 0 -0.001021054386800242 0.03261007459315772 0 -0.00097896782175855125 0.031732972719102248 0 6.0931502222664629e-05 0.032770117145321333 0 -0.0006477281288867154 0.032124453770644171 0 -0.001021054386800242 0.03261007459315772 0 -0.00064579482052050364 0.034686484030561633 0 -0.00061311492002067358 0.034395519023192329 0 -0.00038454172925318802 0.036813821194989924 0 -0.00011345563061129588 0.036894637497989581 0 9.7137105612534928e-05 0.036599005164238363 0 -0.00011345563061129588 0.036894637497989581 0 9.7137105612534928e-05 0.036599005164238363 0 6.2159277281630393e-06 0.036846493272648849 0 -0.00038454172925318802 0.036813821194989924 0 -0.00011345563061129588 0.036894637497989581 0 -0.00022790219579016342 0.036948112254482808 0 6.0931502222664629e-05 0.032770117145321333 0 -0.001021054386800242 0.03261007459315772 0 -0.00032884386220465245 0.035027958129493976 0 -0.00038454172925318802 0.036813821194989924 0 9.7137105612534928e-05 0.036599005164238363 0 -0.00032884386220465245 0.035027958129493976 0 -0.00064579482052050364 0.034686484030561633 0 -0.00041563779848993775 0.03498583654362606 0 8.6961751579685054e-05 0.033592200769825407 0 -0.00032884386220465245 0.035027958129493976 0 -3.4436553843290601e-07 0.036019265221187306 0 -0.00032884386220465245 0.035027958129493976 0 -3.4436553843290601e-07 0.036019265221187306 0 0.00011428850819290308 0.036719619783342469 0 -3.4436553843290601e-07 0.036019265221187306 0 0.00011428850819290308 0.036719619783342469 0 1.422880561520213e-06 0.038857380477896525 0 9.7137105612534928e-05 0.036599005164238363 0 0.00011428850819290308 0.036719619783342469 0 5.2494079187487177e-05 0.037073953316785931 0 9.7137105612534928e-05 0.036599005164238363 0 -0.00032884386220465245 0.035027958129493976 0 0.00011428850819290308 0.036719619783342469 0 0.00011428850819290308 0.036719619783342469 0 2.2411394617901117e-05 0.037801416014100302 0 5.2494079187487177e-05 0.037073953316785931 0 2.2411394617901117e-05 0.037801416014100302 0 -0.00036352753851087336 0.037506075540751541 0 5.2494079187487177e-05 0.037073953316785931 0 2.2411394617901117e-05 0.037801416014100302 0 1.422880561520213e-06 0.038857380477896525 0 -9.615891798463996e-05 0.039037013392655015 0 0.00011428850819290308 0.036719619783342469 0 2.2411394617901117e-05 0.037801416014100302 0 1.422880561520213e-06 0.038857380477896525 0 -3.7058712250059272e-06 0.041690325268535881 0 1.422880561520213e-06 0.038857380477896525 0 -9.615891798463996e-05 0.039037013392655015 0 -0.0011065488317994723 0.037955185324272611 0 -9.615891798463996e-05 0.039037013392655015 0 -0.00036352753851087336 0.037506075540751541 0 2.2411394617901117e-05 0.037801416014100302 0 -9.615891798463996e-05 0.039037013392655015 0 -0.00036352753851087336 0.037506075540751541 0 -0.00098657748589746916 0.03702962460696288 0 -0.00036352753851087336 0.037506075540751541 0 -0.00028653309309950668 0.036998883263658175 0 -0.0011065488317994723 0.037955185324272611 0 -0.00098657748589746916 0.03702962460696288 0 -0.00036352753851087336 0.037506075540751541 0 -0.00036352753851087336 0.037506075540751541 0 5.2494079187487177e-05 0.037073953316785931 0 -0.00028653309309950668 0.036998883263658175 0 9.7137105612534928e-05 0.036599005164238363 0 5.2494079187487177e-05 0.037073953316785931 0 6.2159277281630393e-06 0.036846493272648849 0 5.2494079187487177e-05 0.037073953316785931 0 6.2159277281630393e-06 0.036846493272648849 0 -0.00028653309309950668 0.036998883263658175 0 -0.00012146852112658941 0.036876699858765072 0 6.2159277281630393e-06 0.036846493272648849 0 -0.00028653309309950668 0.036998883263658175 0 -0.00012146852112658941 0.036876699858765072 0 6.2159277281630393e-06 0.036846493272648849 0 -7.3396826171810733e-05 0.036863825774828295 0 -0.00011345563061129588 0.036894637497989581 0 -7.3396826171810733e-05 0.036863825774828295 0 -0.00011501743634878832 0.036888391968925953 0 -7.3396826171810733e-05 0.036863825774828295 0 -0.00013344600431714355 0.036814254968514259 0 -0.00011501743634878832 0.036888391968925953 0 -0.00011345563061129588 0.036894637497989581 0 6.2159277281630393e-06 0.036846493272648849 0 -7.3396826171810733e-05 0.036863825774828295 0 -0.00012146852112658941 0.036876699858765072 0 -7.3396826171810733e-05 0.036863825774828295 0 -0.00013344600431714355 0.036814254968514259 0 -0.00012146852112658941 0.036876699858765072 0 -0.00013344600431714355 0.036814254968514259 0 -0.00034222985282056102 0.036719890188617821 0 -0.00086071473888742417 0.040416865518913755 0 0.00048132225123346617 0.04334722459218196 0 -0.00012146852112658941 0.036876699858765072 0 -0.00028653309309950668 0.036998883263658175 0 -0.00034222985282056102 0.036719890188617821 0 -0.00020386080039181263 0.044810599718866917 0 0.00048132225123346617 0.04334722459218196 0 -0.00098657748589746916 0.03702962460696288 0 -0.00028653309309950668 0.036998883263658175 0 -0.00034222985282056102 0.036719890188617821 0 -0.00099493747991463428 0.044203896472856871 0 4.5457076138225236e-05 0.044427466830985189 0 -0.00032262019533590199 0.043199689325972929 0 -0.00013344600431714355 0.036814254968514259 0 -8.857478599239691e-05 0.036843492562172835 0 -0.00012252798821944086 0.03697968754587088 0 0.00048132225123346617 0.04334722459218196 0 0.00035248398722060356 0.040276604482417266 0 -0.00013344600431714355 0.036814254968514259 0 -0.00011501743634878832 0.036888391968925953 0 -0.00012252798821944086 0.03697968754587088 0 0.00076205972010835027 0.043628056281538187 0 -0.00032262019533590199 0.043199689325972929 0 0.00039351231026378786 0.04289913728870292 0 4.5457076138225236e-05 0.044427466830985189 0 0.00076205972010835027 0.043628056281538187 0 -0.00032262019533590199 0.043199689325972929 0 0.000893083286732503 0.047006389645297873 0 0.0008034370414149374 0.044201125371896043 0 -0.00032262019533590199 0.043199689325972929 0 0.00034785124163816839 0.042219070079720693 0 0.00039351231026378786 0.04289913728870292 0 0.0019131774622280142 0.050674045269112081 0 0.0019564112390041762 0.050773450773035141 0 0.0020984717592553337 0.050564769062294908 0 0.0019131774622280142 0.050674045269112081 0 0.0019764903810385896 0.050514760459684109 0 0.0020984717592553337 0.050564769062294908 0 0.0025020528827454924 0.050699325286710215 0 0.0008034370414149374 0.044201125371896043 0 0.0008034370414149374 0.044201125371896043 0 0.00028375806395372914 0.042569658700838002 0 -0.0010145476448801291 0.035035707440319627 0 -0.001146838346075702 0.034638882970874509 0 -0.0012647603163825226 0.034804847955048304 0 -0.0010145476448801291 0.035035707440319627 0 -0.0012647603163825226 0.034804847955048304 0 -0.0011207323197282627 0.035295208422080261 0 0.0008034370414149374 0.044201125371896043 0 -0.00058804572314808713 0.038470838502548045 0 0.00076205972010835027 0.043628056281538187 0 0.00039351231026378786 0.04289913728870292 0 0.00090225387326607219 0.042529171915541633 0 0.00034785124163816839 0.042219070079720693 0 0.00039351231026378786 0.04289913728870292 0 0.00090225387326607219 0.042529171915541633 0 0.00076205972010835027 0.043628056281538187 0 0.001458643154826906 0.042834831662044333 0 0.00090225387326607219 0.042529171915541633 0 -0.0012908252534028358 0.034444608984929667 0 -0.0013016376090270486 0.034482335985076697 0 -0.001146838346075702 0.034638882970874509 0 -9.6871015480685732e-05 0.037322614486038588 0 -0.00058804572314808713 0.038470838502548045 0 -0.0013016376090270486 0.034482335985076697 0 -0.001146838346075702 0.034638882970874509 0 -0.0012647603163825226 0.034804847955048304 0 -0.0012647603163825226 0.034804847955048304 0 -0.0014161361079995886 0.034181382839814298 0 -0.001511230078337392 0.035001281695089217 0 -0.0014161361079995886 0.034181382839814298 0 -0.00233659759817436 0.034184579444238083 0 -0.001511230078337392 0.035001281695089217 0 -0.0013016376090270486 0.034482335985076697 0 -0.0012647603163825226 0.034804847955048304 0 -0.0014161361079995886 0.034181382839814298 0 -0.0014161361079995886 0.034181382839814298 0 -0.0011512222408319036 0.033025323707315847 0 -0.0018499402527590119 0.033506280322979518 0 -9.6871015480685732e-05 0.037322614486038588 0 -0.00075125704895193698 0.03373133692091574 0 -6.2149024281898287e-05 0.033057206208278178 0 -0.0014161361079995886 0.034181382839814298 0 -0.00053923549185116537 0.033207149531143024 0 -0.0014161361079995886 0.034181382839814298 0 -0.00053923549185116537 0.033207149531143024 0 -0.0011512222408319036 0.033025323707315847 0 -0.0012908252534028358 0.034444608984929667 0 -0.0013016376090270486 0.034482335985076697 0 -0.0014161361079995886 0.034181382839814298 0 -6.2149024281898287e-05 0.033057206208278178 0 -0.00053923549185116537 0.033207149531143024 0 -0.00055080475903445942 0.032762123945703374 0 -0.00056723052123642832 0.033872731595249971 0 -0.0005483998742040802 0.034668944805946025 0 -0.00053923549185116537 0.033207149531143024 0 -0.00054969182455370368 0.032829634335647236 0 -0.0011512222408319036 0.033025323707315847 0 -9.6871015480685732e-05 0.037322614486038588 0 -0.0005483998742040802 0.034668944805946025 0 -0.0011512222408319036 0.033025323707315847 0 -0.0011531078756536941 0.032390907812170161 0 -0.0017347313325031687 0.032708071766414097 0 -0.00054969182455370368 0.032829634335647236 0 -0.0011512222408319036 0.033025323707315847 0 -0.0011531078756536941 0.032390907812170161 0 -0.0005483998742040802 0.034668944805946025 0 -0.00061311492002067358 0.034395519023192329 0 -0.0011531078756536941 0.032390907812170161 0 -0.00097896782175855125 0.031732972719102248 0 -0.0012978329038198805 0.03207270645105334 0 -0.00086800615910480198 0.032567627768713414 0 -0.0011531078756536941 0.032390907812170161 0 -0.00097896782175855125 0.031732972719102248 0 -0.00020879280372472451 0.037018692396424108 0 -0.00018356854804358802 0.036985290706220711 0 -0.00022790219579016342 0.036948112254482808 0 -0.0005483998742040802 0.034668944805946025 0 -0.0014571889346402301 0.033038352826988318 0 -0.00019490216736984373 0.037032830742472503 0 -0.00020879280372472451 0.037018692396424108 0 -0.00018356854804358802 0.036985290706220711 0 -0.00012252798821944086 0.03697968754587088 0 -0.00019490216736984373 0.037032830742472503 0 -0.00018356854804358802 0.036985290706220711 0 0.00035248398722060356 0.040276604482417266 0 -9.6871015480685732e-05 0.037322614486038588 0 -0.00012252798821944086 0.03697968754587088 0 -0.00018356854804358802 0.036985290706220711 0 -0.00015338827328861281 0.036934364208261961 0 -0.00018356854804358802 0.036985290706220711 0 -0.00015338827328861281 0.036934364208261961 0 -0.00022790219579016342 0.036948112254482808 0 -0.00011501743634878832 0.036888391968925953 0 -0.00012252798821944086 0.03697968754587088 0 -0.00015338827328861281 0.036934364208261961 0 -0.00011345563061129588 0.036894637497989581 0 -0.00011501743634878832 0.036888391968925953 0 -0.00015338827328861281 0.036934364208261961 0 -0.00011345563061129588 0.036894637497989581 0 -0.00015338827328861281 0.036934364208261961 0 -0.00022790219579016342 0.036948112254482808 0 -0.0006477281288867154 0.032124453770644171 0 -0.00097896782175855125 0.031732972719102248 0 -0.0010664543270110245 0.031687583656933568 0 -0.00097896782175855125 0.031732972719102248 0 -0.0010664543270110245 0.031687583656933568 0 -0.0012978329038198805 0.03207270645105334 0 -5.6640654182355584e-05 0.032170923028594235 0 -0.0010664543270110245 0.031687583656933568 0 9.1146239834404463e-06 0.031489103092951616 0 -5.6640654182355584e-05 0.032170923028594235 0 -0.0006477281288867154 0.032124453770644171 0 -0.0010664543270110245 0.031687583656933568 0 0.00031767189856642857 0.032164879834975617 0 -5.6640654182355584e-05 0.032170923028594235 0 9.1146239834404463e-06 0.031489103092951616 0 6.1705362036304005e-05 0.029064981092400168 0 -0.0011012949494705912 0.029937284687891176 0 -0.0029297996734143606 0.031831126462306319 0 -0.0031234692637284503 0.031929331017909984 0 -0.0029913980867297993 0.032200960948204328 0 -0.0030995942411011146 0.031646886199089515 0 -0.0029297996734143606 0.031831126462306319 0 -0.0031234692637284503 0.031929331017909984 0 -0.0011012949494705912 0.029937284687891176 0 -0.0012316327431445124 0.030163580757062332 0 -0.0030995942411011146 0.031646886199089515 0 -0.0031234692637284503 0.031929331017909984 0 -0.0034620157229018175 0.032038378060342487 0 -0.0034620157229018175 0.032038378060342487 0 -0.0033001269822467132 0.032524305901066718 0 -0.0038958137531051773 0.032579861064116783 0 -0.0031234692637284503 0.031929331017909984 0 -0.0034620157229018175 0.032038378060342487 0 -0.0029913980867297993 0.032200960948204328 0 -0.0034620157229018175 0.032038378060342487 0 -0.0033001269822467132 0.032524305901066718 0 -0.0029913980867297993 0.032200960948204328 0 -0.0029297996734143606 0.031831126462306319 0 -0.0029913980867297993 0.032200960948204328 0 -0.0023216716772391159 0.032179102707268564 0 -0.0033001269822467132 0.032524305901066718 0 -0.0029913980867297993 0.032200960948204328 0 -0.0028193393232013152 0.032661432101432068 0 -0.0029913980867297993 0.032200960948204328 0 -0.0023216716772391159 0.032179102707268564 0 -0.0028193393232013152 0.032661432101432068 0 -0.0014174815188478015 0.03186772175607016 0 -0.0011012949494705912 0.029937284687891176 0 -0.0010664543270110245 0.031687583656933568 0 -0.0029297996734143606 0.031831126462306319 0 -0.0023216716772391159 0.032179102707268564 0 -0.0010664543270110245 0.031687583656933568 0 -0.0031090985586782185 0.031579599689058095 0 -0.0029297996734143606 0.031831126462306319 0 -0.0022495559616448877 0.032576612403750704 0 -0.0023216716772391159 0.032179102707268564 0 -0.0028193393232013152 0.032661432101432068 0 -0.0022495559616448877 0.032576612403750704 0 -0.0023216716772391159 0.032179102707268564 0 -0.0017751601329555563 0.032228893733603915 0 -0.0010664543270110245 0.031687583656933568 0 -0.0023216716772391159 0.032179102707268564 0 -0.0017751601329555563 0.032228893733603915 0 -0.0010664543270110245 0.031687583656933568 0 -0.0012978329038198805 0.03207270645105334 0 -0.0017751601329555563 0.032228893733603915 0 -0.0011531078756536941 0.032390907812170161 0 -0.0012978329038198805 0.03207270645105334 0 -0.0017347313325031687 0.032708071766414097 0 -0.0012978329038198805 0.03207270645105334 0 -0.0017751601329555563 0.032228893733603915 0 -0.0017347313325031687 0.032708071766414097 0 -0.0022495559616448877 0.032576612403750704 0 -0.0017751601329555563 0.032228893733603915 0 -0.0017347313325031687 0.032708071766414097 0 -0.0011512222408319036 0.033025323707315847 0 -0.0017347313325031687 0.032708071766414097 0 -0.0018499402527590119 0.033506280322979518 0 -0.0017347313325031687 0.032708071766414097 0 -0.002435803122839815 0.033213437499907905 0 -0.0018499402527590119 0.033506280322979518 0 -0.0022495559616448877 0.032576612403750704 0 -0.0017347313325031687 0.032708071766414097 0 -0.002435803122839815 0.033213437499907905 0 -0.0022495559616448877 0.032576612403750704 0 -0.002435803122839815 0.033213437499907905 0 -0.0028193393232013152 0.032661432101432068 0 -0.002435803122839815 0.033213437499907905 0 -0.0018499402527590119 0.033506280322979518 0 -0.00233659759817436 0.034184579444238083 0 -0.0014161361079995886 0.034181382839814298 0 -0.0018499402527590119 0.033506280322979518 0 -0.00233659759817436 0.034184579444238083 0 -0.00233659759817436 0.034184579444238083 0 -0.003282307829063576 0.033264269929781889 0 -0.0037839246991422499 0.034441924375666393 0 -0.002435803122839815 0.033213437499907905 0 -0.00233659759817436 0.034184579444238083 0 -0.003282307829063576 0.033264269929781889 0 -0.002435803122839815 0.033213437499907905 0 -0.003282307829063576 0.033264269929781889 0 -0.0028193393232013152 0.032661432101432068 0 -0.0033001269822467132 0.032524305901066718 0 -0.003282307829063576 0.033264269929781889 0 -0.0028193393232013152 0.032661432101432068 0 -0.0033001269822467132 0.032524305901066718 0 -0.003282307829063576 0.033264269929781889 0 -0.0038958137531051773 0.032579861064116783 0 -0.0038958137531051773 0.032579861064116783 0 -0.0043605995300533135 0.033147959730113509 0 -0.0048671421244158158 0.031981602835721823 0 -0.0064299922461175342 0.029937195896021156 0 -0.0038381638174266809 0.025671805278332196 0 -0.003282307829063576 0.033264269929781889 0 -0.0038958137531051773 0.032579861064116783 0 -0.0043605995300533135 0.033147959730113509 0 -0.0064299922461175342 0.029937195896021156 0 -0.007157666823165783 0.029109010291788008 0 -0.003282307829063576 0.033264269929781889 0 -0.0043605995300533135 0.033147959730113509 0 -0.0037839246991422499 0.034441924375666393 0 -0.0085625612754687101 0.0255693775102535 0 -0.0088745881136114754 0.024428507504447541 0 -0.0090775678180052156 0.024366932416580278 0 -0.0085625612754687101 0.0255693775102535 0 -0.0083363432785793518 0.024293286453140186 0 -0.0079403874511375268 0.02477983852737823 0 -0.0085625612754687101 0.0255693775102535 0 -0.0083363432785793518 0.024293286453140186 0 -0.0088745881136114754 0.024428507504447541 0 -0.0083363432785793518 0.024293286453140186 0 -0.0088745881136114754 0.024428507504447541 0 -0.0087091057401898972 0.024079464611258105 0 -0.0086092803916537324 0.027643078275847961 0 -0.007157666823165783 0.029109010291788008 0 -0.0079403874511375268 0.02477983852737823 0 -0.0076312229107755184 0.024047676555520821 0 -0.0072837817974115001 0.024631512488961487 0 -0.0083363432785793518 0.024293286453140186 0 -0.0079403874511375268 0.02477983852737823 0 -0.0076312229107755184 0.024047676555520821 0 -0.0079403874511375268 0.02477983852737823 0 -0.0077727475702939683 0.025513273725435135 0 -0.0072837817974115001 0.024631512488961487 0 -0.0077727475702939683 0.025513273725435135 0 -0.0069501516299033906 0.025380249297165425 0 -0.0072837817974115001 0.024631512488961487 0 -0.0085625612754687101 0.0255693775102535 0 -0.0077727475702939683 0.025513273725435135 0 -0.0080582909501076463 0.026624696219311347 0 -0.0077727475702939683 0.025513273725435135 0 -0.0080582909501076463 0.026624696219311347 0 -0.0067982081599440138 0.026375517315231682 0 -0.0085625612754687101 0.0255693775102535 0 -0.0079403874511375268 0.02477983852737823 0 -0.0077727475702939683 0.025513273725435135 0 -0.0024677836182178297 0.018487934036630835 0 -0.0026489595521375607 0.018211403144504788 0 -0.0027855749005756053 0.018604279156681482 0 -0.0038381638174266809 0.025671805278332196 0 -0.0049639551390243848 0.022291392777576313 0 -0.0030995942411011146 0.031646886199089515 0 -0.0034620157229018175 0.032038378060342487 0 -0.0048671421244158158 0.031981602835721823 0 -0.0034620157229018175 0.032038378060342487 0 -0.0038958137531051773 0.032579861064116783 0 -0.0048671421244158158 0.031981602835721823 0 -0.00036585555300438306 0.026250815674977061 0 -0.00029828889159592151 0.026195909256244935 0 -0.00030723810733408031 0.026241087411229588 0 -0.0011012949494705912 0.029937284687891176 0 -0.0038381638174266809 0.025671805278332196 0 -0.00030296698418825682 0.026281742031405722 0 -0.00030723810733408031 0.026241087411229588 0 -0.00023317488262954907 0.026241672521823294 0 -0.00030296698418825682 0.026281742031405722 0 -0.00036585555300438306 0.026250815674977061 0 -0.00030723810733408031 0.026241087411229588 0 -0.0038381638174266809 0.025671805278332196 0 -0.0013258109649496536 0.021751968058838687 0 -0.00029828889159592151 0.026195909256244935 0 -0.00030723810733408031 0.026241087411229588 0 -0.00023317488262954907 0.026241672521823294 0 -0.0024677836182178297 0.018487934036630835 0 -0.0026998904200250737 0.01825520519401844 0 -0.0026489595521375607 0.018211403144504788 0 -0.0089220504299527652 0.021427527890095097 0 -0.0093130829179646595 0.021652343162431118 0 -0.0090364173374769333 0.020938021142767355 0 -0.0089220504299527652 0.021427527890095097 0 -0.0093130829179646595 0.021652343162431118 0 -0.0087013455701639465 0.021735129224089354 0 -0.0094654427103288714 0.023121840874220648 0 -0.0098639081924384205 0.021434223529318154 0 -0.0089220504299527652 0.021427527890095097 0 -0.0087013455701639465 0.021735129224089354 0 -0.0085632832117470414 0.021378842905710703 0 -0.0089220504299527652 0.021427527890095097 0 -0.0090364173374769333 0.020938021142767355 0 -0.0085632832117470414 0.021378842905710703 0 -0.0098639081924384205 0.021434223529318154 0 -0.0084717938418174665 0.020068772874813883 0 -0.0082220213578609192 0.018396526836572977 0 -0.0088628490378998854 0.018272334759138992 0 -0.0081806816691280277 0.01891520663195469 0 -0.010366583220187044 0.023979716278267078 0 -0.010232454357021172 0.024251922369428674 0 -0.010094034934742209 0.02387946370247777 0 -0.010366583220187044 0.023979716278267078 0 -0.010232454357021172 0.024251922369428674 0 -0.010726243394820303 0.024197536755735025 0 -0.0085100972599074474 0.021079178336636362 0 -0.0080691807980058979 0.021668447358712088 0 -0.0088999956233732896 0.022185679150465321 0 -0.010004115671663247 0.025102868100927173 0 -0.0095512788805557393 0.024186186377722137 0 -0.0092325907655007693 0.024902358522872162 0 -0.0094654427103288714 0.023121840874220648 0 -0.0091904499220044171 0.023209511164127405 0 -0.0095512788805557393 0.024186186377722137 0 -0.0091021315260375896 0.024168093067840481 0 -0.0092325907655007693 0.024902358522872162 0 -0.0094654427103288714 0.023121840874220648 0 -0.0080361950913617978 0.021506483404490885 0 -0.0085100972599074474 0.021079178336636362 0 -0.0080691807980058979 0.021668447358712088 0 -0.0075108826671727224 0.021213926033966095 0 -0.0080691807980058979 0.021668447358712088 0 -0.0079117994623250851 0.022372673365465112 0 -0.0072432834317352835 0.021767166670235344 0 -0.0080691807980058979 0.021668447358712088 0 -0.0075108826671727224 0.021213926033966095 0 -0.0072432834317352835 0.021767166670235344 0 -0.0079117994623250851 0.022372673365465112 0 -0.0072493684946734697 0.022415919384597117 0 -0.0072432834317352835 0.021767166670235344 0 -0.0079117994623250851 0.022372673365465112 0 -0.0077072024860219586 0.022907073537979626 0 -0.0083798280964211911 0.023104315471984715 0 -0.0079117994623250851 0.022372673365465112 0 -0.0077072024860219586 0.022907073537979626 0 -0.0072493684946734697 0.022415919384597117 0 -0.0077072024860219586 0.022907073537979626 0 -0.0072777994527755165 0.023216731505351158 0 -0.0072493684946734697 0.022415919384597117 0 -0.0077072024860219586 0.022907073537979626 0 -0.0080116522856794343 0.023541382462527717 0 -0.0072777994527755165 0.023216731505351158 0 -0.0077072024860219586 0.022907073537979626 0 -0.0080116522856794343 0.023541382462527717 0 -0.0083798280964211911 0.023104315471984715 0 -0.0083363432785793518 0.024293286453140186 0 -0.0080116522856794343 0.023541382462527717 0 -0.0076312229107755184 0.024047676555520821 0 -0.0080116522856794343 0.023541382462527717 0 -0.0076312229107755184 0.024047676555520821 0 -0.0072777994527755165 0.023216731505351158 0 -0.0087091057401898972 0.024079464611258105 0 -0.0086569677107854667 0.023735289019237358 0 -0.0091772725900489474 0.023960715373610636 0 -0.0088745881136114754 0.024428507504447541 0 -0.0087091057401898972 0.024079464611258105 0 -0.0091772725900489474 0.023960715373610636 0 -0.0083363432785793518 0.024293286453140186 0 -0.0087091057401898972 0.024079464611258105 0 -0.0086569677107854667 0.023735289019237358 0 -0.0083363432785793518 0.024293286453140186 0 -0.0080116522856794343 0.023541382462527717 0 -0.0086569677107854667 0.023735289019237358 0 -0.0080116522856794343 0.023541382462527717 0 -0.0086569677107854667 0.023735289019237358 0 -0.0083798280964211911 0.023104315471984715 0 -0.0086569677107854667 0.023735289019237358 0 -0.0083798280964211911 0.023104315471984715 0 -0.0090800039139829411 0.023688856494068995 0 -0.0086569677107854667 0.023735289019237358 0 -0.0090800039139829411 0.023688856494068995 0 -0.0091772725900489474 0.023960715373610636 0 -0.0091904499220044171 0.023209511164127405 0 -0.0091589515167543635 0.023589053138980229 0 -0.0083798280964211911 0.023104315471984715 0 -0.0088999956233732896 0.022185679150465321 0 -0.0090800039139829411 0.023688856494068995 0 -0.0095512788805557393 0.024186186377722137 0 -0.0091021315260375896 0.024168093067840481 0 -0.0090800039139829411 0.023688856494068995 0 -0.0079117994623250851 0.022372673365465112 0 -0.0083798280964211911 0.023104315471984715 0 -0.0088999956233732896 0.022185679150465321 0 -0.0080691807980058979 0.021668447358712088 0 -0.0079117994623250851 0.022372673365465112 0 -0.0088999956233732896 0.022185679150465321 0 -0.0091021315260375896 0.024168093067840481 0 -0.0087567170610689648 0.023858799084765923 0 -0.0090800039139829411 0.023688856494068995 0 -0.007157666823165783 0.029109010291788008 0 -0.0040572259568242884 0.033506747278176645 0 -0.0084392345102392227 0.028149322681992408 0 -0.007157666823165783 0.029109010291788008 0 -0.0087567170610689648 0.023858799084765923 0 -0.0090800039139829411 0.023688856494068995 0 -0.0091772725900489474 0.023960715373610636 0 -0.00233659759817436 0.034184579444238083 0 -0.0037839246991422499 0.034441924375666393 0 -0.0022190163344692009 0.035400635307327503 0 -0.007414003547253213 0.033504878938530221 0 -0.0087973306983787081 0.030387455131165059 0 -0.0058666357401842935 0.032046386063251983 0 -0.00233659759817436 0.034184579444238083 0 -0.0022190163344692009 0.035400635307327503 0 -0.001511230078337392 0.035001281695089217 0 -0.0058666357401842935 0.032046386063251983 0 -0.0060086797034794148 0.033452445575757481 0 -0.0047506204030781122 0.033969651682809382 0 -0.007414003547253213 0.033504878938530221 0 -0.0058666357401842935 0.032046386063251983 0 -0.0060086797034794148 0.033452445575757481 0 -0.007414003547253213 0.033504878938530221 0 -0.0060086797034794148 0.033452445575757481 0 -0.0056302907003926246 0.034690740199703703 0 -0.0060086797034794148 0.033452445575757481 0 -0.0056302907003926246 0.034690740199703703 0 -0.0047506204030781122 0.033969651682809382 0 -0.007414003547253213 0.033504878938530221 0 -0.0056302907003926246 0.034690740199703703 0 -0.0059714958234244444 0.036582613765768102 0 -0.0056302907003926246 0.034690740199703703 0 -0.0051622500889923163 0.035830052331602837 0 -0.0059714958234244444 0.036582613765768102 0 -0.0084392345102392227 0.028149322681992408 0 -0.0066927376842299 0.031724134632437721 0 -0.0056302907003926246 0.034690740199703703 0 -0.0051622500889923163 0.035830052331602837 0 -0.0045076400121790254 0.035088657321569426 0 -0.0087567170610689648 0.023858799084765923 0 -0.0087217100741549848 0.024719855753411787 0 -0.0077026475031160375 0.025659179657087892 0 -0.010004115671663247 0.025102868100927173 0 -0.0092325907655007693 0.024902358522872162 0 -0.0085157661486434718 0.02546281794293424 0 -0.0091021315260375896 0.024168093067840481 0 -0.0087567170610689648 0.023858799084765923 0 -0.0087217100741549848 0.024719855753411787 0 -0.0091021315260375896 0.024168093067840481 0 -0.0087217100741549848 0.024719855753411787 0 -0.0092325907655007693 0.024902358522872162 0 -0.0092325907655007693 0.024902358522872162 0 -0.0087660223325195553 0.025081370032108818 0 -0.0085157661486434718 0.02546281794293424 0 -0.0087217100741549848 0.024719855753411787 0 -0.0092325907655007693 0.024902358522872162 0 -0.0087660223325195553 0.025081370032108818 0 -0.0087217100741549848 0.024719855753411787 0 -0.0084671621853831831 0.025333820892490738 0 -0.0077026475031160375 0.025659179657087892 0 -0.0087217100741549848 0.024719855753411787 0 -0.0087660223325195553 0.025081370032108818 0 -0.0084671621853831831 0.025333820892490738 0 -0.0098026170979235872 0.026237734998441158 0 -0.011944142209612941 0.024921311558859134 0 -0.0092601693867826792 0.027957928887632894 0 -0.0088813675408532054 0.028026422816774435 0 -0.0094583837630813593 0.028764514185256683 0 -0.010366583220187044 0.023979716278267078 0 -0.010726243394820303 0.024197536755735025 0 -0.010637682595619634 0.023743993512689097 0 -0.0094654427103288714 0.023121840874220648 0 -0.0098026170979235872 0.026237734998441158 0 -0.0098026170979235872 0.026237734998441158 0 -0.0096933052399399526 0.026030056911152483 0 -0.0087660223325195553 0.025081370032108818 0 -0.0085157661486434718 0.02546281794293424 0 -0.0084671621853831831 0.025333820892490738 0 -0.0055813928099668914 0.036649649649409394 0 -0.005936683287678231 0.036589704826190284 0 -0.0046854055415665799 0.03921554008956972 0 -0.0051622500889923163 0.035830052331602837 0 -0.0055813928099668914 0.036649649649409394 0 -0.0046296412940865055 0.036531562112757446 0 -0.0062264937597700598 0.032237409546259123 0 -0.0066927376842299 0.031724134632437721 0 -0.0051622500889923163 0.035830052331602837 0 -0.0055813928099668914 0.036649649649409394 0 -0.0059714958234244444 0.036582613765768102 0 -0.0085090907161735948 0.02552067222074457 0 -0.0084671621853831831 0.025333820892490738 0 -0.0077026475031160375 0.025659179657087892 0 -0.0098026170979235872 0.026237734998441158 0 -0.0066927376842299 0.031724134632437721 0 -0.0055813928099668914 0.036649649649409394 0 -0.0043005797843718137 0.037395954793907643 0 -0.0046854055415665799 0.03921554008956972 0 -0.0038915651748881799 0.036728299688884178 0 -0.0029418340063273075 0.035793717836228291 0 -0.004228753834938535 0.036030329584312536 0 -0.0038915651748881799 0.036728299688884178 0 -0.0031823047333915107 0.037167760986875402 0 -0.0029418340063273075 0.035793717836228291 0 -0.0038915651748881799 0.036728299688884178 0 -0.0046296412940865055 0.036531562112757446 0 -0.004228753834938535 0.036030329584312536 0 -0.0055813928099668914 0.036649649649409394 0 -0.0046296412940865055 0.036531562112757446 0 -0.0043005797843718137 0.037395954793907643 0 -0.0051622500889923163 0.035830052331602837 0 -0.0046296412940865055 0.036531562112757446 0 -0.004228753834938535 0.036030329584312536 0 -0.0038915651748881799 0.036728299688884178 0 -0.0046296412940865055 0.036531562112757446 0 -0.0043005797843718137 0.037395954793907643 0 -0.0038915651748881799 0.036728299688884178 0 -0.0043005797843718137 0.037395954793907643 0 -0.0031823047333915107 0.037167760986875402 0 -0.0043005797843718137 0.037395954793907643 0 -0.0031823047333915107 0.037167760986875402 0 -0.0034315885518464264 0.038209111386897032 0 -0.0031823047333915107 0.037167760986875402 0 -0.002311521182824999 0.037947150834454033 0 -0.0034315885518464264 0.038209111386897032 0 -0.0031823047333915107 0.037167760986875402 0 -0.0019177898909987306 0.036898365685244412 0 -0.002311521182824999 0.037947150834454033 0 -0.0019177898909987306 0.036898365685244412 0 -0.0010697546164352349 0.037981855006486161 0 -0.002311521182824999 0.037947150834454033 0 -0.0031823047333915107 0.037167760986875402 0 -0.0019177898909987306 0.036898365685244412 0 -0.0029418340063273075 0.035793717836228291 0 -0.0029418340063273075 0.035793717836228291 0 -0.0029464965403204575 0.033981615345997911 0 -0.00025521544455033631 0.035622884826970742 0 -0.0019177898909987306 0.036898365685244412 0 -0.0029418340063273075 0.035793717836228291 0 -0.00025521544455033631 0.035622884826970742 0 -0.0015126897406426017 0.039608973159032765 0 0.00096452094753202622 0.043150915828918036 0 -0.0029418340063273075 0.035793717836228291 0 -0.003564332543103755 0.03473189335975347 0 -0.0029464965403204575 0.033981615345997911 0 -0.003564332543103755 0.03473189335975347 0 -0.003805252555292593 0.035413690805189267 0 -0.0045076400121790254 0.035088657321569426 0 -0.0029418340063273075 0.035793717836228291 0 -0.003564332543103755 0.03473189335975347 0 -0.003805252555292593 0.035413690805189267 0 -0.0029418340063273075 0.035793717836228291 0 -0.003805252555292593 0.035413690805189267 0 -0.004228753834938535 0.036030329584312536 0 -0.003805252555292593 0.035413690805189267 0 -0.004228753834938535 0.036030329584312536 0 -0.0045076400121790254 0.035088657321569426 0 -0.0051622500889923163 0.035830052331602837 0 -0.004228753834938535 0.036030329584312536 0 -0.0045076400121790254 0.035088657321569426 0 -0.0056302907003926246 0.034690740199703703 0 -0.0045076400121790254 0.035088657321569426 0 -0.0047506204030781122 0.033969651682809382 0 -0.003564332543103755 0.03473189335975347 0 -0.0045076400121790254 0.035088657321569426 0 -0.0047506204030781122 0.033969651682809382 0 -0.0040572259568242884 0.033506747278176645 0 -0.0015126897406426017 0.039608973159032765 0 -0.0058666357401842935 0.032046386063251983 0 -0.0047506204030781122 0.033969651682809382 0 -0.0028867475532538701 0.033786389119755081 0 -0.003564332543103755 0.03473189335975347 0 -0.0047506204030781122 0.033969651682809382 0 -0.0028867475532538701 0.033786389119755081 0 -0.0015907733454978113 0.035579506865786488 0 -0.0015126897406426017 0.039608973159032765 0 -0.0022190163344692009 0.035400635307327503 0 -0.001511230078337392 0.035001281695089217 0 -0.0013556938908736785 0.035841023441538576 0 -0.0012647603163825226 0.034804847955048304 0 -0.001511230078337392 0.035001281695089217 0 -0.0011207323197282627 0.035295208422080261 0 -0.001511230078337392 0.035001281695089217 0 -0.0011207323197282627 0.035295208422080261 0 -0.0013556938908736785 0.035841023441538576 0 0.0011833768986243668 0.049846474717927886 0 0.00158023369444 0.049886766633230183 0 0.0016733572405168077 0.050219722625094866 0 0.00028375806395372914 0.042569658700838002 0 -0.0015126897406426017 0.039608973159032765 0 0.0015830904527357394 0.049533094049933002 0 0.0011833768986243668 0.049846474717927886 0 0.00158023369444 0.049886766633230183 0 0.0015830904527357394 0.049533094049933002 0 0.00158023369444 0.049886766633230183 0 0.0018026770174615697 0.049935185615242093 0 0.00158023369444 0.049886766633230183 0 0.0018026770174615697 0.049935185615242093 0 0.0016733572405168077 0.050219722625094866 0 0.0018653621174326753 0.049283003589072269 0 0.0015830904527357394 0.049533094049933002 0 0.0018026770174615697 0.049935185615242093 0 0.0019513150602668357 0.049803549682139334 0 0.0018653621174326753 0.049283003589072269 0 0.0018026770174615697 0.049935185615242093 0 0.0019513150602668357 0.049803549682139334 0 0.0018026770174615697 0.049935185615242093 0 0.0019092672304439019 0.050305438586259611 0 0.0018026770174615697 0.049935185615242093 0 0.0018538571926672214 0.050210016289849918 0 0.0019092672304439019 0.050305438586259611 0 0.0018026770174615697 0.049935185615242093 0 0.0018538571926672214 0.050210016289849918 0 0.0016733572405168077 0.050219722625094866 0 0.0018538571926672214 0.050210016289849918 0 0.0016733572405168077 0.050219722625094866 0 0.0019145242538160575 0.050333212659148065 0 0.0016733572405168077 0.050219722625094866 0 0.0019145242538160575 0.050333212659148065 0 0.0019296540187561566 0.050365341925944801 0 -0.0019177898909987306 0.036898365685244412 0 -0.00025521544455033631 0.035622884826970742 0 -0.0010697546164352349 0.037981855006486161 0 -0.00025521544455033631 0.035622884826970742 0 0.00060686174069381638 0.037572532702612828 0 -0.0010697546164352349 0.037981855006486161 0 0.00060686174069381638 0.037572532702612828 0 0.0013254890258679623 0.039485147201810275 0 0.0024308841945411743 0.03724476386214727 0 -0.00025521544455033631 0.035622884826970742 0 0.00060686174069381638 0.037572532702612828 0 0.0024308841945411743 0.03724476386214727 0 0.00096452094753202622 0.043150915828918036 0 0.0017209477846131525 0.044800525700942596 0 0.00086852876241638537 0.042023659086288932 0 0.0017209477846131525 0.044800525700942596 0 0.0010519898130802432 0.039196632063633913 0 -0.0010697546164352349 0.037981855006486161 0 0.00080526655947577594 0.039689685563308076 0 0.00060686174069381638 0.037572532702612828 0 0.0013254890258679623 0.039485147201810275 0 -0.0010697546164352349 0.037981855006486161 0 0.00086852876241638537 0.042023659086288932 0 -0.0014865143918252155 0.035985473345395425 0 0.00086852876241638537 0.042023659086288932 0 0.0020715500986917454 0.042404302343532166 0 -0.0010697546164352349 0.037981855006486161 0 0.00080526655947577594 0.039689685563308076 0 -0.0017981949045192359 0.039473295689149583 0 0.00086852876241638537 0.042023659086288932 0 -0.0010605808852064259 0.037423930579290693 0 -0.0061593791544007764 0.029506389464001567 0 -0.0062520179535103448 0.029493524931018322 0 -0.0062814921275494004 0.029467156734983211 0 -0.0014865143918252155 0.035985473345395425 0 -0.0036532194393318696 0.034781232849086137 0 -0.0061593791544007764 0.029506389464001567 0 -0.0062814921275494004 0.029467156734983211 0 -0.0062674409866823409 0.029440059944169563 0 -0.0014865143918252155 0.035985473345395425 0 -0.00262916144033632 0.03248570246262953 0 0.00056037197282481673 0.03850437194756462 0 0.00024396568173305275 0.037373767523968641 0 0.00035227057042416327 0.035776937146773262 0 0.00056037197282481673 0.03850437194756462 0 0.00060661765317635518 0.037857537910247055 0 0.00098583819695406477 0.037627793239807548 0 -0.0014865143918252155 0.035985473345395425 0 0.0020715500986917454 0.042404302343532166 0 -0.00037341471165031206 0.038904167399537677 0 -0.00093844204514265442 0.040032129337843676 0 0.0021571216398499184 0.040330731979719502 0 0.00056037197282481673 0.03850437194756462 0 0.00060661765317635518 0.037857537910247055 0 0.00024396568173305275 0.037373767523968641 0 0.00060661765317635518 0.037857537910247055 0 0.00024396568173305275 0.037373767523968641 0 0.0011815460612829704 0.038519192419477738 0 0.00024396568173305275 0.037373767523968641 0 0.00040190359573407145 0.038978165727544402 0 0.0011815460612829704 0.038519192419477738 0 0.00024396568173305275 0.037373767523968641 0 0.00040190359573407145 0.038978165727544402 0 -0.00086049903037494911 0.039489798548065856 0 0.00040190359573407145 0.038978165727544402 0 0.00098507234818094049 0.039651270921403491 0 0.0011815460612829704 0.038519192419477738 0 0.00040190359573407145 0.038978165727544402 0 0.00098507234818094049 0.039651270921403491 0 2.6849805231510749e-05 0.039928313531962994 0 0.00040190359573407145 0.038978165727544402 0 2.6849805231510749e-05 0.039928313531962994 0 -0.00086049903037494911 0.039489798548065856 0 0.00098507234818094049 0.039651270921403491 0 2.6849805231510749e-05 0.039928313531962994 0 0.00077354952432097499 0.040592230224053429 0 -0.00021866839651525177 0.036573673378633438 0 -0.0038800595341857971 0.032982474476345565 0 -0.00262916144033632 0.03248570246262953 0 -0.0069153472725259884 0.027933479096743537 0 -0.00022034203188371249 0.033731284303997321 0 0.00035227057042416327 0.035776937146773262 0 0.0002819800535639562 0.029149970142970789 0 2.6849805231510749e-05 0.039928313531962994 0 -0.00086049903037494911 0.039489798548065856 0 -0.00073693367672573833 0.040412094585524035 0 4.8545934272004531e-05 0.037138532198564257 0 -0.00021866839651525177 0.036573673378633438 0 0.00024396568173305275 0.037373767523968641 0 -0.00022034203188371249 0.033731284303997321 0 0.00035227057042416327 0.035776937146773262 0 -0.0062814921275494004 0.029467156734983211 0 -0.0063148834641708488 0.029457050035119208 0 -0.0063510556242068516 0.029440499414382683 0 -0.0062520179535103448 0.029493524931018322 0 -0.0062814921275494004 0.029467156734983211 0 -0.0063148834641708488 0.029457050035119208 0 -0.014591798757516148 0.022161642130119195 0 -0.014242151251938227 0.022817705538870872 0 -0.014937060132651694 0.022625220960684648 0 -0.014591798757516148 0.022161642130119195 0 -0.01353329661495636 0.023004121934479971 0 -0.014242151251938227 0.022817705538870872 0 -0.010676617452955879 0.025564764392251048 0 -0.0069153472725259884 0.027933479096743537 0 -0.0062520179535103448 0.029493524931018322 0 -0.0063148834641708488 0.029457050035119208 0 -0.0063029512131997367 0.0294617806715072 0 -0.014591798757516148 0.022161642130119195 0 -0.015002177428321637 0.022182768838810134 0 -0.014937060132651694 0.022625220960684648 0 -0.010676617452955879 0.025564764392251048 0 -0.010948111099663984 0.025212310676743472 0 -0.015002177428321637 0.022182768838810134 0 -0.014913007503154435 0.022416707388683375 0 -0.014790120505494869 0.022358571182801306 0 -0.014591798757516148 0.022161642130119195 0 -0.015002177428321637 0.022182768838810134 0 -0.014913007503154435 0.022416707388683375 0 -0.014913007503154435 0.022416707388683375 0 -0.014827507556649761 0.022896717784492315 0 -0.014755526955447422 0.022568578753156418 0 -0.0063510556242068516 0.029440499414382683 0 -0.0062674409866823409 0.029440059944169563 0 -0.0063885985385124322 0.029404336325677394 0 -0.010948111099663984 0.025212310676743472 0 -0.0084618605437793756 0.030202009048554062 0 -0.0062814921275494004 0.029467156734983211 0 -0.0063510556242068516 0.029440499414382683 0 -0.0062674409866823409 0.029440059944169563 0 -0.0010697546164352349 0.037981855006486161 0 -0.0017981949045192359 0.039473295689149583 0 -0.002311521182824999 0.037947150834454033 0 -0.0017981949045192359 0.039473295689149583 0 -0.002311521182824999 0.037947150834454033 0 -0.0034315885518464264 0.038209111386897032 0 -0.0036532194393318696 0.034781232849086137 0 -0.0084618605437793756 0.030202009048554062 0 -0.0017981949045192359 0.039473295689149583 0 -0.0034315885518464264 0.038209111386897032 0 -0.0046854055415665799 0.03921554008956972 0 -0.0043005797843718137 0.037395954793907643 0 -0.0034315885518464264 0.038209111386897032 0 -0.0046854055415665799 0.03921554008956972 0 -0.0088813675408532054 0.028026422816774435 0 -0.0084985764718120797 0.028882108605079296 0 -0.0094583837630813593 0.028764514185256683 0 -0.0084618605437793756 0.030202009048554062 0 -0.011944142209612941 0.024921311558859134 0 -0.014827507556649761 0.022896717784492315 0 -0.014376508977921672 0.022969499052059 0 -0.014605683691859016 0.022760838994985613 0 -0.0066927376842299 0.031724134632437721 0 -0.0084618605437793756 0.030202009048554062 0 -0.014376508977921672 0.022969499052059 0 -0.014448406673289081 0.022742573114026828 0 -0.014605683691859016 0.022760838994985613 0 -0.014376508977921672 0.022969499052059 0 -0.014448406673289081 0.022742573114026828 0 -0.014326675968826311 0.022703543485544958 0 -0.011944142209612941 0.024921311558859134 0 -0.013252580929624209 0.022809334012397462 0 -0.014448406673289081 0.022742573114026828 0 -0.014326675968826311 0.022703543485544958 0 -0.014574128681400341 0.022587613376585717 0 -0.014448406673289081 0.022742573114026828 0 -0.014574128681400341 0.022587613376585717 0 -0.014605683691859016 0.022760838994985613 0 -0.014574128681400341 0.022587613376585717 0 -0.014605683691859016 0.022760838994985613 0 -0.014755526955447422 0.022568578753156418 0 -0.014827507556649761 0.022896717784492315 0 -0.014605683691859016 0.022760838994985613 0 -0.014755526955447422 0.022568578753156418 0 -0.014913007503154435 0.022416707388683375 0 -0.014755526955447422 0.022568578753156418 0 -0.014790120505494869 0.022358571182801306 0 -0.014574128681400341 0.022587613376585717 0 -0.014755526955447422 0.022568578753156418 0 -0.014790120505494869 0.022358571182801306 0 -0.015002177428321637 0.022182768838810134 0 -0.01484553066125935 0.022028343977959889 0 -0.015566191171653134 0.022339568704377789 0 -0.015002177428321637 0.022182768838810134 0 -0.014790120505494869 0.022358571182801306 0 -0.01484553066125935 0.022028343977959889 0 -0.01484553066125935 0.022028343977959889 0 -0.014484692006101276 0.02159164473554984 0 -0.014142899841853497 0.022396535828847156 0 -0.014484692006101276 0.02159164473554984 0 -0.014142899841853497 0.022396535828847156 0 -0.013487461118190658 0.020969626108525943 0 -0.014790120505494869 0.022358571182801306 0 -0.01484553066125935 0.022028343977959889 0 -0.014142899841853497 0.022396535828847156 0 -0.013252580929624209 0.022809334012397462 0 -0.01381539102746435 0.021999440078154135 0 -0.014574128681400341 0.022587613376585717 0 -0.014790120505494869 0.022358571182801306 0 -0.014142899841853497 0.022396535828847156 0 -0.014326675968826311 0.022703543485544958 0 -0.014574128681400341 0.022587613376585717 0 -0.014142899841853497 0.022396535828847156 0 -0.013439226424955323 0.021673394656479026 0 -0.013083254490193078 0.022375752096213147 0 -0.012483745666659987 0.022100217679140492 0 -0.013694506404139413 0.022844041013446795 0 -0.013439226424955323 0.021673394656479026 0 -0.013083254490193078 0.022375752096213147 0 -0.013439226424955323 0.021673394656479026 0 -0.012779050746215921 0.021336332527001348 0 -0.012483745666659987 0.022100217679140492 0 -0.013083254490193078 0.022375752096213147 0 -0.012483745666659987 0.022100217679140492 0 -0.012719552983179771 0.022894334663127867 0 -0.01381539102746435 0.021999440078154135 0 -0.013515198564055813 0.021025402837151517 0 -0.013439226424955323 0.021673394656479026 0 -0.012779050746215921 0.021336332527001348 0 -0.013487461118190658 0.020969626108525943 0 -0.012779050746215921 0.021336332527001348 0 -0.012372591727951767 0.020703000249209749 0 -0.013487461118190658 0.020969626108525943 0 -0.011520603738953892 0.020672667045220864 0 -0.012054222580057221 0.021451804865707316 0 -0.011260771164507067 0.022026979962715125 0 -0.011128584551513067 0.021944924136385956 0 -0.010089666306727179 0.017228786337012591 0 -0.011520603738953892 0.020672667045220864 0 -0.012372591727951767 0.020703000249209749 0 -0.012101488744398431 0.019813339223415608 0 -0.011520603738953892 0.020672667045220864 0 -0.012372591727951767 0.020703000249209749 0 -0.012054222580057221 0.021451804865707316 0 -0.012779050746215921 0.021336332527001348 0 -0.012372591727951767 0.020703000249209749 0 -0.012054222580057221 0.021451804865707316 0 -0.012483745666659987 0.022100217679140492 0 -0.011711753568508645 0.022978314027803797 0 -0.011260771164507067 0.022026979962715125 0 -0.012054222580057221 0.021451804865707316 0 -0.012483745666659987 0.022100217679140492 0 -0.011260771164507067 0.022026979962715125 0 -0.012779050746215921 0.021336332527001348 0 -0.012054222580057221 0.021451804865707316 0 -0.012483745666659987 0.022100217679140492 0 -0.011711753568508645 0.022978314027803797 0 -0.012304896972003414 0.023348407657122455 0 -0.012719552983179771 0.022894334663127867 0 -0.01016074863798834 0.020317146407318517 0 -0.010089666306727179 0.017228786337012591 0 -0.012483745666659987 0.022100217679140492 0 -0.011711753568508645 0.022978314027803797 0 -0.012719552983179771 0.022894334663127867 0 -0.011711753568508645 0.022978314027803797 0 -0.012304896972003414 0.023348407657122455 0 -0.012095354877901775 0.023900956862088568 0 -0.012304896972003414 0.023348407657122455 0 -0.012719552983179771 0.022894334663127867 0 -0.012608521868954144 0.023862369510033715 0 -0.013694506404139413 0.022844041013446795 0 -0.013083254490193078 0.022375752096213147 0 -0.012719552983179771 0.022894334663127867 0 -0.013694506404139413 0.022844041013446795 0 -0.012719552983179771 0.022894334663127867 0 -0.012608521868954144 0.023862369510033715 0 -0.013252580929624209 0.022809334012397462 0 -0.010937492118877411 0.022891567713174715 0 -0.010366583220187044 0.023979716278267078 0 -0.010637682595619634 0.023743993512689097 0 -0.010221722335573221 0.023765431731406782 0 -0.011944142209612941 0.024921311558859134 0 -0.010937492118877411 0.022891567713174715 0 -0.012407565337483406 0.023730039484707859 0 -0.012252184526118929 0.02301005855783549 0 -0.011400408447150432 0.023814381726157862 0 -0.010366583220187044 0.023979716278267078 0 -0.010221722335573221 0.023765431731406782 0 -0.010094034934742209 0.02387946370247777 0 -0.010417742828406903 0.021863014729584865 0 -0.010419770204712252 0.021855768079792809 0 -0.010421360193968388 0.021858840081437344 0 -0.0083979613709038899 0.017160530803838198 0 -0.0085221918076010417 0.017994861966221867 0 -0.0081206270593167287 0.017672661392449631 0 -0.0083979613709038899 0.017160530803838198 0 -0.0087353124081517054 0.017981257429392838 0 -0.0085221918076010417 0.017994861966221867 0 -0.010937492118877411 0.022891567713174715 0 -0.0098639081924384205 0.021434223529318154 0 -0.0098639081924384205 0.021434223529318154 0 -0.010253754213953765 0.021000344084719152 0 -0.0088628490378998854 0.018272334759138992 0 -0.008746377330807768 0.017979414661040163 0 -0.0085221918076010417 0.017994861966221867 0 -0.0082220213578609192 0.018396526836572977 0 -0.0088628490378998854 0.018272334759138992 0 -0.0085221918076010417 0.017994861966221867 0 -0.0082220213578609192 0.018396526836572977 0 -0.0085221918076010417 0.017994861966221867 0 -0.0081689921336883554 0.018032762272840293 0 -0.010253754213953765 0.021000344084719152 0 -0.0095976782241979901 0.020603939515259476 0 -0.01016074863798834 0.020317146407318517 0 -0.010253754213953765 0.021000344084719152 0 -0.0085221918076010417 0.017994861966221867 0 -0.0081206270593167287 0.017672661392449631 0 -0.0081689921336883554 0.018032762272840293 0 -0.010937492118877411 0.022891567713174715 0 -0.010253754213953765 0.021000344084719152 0 -0.012304896972003414 0.023348407657122455 0 -0.012608521868954144 0.023862369510033715 0 -0.012095354877901775 0.023900956862088568 0 0.0012906560274079657 0.050941364081623947 0 0.001219832567837428 0.050828597937392694 0 0.001255146176856731 0.051060111160257556 0 0.0014975956287011036 0.051005424182295936 0 0.0014116495382289205 0.050924097023018963 0 0.0015553353791466983 0.050868046331616526 0 0.0012906560274079657 0.050941364081623947 0 0.0014975956287011036 0.051005424182295936 0 0.0014116495382289205 0.050924097023018963 0 0.0012906560274079657 0.050941364081623947 0 0.001255146176856731 0.051060111160257556 0 0.0014975956287011036 0.051005424182295936 0 0.0012906560274079657 0.050941364081623947 0 0.0014116495382289205 0.050924097023018963 0 0.0012180650625403112 0.051098564807419158 0 0.0014116495382289205 0.050924097023018963 0 0.0012180650625403112 0.051098564807419158 0 0.0013230605603194627 0.051024235716145609 0 0.00077657040632601708 0.05287807801408885 0 0.0011487868810983761 0.051709345676985749 0 0.001219832567837428 0.050828597937392694 0 0.0012180650625403112 0.051098564807419158 0 0.0011929711490252018 0.051646718176931367 0 0.00038464688390059892 0.055028875729102991 0 0.00026174710240391759 0.053855354584219063 0 0.0011929711490252018 0.051646718176931367 0 0.0012906560274079657 0.050941364081623947 0 0.001219832567837428 0.050828597937392694 0 0.0012180650625403112 0.051098564807419158 0 0.00038464688390059892 0.055028875729102991 0 0.00026174710240391759 0.053855354584219063 0 -1.820885258600854e-05 0.054802749035576907 0 0.00026174710240391759 0.053855354584219063 0 -1.820885258600854e-05 0.054802749035576907 0 7.7475225462362009e-05 0.054611420347744764 0 -1.0125629305143095e-07 0.054999369456207488 0 -1.820885258600854e-05 0.054802749035576907 0 7.7475225462362009e-05 0.054611420347744764 0 -1.0125629305143095e-07 0.054999369456207488 0 -1.820885258600854e-05 0.054802749035576907 0 2.6865961071067531e-08 0.055000065994640211 0 -1.820885258600854e-05 0.054802749035576907 0 7.9726911386464902e-05 0.054997320183944279 0 2.6865961071067531e-08 0.055000065994640211 0 0.00038464688390059892 0.055028875729102991 0 -1.820885258600854e-05 0.054802749035576907 0 7.9726911386464902e-05 0.054997320183944279 0 0.00038464688390059892 0.055028875729102991 0 3.6326072085735809e-05 0.054970645901893878 0 7.9726911386464902e-05 0.054997320183944279 0 3.6326072085735809e-05 0.054970645901893878 0 7.9726911386464902e-05 0.054997320183944279 0 9.5627377996500458e-05 0.054889090883316685 0 7.9726911386464902e-05 0.054997320183944279 0 2.6865961071067531e-08 0.055000065994640211 0 9.5627377996500458e-05 0.054889090883316685 0 1.5630213243106673e-07 0.054999652708569415 0 2.6865961071067531e-08 0.055000065994640211 0 9.5627377996500458e-05 0.054889090883316685 0 0.00012010597541832321 0.054522044856727694 0 3.6326072085735809e-05 0.054970645901893878 0 9.5627377996500458e-05 0.054889090883316685 0 0.00010657390562251593 0.054427427178763581 0 0.00025707611798381636 0.053403311266815995 0 0.0011764084795798518 0.05434985809930433 0 0.00012010597541832321 0.054522044856727694 0 0.0003687711870732731 0.051702668815510437 0 0.0011764084795798518 0.05434985809930433 0 0.0003687711870732731 0.051702668815510437 0 0.0017042768962466229 0.05131704941113048 0 0.0015636719525345601 0.052451784343019725 0 0.0016642256592342539 0.051483564726711478 0 0.001255146176856731 0.051060111160257556 0 0.0003687711870732731 0.051702668815510437 0 0.0017042768962466229 0.05131704941113048 0 0.00077657040632601708 0.05287807801408885 0 0.00025707611798381636 0.053403311266815995 0 0.001219832567837428 0.050828597937392694 0 0.001255146176856731 0.051060111160257556 0 0.0003687711870732731 0.051702668815510437 0 0.0014975956287011036 0.051005424182295936 0 0.0017042768962466229 0.05131704941113048 0 0.0016127354808574961 0.051037567396682158 0 0.001255146176856731 0.051060111160257556 0 0.0014975956287011036 0.051005424182295936 0 0.0017042768962466229 0.05131704941113048 0 0.0017042768962466229 0.05131704941113048 0 0.0016239452410506533 0.05093644655237288 0 0.0016127354808574961 0.051037567396682158 0 0.0017462747653958105 0.050862752522690735 0 0.0017042768962466229 0.05131704941113048 0 0.0016239452410506533 0.05093644655237288 0 0.0016333072445723696 0.050809395710681465 0 0.0016239452410506533 0.05093644655237288 0 0.0016194311288711498 0.050859623951295389 0 0.0016239452410506533 0.05093644655237288 0 0.0016194311288711498 0.050859623951295389 0 0.0016127354808574961 0.051037567396682158 0 0.0016333072445723696 0.050809395710681465 0 0.0016194311288711498 0.050859623951295389 0 0.0016771989581173211 0.050709431415341344 0 0.0016194311288711498 0.050859623951295389 0 0.0016771989581173211 0.050709431415341344 0 0.0016344710389467809 0.050802864386713352 0 0.0016771989581173211 0.050709431415341344 0 0.0016344710389467809 0.050802864386713352 0 0.0017536283796165243 0.05058775752344595 0 0.0016344710389467809 0.050802864386713352 0 0.0017536283796165243 0.05058775752344595 0 0.0016518185046739498 0.050651302504213805 0 0.0016344710389467809 0.050802864386713352 0 0.0016127354808574961 0.051037567396682158 0 0.0015553353791466983 0.050868046331616526 0 0.0014975956287011036 0.051005424182295936 0 0.0016127354808574961 0.051037567396682158 0 0.0015553353791466983 0.050868046331616526 0 0.0016194311288711498 0.050859623951295389 0 0.0016344710389467809 0.050802864386713352 0 0.0016127354808574961 0.051037567396682158 0 0.0025020528827454924 0.050699325286710215 0 0.0016299369156947078 0.050172315616874512 0 0.0019513150602668357 0.049803549682139334 0 0.001865334611449951 0.050418274008601965 0 0.0019092672304439019 0.050305438586259611 0 0.0016771989581173211 0.050709431415341344 0 0.001865334611449951 0.050418274008601965 0 0.0017536283796165243 0.05058775752344595 0 0.0016948737566745344 0.050716949075340037 0 0.0016771989581173211 0.050709431415341344 0 0.001865334611449951 0.050418274008601965 0 0.0017536283796165243 0.05058775752344595 0 0.0019092672304439019 0.050305438586259611 0 0.0018286893770628012 0.050484645099810307 0 0.001865334611449951 0.050418274008601965 0 0.0017536283796165243 0.05058775752344595 0 0.0019092672304439019 0.050305438586259611 0 0.0018538571926672214 0.050210016289849918 0 0.0019092672304439019 0.050305438586259611 0 0.0019145242538160575 0.050333212659148065 0 0.0019092672304439019 0.050305438586259611 0 0.0019145242538160575 0.050333212659148065 0 0.0018286893770628012 0.050484645099810307 0 0.0019145242538160575 0.050333212659148065 0 0.0018749522647202189 0.050444890056861195 0 0.0019429138749359059 0.050366324755445308 0 0.0019145242538160575 0.050333212659148065 0 0.0018286893770628012 0.050484645099810307 0 0.0018749522647202189 0.050444890056861195 0 0.0018286893770628012 0.050484645099810307 0 0.0018749522647202189 0.050444890056861195 0 0.0016518185046739498 0.050651302504213805 0 0.0018749522647202189 0.050444890056861195 0 0.0016518185046739498 0.050651302504213805 0 0.001551839604027262 0.050562883912633853 0 0.0017536283796165243 0.05058775752344595 0 0.0018286893770628012 0.050484645099810307 0 0.0016518185046739498 0.050651302504213805 0 0.0018749522647202189 0.050444890056861195 0 0.0020120974542468038 0.050198292134349752 0 0.001551839604027262 0.050562883912633853 0 0.0018749522647202189 0.050444890056861195 0 0.0019429138749359059 0.050366324755445308 0 0.0020120974542468038 0.050198292134349752 0 0.0020120974542468038 0.050198292134349752 0 0.002510462609727778 0.050372247167619115 0 0.0023982328811143041 0.049796346000269373 0 0.0019429138749359059 0.050366324755445308 0 0.0020120974542468038 0.050198292134349752 0 0.0019296540187561566 0.050365341925944801 0 0.0031104753641581161 0.049626676985461173 0 0.0017209477846131525 0.044800525700942596 0 0.0019145242538160575 0.050333212659148065 0 0.0019429138749359059 0.050366324755445308 0 0.0019296540187561566 0.050365341925944801 0 0.0014116495382289205 0.050924097023018963 0 0.0015553353791466983 0.050868046331616526 0 0.0015571458550822925 0.050740660146644259 0 0.0016344710389467809 0.050802864386713352 0 0.0015553353791466983 0.050868046331616526 0 0.0016518185046739498 0.050651302504213805 0 0.0015553353791466983 0.050868046331616526 0 0.0016518185046739498 0.050651302504213805 0 0.0015571458550822925 0.050740660146644259 0 0.0016518185046739498 0.050651302504213805 0 0.001551839604027262 0.050562883912633853 0 0.0015571458550822925 0.050740660146644259 0 0.001551839604027262 0.050562883912633853 0 0.0015349119443924858 0.050775546385769185 0 0.0015571458550822925 0.050740660146644259 0 0.0014116495382289205 0.050924097023018963 0 0.0015349119443924858 0.050775546385769185 0 0.0013230605603194627 0.051024235716145609 0 0.0014116495382289205 0.050924097023018963 0 0.0015349119443924858 0.050775546385769185 0 0.0015571458550822925 0.050740660146644259 0 0.0015349119443924858 0.050775546385769185 0 0.0014458041581089094 0.050757822641806956 0 0.0016508498473263315 0.050701857925413318 0 0.0015349119443924858 0.050775546385769185 0 0.0014458041581089094 0.050757822641806956 0 0.0013230605603194627 0.051024235716145609 0 0.001551839604027262 0.050562883912633853 0 0.0015349119443924858 0.050775546385769185 0 0.0016508498473263315 0.050701857925413318 0 0.0015255225371896871 0.050292191600234952 0 0.0015071979451630074 0.050692242426734646 0 0.0015071979451630074 0.050692242426734646 0 0.0014177973334339143 0.046768360676322722 0 0.0012976028091459628 0.049582344481361139 0 0.0018762755543590974 0.049002384403526805 0 0.0012351032144615152 0.048623527991901186 0 0.0016508498473263315 0.050701857925413318 0 0.0015002394522080525 0.050491785463056507 0 0.0017622134314826698 0.050256607420162171 0 0.0014458041581089094 0.050757822641806956 0 0.0016508498473263315 0.050701857925413318 0 0.0015002394522080525 0.050491785463056507 0 0.0015002394522080525 0.050491785463056507 0 0.0013284652443566899 0.050346407530494984 0 0.0013594298604998681 0.050618458436269387 0 0.0014458041581089094 0.050757822641806956 0 0.0015002394522080525 0.050491785463056507 0 0.0013594298604998681 0.050618458436269387 0 0.0029146486098501449 0.049512210396371839 0 0.002510462609727778 0.050372247167619115 0 0.0023982328811143041 0.049796346000269373 0 0.0029146486098501449 0.049512210396371839 0 0.0024769553139001375 0.049485156804052369 0 0.0023982328811143041 0.049796346000269373 0 0.0029146486098501449 0.049512210396371839 0 0.0024769553139001375 0.049485156804052369 0 0.0024650315759817847 0.049328039537048424 0 0.0020120974542468038 0.050198292134349752 0 0.0023982328811143041 0.049796346000269373 0 0.0018830925638104426 0.04972996164570323 0 0.0024769553139001375 0.049485156804052369 0 0.0023982328811143041 0.049796346000269373 0 0.0021907502696075025 0.049463821021205265 0 0.0023982328811143041 0.049796346000269373 0 0.0018830925638104426 0.04972996164570323 0 0.0021907502696075025 0.049463821021205265 0 0.0020120974542468038 0.050198292134349752 0 0.001551839604027262 0.050562883912633853 0 0.0018830925638104426 0.04972996164570323 0 0.001551839604027262 0.050562883912633853 0 0.0012976028091459628 0.049582344481361139 0 0.0018830925638104426 0.04972996164570323 0 0.0018830925638104426 0.04972996164570323 0 0.0018762755543590974 0.049002384403526805 0 0.0021907502696075025 0.049463821021205265 0 0.0012976028091459628 0.049582344481361139 0 0.0018830925638104426 0.04972996164570323 0 0.0018762755543590974 0.049002384403526805 0 0.0023409110261636652 0.037984503305253874 0 0.0012656635395396278 0.037985194596875084 0 0.00098583819695406477 0.037627793239807548 0 0.0020634473745544512 0.043476496606517125 0 0.0020715500986917454 0.042404302343532166 0 0.0018762755543590974 0.049002384403526805 0 0.0021907502696075025 0.049463821021205265 0 0.0024650315759817847 0.049328039537048424 0 0.0023409110261636652 0.037984503305253874 0 0.0012656635395396278 0.037985194596875084 0 0.0011815460612829704 0.038519192419477738 0 0.00060661765317635518 0.037857537910247055 0 0.0012656635395396278 0.037985194596875084 0 0.0011815460612829704 0.038519192419477738 0 0.00060661765317635518 0.037857537910247055 0 0.0012656635395396278 0.037985194596875084 0 0.00098583819695406477 0.037627793239807548 0 0.0024769553139001375 0.049485156804052369 0 0.0021907502696075025 0.049463821021205265 0 0.0024650315759817847 0.049328039537048424 0 0.0023409110261636652 0.037984503305253874 0 0.0011815460612829704 0.038519192419477738 0 0.0024837058089105888 0.039285809336722891 0 0.0011815460612829704 0.038519192419477738 0 0.0024837058089105888 0.039285809336722891 0 0.0017214934084592032 0.039502144678995522 0 0.0020634473745544512 0.043476496606517125 0 0.0014177973334339143 0.046768360676322722 0 0.0023409110261636652 0.037984503305253874 0 0.0024837058089105888 0.039285809336722891 0 0.0036620687202890147 0.038849443341664312 0 0.0024837058089105888 0.039285809336722891 0 0.0022286475004162803 0.040527598753728002 0 0.0037984168809418861 0.040417135228190577 0 0.0024837058089105888 0.039285809336722891 0 0.0022286475004162803 0.040527598753728002 0 0.0017214934084592032 0.039502144678995522 0 0.00098507234818094049 0.039651270921403491 0 0.0022286475004162803 0.040527598753728002 0 0.0017214934084592032 0.039502144678995522 0 0.00098507234818094049 0.039651270921403491 0 0.0022286475004162803 0.040527598753728002 0 0.00077354952432097499 0.040592230224053429 0 0.00098507234818094049 0.039651270921403491 0 0.0011815460612829704 0.038519192419477738 0 0.0017214934084592032 0.039502144678995522 0 0.0014169764227806028 0.049992236860929316 0 0.0013284652443566899 0.050346407530494984 0 0.0012359664651310283 0.050175949246064 0 0.0015002394522080525 0.050491785463056507 0 0.0014169764227806028 0.049992236860929316 0 0.0013284652443566899 0.050346407530494984 0 0.0014177973334339143 0.046768360676322722 0 0.0025704862618702727 0.044722486492087932 0 0.0015002394522080525 0.050491785463056507 0 0.0014169764227806028 0.049992236860929316 0 0.0017622134314826698 0.050256607420162171 0 0.0014169764227806028 0.049992236860929316 0 0.0011928483514863772 0.049529915891492818 0 0.0012482854768593008 0.04992932350197047 0 0.0024837058089105888 0.039285809336722891 0 0.0036620687202890147 0.038849443341664312 0 0.0037984168809418861 0.040417135228190577 0 0.0019368756832875136 0.049900333961010894 0 0.0014177973334339143 0.046768360676322722 0 0.0014169764227806028 0.049992236860929316 0 0.0013163325915356082 0.050037704729909649 0 0.0012359664651310283 0.050175949246064 0 0.0012482854768593008 0.04992932350197047 0 0.0013163325915356082 0.050037704729909649 0 0.0012594180264136859 0.05005579007286514 0 0.0014169764227806028 0.049992236860929316 0 0.0012482854768593008 0.04992932350197047 0 0.0013163325915356082 0.050037704729909649 0 0.0013163325915356082 0.050037704729909649 0 0.0012213310552183464 0.050097073142459723 0 0.0012594180264136859 0.05005579007286514 0 0.0012213310552183464 0.050097073142459723 0 0.0011050103419016414 0.050145577286508591 0 0.0011640861244168732 0.050118196632905551 0 0.0012213310552183464 0.050097073142459723 0 0.0011050103419016414 0.050145577286508591 0 0.0012359664651310283 0.050175949246064 0 0.0011050103419016414 0.050145577286508591 0 0.0010740214535167978 0.050235264745739923 0 0.0012359664651310283 0.050175949246064 0 0.0013163325915356082 0.050037704729909649 0 0.0012213310552183464 0.050097073142459723 0 0.0012359664651310283 0.050175949246064 0 0.0010466786717229645 0.050171689405194765 0 0.0011050103419016414 0.050145577286508591 0 0.0009797584796877837 0.050198531211051188 0 0.0011050103419016414 0.050145577286508591 0 0.0010740214535167978 0.050235264745739923 0 0.0009797584796877837 0.050198531211051188 0 0.0008887194531311802 0.050354355444593366 0 0.0010740214535167978 0.050235264745739923 0 0.0009797584796877837 0.050198531211051188 0 0.0008887194531311802 0.050354355444593366 0 0.0010740214535167978 0.050235264745739923 0 0.0012008671846430389 0.050454647963310326 0 0.0010740214535167978 0.050235264745739923 0 0.0012359664651310283 0.050175949246064 0 0.0012008671846430389 0.050454647963310326 0 0.0013284652443566899 0.050346407530494984 0 0.0012359664651310283 0.050175949246064 0 0.0012008671846430389 0.050454647963310326 0 0.0014458041581089094 0.050757822641806956 0 0.0013594298604998681 0.050618458436269387 0 0.0013127319427567142 0.050903944310284506 0 0.0013284652443566899 0.050346407530494984 0 0.0013594298604998681 0.050618458436269387 0 0.0012008671846430389 0.050454647963310326 0 0.0013594298604998681 0.050618458436269387 0 0.0012008671846430389 0.050454647963310326 0 0.0013127319427567142 0.050903944310284506 0 0.0008887194531311802 0.050354355444593366 0 0.0010480164351587633 0.050719602711485692 0 0.00035113513770378938 0.050671112006856846 0 0.0008887194531311802 0.050354355444593366 0 0.0012008671846430389 0.050454647963310326 0 0.0010480164351587633 0.050719602711485692 0 0.0012008671846430389 0.050454647963310326 0 0.0010480164351587633 0.050719602711485692 0 0.0013127319427567142 0.050903944310284506 0 0.0010480164351587633 0.050719602711485692 0 0.0011929711490252018 0.051646718176931367 0 0.0013127319427567142 0.050903944310284506 0 0.0012180650625403112 0.051098564807419158 0 0.0011929711490252018 0.051646718176931367 0 0.0013230605603194627 0.051024235716145609 0 0.0010480164351587633 0.050719602711485692 0 0.0011929711490252018 0.051646718176931367 0 0.00035113513770378938 0.050671112006856846 0 0.0014458041581089094 0.050757822641806956 0 0.0013230605603194627 0.051024235716145609 0 0.0013127319427567142 0.050903944310284506 0 0.0011929711490252018 0.051646718176931367 0 0.0013230605603194627 0.051024235716145609 0 0.0013127319427567142 0.050903944310284506 0 7.7475225462362009e-05 0.054611420347744764 0 -5.9566603350096574e-05 0.054887861972306107 0 2.1004006120258434e-07 0.054999717405271445 0 -1.0125629305143095e-07 0.054999369456207488 0 7.7475225462362009e-05 0.054611420347744764 0 2.1004006120258434e-07 0.054999717405271445 0 0.00026174710240391759 0.053855354584219063 0 0.0011929711490252018 0.051646718176931367 0 0.00035113513770378938 0.050671112006856846 0 0.00029355062527345552 0.053842481726580543 0 0.00018280495223421361 0.052908827707052533 0 0.00026174710240391759 0.053855354584219063 0 7.7475225462362009e-05 0.054611420347744764 0 -5.9566603350096574e-05 0.054887861972306107 0 0.00018280495223421361 0.052908827707052533 0 0.00040036768963400593 0.052432930239061405 0 -5.9566603350096574e-05 0.054887861972306107 0 -1.637489230346298e-05 0.054964434327930078 0 -1.9412261170665748e-05 0.054995402008198607 0 -5.9566603350096574e-05 0.054887861972306107 0 -1.637489230346298e-05 0.054964434327930078 0 2.1004006120258434e-07 0.054999717405271445 0 -1.637489230346298e-05 0.054964434327930078 0 2.1004006120258434e-07 0.054999717405271445 0 -6.5435291927557365e-08 0.055000039357882398 0 -1.637489230346298e-05 0.054964434327930078 0 -6.5435291927557365e-08 0.055000039357882398 0 -1.9412261170665748e-05 0.054995402008198607 0 0.0008887194531311802 0.050354355444593366 0 0.00035113513770378938 0.050671112006856846 0 0.00083258522462585302 0.050240225148636075 0 0.0008887194531311802 0.050354355444593366 0 0.00083258522462585302 0.050240225148636075 0 0.0009797584796877837 0.050198531211051188 0 0.00083258522462585302 0.050240225148636075 0 0.0009797584796877837 0.050198531211051188 0 0.0010074435953801775 0.050204723416371277 0 0.0009797584796877837 0.050198531211051188 0 0.0010074435953801775 0.050204723416371277 0 0.0010275663829045192 0.050192943828791484 0 0.0010466786717229645 0.050171689405194765 0 0.0009797584796877837 0.050198531211051188 0 0.0010275663829045192 0.050192943828791484 0 -6.5435291927557365e-08 0.055000039357882398 0 -1.9412261170665748e-05 0.054995402008198607 0 -3.3833033599081014e-06 0.054997277082081263 0 -6.5435291927557365e-08 0.055000039357882398 0 -3.3833033599081014e-06 0.054997277082081263 0 1.5325533426988542e-08 0.054999967741836228 0 -1.9412261170665748e-05 0.054995402008198607 0 -3.3833033599081014e-06 0.054997277082081263 0 3.9587331898443206e-06 0.054991687589274578 0 0.00083258522462585302 0.050240225148636075 0 0.0010074435953801775 0.050204723416371277 0 0.001166258328410033 0.050202938419421729 0 0.00040036768963400593 0.052432930239061405 0 0.00038619133065340025 0.053545558519004104 0 -3.3833033599081014e-06 0.054997277082081263 0 1.5325533426988542e-08 0.054999967741836228 0 -2.7681523446026546e-07 0.05499534064751984 0 -3.3833033599081014e-06 0.054997277082081263 0 -2.7681523446026546e-07 0.05499534064751984 0 3.9587331898443206e-06 0.054991687589274578 0 1.5325533426988542e-08 0.054999967741836228 0 -2.7681523446026546e-07 0.05499534064751984 0 -3.9344808883419985e-08 0.054996395366275964 0 3.3343248803212376e-05 0.054462343189837469 0 0.00038619133065340025 0.053545558519004104 0 0.001166258328410033 0.050202938419421729 0 0.0010965277713933311 0.050212535470448252 0 0.0011597297396111544 0.050299850143266787 0 0.0010074435953801775 0.050204723416371277 0 0.001166258328410033 0.050202938419421729 0 0.0010965277713933311 0.050212535470448252 0 0.0010074435953801775 0.050204723416371277 0 0.0010275663829045192 0.050192943828791484 0 0.0010965277713933311 0.050212535470448252 0 0.0010965277713933311 0.050212535470448252 0 0.0010514524058338592 0.050208206881034792 0 0.0010938452243436318 0.050243435640590361 0 0.0010466786717229645 0.050171689405194765 0 0.0010275663829045192 0.050192943828791484 0 0.0010514524058338592 0.050208206881034792 0 0.0010275663829045192 0.050192943828791484 0 0.0010965277713933311 0.050212535470448252 0 0.0010514524058338592 0.050208206881034792 0 0.0010514524058338592 0.050208206881034792 0 0.0010938452243436318 0.050243435640590361 0 0.0010576353663359793 0.050273985919043772 0 0.0010938452243436318 0.050243435640590361 0 0.0010576353663359793 0.050273985919043772 0 0.0011597297396111544 0.050299850143266787 0 0.0010965277713933311 0.050212535470448252 0 0.0010938452243436318 0.050243435640590361 0 0.0011597297396111544 0.050299850143266787 0 0.0011597297396111544 0.050299850143266787 0 0.0010122895838631778 0.050402306330863178 0 0.0014038281608111495 0.050592811767890107 0 0.001166258328410033 0.050202938419421729 0 0.0011597297396111544 0.050299850143266787 0 0.0014038281608111495 0.050592811767890107 0 0.0010576353663359793 0.050273985919043772 0 0.0011597297396111544 0.050299850143266787 0 0.0010122895838631778 0.050402306330863178 0 1.5325533426988542e-08 0.054999967741836228 0 -3.9344808883419985e-08 0.054996395366275964 0 -5.7587662793162367e-09 0.055000008201397645 0 0.00038619133065340025 0.053545558519004104 0 2.2309720144396437e-07 0.05500219302212446 0 0.00038619133065340025 0.053545558519004104 0 0.00080360054369441199 0.052650487334254217 0 5.0340289371459495e-05 0.055068440816882308 0 8.9413545377430153e-05 0.055029860089635889 0 1.2946855163460007e-07 0.055000249344719254 0 0.0011640861244168732 0.050118196632905551 0 0.0010683212972877039 0.050193315172560427 0 0.0012063457039934522 0.050078177529368259 0 0.0011050103419016414 0.050145577286508591 0 0.0011640861244168732 0.050118196632905551 0 0.0010683212972877039 0.050193315172560427 0 0.0012213310552183464 0.050097073142459723 0 0.0011640861244168732 0.050118196632905551 0 0.0012594180264136859 0.05005579007286514 0 0.0010466786717229645 0.050171689405194765 0 0.0011050103419016414 0.050145577286508591 0 0.0010683212972877039 0.050193315172560427 0 0.0010466786717229645 0.050171689405194765 0 0.0010514524058338592 0.050208206881034792 0 0.0010683212972877039 0.050193315172560427 0 0.0010514524058338592 0.050208206881034792 0 0.0010576353663359793 0.050273985919043772 0 0.0010683212972877039 0.050193315172560427 0 0.001125203729208271 0.050294158495742702 0 0.00022616547436788947 0.050828197096800219 0 0.0010122895838631778 0.050402306330863178 0 0.0010683212972877039 0.050193315172560427 0 0.0011491073746976433 0.050064772951298679 0 0.0010576353663359793 0.050273985919043772 0 0.0010122895838631778 0.050402306330863178 0 0.0010683212972877039 0.050193315172560427 0 0.0010683212972877039 0.050193315172560427 0 0.0011491073746976433 0.050064772951298679 0 0.0012063457039934522 0.050078177529368259 0 -0.00025246483872588609 0.050926865753574843 0 0.0006247632074685911 0.051209146002989814 0 -0.00025878640746979965 0.052168056659387264 0 0.0010122895838631778 0.050402306330863178 0 -0.00025246483872588609 0.050926865753574843 0 0.0006247632074685911 0.051209146002989814 0 0.0006247632074685911 0.051209146002989814 0 -0.00025878640746979965 0.052168056659387264 0 0.0011201189383823178 0.051881962677161365 0 -0.00025878640746979965 0.052168056659387264 0 0.0011201189383823178 0.051881962677161365 0 0.0004283411846314192 0.053564979945910161 0 4.9967962829815894e-05 0.054950809830845285 0 1.2946855163460007e-07 0.055000249344719254 0 -9.0924743624298668e-08 0.054999480709110447 0 8.9413545377430153e-05 0.055029860089635889 0 4.9967962829815894e-05 0.054950809830845285 0 1.2946855163460007e-07 0.055000249344719254 0 0.0010122895838631778 0.050402306330863178 0 0.0014038281608111495 0.050592811767890107 0 0.0006247632074685911 0.051209146002989814 0 8.9413545377430153e-05 0.055029860089635889 0 4.9967962829815894e-05 0.054950809830845285 0 0.00028918754114012793 0.054822001808420062 0 0.00080360054369441199 0.052650487334254217 0 0.00064835171532872694 0.053385951675259502 0 0.0014038281608111495 0.050592811767890107 0 0.0006247632074685911 0.051209146002989814 0 0.0011201189383823178 0.051881962677161365 0 4.9967962829815894e-05 0.054950809830845285 0 0.00028918754114012793 0.054822001808420062 0 7.01389611322014e-05 0.054533530352006788 0 4.9967962829815894e-05 0.054950809830845285 0 -9.0924743624298668e-08 0.054999480709110447 0 7.01389611322014e-05 0.054533530352006788 0 -9.0924743624298668e-08 0.054999480709110447 0 6.6906490348054237e-08 0.054999205789610359 0 7.01389611322014e-05 0.054533530352006788 0 6.6906490348054237e-08 0.054999205789610359 0 7.01389611322014e-05 0.054533530352006788 0 0.00017226174732903172 0.054271030342154213 0 7.01389611322014e-05 0.054533530352006788 0 0.0004283411846314192 0.053564979945910161 0 0.00017226174732903172 0.054271030342154213 0 0.00028918754114012793 0.054822001808420062 0 7.01389611322014e-05 0.054533530352006788 0 0.0004283411846314192 0.053564979945910161 0 0.00064835171532872694 0.053385951675259502 0 0.00046670977806951875 0.05357579967290662 0 -0.00025878640746979965 0.052168056659387264 0 0.0004283411846314192 0.053564979945910161 0 -0.00020345394324854072 0.053005190630954421 0 0.0004283411846314192 0.053564979945910161 0 0.00013541251417150833 0.053603881397247172 0 -0.00020345394324854072 0.053005190630954421 0 0.0004283411846314192 0.053564979945910161 0 0.00013541251417150833 0.053603881397247172 0 0.00017226174732903172 0.054271030342154213 0 0.00013541251417150833 0.053603881397247172 0 0.00010598550359523098 0.053953349212415999 0 0.00017226174732903172 0.054271030342154213 0 0.00013541251417150833 0.053603881397247172 0 0.00010598550359523098 0.053953349212415999 0 -0.00014465218664406161 0.053330456443438055 0 0.00013541251417150833 0.053603881397247172 0 -0.00014465218664406161 0.053330456443438055 0 -0.00020345394324854072 0.053005190630954421 0 0.00010598550359523098 0.053953349212415999 0 -2.8869657416558147e-05 0.053802533090275724 0 -0.00014465218664406161 0.053330456443438055 0 -2.8869657416558147e-05 0.053802533090275724 0 -0.00014465218664406161 0.053330456443438055 0 -0.00018470500850710701 0.05361754923459696 0 0.00010598550359523098 0.053953349212415999 0 -2.8869657416558147e-05 0.053802533090275724 0 6.5486563551999408e-05 0.054137471469112269 0 0.00010598550359523098 0.053953349212415999 0 6.5486563551999408e-05 0.054137471469112269 0 0.00010250055580212817 0.054519191660164952 0 0.00010250055580212817 0.054519191660164952 0 1.3553674141854263e-07 0.05499925428701357 0 7.6351142302643633e-08 0.054999604458570307 0 6.6906490348054237e-08 0.054999205789610359 0 1.3553674141854263e-07 0.05499925428701357 0 0.00017226174732903172 0.054271030342154213 0 0.00010250055580212817 0.054519191660164952 0 1.3553674141854263e-07 0.05499925428701357 0 0.00017226174732903172 0.054271030342154213 0 0.00010598550359523098 0.053953349212415999 0 0.00010250055580212817 0.054519191660164952 0 0.00017226174732903172 0.054271030342154213 0 -0.0013998270826702274 0.052734493814211053 0 -0.0008211289062460917 0.052778062576835712 0 -0.0007465711064000535 0.052119118778976285 0 -0.0008211289062460917 0.052778062576835712 0 -0.00045653997663868605 0.052835824510965086 0 -0.0007465711064000535 0.052119118778976285 0 -0.0013998270826702274 0.052734493814211053 0 -0.0007465711064000535 0.052119118778976285 0 -0.0016834260694918103 0.051039949688115344 0 -0.0015423951877105296 0.05184554272452175 0 -0.00078285422000223251 0.052752377473669017 0 -0.0013998270826702274 0.052734493814211053 0 -0.0008211289062460917 0.052778062576835712 0 -0.00072122350050378241 0.052861884273787164 0 -0.0008211289062460917 0.052778062576835712 0 -0.00045842632912647288 0.053196115845682602 0 -0.00045653997663868605 0.052835824510965086 0 -0.0008211289062460917 0.052778062576835712 0 -0.00045842632912647288 0.053196115845682602 0 -0.00072122350050378241 0.052861884273787164 0 -0.00045842632912647288 0.053196115845682602 0 -0.00014465218664406161 0.053330456443438055 0 -0.00018470500850710701 0.05361754923459696 0 -0.00045842632912647288 0.053196115845682602 0 -0.00014465218664406161 0.053330456443438055 0 -0.00045653997663868605 0.052835824510965086 0 -0.00014465218664406161 0.053330456443438055 0 -0.00020345394324854072 0.053005190630954421 0 -0.00030721697218963069 0.052629954894870705 0 -0.00014465218664406161 0.053330456443438055 0 -0.00045653997663868605 0.052835824510965086 0 -0.00030721697218963069 0.052629954894870705 0 -0.00045653997663868605 0.052835824510965086 0 -0.00030721697218963069 0.052629954894870705 0 -0.0007465711064000535 0.052119118778976285 0 -0.00037125149543667781 0.051882104655183704 0 -0.00030721697218963069 0.052629954894870705 0 -0.0007465711064000535 0.052119118778976285 0 -0.00037125149543667781 0.051882104655183704 0 -0.00020345394324854072 0.053005190630954421 0 -0.00030721697218963069 0.052629954894870705 0 -0.00070619313609800378 0.052130438475814916 0 -0.00023850654523336633 0.052829777983953601 0 -0.00025878640746979965 0.052168056659387264 0 -0.00020345394324854072 0.053005190630954421 0 -0.00056031115664300138 0.052226865573620017 0 -0.00097970210439177825 0.052373233167635022 0 -0.00020345394324854072 0.053005190630954421 0 -0.00056031115664300138 0.052226865573620017 0 -0.00097970210439177825 0.052373233167635022 0 -0.00091560502040557187 0.051655463472213753 0 -0.0019699569870903874 0.05148703336060205 0 -0.00097970210439177825 0.052373233167635022 0 -0.00056031115664300138 0.052226865573620017 0 -0.00091560502040557187 0.051655463472213753 0 -0.00091560502040557187 0.051655463472213753 0 -0.0019699569870903874 0.05148703336060205 0 -0.0015335333797011951 0.050761620290243267 0 -0.00070619313609800378 0.052130438475814916 0 -0.0014887127648887831 0.051119631157691997 0 -0.00037125149543667781 0.051882104655183704 0 -0.00098010665132191037 0.050774934946290526 0 -0.0007465711064000535 0.052119118778976285 0 -0.00098010665132191037 0.050774934946290526 0 -0.0007465711064000535 0.052119118778976285 0 -0.0016834260694918103 0.051039949688115344 0 -0.00098010665132191037 0.050774934946290526 0 -0.0016834260694918103 0.051039949688115344 0 -0.0020178823624075653 0.049598561725202661 0 -0.0014887127648887831 0.051119631157691997 0 -0.0023672055605295575 0.049989002986692191 0 -0.0019699569870903874 0.05148703336060205 0 -0.0022885762649119978 0.050075268530093822 0 -0.0027658728427304722 0.050435100216946159 0 -0.0019699569870903874 0.05148703336060205 0 -0.0015335333797011951 0.050761620290243267 0 -0.0022885762649119978 0.050075268530093822 0 0.002026191823400557 0.04411194095319608 0 0.0040233045822151477 0.04357907851806514 0 0.0025686127771665252 0.042295253595888045 0 -0.0015335333797011951 0.050761620290243267 0 -0.0022885762649119978 0.050075268530093822 0 -0.00082216000068800277 0.049852793563187822 0 3.6615250490904007e-05 0.046823762411126992 0 0.0009921958878027202 0.048523508221123154 0 0.002026191823400557 0.04411194095319608 0 0.0011333716855015537 0.042776102776740405 0 0.00058876013132554031 0.043735183887586002 0 0.002026191823400557 0.04411194095319608 0 0.0025686127771665252 0.042295253595888045 0 0.0011333716855015537 0.042776102776740405 0 -0.00056031115664300138 0.052226865573620017 0 -0.00091560502040557187 0.051655463472213753 0 -0.00071410576563684584 0.051644136595418048 0 -0.00025878640746979965 0.052168056659387264 0 -0.00056031115664300138 0.052226865573620017 0 -0.00071410576563684584 0.051644136595418048 0 -0.00025246483872588609 0.050926865753574843 0 -0.00025878640746979965 0.052168056659387264 0 -0.00071410576563684584 0.051644136595418048 0 -0.00091560502040557187 0.051655463472213753 0 -0.0015335333797011951 0.050761620290243267 0 -0.00082216000068800277 0.049852793563187822 0 -0.00091560502040557187 0.051655463472213753 0 -0.00071410576563684584 0.051644136595418048 0 -0.0010085293219618946 0.051315422713910659 0 -0.0012981447957389884 0.052419535160639595 0 0.0009921958878027202 0.048523508221123154 0 -0.00025246483872588609 0.050926865753574843 0 -0.00071410576563684584 0.051644136595418048 0 -0.0010085293219618946 0.051315422713910659 0 0.00022616547436788947 0.050828197096800219 0 0.0009921958878027202 0.048523508221123154 0 0.0011491073746976433 0.050064772951298679 0 0.0012423596904382874 0.049997922894015445 0 0.0012063457039934522 0.050078177529368259 0 0.0040233045822151477 0.04357907851806514 0 0.0039351681552024648 0.041921405619463961 0 0.0025686127771665252 0.042295253595888045 0 0.0009921958878027202 0.048523508221123154 0 0.0026864901895973844 0.045742773059614862 0 0.0012423596904382874 0.049997922894015445 0 0.0012063457039934522 0.050078177529368259 0 0.001241368039858152 0.050037108573877054 0 0.0025704862618702727 0.044722486492087932 0 0.0026864901895973844 0.045742773059614862 0 0.0037984168809418861 0.040417135228190577 0 0.0039351681552024648 0.041921405619463961 0 0.0031484354450067665 0.041279409181013756 0 0.0012482854768593008 0.04992932350197047 0 0.001241368039858152 0.050037108573877054 0 0.0012594180264136859 0.05005579007286514 0 0.0012063457039934522 0.050078177529368259 0 0.001241368039858152 0.050037108573877054 0 0.0012594180264136859 0.05005579007286514 0 0.0011640861244168732 0.050118196632905551 0 0.0012063457039934522 0.050078177529368259 0 0.0012594180264136859 0.05005579007286514 0 0.0025686127771665252 0.042295253595888045 0 0.0012358304453883244 0.041581044226680554 0 0.0011333716855015537 0.042776102776740405 0 0.0022286475004162803 0.040527598753728002 0 0.0025686127771665252 0.042295253595888045 0 0.0031484354450067665 0.041279409181013756 0 0.0022286475004162803 0.040527598753728002 0 0.0037984168809418861 0.040417135228190577 0 0.0031484354450067665 0.041279409181013756 0 0.0039351681552024648 0.041921405619463961 0 0.0025686127771665252 0.042295253595888045 0 0.0031484354450067665 0.041279409181013756 0 0.0022286475004162803 0.040527598753728002 0 0.0012358304453883244 0.041581044226680554 0 0.00077354952432097499 0.040592230224053429 0 0.0022286475004162803 0.040527598753728002 0 0.0025686127771665252 0.042295253595888045 0 0.0012358304453883244 0.041581044226680554 0 2.6849805231510749e-05 0.039928313531962994 0 0.00077354952432097499 0.040592230224053429 0 -0.00023206447423419036 0.040680727370255611 0 0.00077354952432097499 0.040592230224053429 0 -0.00023206447423419036 0.040680727370255611 0 0.00029773859994833805 0.041203129729130282 0 0.00029773859994833805 0.041203129729130282 0 0.00020260338064443309 0.041963855637260933 0 -0.00029340499838901115 0.041275924091804944 0 -0.00023206447423419036 0.040680727370255611 0 0.00029773859994833805 0.041203129729130282 0 -0.00029340499838901115 0.041275924091804944 0 0.0012358304453883244 0.041581044226680554 0 0.00029773859994833805 0.041203129729130282 0 0.00020260338064443309 0.041963855637260933 0 0.0012358304453883244 0.041581044226680554 0 0.00077354952432097499 0.040592230224053429 0 0.00029773859994833805 0.041203129729130282 0 0.0012358304453883244 0.041581044226680554 0 0.00020260338064443309 0.041963855637260933 0 0.0011333716855015537 0.042776102776740405 0 0.00020260338064443309 0.041963855637260933 0 -3.5997063107643021e-05 0.042756150526922949 0 -0.00062115587679972871 0.041767248920305512 0 0.00020260338064443309 0.041963855637260933 0 -3.5997063107643021e-05 0.042756150526922949 0 0.0011333716855015537 0.042776102776740405 0 -3.5997063107643021e-05 0.042756150526922949 0 -0.0014650074528688088 0.04234939562966851 0 -0.00062115587679972871 0.041767248920305512 0 0.00020260338064443309 0.041963855637260933 0 -0.00062115587679972871 0.041767248920305512 0 -0.00029340499838901115 0.041275924091804944 0 -0.0014650074528688088 0.04234939562966851 0 -0.0010910526708263258 0.041466295480353493 0 -0.0015303387338696972 0.04108524587074646 0 -0.0014650074528688088 0.04234939562966851 0 -0.00062115587679972871 0.041767248920305512 0 -0.0010910526708263258 0.041466295480353493 0 -0.00086049903037494911 0.039489798548065856 0 -0.00073693367672573833 0.040412094585524035 0 -0.0016185126852541912 0.040908457791855389 0 -0.00062115587679972871 0.041767248920305512 0 -0.0010910526708263258 0.041466295480353493 0 -0.00092444354863294262 0.041021780385109161 0 -0.00022034203188371249 0.033731284303997321 0 0.0002819800535639562 0.029149970142970789 0 -0.00017531296673014608 0.028421749136039027 0 -0.00092444354863294262 0.041021780385109161 0 -0.0015303387338696972 0.04108524587074646 0 -0.0016185126852541912 0.040908457791855389 0 -0.0010910526708263258 0.041466295480353493 0 -0.00092444354863294262 0.041021780385109161 0 -0.0015303387338696972 0.04108524587074646 0 -0.00062115587679972871 0.041767248920305512 0 -0.00092444354863294262 0.041021780385109161 0 -0.00029340499838901115 0.041275924091804944 0 -0.00023206447423419036 0.040680727370255611 0 -0.00092444354863294262 0.041021780385109161 0 -0.00029340499838901115 0.041275924091804944 0 -0.00023206447423419036 0.040680727370255611 0 -0.00092444354863294262 0.041021780385109161 0 -0.00073693367672573833 0.040412094585524035 0 2.6849805231510749e-05 0.039928313531962994 0 -0.00023206447423419036 0.040680727370255611 0 -0.00073693367672573833 0.040412094585524035 0 -0.00092444354863294262 0.041021780385109161 0 -0.00073693367672573833 0.040412094585524035 0 -0.0016185126852541912 0.040908457791855389 0 -0.01353329661495636 0.023004121934479971 0 -0.014242151251938227 0.022817705538870872 0 -0.013574173919339742 0.023455202850198406 0 -0.014242151251938227 0.022817705538870872 0 -0.014350399640937851 0.023375183777409655 0 -0.013574173919339742 0.023455202850198406 0 -0.0026710272626287029 0.036002819196296741 0 -0.0038800595341857971 0.032982474476345565 0 -0.013170684562106875 0.02418754949789545 0 -0.01339386901154732 0.023529598795523479 0 -0.013574173919339742 0.023455202850198406 0 -0.0069153472725259884 0.027933479096743537 0 -0.0038800595341857971 0.032982474476345565 0 -0.0069153472725259884 0.027933479096743537 0 -0.0078145936380246694 0.027083126508048165 0 -0.015002177428321637 0.022182768838810134 0 -0.014937060132651694 0.022625220960684648 0 -0.015566191171653134 0.022339568704377789 0 -0.014242151251938227 0.022817705538870872 0 -0.014350399640937851 0.023375183777409655 0 -0.014937060132651694 0.022625220960684648 0 -0.014350399640937851 0.023375183777409655 0 -0.014937060132651694 0.022625220960684648 0 -0.015007771219302012 0.02352072351134089 0 -0.014937060132651694 0.022625220960684648 0 -0.015007771219302012 0.02352072351134089 0 -0.015721533098188568 0.022983201421484033 0 -0.014937060132651694 0.022625220960684648 0 -0.015566191171653134 0.022339568704377789 0 -0.015721533098188568 0.022983201421484033 0 -0.015007771219302012 0.02352072351134089 0 -0.015721533098188568 0.022983201421484033 0 -0.01631290801191675 0.023596482107935503 0 -0.014350399640937851 0.023375183777409655 0 -0.015007771219302012 0.02352072351134089 0 -0.013792497647551583 0.024793561192628114 0 -0.015007771219302012 0.02352072351134089 0 -0.013792497647551583 0.024793561192628114 0 -0.015806636394213491 0.024841552256745877 0 -0.015007771219302012 0.02352072351134089 0 -0.015806636394213491 0.024841552256745877 0 -0.01631290801191675 0.023596482107935503 0 -0.0014650074528688088 0.04234939562966851 0 -0.0015303387338696972 0.04108524587074646 0 -0.0029582652555804573 0.042294617977665025 0 -0.014350399640937851 0.023375183777409655 0 -0.013574173919339742 0.023455202850198406 0 -0.013792497647551583 0.024793561192628114 0 -0.0038800595341857971 0.032982474476345565 0 -0.0087239918978420511 0.033693038386845779 0 -0.01339386901154732 0.023529598795523479 0 -0.013574173919339742 0.023455202850198406 0 -0.013792497647551583 0.024793561192628114 0 -0.0015303387338696972 0.04108524587074646 0 -0.0016305245317913186 0.040762903223886614 0 -0.0029582652555804573 0.042294617977665025 0 -0.0014650074528688088 0.04234939562966851 0 -0.0029582652555804573 0.042294617977665025 0 -0.0019865706032275708 0.044293518646449717 0 -0.0029582652555804573 0.042294617977665025 0 -0.0033059258377700733 0.045155081874031403 0 -0.0019865706032275708 0.044293518646449717 0 -0.015806636394213491 0.024841552256745877 0 -0.017039833618050504 0.029446652396607542 0 -0.015135222452657741 0.029084851413359498 0 -0.013792497647551583 0.024793561192628114 0 -0.015806636394213491 0.024841552256745877 0 -0.015135222452657741 0.029084851413359498 0 -0.0029582652555804573 0.042294617977665025 0 -0.0033059258377700733 0.045155081874031403 0 -0.0047770598194725473 0.045568047390115843 0 -0.0087239918978420511 0.033693038386845779 0 -0.0098173399458911636 0.037655945356310033 0 -0.015806636394213491 0.024841552256745877 0 -0.015835618007846573 0.02855450031845792 0 -0.0168431773869409 0.026586253130349465 0 -0.015923903205053713 0.025626208691597187 0 -0.016361878089008009 0.028203822273763769 0 -0.017039833618050504 0.029446652396607542 0 -0.015135222452657741 0.029084851413359498 0 -0.017634669664162658 0.034232120215479889 0 -0.0098173399458911636 0.037655945356310033 0 -0.013929231520696545 0.038479079661209802 0 -0.0047770598194725473 0.045568047390115843 0 -0.0035834265671328856 0.047327064061052138 0 -0.0055047279014333915 0.048226438977697343 0 -0.0033059258377700733 0.045155081874031403 0 -0.0047770598194725473 0.045568047390115843 0 -0.0035834265671328856 0.047327064061052138 0 -0.0033059258377700733 0.045155081874031403 0 -0.0019865706032275708 0.044293518646449717 0 -0.0035834265671328856 0.047327064061052138 0 -0.0019865706032275708 0.044293518646449717 0 -0.0035834265671328856 0.047327064061052138 0 -0.0014578825497565827 0.045063361350581643 0 -0.0035834265671328856 0.047327064061052138 0 -0.003159228817828437 0.048792333085086084 0 -0.0033768539192805774 0.048390041060488088 0 -0.0035834265671328856 0.047327064061052138 0 -0.003159228817828437 0.048792333085086084 0 -0.0030232709540688181 0.049437541611039311 0 -0.0036064872762970345 0.047402663510673064 0 -0.0016924293855913614 0.047326128894829393 0 -0.0035834265671328856 0.047327064061052138 0 -0.0014578825497565827 0.045063361350581643 0 4.0685113124176863e-05 0.045125806043191531 0 -0.003084725736189709 0.049040568563548811 0 -0.0023672055605295575 0.049989002986692191 0 3.6615250490904007e-05 0.046823762411126992 0 -0.0016924293855913614 0.047326128894829393 0 -0.0022885762649119978 0.050075268530093822 0 -0.0030232709540688181 0.049437541611039311 0 -0.0027658728427304722 0.050435100216946159 0 -0.003159228817828437 0.048792333085086084 0 -0.0030232709540688181 0.049437541611039311 0 -0.0027658728427304722 0.050435100216946159 0 0.002026191823400557 0.04411194095319608 0 4.0685113124176863e-05 0.045125806043191531 0 0.00058876013132554031 0.043735183887586002 0 4.0685113124176863e-05 0.045125806043191531 0 0.00058876013132554031 0.043735183887586002 0 -0.00055064138197521691 0.043894393464714521 0 -3.5997063107643021e-05 0.042756150526922949 0 0.0011333716855015537 0.042776102776740405 0 0.00058876013132554031 0.043735183887586002 0 -3.5997063107643021e-05 0.042756150526922949 0 0.00058876013132554031 0.043735183887586002 0 -0.00055064138197521691 0.043894393464714521 0 -3.5997063107643021e-05 0.042756150526922949 0 -0.0014650074528688088 0.04234939562966851 0 -0.00055064138197521691 0.043894393464714521 0 -0.0014650074528688088 0.04234939562966851 0 -0.0019865706032275708 0.044293518646449717 0 -0.00055064138197521691 0.043894393464714521 0 -0.0019865706032275708 0.044293518646449717 0 -0.0014578825497565827 0.045063361350581643 0 -0.00055064138197521691 0.043894393464714521 0 -0.0014578825497565827 0.045063361350581643 0 4.0685113124176863e-05 0.045125806043191531 0 -0.00055064138197521691 0.043894393464714521 0 -0.014561402395550125 0.021408342189280311 0 -0.014735245236780032 0.02109262303142492 0 -0.014088642689930798 0.020987882633231241 0 -0.014561402395550125 0.021408342189280311 0 -0.015122792031018078 0.021538001737717687 0 -0.014735245236780032 0.02109262303142492 0 -0.014561402395550125 0.021408342189280311 0 -0.013946411319138255 0.021213076229447233 0 -0.014088642689930798 0.020987882633231241 0 -0.014561402395550125 0.021408342189280311 0 -0.014553757643395176 0.021960572462612658 0 -0.013946411319138255 0.021213076229447233 0 -0.011520603738953892 0.020672667045220864 0 -0.012101488744398431 0.019813339223415608 0 -0.011094419519612372 0.020068394727713115 0 -0.014561402395550125 0.021408342189280311 0 -0.014553757643395176 0.021960572462612658 0 -0.015126634474126259 0.021862019131208076 0 -0.014553757643395176 0.021960572462612658 0 -0.015126634474126259 0.021862019131208076 0 -0.01575532218189319 0.022374602746736628 0 -0.013374960370100917 0.021392006361697885 0 -0.01482074250064493 0.021545037575319136 0 -0.012101488744398431 0.019813339223415608 0 -0.013487461118190658 0.020969626108525943 0 -0.014068742138796008 0.020766463042103157 0 -0.012372591727951767 0.020703000249209749 0 -0.012101488744398431 0.019813339223415608 0 -0.013487461118190658 0.020969626108525943 0 -0.015126634474126259 0.021862019131208076 0 -0.01557754834673962 0.022047185057407371 0 -0.01575532218189319 0.022374602746736628 0 -0.015126634474126259 0.021862019131208076 0 -0.015122792031018078 0.021538001737717687 0 -0.01557754834673962 0.022047185057407371 0 -0.014561402395550125 0.021408342189280311 0 -0.015126634474126259 0.021862019131208076 0 -0.015122792031018078 0.021538001737717687 0 -0.015122792031018078 0.021538001737717687 0 -0.015539452114598463 0.021656271873737937 0 -0.01557754834673962 0.022047185057407371 0 -0.015539452114598463 0.021656271873737937 0 -0.015833354628882565 0.022237166412849212 0 -0.01557754834673962 0.022047185057407371 0 -0.015539452114598463 0.021656271873737937 0 -0.015833354628882565 0.022237166412849212 0 -0.015913178612017648 0.021877425312745204 0 -0.015833354628882565 0.022237166412849212 0 -0.016008905704545887 0.022564898001911294 0 -0.015913178612017648 0.021877425312745204 0 -0.015833354628882565 0.022237166412849212 0 -0.015825526979012263 0.022381205481005226 0 -0.015898323226500415 0.022570632705386579 0 -0.015833354628882565 0.022237166412849212 0 -0.015898323226500415 0.022570632705386579 0 -0.016008905704545887 0.022564898001911294 0 -0.015833354628882565 0.022237166412849212 0 -0.015825526979012263 0.022381205481005226 0 -0.01557754834673962 0.022047185057407371 0 -0.014484692006101276 0.02159164473554984 0 -0.014068742138796008 0.020766463042103157 0 -0.015566191171653134 0.022339568704377789 0 -0.015825526979012263 0.022381205481005226 0 -0.01575532218189319 0.022374602746736628 0 -0.015566191171653134 0.022339568704377789 0 -0.01482074250064493 0.021545037575319136 0 -0.015438006179001013 0.022188287223965854 0 -0.015825526979012263 0.022381205481005226 0 -0.01557754834673962 0.022047185057407371 0 -0.01575532218189319 0.022374602746736628 0 -0.014484692006101276 0.02159164473554984 0 -0.013487461118190658 0.020969626108525943 0 -0.014068742138796008 0.020766463042103157 0 -0.01484553066125935 0.022028343977959889 0 -0.014484692006101276 0.02159164473554984 0 -0.015566191171653134 0.022339568704377789 0 -0.015825526979012263 0.022381205481005226 0 -0.015566191171653134 0.022339568704377789 0 -0.015898323226500415 0.022570632705386579 0 -0.015566191171653134 0.022339568704377789 0 -0.015721533098188568 0.022983201421484033 0 -0.015931459513112783 0.022768742156665803 0 -0.015721533098188568 0.022983201421484033 0 -0.015931459513112783 0.022768742156665803 0 -0.016135422114297596 0.023023657966992635 0 -0.015566191171653134 0.022339568704377789 0 -0.015898323226500415 0.022570632705386579 0 -0.015931459513112783 0.022768742156665803 0 -0.015898323226500415 0.022570632705386579 0 -0.015931459513112783 0.022768742156665803 0 -0.016008905704545887 0.022564898001911294 0 -0.015931459513112783 0.022768742156665803 0 -0.016008905704545887 0.022564898001911294 0 -0.016135422114297596 0.023023657966992635 0 -0.016008905704545887 0.022564898001911294 0 -0.016135422114297596 0.023023657966992635 0 -0.01615291474446983 0.022486805959477284 0 -0.016008905704545887 0.022564898001911294 0 -0.01615291474446983 0.022486805959477284 0 -0.015913178612017648 0.021877425312745204 0 -0.01631290801191675 0.023596482107935503 0 -0.016135422114297596 0.023023657966992635 0 -0.01615291474446983 0.022486805959477284 0 -0.015721533098188568 0.022983201421484033 0 -0.01631290801191675 0.023596482107935503 0 -0.016135422114297596 0.023023657966992635 0 -0.016593310442405768 0.023566793742190367 0 -0.017306023739567744 0.023814505934419371 0 -0.015806636394213491 0.024841552256745877 0 -0.016872182074150744 0.025442422014412411 0 -0.0168431773869409 0.026586253130349465 0 -0.01631290801191675 0.023596482107935503 0 -0.016872182074150744 0.025442422014412411 0 -0.018924768314897936 0.026796905140028603 0 -0.015806636394213491 0.024841552256745877 0 -0.01631290801191675 0.023596482107935503 0 -0.016872182074150744 0.025442422014412411 0 -0.01615291474446983 0.022486805959477284 0 -0.016374908154442369 0.021376094276562878 0 -0.015913178612017648 0.021877425312745204 0 -0.01631290801191675 0.023596482107935503 0 -0.01615291474446983 0.022486805959477284 0 -0.016374908154442369 0.021376094276562878 0 -0.018924768314897936 0.026796905140028603 0 -0.017382464035008566 0.027897950307608853 0 -0.018800114542687898 0.028466761911252393 0 -0.015835618007846573 0.02855450031845792 0 -0.0168431773869409 0.026586253130349465 0 -0.017382464035008566 0.027897950307608853 0 -0.016872182074150744 0.025442422014412411 0 -0.018924768314897936 0.026796905140028603 0 -0.0168431773869409 0.026586253130349465 0 -0.018924768314897936 0.026796905140028603 0 -0.0168431773869409 0.026586253130349465 0 -0.017382464035008566 0.027897950307608853 0 -0.016361878089008009 0.028203822273763769 0 -0.013929231520696545 0.038479079661209802 0 -0.015835618007846573 0.02855450031845792 0 -0.017382464035008566 0.027897950307608853 0 -0.017688231531861637 0.03024898470445065 0 -0.015835618007846573 0.02855450031845792 0 -0.017688231531861637 0.03024898470445065 0 -0.016227322875713684 0.033259017567681765 0 -0.017688231531861637 0.03024898470445065 0 -0.019422128351017469 0.03104150778222008 0 -0.018323732939342967 0.03317965805746604 0 -0.017688231531861637 0.03024898470445065 0 -0.019422128351017469 0.03104150778222008 0 -0.018800114542687898 0.028466761911252393 0 -0.017382464035008566 0.027897950307608853 0 -0.017688231531861637 0.03024898470445065 0 -0.018800114542687898 0.028466761911252393 0 -0.017306023739567744 0.023814505934419371 0 -0.020418116682561396 0.026014775832215481 0 -0.020133630538355953 0.028569512432674412 0 -0.020418116682561396 0.026014775832215481 0 -0.018924768314897936 0.026796905140028603 0 -0.018800114542687898 0.028466761911252393 0 -0.021233085600998059 0.029785602085526493 0 -0.016374908154442369 0.021376094276562878 0 -0.016005700265076993 0.020263989002048604 0 -0.015916934623298962 0.02099419142091688 0 -0.019422128351017469 0.03104150778222008 0 -0.021795627050046576 0.030017863435082805 0 -0.020478721623501395 0.033452654537015923 0 -0.019422128351017469 0.03104150778222008 0 -0.018800114542687898 0.028466761911252393 0 -0.021795627050046576 0.030017863435082805 0 -0.020418116682561396 0.026014775832215481 0 -0.016036524662313749 0.013090368279550841 0 -0.020418116682561396 0.026014775832215481 0 -0.01622100609347403 0.021733683532961956 0 -0.016005700265076993 0.020263989002048604 0 -0.015916934623298962 0.02099419142091688 0 -0.01547461529066963 0.020594769352571114 0 -0.015615004229432163 0.021193204831718996 0 -0.015916934623298962 0.02099419142091688 0 -0.01547461529066963 0.020594769352571114 0 -0.015615004229432163 0.021193204831718996 0 -0.015916934623298962 0.02099419142091688 0 -0.015913178612017648 0.021877425312745204 0 -0.016374908154442369 0.021376094276562878 0 -0.015916934623298962 0.02099419142091688 0 -0.015913178612017648 0.021877425312745204 0 -0.015539452114598463 0.021656271873737937 0 -0.015615004229432163 0.021193204831718996 0 -0.015913178612017648 0.021877425312745204 0 -0.015141964913024159 0.0210232211900401 0 -0.01547461529066963 0.020594769352571114 0 -0.014782320963162008 0.020456929823506532 0 -0.015122792031018078 0.021538001737717687 0 -0.015539452114598463 0.021656271873737937 0 -0.015141964913024159 0.0210232211900401 0 -0.015539452114598463 0.021656271873737937 0 -0.015615004229432163 0.021193204831718996 0 -0.015141964913024159 0.0210232211900401 0 -0.015122792031018078 0.021538001737717687 0 -0.015141964913024159 0.0210232211900401 0 -0.014735245236780032 0.02109262303142492 0 -0.015615004229432163 0.021193204831718996 0 -0.015141964913024159 0.0210232211900401 0 -0.01547461529066963 0.020594769352571114 0 -0.01547461529066963 0.020594769352571114 0 -0.014782320963162008 0.020456929823506532 0 -0.015483555476343927 0.019625234143382474 0 -0.013126974626735354 0.012590438767595431 0 -0.016036524662313749 0.013090368279550841 0 -0.011880863148352461 0.0040638905715384543 0 -0.011825791398136139 0.0048618254613729773 0 -0.012459283247218634 0.0041765427920836757 0 -0.016005700265076993 0.020263989002048604 0 -0.01547461529066963 0.020594769352571114 0 -0.015483555476343927 0.019625234143382474 0 -0.011880863148352461 0.0040638905715384543 0 -0.011825791398136139 0.0048618254613729773 0 -0.011300409872460723 0.0043962904203578256 0 -0.014782320963162008 0.020456929823506532 0 -0.014735245236780032 0.02109262303142492 0 -0.014088642689930798 0.020987882633231241 0 -0.013126974626735354 0.012590438767595431 0 -0.012630414205655078 0.013479706733325072 0 -0.011825791398136139 0.0048618254613729773 0 -0.011300409872460723 0.0043962904203578256 0 -0.011234067529337975 0.0056808479299610979 0 -0.015141964913024159 0.0210232211900401 0 -0.014782320963162008 0.020456929823506532 0 -0.014735245236780032 0.02109262303142492 0 -0.016793410663126829 0.0037845344830889391 0 -0.015785876855345746 0.0065909517906464106 0 -0.019782251081552182 0.0078139271718282582 0 -0.016793410663126829 0.0037845344830889391 0 -0.015785876855345746 0.0065909517906464106 0 -0.014193749985497953 0.0032738788409204639 0 -0.011880863148352461 0.0040638905715384543 0 -0.011736352347335173 0.0030623613534195393 0 -0.011300409872460723 0.0043962904203578256 0 -0.011880863148352461 0.0040638905715384543 0 -0.011736352347335173 0.0030623613534195393 0 -0.012459283247218634 0.0041765427920836757 0 -0.013339100014162721 0.0040297717080560111 0 -0.016036524662313749 0.013090368279550841 0 -0.015785876855345746 0.0065909517906464106 0 -0.019105865279410088 0.0086147619987010423 0 -0.019782251081552182 0.0078139271718282582 0 -0.022751097195990225 0.024141868052485919 0 -0.015863342271124591 0.020322528128263836 0 -0.017908931405488149 0.01788761847327865 0 -0.016036524662313749 0.013090368279550841 0 -0.01622100609347403 0.021733683532961956 0 -0.0086881277987906434 0.02294085277173186 0 -0.011663092600516577 0.026637036927514235 0 -0.011253788459429884 0.023363895748222004 0 -0.012601705149649161 0.010772424400852755 0 -0.01622100609347403 0.021733683532961956 0 -0.011253788459429884 0.023363895748222004 0 -0.013578029681157443 0.02435752089398914 0 -0.012345725662333273 0.02114248142104239 0 -0.011663092600516577 0.026637036927514235 0 -0.011253788459429884 0.023363895748222004 0 -0.013578029681157443 0.02435752089398914 0 -0.021098325340278661 0.037184608643688534 0 -0.020478721623501395 0.033452654537015923 0 -0.018669462213039088 0.036847215609421897 0 -0.01622100609347403 0.021733683532961956 0 -0.017685577385455648 0.030594916803658497 0 -0.024278691977214592 0.033143320559863056 0 -0.021098325340278661 0.037184608643688534 0 -0.020478721623501395 0.033452654537015923 0 -0.021795627050046576 0.030017863435082805 0 -0.024278691977214592 0.033143320559863056 0 -0.020478721623501395 0.033452654537015923 0 -0.020478721623501395 0.033452654537015923 0 -0.018323732939342967 0.03317965805746604 0 -0.018669462213039088 0.036847215609421897 0 -0.018323732939342967 0.03317965805746604 0 -0.017014359825028878 0.034925604302967012 0 -0.018669462213039088 0.036847215609421897 0 -0.019422128351017469 0.03104150778222008 0 -0.020478721623501395 0.033452654537015923 0 -0.018323732939342967 0.03317965805746604 0 -0.017688231531861637 0.03024898470445065 0 -0.018323732939342967 0.03317965805746604 0 -0.016227322875713684 0.033259017567681765 0 -0.018323732939342967 0.03317965805746604 0 -0.016227322875713684 0.033259017567681765 0 -0.017014359825028878 0.034925604302967012 0 -0.013929231520696545 0.038479079661209802 0 -0.014433502560963684 0.036048827410463238 0 -0.016164466570113528 0.033320853828391422 0 -0.017014359825028878 0.034925604302967012 0 -0.017266563571436806 0.041151114282063611 0 -0.021098325340278661 0.037184608643688534 0 -0.018669462213039088 0.036847215609421897 0 -0.017759642855138761 0.041280179927495497 0 -0.017014359825028878 0.034925604302967012 0 -0.018669462213039088 0.036847215609421897 0 -0.017266563571436806 0.041151114282063611 0 -0.018669462213039088 0.036847215609421897 0 -0.017266563571436806 0.041151114282063611 0 -0.017759642855138761 0.041280179927495497 0 -0.013929231520696545 0.038479079661209802 0 -0.010710872714144391 0.043446088334337281 0 -0.017685577385455648 0.030594916803658497 0 -0.013905195845676508 0.038776144160966856 0 -0.0048529146597327587 0.049908801108240482 0 -0.0048433828867343919 0.049924782031214608 0 -0.0049564867616575803 0.04995835439710735 0 -0.020160338430699719 0.04487258098824512 0 -0.0196014829950991 0.040492501477267427 0 -0.017746496317642087 0.042923922274787217 0 -0.010710872714144391 0.043446088334337281 0 -0.0045594834778064234 0.047703889521469034 0 -0.004897481458700944 0.049812833230442277 0 -0.0048433828867343919 0.049924782031214608 0 -0.004680685668711328 0.049931998462962777 0 -0.004897481458700944 0.049812833230442277 0 -0.0049029931207216475 0.04986242281588231 0 -0.0048433828867343919 0.049924782031214608 0 -0.01081819148588699 0.043124781379944493 0 -0.0101410805347124 0.038675523170646604 0 -0.0072469386397052138 0.042143696433565692 0 -0.010710872714144391 0.043446088334337281 0 -0.010577628801824217 0.044180133045070812 0 -0.010710872714144391 0.043446088334337281 0 -0.013905195845676508 0.038776144160966856 0 -0.010577628801824217 0.044180133045070812 0 -0.013905195845676508 0.038776144160966856 0 -0.010577628801824217 0.044180133045070812 0 -0.0086864826506008463 0.046324701076670839 0 -0.020160338430699719 0.04487258098824512 0 -0.019807565864548772 0.04531018360223691 0 -0.017746496317642087 0.042923922274787217 0 -0.0048433828867343919 0.049924782031214608 0 -0.0047495917326753744 0.050087493393130164 0 -0.004680685668711328 0.049931998462962777 0 -0.010577628801824217 0.044180133045070812 0 -0.012451749096358529 0.045871079979760691 0 -0.0048433828867343919 0.049924782031214608 0 -0.0047495917326753744 0.050087493393130164 0 -0.0049564867616575803 0.04995835439710735 0 -0.0196014829950991 0.040492501477267427 0 -0.017746496317642087 0.042923922274787217 0 -0.016863763733458093 0.038168449989788245 0 -0.0047495917326753744 0.050087493393130164 0 -0.0049564867616575803 0.04995835439710735 0 -0.004825108597049447 0.050473164952894396 0 -0.014632873311673511 0.043874448660728524 0 -0.017746496317642087 0.042923922274787217 0 -0.013625534588515082 0.040402468970638948 0 -0.017746496317642087 0.042923922274787217 0 -0.013625534588515082 0.040402468970638948 0 -0.016863763733458093 0.038168449989788245 0 -0.013625534588515082 0.040402468970638948 0 -0.013132196352890146 0.037146738659545799 0 -0.016863763733458093 0.038168449989788245 0 -0.013578029681157443 0.02435752089398914 0 -0.015484816247300507 0.022155997145718347 0 -0.012345725662333273 0.02114248142104239 0 -0.019807565864548772 0.04531018360223691 0 -0.014632873311673511 0.043874448660728524 0 -0.017746496317642087 0.042923922274787217 0 -0.013905195845676508 0.038776144160966856 0 -0.014005554988413065 0.032209366473268559 0 -0.014005554988413065 0.032209366473268559 0 -0.0088969242517219146 0.031751781900191109 0 -0.011253788459429884 0.023363895748222004 0 -0.012345725662333273 0.02114248142104239 0 -0.0090505970321555981 0.02008602699669413 0 -0.0086881277987906434 0.02294085277173186 0 -0.011253788459429884 0.023363895748222004 0 -0.0090505970321555981 0.02008602699669413 0 -0.013625534588515082 0.040402468970638948 0 -0.01001656424240556 0.038162421901912345 0 -0.0090496022943181501 0.042076353268677029 0 -0.014632873311673511 0.043874448660728524 0 -0.013625534588515082 0.040402468970638948 0 -0.0090496022943181501 0.042076353268677029 0 -0.013625534588515082 0.040402468970638948 0 -0.01001656424240556 0.038162421901912345 0 -0.013132196352890146 0.037146738659545799 0 -0.0090496022943181501 0.042076353268677029 0 -0.0057959811213596319 0.038480077180185701 0 -0.0034499681361699753 0.040133566588671857 0 -0.0088969242517219146 0.031751781900191109 0 -0.0068503824217590386 0.019230099482017694 0 -0.01001656424240556 0.038162421901912345 0 -0.0090496022943181501 0.042076353268677029 0 -0.0057959811213596319 0.038480077180185701 0 -0.012601705149649161 0.010772424400852755 0 -0.0068503824217590386 0.019230099482017694 0 -0.0086881277987906434 0.02294085277173186 0 -0.0090505970321555981 0.02008602699669413 0 -0.0056107350882760847 0.019059809684186337 0 -0.0027962849315642403 0.049660075773283879 0 -0.0035835909953908164 0.049076958357407233 0 -0.0026575621016245391 0.05139619789492799 0 -0.0035835909953908164 0.049076958357407233 0 -0.0036680558925787062 0.049874472585894017 0 -0.0027377540219608878 0.049789483284519771 0 -0.0035438338317627821 0.049241470202275213 0 -0.0026578639660318364 0.050566954968923758 0 -0.0016834260694918103 0.051039949688115344 0 -0.0027962849315642403 0.049660075773283879 0 -0.0026575621016245391 0.05139619789492799 0 -0.0016834260694918103 0.051039949688115344 0 -0.0020178823624075653 0.049598561725202661 0 -0.0027962849315642403 0.049660075773283879 0 -0.003159228817828437 0.048792333085086084 0 -0.0020178823624075653 0.049598561725202661 0 -0.0027962849315642403 0.049660075773283879 0 -0.0027962849315642403 0.049660075773283879 0 -0.0035835909953908164 0.049076958357407233 0 -0.0033768539192805774 0.048390041060488088 0 -0.003159228817828437 0.048792333085086084 0 -0.0027962849315642403 0.049660075773283879 0 -0.0033768539192805774 0.048390041060488088 0 -0.0035834265671328856 0.047327064061052138 0 -0.0035835909953908164 0.049076958357407233 0 -0.0033768539192805774 0.048390041060488088 0 -0.0035834265671328856 0.047327064061052138 0 -0.0035835909953908164 0.049076958357407233 0 -0.0044685012283784261 0.049082158807457997 0 -0.0035834265671328856 0.047327064061052138 0 -0.0055047279014333915 0.048226438977697343 0 -0.0044685012283784261 0.049082158807457997 0 -0.0055047279014333915 0.048226438977697343 0 -0.0053516088065813537 0.049893720055818234 0 -0.0044685012283784261 0.049082158807457997 0 -0.0053516088065813537 0.049893720055818234 0 -0.0044685012283784261 0.049082158807457997 0 -0.0046653666670086772 0.049752123242048203 0 -0.0044685012283784261 0.049082158807457997 0 -0.0046653666670086772 0.049752123242048203 0 -0.0042241088509751288 0.049931594790906045 0 -0.0035835909953908164 0.049076958357407233 0 -0.0044685012283784261 0.049082158807457997 0 -0.0036680558925787062 0.049874472585894017 0 -0.0044685012283784261 0.049082158807457997 0 -0.0036680558925787062 0.049874472585894017 0 -0.0042241088509751288 0.049931594790906045 0 -0.0036680558925787062 0.049874472585894017 0 -0.0042241088509751288 0.049931594790906045 0 -0.0040157058780155071 0.050523761012078158 0 -0.0042241088509751288 0.049931594790906045 0 -0.0044593860999818553 0.050168833610742598 0 -0.0040157058780155071 0.050523761012078158 0 -0.0046653666670086772 0.049752123242048203 0 -0.0042241088509751288 0.049931594790906045 0 -0.004680685668711328 0.049931998462962777 0 -0.004897481458700944 0.049812833230442277 0 -0.0046653666670086772 0.049752123242048203 0 -0.004680685668711328 0.049931998462962777 0 -0.0042241088509751288 0.049931594790906045 0 -0.004680685668711328 0.049931998462962777 0 -0.0044593860999818553 0.050168833610742598 0 -0.0047495917326753744 0.050087493393130164 0 -0.004680685668711328 0.049931998462962777 0 -0.0044593860999818553 0.050168833610742598 0 -0.0047495917326753744 0.050087493393130164 0 -0.0044593860999818553 0.050168833610742598 0 -0.0044467380327880461 0.050514578338263783 0 -0.0044593860999818553 0.050168833610742598 0 -0.0044467380327880461 0.050514578338263783 0 -0.0040157058780155071 0.050523761012078158 0 -0.0044467380327880461 0.050514578338263783 0 -0.0040157058780155071 0.050523761012078158 0 -0.0041422375941290134 0.050871134329277243 0 -0.0047495917326753744 0.050087493393130164 0 -0.0044467380327880461 0.050514578338263783 0 -0.004825108597049447 0.050473164952894396 0 -0.0040157058780155071 0.050523761012078158 0 -0.0030574734763916703 0.050865364541330567 0 -0.0037213712990582641 0.051327707619171423 0 -0.0036680558925787062 0.049874472585894017 0 -0.0040157058780155071 0.050523761012078158 0 -0.0030574734763916703 0.050865364541330567 0 -0.0036680558925787062 0.049874472585894017 0 -0.0030574734763916703 0.050865364541330567 0 -0.0027377540219608878 0.049789483284519771 0 -0.0016272486570994805 0.050959825437981957 0 -0.0030574734763916703 0.050865364541330567 0 -0.0027377540219608878 0.049789483284519771 0 -0.0013998270826702274 0.052734493814211053 0 -0.0016834260694918103 0.051039949688115344 0 -0.0026575621016245391 0.05139619789492799 0 -0.0015423951877105296 0.05184554272452175 0 -0.0026578639660318364 0.050566954968923758 0 -0.0016272486570994805 0.050959825437981957 0 -0.0030574734763916703 0.050865364541330567 0 -0.0023644646774982842 0.051765006005550881 0 -0.0023644646774982842 0.051765006005550881 0 -0.0022918373277614583 0.05258266604139377 0 -0.0016013486853071316 0.052469912390414611 0 -0.0023644646774982842 0.051765006005550881 0 -0.0022918373277614583 0.05258266604139377 0 -0.0029753941625180248 0.051935536005062496 0 -0.0022918373277614583 0.05258266604139377 0 -0.0021603008589863707 0.053034248300211764 0 -0.0024169110626431458 0.052877737895936874 0 -0.0022918373277614583 0.05258266604139377 0 -0.0028780255301569359 0.052668575936609743 0 -0.0024169110626431458 0.052877737895936874 0 -0.0022918373277614583 0.05258266604139377 0 -0.0021603008589863707 0.053034248300211764 0 -0.0016612832915206836 0.053134557667847672 0 -0.0028780255301569359 0.052668575936609743 0 -0.0029753941625180248 0.051935536005062496 0 -0.0035103664575273884 0.052365637690486848 0 -0.0022918373277614583 0.05258266604139377 0 -0.0028780255301569359 0.052668575936609743 0 -0.0029753941625180248 0.051935536005062496 0 -0.0030574734763916703 0.050865364541330567 0 -0.0029753941625180248 0.051935536005062496 0 -0.0037213712990582641 0.051327707619171423 0 -0.0030574734763916703 0.050865364541330567 0 -0.0023644646774982842 0.051765006005550881 0 -0.0029753941625180248 0.051935536005062496 0 -0.0040157058780155071 0.050523761012078158 0 -0.0037213712990582641 0.051327707619171423 0 -0.0041422375941290134 0.050871134329277243 0 -0.0037213712990582641 0.051327707619171423 0 -0.0044282940506878699 0.051034702161383887 0 -0.0041141727397203034 0.052025685665076683 0 -0.0037213712990582641 0.051327707619171423 0 -0.0041422375941290134 0.050871134329277243 0 -0.0044282940506878699 0.051034702161383887 0 -0.0044467380327880461 0.050514578338263783 0 -0.0044282940506878699 0.051034702161383887 0 -0.004825108597049447 0.050473164952894396 0 -0.0044467380327880461 0.050514578338263783 0 -0.0041422375941290134 0.050871134329277243 0 -0.0044282940506878699 0.051034702161383887 0 -0.0044282940506878699 0.051034702161383887 0 -0.0048992165471270811 0.050813005671546056 0 -0.0048137659883158417 0.051188933438337678 0 -0.0044282940506878699 0.051034702161383887 0 -0.004825108597049447 0.050473164952894396 0 -0.0048992165471270811 0.050813005671546056 0 -0.0044282940506878699 0.051034702161383887 0 -0.0041141727397203034 0.052025685665076683 0 -0.0048137659883158417 0.051188933438337678 0 -0.0037213712990582641 0.051327707619171423 0 -0.0041141727397203034 0.052025685665076683 0 -0.0035103664575273884 0.052365637690486848 0 -0.0029753941625180248 0.051935536005062496 0 -0.0037213712990582641 0.051327707619171423 0 -0.0035103664575273884 0.052365637690486848 0 -0.0033486772437464731 0.044775234446099703 0 -0.0034886140894685846 0.044767495753725468 0 -0.003721433528913588 0.044893685826767962 0 -0.0039074667279611038 0.049036995437543349 0 -0.0034815396347987332 0.048804548940269442 0 -0.0035103664575273884 0.052365637690486848 0 -0.0044038785942837324 0.052850654823265425 0 -0.0032689200008104865 0.05304977955118112 0 -0.0041141727397203034 0.052025685665076683 0 -0.0035103664575273884 0.052365637690486848 0 -0.0044038785942837324 0.052850654823265425 0 -0.0041141727397203034 0.052025685665076683 0 -0.0044038785942837324 0.052850654823265425 0 -0.0050038831700489486 0.05245581985501635 0 -0.0033486772437464731 0.044775234446099703 0 -0.0033562568988493792 0.044585833935940927 0 -0.0034886140894685846 0.044767495753725468 0 -0.0033486772437464731 0.044775234446099703 0 -0.0033562568988493792 0.044585833935940927 0 -0.0033521189334054127 0.044650149068885536 0 -0.0033562568988493792 0.044585833935940927 0 -0.0034886140894685846 0.044767495753725468 0 -0.0034445843144447858 0.044742137798122847 0 -0.0034886140894685846 0.044767495753725468 0 -0.0034742532785896813 0.04492605522533151 0 -0.003721433528913588 0.044893685826767962 0 -0.0034886140894685846 0.044767495753725468 0 -0.0034445843144447858 0.044742137798122847 0 -0.0034742532785896813 0.04492605522533151 0 -0.0034445843144447858 0.044742137798122847 0 -0.0034742532785896813 0.04492605522533151 0 -0.0035252089148230118 0.044778491011892206 0 -0.0031990343247212377 0.045214336082113137 0 -0.0032999541083910721 0.046460468930013439 0 -0.0023573063344625163 0.046350603042440562 0 -0.0031015802115810461 0.045071379955928671 0 -0.003234462387354759 0.048295984828104516 0 -0.0034742532785896813 0.04492605522533151 0 -0.0031015802115810461 0.045071379955928671 0 -0.0035252089148230118 0.044778491011892206 0 -0.0012090636453549006 0.047227092056170199 0 -0.0023573063344625163 0.046350603042440562 0 -0.003234462387354759 0.048295984828104516 0 -0.0012090636453549006 0.047227092056170199 0 -0.0023573063344625163 0.046350603042440562 0 -0.0019495743637794271 0.045066850370165938 0 -0.0023573063344625163 0.046350603042440562 0 -0.0019495743637794271 0.045066850370165938 0 -0.0031015802115810461 0.045071379955928671 0 -0.002336178419990832 0.053224445196677184 0 -0.0021616523604329027 0.053348039908352421 0 -0.0032689200008104865 0.05304977955118112 0 -0.0017186881545941605 0.051224723191036076 0 -0.0018557304154233967 0.050707194433652979 0 -0.0021459123635214341 0.053373893989528368 0 -0.0021603008589863707 0.053034248300211764 0 -0.0016612832915206836 0.053134557667847672 0 -0.002336178419990832 0.053224445196677184 0 -0.0021459123635214341 0.053373893989528368 0 -0.0021603008589863707 0.053034248300211764 0 -0.0028780255301569359 0.052668575936609743 0 -0.002336178419990832 0.053224445196677184 0 -0.0024169110626431458 0.052877737895936874 0 -0.002336178419990832 0.053224445196677184 0 -0.0021603008589863707 0.053034248300211764 0 -0.0024169110626431458 0.052877737895936874 0 -0.0028780255301569359 0.052668575936609743 0 -0.002336178419990832 0.053224445196677184 0 -0.0032689200008104865 0.05304977955118112 0 -0.0018557304154233967 0.050707194433652979 0 -0.0034815396347987332 0.048804548940269442 0 -0.0019495743637794271 0.045066850370165938 0 -0.003721433528913588 0.044893685826767962 0 -0.0031015802115810461 0.045071379955928671 0 -0.0028780255301569359 0.052668575936609743 0 -0.0035103664575273884 0.052365637690486848 0 -0.0032689200008104865 0.05304977955118112 0 -0.0034742532785896813 0.04492605522533151 0 -0.003721433528913588 0.044893685826767962 0 -0.0031015802115810461 0.045071379955928671 0 -0.0080777831047273655 0.03064713110034737 0 -0.0049188548974761232 0.029038335205746564 0 -0.0030424826806464949 0.030911192456433326 0 -0.0072565511792370297 0.033477189192755906 0 -0.010296856185908405 0.031503230732930078 0 -0.0036053126663995378 0.031191230676007726 0 -0.0097759502518274845 0.030481993434317359 0 -0.003081411995036535 0.031125052794187147 0 -0.0080777831047273655 0.03064713110034737 0 -0.0071386859972967873 0.02882527956743209 0 -0.0049188548974761232 0.029038335205746564 0 -0.0072565511792370297 0.033477189192755906 0 -0.010369474564146915 0.03497294996409691 0 -0.010296856185908405 0.031503230732930078 0 -0.0072565511792370297 0.033477189192755906 0 -0.0071044750434479569 0.035827522316227774 0 -0.0049065264391802412 0.033889820355249151 0 -0.0057959811213596319 0.038480077180185701 0 -0.0071044750434479569 0.035827522316227774 0 -0.0034210592121758704 0.035872005006966322 0 -0.01001656424240556 0.038162421901912345 0 -0.0071044750434479569 0.035827522316227774 0 -0.010369474564146915 0.03497294996409691 0 -0.01001656424240556 0.038162421901912345 0 -0.0057959811213596319 0.038480077180185701 0 -0.0071044750434479569 0.035827522316227774 0 -0.0072565511792370297 0.033477189192755906 0 -0.0071044750434479569 0.035827522316227774 0 -0.010369474564146915 0.03497294996409691 0 -0.01001656424240556 0.038162421901912345 0 -0.010369474564146915 0.03497294996409691 0 -0.013132196352890146 0.037146738659545799 0 -0.010369474564146915 0.03497294996409691 0 -0.013132196352890146 0.037146738659545799 0 -0.014425521062296437 0.03483703832575992 0 -0.0080777831047273655 0.03064713110034737 0 -0.012791619992620188 0.030488781874263834 0 -0.008650545038952415 0.028331467185431732 0 -0.0097759502518274845 0.030481993434317359 0 -0.012139317722264883 0.036950371825864338 0 -0.010369474564146915 0.03497294996409691 0 -0.010296856185908405 0.031503230732930078 0 -0.014425521062296437 0.03483703832575992 0 -0.0080777831047273655 0.03064713110034737 0 -0.008650545038952415 0.028331467185431732 0 -0.0071386859972967873 0.02882527956743209 0 -0.016912323845149988 0.031669774189239483 0 -0.014425521062296437 0.03483703832575992 0 -0.019071655958331192 0.035535349725094076 0 -0.010296856185908405 0.031503230732930078 0 -0.016912323845149988 0.031669774189239483 0 -0.014425521062296437 0.03483703832575992 0 -0.012139317722264883 0.036950371825864338 0 -0.0072907804730220956 0.046423512780275768 0 -0.012139317722264883 0.036950371825864338 0 -0.011320505968028553 0.042921594732692789 0 -0.014425521062296437 0.03483703832575992 0 -0.016863763733458093 0.038168449989788245 0 -0.019071655958331192 0.035535349725094076 0 -0.013132196352890146 0.037146738659545799 0 -0.014425521062296437 0.03483703832575992 0 -0.016863763733458093 0.038168449989788245 0 -0.012451749096358529 0.045871079979760691 0 -0.011320505968028553 0.042921594732692789 0 -0.0049564867616575803 0.04995835439710735 0 -0.0052804180212584571 0.050605680868006729 0 -0.004825108597049447 0.050473164952894396 0 -0.0196014829950991 0.040492501477267427 0 -0.016863763733458093 0.038168449989788245 0 -0.019071655958331192 0.035535349725094076 0 -0.0052804180212584571 0.050605680868006729 0 -0.0048992165471270811 0.050813005671546056 0 -0.0048137659883158417 0.051188933438337678 0 -0.0052804180212584571 0.050605680868006729 0 -0.004825108597049447 0.050473164952894396 0 -0.0048992165471270811 0.050813005671546056 0 -0.0033044271916933131 0.053354410384666345 0 -0.0072907804730220956 0.046423512780275768 0 -0.0041141727397203034 0.052025685665076683 0 -0.0054260935800266403 0.051882940927352877 0 -0.0050038831700489486 0.05245581985501635 0 -0.0041141727397203034 0.052025685665076683 0 -0.0048137659883158417 0.051188933438337678 0 -0.0054372304241196261 0.051466951075168167 0 -0.011320505968028553 0.042921594732692789 0 -0.0072907804730220956 0.046423512780275768 0 -0.010279802814233841 0.040586942791405602 0 -0.011637001126244249 0.04276417678394475 0 -0.011295289063033818 0.040550490276756758 0 -0.0052804180212584571 0.050605680868006729 0 -0.0048137659883158417 0.051188933438337678 0 -0.0054372304241196261 0.051466951075168167 0 -0.0033486772437464731 0.044775234446099703 0 -0.0033732219263383355 0.044616222757088042 0 -0.0034047517034699838 0.044539614621763077 0 -0.0044038785942837324 0.052850654823265425 0 -0.0050038831700489486 0.05245581985501635 0 -0.005554684294157273 0.052796291891163624 0 -0.0054260935800266403 0.051882940927352877 0 -0.0050038831700489486 0.05245581985501635 0 -0.005554684294157273 0.052796291891163624 0 -0.0039074667279611038 0.049036995437543349 0 -0.0044222073456209737 0.046683589594021795 0 -0.0038223712246780992 0.044344756948539621 0 -0.0024475914779254274 0.045302460485025405 0 -0.0033562568988493792 0.044585833935940927 0 -0.003513669693199713 0.044162459838931384 0 -0.0034057966121703465 0.0443794831110359 0 -0.0033486772437464731 0.044775234446099703 0 -0.0033521189334054127 0.044650149068885536 0 -0.0033732219263383355 0.044616222757088042 0 -0.0033562568988493792 0.044585833935940927 0 -0.0033521189334054127 0.044650149068885536 0 -0.003375669207979617 0.04466908945395634 0 -0.003375669207979617 0.04466908945395634 0 -0.0033732219263383355 0.044616222757088042 0 -0.0034020777401281904 0.044596202777270756 0 -0.0033521189334054127 0.044650149068885536 0 -0.003375669207979617 0.04466908945395634 0 -0.0033732219263383355 0.044616222757088042 0 -0.0033732219263383355 0.044616222757088042 0 -0.0034020777401281904 0.044596202777270756 0 -0.0034047517034699838 0.044539614621763077 0 -0.0024475914779254274 0.045302460485025405 0 -0.0073139805984349287 0.036028119304000038 0 -0.0034020777401281904 0.044596202777270756 0 -0.0034664617392204402 0.044561347079052134 0 -0.0034047517034699838 0.044539614621763077 0 -0.003513669693199713 0.044162459838931384 0 -0.0035124134693782197 0.044105411755521316 0 -0.0034532459750061546 0.044462102438514867 0 -0.003375669207979617 0.04466908945395634 0 -0.0035456983405920449 0.044546554311566927 0 -0.003765260805493375 0.044547570767201387 0 -0.0034664617392204402 0.044561347079052134 0 -0.0035456983405920449 0.044546554311566927 0 -0.0034047517034699838 0.044539614621763077 0 -0.003375669207979617 0.04466908945395634 0 -0.0034664617392204402 0.044561347079052134 0 -0.0035456983405920449 0.044546554311566927 0 -0.003375669207979617 0.04466908945395634 0 -0.0034020777401281904 0.044596202777270756 0 -0.0034664617392204402 0.044561347079052134 0 -0.003513669693199713 0.044162459838931384 0 -0.0035124134693782197 0.044105411755521316 0 -0.0034803137049129601 0.044224744472189194 0 -0.012139317722264883 0.036950371825864338 0 -0.0068358703818550302 0.035349512272067209 0 -0.0072907804730220956 0.046423512780275768 0 -0.0044222073456209737 0.046683589594021795 0 -0.0035456983405920449 0.044546554311566927 0 -0.0034047517034699838 0.044539614621763077 0 -0.0036907751850773205 0.044434703300951381 0 -0.0074779149778479966 0.04297190465081846 0 -0.0077694920783261401 0.040751697722323253 0 -0.0060166562089410802 0.040622619476872131 0 -0.0074779149778479966 0.04297190465081846 0 -0.0081177575002376167 0.042955999593715738 0 -0.0077694920783261401 0.040751697722323253 0 -0.0044222073456209737 0.046683589594021795 0 -0.0068358703818550302 0.035349512272067209 0 -0.012791619992620188 0.030488781874263834 0 -0.008650545038952415 0.028331467185431732 0 -0.010171077609710878 0.026318645667863332 0 -0.008650545038952415 0.028331467185431732 0 -0.0068531482664524069 0.027302556794408395 0 -0.0071386859972967873 0.02882527956743209 0 -0.008650545038952415 0.028331467185431732 0 -0.0071463468364074438 0.026164780511770114 0 -0.0068531482664524069 0.027302556794408395 0 -0.0068358703818550302 0.035349512272067209 0 -0.007356152420964374 0.029009631265853261 0 -0.008650545038952415 0.028331467185431732 0 -0.010171077609710878 0.026318645667863332 0 -0.0071463468364074438 0.026164780511770114 0 -0.0035456983405920449 0.044546554311566927 0 -0.0036907751850773205 0.044434703300951381 0 -0.003765260805493375 0.044547570767201387 0 -0.0073139805984349287 0.036028119304000038 0 -0.0065236598379341919 0.033176192593757009 0 -0.0034532459750061546 0.044462102438514867 0 -0.00319751714484968 0.043714939606707949 0 -0.0016831608124500558 0.041855902618297872 0 -0.0068358703818550302 0.035349512272067209 0 -0.0073139805984349287 0.036028119304000038 0 -0.0034532459750061546 0.044462102438514867 0 -0.00319751714484968 0.043714939606707949 0 -0.0034315094007841404 0.04392420745023834 0 -0.0035124134693782197 0.044105411755521316 0 -0.0034532459750061546 0.044462102438514867 0 -0.0034315094007841404 0.04392420745023834 0 -0.0071439383565185576 0.031537889639034547 0 -0.0072254987605777695 0.031658947056206331 0 -0.0074374693777155129 0.031496997379890881 0 -0.0073139805984349287 0.036028119304000038 0 -0.0075307455790520859 0.026953840773481758 0 -0.0072254987605777695 0.031658947056206331 0 -0.0074374693777155129 0.031496997379890881 0 -0.0077297532232606589 0.031449086905728223 0 -0.012977831390243718 0.026967746496713491 0 -0.011127382548762695 0.023904950415143063 0 -0.0089493681155613479 0.027530979491888201 0 -0.007356152420964374 0.029009631265853261 0 -0.0075307455790520859 0.026953840773481758 0 -0.006495132356641866 0.027306519526640951 0 -0.0032868440166674904 0.027649682336385015 0 -0.0068531482664524069 0.027302556794408395 0 -0.0049188548974761232 0.029038335205746564 0 -0.0025087123333909092 0.027757308698040956 0 -0.0068531482664524069 0.027302556794408395 0 -0.0038080653954166263 0.027588205926083284 0 -0.0047343373012983135 0.026100903710368713 0 -0.0071463468364074438 0.026164780511770114 0 -0.0068531482664524069 0.027302556794408395 0 -0.0047343373012983135 0.026100903710368713 0 -0.0068531482664524069 0.027302556794408395 0 -0.0071386859972967873 0.02882527956743209 0 -0.0049188548974761232 0.029038335205746564 0 -0.0092542356701823085 0.020922832810679737 0 -0.011127382548762695 0.023904950415143063 0 -0.0082687563257940449 0.023524095409971284 0 0.0003257681312141256 0.038451836906281012 0 -0.0016831608124500558 0.041855902618297872 0 -0.00075921931985641956 0.038120070354539265 0 -0.0051350219890096138 0.027596359625267967 0 -0.0065236598379341919 0.033176192593757009 0 -0.0016831608124500558 0.041855902618297872 0 -0.0038854441117180754 0.041243184522882254 0 -0.00075921931985641956 0.038120070354539265 0 -0.0051350219890096138 0.027596359625267967 0 -0.0029004464964840861 0.032313269933427952 0 -0.011127382548762695 0.023904950415143063 0 -0.0082687563257940449 0.023524095409971284 0 -0.0089493681155613479 0.027530979491888201 0 -0.0033249531456174632 0.043612390913357418 0 -0.0037070192100954005 0.04272629320932432 0 -0.00319751714484968 0.043714939606707949 0 -0.0016831608124500558 0.041855902618297872 0 -0.0038854441117180754 0.041243184522882254 0 -0.00319751714484968 0.043714939606707949 0 -0.0034315094007841404 0.04392420745023834 0 -0.003568617967418696 0.044081887105923249 0 -0.0034315094007841404 0.04392420745023834 0 -0.003568617967418696 0.044081887105923249 0 -0.0035160371525337661 0.044074565990297271 0 -0.0037070192100954005 0.04272629320932432 0 -0.0039295945835141344 0.043648678910377409 0 -0.0037070192100954005 0.04272629320932432 0 -0.0029004464964840861 0.032313269933427952 0 -0.0036842716560258992 0.03976315673322605 0 -0.0041141631642248877 0.037630841344178427 0 -0.002079898610725885 0.038262545335436993 0 -0.0037070192100954005 0.04272629320932432 0 -0.0033946453116688647 0.040068275042653909 0 -0.0036800859008204495 0.044210110810875718 0 -0.0035128429243384603 0.044361942824069765 0 -0.0037322204356575032 0.044675012588336685 0 -0.0035128429243384603 0.044361942824069765 0 -0.0033838967236808778 0.044448778251527141 0 -0.0035147529465963455 0.044539777889850481 0 -0.0035128429243384603 0.044361942824069765 0 -0.0034917414693098089 0.044233577060288569 0 -0.0033934514142554863 0.044385759267296793 0 -0.0036800859008204495 0.044210110810875718 0 -0.0035128429243384603 0.044361942824069765 0 -0.0034917414693098089 0.044233577060288569 0 -0.0036800859008204495 0.044210110810875718 0 -0.0034917414693098089 0.044233577060288569 0 -0.0035160371525337661 0.044074565990297271 0 -0.0034917414693098089 0.044233577060288569 0 -0.0035160371525337661 0.044074565990297271 0 -0.0034803137049129601 0.044224744472189194 0 -0.0035124134693782197 0.044105411755521316 0 -0.0035160371525337661 0.044074565990297271 0 -0.0034803137049129601 0.044224744472189194 0 -0.0035124134693782197 0.044105411755521316 0 -0.0034315094007841404 0.04392420745023834 0 -0.0035160371525337661 0.044074565990297271 0 -0.0034917414693098089 0.044233577060288569 0 -0.0034803137049129601 0.044224744472189194 0 -0.0033934514142554863 0.044385759267296793 0 -0.0034803137049129601 0.044224744472189194 0 -0.0033934514142554863 0.044385759267296793 0 -0.0034057966121703465 0.0443794831110359 0 -0.003513669693199713 0.044162459838931384 0 -0.0034803137049129601 0.044224744472189194 0 -0.0034057966121703465 0.0443794831110359 0 -0.0033934514142554863 0.044385759267296793 0 -0.0034057966121703465 0.0443794831110359 0 -0.0033517118530416944 0.044501416756311744 0 -0.0033934514142554863 0.044385759267296793 0 -0.0033517118530416944 0.044501416756311744 0 -0.003333083103043553 0.044517890206098733 0 -0.0033934514142554863 0.044385759267296793 0 -0.0033838967236808778 0.044448778251527141 0 -0.003333083103043553 0.044517890206098733 0 -0.0035128429243384603 0.044361942824069765 0 -0.0033934514142554863 0.044385759267296793 0 -0.0033838967236808778 0.044448778251527141 0 -0.0033838967236808778 0.044448778251527141 0 -0.0032952772161399389 0.044537843579733491 0 -0.003333083103043553 0.044517890206098733 0 -0.0032573331556036513 0.044529306716696797 0 -0.0026212189677361449 0.044674701686704878 0 -0.0032952772161399389 0.044537843579733491 0 -0.003333083103043553 0.044517890206098733 0 -0.0033483490830605463 0.044523768619553768 0 -0.0032952772161399389 0.044537843579733491 0 -0.0030591588643044728 0.045049785136529671 0 -0.00198171189209055 0.044751873022451288 0 -0.0033838967236808778 0.044448778251527141 0 -0.0032952772161399389 0.044537843579733491 0 -0.0035147529465963455 0.044539777889850481 0 -0.0032952772161399389 0.044537843579733491 0 -0.0030591588643044728 0.045049785136529671 0 -0.0036395860191110524 0.04480316419731558 0 -0.0026370227332714125 0.045632414582239399 0 -0.0035055456390852818 0.045507743538012548 0 -0.0027787407161038958 0.046780812129912509 0 -0.0030591588643044728 0.045049785136529671 0 -0.0026370227332714125 0.045632414582239399 0 -0.00198171189209055 0.044751873022451288 0 -0.0030591588643044728 0.045049785136529671 0 -0.0026370227332714125 0.045632414582239399 0 -0.0035055456390852818 0.045507743538012548 0 -0.0033946453116688647 0.040068275042653909 0 -0.0012413862721998492 0.039974415939925484 0 -0.0010790962786057538 0.034379062190835127 0 -0.0010387763867086132 0.033272346747843018 0 -0.00054320065400034301 0.035683975207618374 0 -0.0035055456390852818 0.045507743538012548 0 -0.0041430827207786687 0.044619128583352777 0 -0.0039260401961619907 0.046078568795563428 0 -0.0030591588643044728 0.045049785136529671 0 -0.0035055456390852818 0.045507743538012548 0 -0.0036395860191110524 0.04480316419731558 0 -0.0010790962786057538 0.034379062190835127 0 -0.0014264412048168352 0.035244794014200699 0 -0.00054320065400034301 0.035683975207618374 0 -0.0035128429243384603 0.044361942824069765 0 -0.0037322204356575032 0.044675012588336685 0 -0.0035147529465963455 0.044539777889850481 0 -0.0033946453116688647 0.040068275042653909 0 -0.0030366915035424024 0.042821474518022463 0 -0.0035055456390852818 0.045507743538012548 0 -0.0041430827207786687 0.044619128583352777 0 -0.0036395860191110524 0.04480316419731558 0 -0.0032952772161399389 0.044537843579733491 0 -0.0036395860191110524 0.04480316419731558 0 -0.0035147529465963455 0.044539777889850481 0 -0.0037322204356575032 0.044675012588336685 0 -0.0036395860191110524 0.04480316419731558 0 -0.0035147529465963455 0.044539777889850481 0 -0.0033946453116688647 0.040068275042653909 0 -0.0029004464964840861 0.032313269933427952 0 -0.0010387763867086132 0.033272346747843018 0 -0.0019743543736829615 0.033924159663507522 0 -0.0033469762337397105 0.032449824701346379 0 -0.0010790962786057538 0.034379062190835127 0 -0.0010387763867086132 0.033272346747843018 0 -0.0019743543736829615 0.033924159663507522 0 0.00026277705735309391 0.028874051519512521 0 -0.0012367497525001901 0.028086268776806787 0 -0.001111703515623608 0.029498750877414888 0 -0.0014076560340462489 0.035175430386146393 0 -0.0019743543736829615 0.033924159663507522 0 -0.0029845075996642982 0.034341947583244152 0 -0.0018990127941812241 0.033787920637621593 0 -0.0014823196994550305 0.031682680146371482 0 -0.0010790962786057538 0.034379062190835127 0 -0.0014076560340462489 0.035175430386146393 0 -0.0019743543736829615 0.033924159663507522 0 -0.0015896881128513803 0.034538987377019145 0 -0.0018990127941812241 0.033787920637621593 0 -0.0012367497525001901 0.028086268776806787 0 -0.001111703515623608 0.029498750877414888 0 -0.0022210275499455292 0.029194593690930522 0 -0.0014823196994550305 0.031682680146371482 0 -0.0042705674105680902 0.022938708285074529 0 -0.0012367497525001901 0.028086268776806787 0 -0.0027614585762447846 0.027285946760418216 0 -0.0022210275499455292 0.029194593690930522 0 -0.0029845075996642982 0.034341947583244152 0 -0.0033469762337397105 0.032449824701346379 0 -0.0045521805869339635 0.033496661551392401 0 -0.0019743543736829615 0.033924159663507522 0 -0.0029845075996642982 0.034341947583244152 0 -0.0033469762337397105 0.032449824701346379 0 -0.004448306110093672 0.021892912330787665 0 -0.0039729937948735977 0.022051500912571107 0 -0.0047305593613896782 0.022292195641404455 0 -0.0029004464964840861 0.032313269933427952 0 -0.0042705674105680902 0.022938708285074529 0 -0.0034801534889702893 0.044620901649807122 0 -0.0035252089148230118 0.044778491011892206 0 -0.0033923791095871749 0.044597642391881055 0 -0.0034801534889702893 0.044620901649807122 0 -0.0033923791095871749 0.044597642391881055 0 -0.003417305578479443 0.044582052058271066 0 -0.0032716680601848559 0.048235480123770415 0 -0.0032999541083910721 0.046460468930013439 0 -0.0027023471076824193 0.051338815283958575 0 -0.0010105835895327011 0.051618565817522249 0 -0.00063237997199568443 0.049905261651185417 0 -0.0027023471076824193 0.051338815283958575 0 -0.003234462387354759 0.048295984828104516 0 -0.00063237997199568443 0.049905261651185417 0 -0.0012090636453549006 0.047227092056170199 0 -0.003234462387354759 0.048295984828104516 0 -0.00063237997199568443 0.049905261651185417 0 -0.0034445843144447858 0.044742137798122847 0 -0.0035252089148230118 0.044778491011892206 0 -0.0033923791095871749 0.044597642391881055 0 -0.0033562568988493792 0.044585833935940927 0 -0.0034445843144447858 0.044742137798122847 0 -0.0033923791095871749 0.044597642391881055 0 -0.0033562568988493792 0.044585833935940927 0 -0.0033517118530416944 0.044501416756311744 0 -0.0033923791095871749 0.044597642391881055 0 -0.0033562568988493792 0.044585833935940927 0 -0.0034057966121703465 0.0443794831110359 0 -0.0033517118530416944 0.044501416756311744 0 -0.0033517118530416944 0.044501416756311744 0 -0.003333083103043553 0.044517890206098733 0 -0.0033923791095871749 0.044597642391881055 0 -0.003333083103043553 0.044517890206098733 0 -0.0033923791095871749 0.044597642391881055 0 -0.0033483490830605463 0.044523768619553768 0 -0.0033923791095871749 0.044597642391881055 0 -0.0033483490830605463 0.044523768619553768 0 -0.003417305578479443 0.044582052058271066 0 -0.0034118441449805087 0.04456183627795688 0 -0.0033483490830605463 0.044523768619553768 0 -0.003417305578479443 0.044582052058271066 0 -0.0022338043645634461 0.044582269240209152 0 -0.0026212189677361449 0.044674701686704878 0 -0.0026370227332714125 0.045632414582239399 0 -0.00198171189209055 0.044751873022451288 0 -0.0015989593345916316 0.046060096113734759 0 -0.00064848354926281204 0.045090926840034559 0 -0.0001712556074710933 0.046095465518811614 0 -0.0015989593345916316 0.046060096113734759 0 -0.00064848354926281204 0.045090926840034559 0 -0.00198171189209055 0.044751873022451288 0 -0.0015989593345916316 0.046060096113734759 0 -0.00064848354926281204 0.045090926840034559 0 -0.0001712556074710933 0.046095465518811614 0 0.00072253857612186452 0.045451608392909904 0 -0.0022338043645634461 0.044582269240209152 0 -0.00073066908851183879 0.047785608962915366 0 -0.0034118441449805087 0.04456183627795688 0 -0.0034358193802479322 0.044588143103635937 0 -0.003417305578479443 0.044582052058271066 0 -0.0034118441449805087 0.04456183627795688 0 -0.0034358193802479322 0.044588143103635937 0 -0.0034272215484784973 0.044597564056953462 0 -0.0034801534889702893 0.044620901649807122 0 -0.0034358193802479322 0.044588143103635937 0 -0.003417305578479443 0.044582052058271066 0 -0.0027023471076824193 0.051338815283958575 0 -0.0015403016405661073 0.052608815527586728 0 -0.0021432209757752149 0.05381248114202955 0 -0.0032716680601848559 0.048235480123770415 0 -0.00073066908851183879 0.047785608962915366 0 -0.0034801534889702893 0.044620901649807122 0 -0.0034358193802479322 0.044588143103635937 0 -0.0034272215484784973 0.044597564056953462 0 -0.0027023471076824193 0.051338815283958575 0 -0.0015403016405661073 0.052608815527586728 0 -0.0010105835895327011 0.051618565817522249 0 -0.0015403016405661073 0.052608815527586728 0 -0.0011846786309951572 0.053159238893620245 0 -0.0014704722783730557 0.053431988449922606 0 -0.0014704722783730557 0.053431988449922606 0 -0.0011684630787458605 0.053884933859724281 0 -0.00092887881305716853 0.053506588684275685 0 -0.0010612161671309714 0.054050858917558328 0 -0.0011684630787458605 0.053884933859724281 0 -0.0021432209757752149 0.05381248114202955 0 -0.0015403016405661073 0.052608815527586728 0 -0.0014704722783730557 0.053431988449922606 0 -0.0021432209757752149 0.05381248114202955 0 -0.00073066908851183879 0.047785608962915366 0 0.00084668108865645973 0.046555178328750411 0 -0.0011846786309951572 0.053159238893620245 0 -0.0014704722783730557 0.053431988449922606 0 -0.00092887881305716853 0.053506588684275685 0 -0.0001712556074710933 0.046095465518811614 0 0.00072253857612186452 0.045451608392909904 0 0.00088270129444539391 0.046503751386640368 0 0.001227840861409336 0.046591816238488688 0 0.00087138340043097363 0.046508262911161995 0 0.00096167717389715045 0.047074412858064622 0 5.5238029505721673e-05 0.051566713147744643 0 -0.00073066908851183879 0.047785608962915366 0 -0.0014704722783730557 0.053431988449922606 0 -0.0011684630787458605 0.053884933859724281 0 -0.0021432209757752149 0.05381248114202955 0 5.5238029505721673e-05 0.051566713147744643 0 8.1750496355877632e-05 0.051757552188307118 0 5.5238029505721673e-05 0.051566713147744643 0 0.00091109719882734666 0.05441100549088939 0 -0.0010168534834406318 0.054035246914078412 0 -0.00037605792103095897 0.05366267305631689 0 0.00090157513390732929 0.053990474699033612 0 -0.00037605792103095897 0.05366267305631689 0 0.00090157513390732929 0.053990474699033612 0 0.00012270469385601749 0.053324053423663136 0 -0.00037605792103095897 0.05366267305631689 0 -0.00057582059380581539 0.053242572874540497 0 0.00012270469385601749 0.053324053423663136 0 -0.00092887881305716853 0.053506588684275685 0 -0.00037605792103095897 0.05366267305631689 0 -0.00057582059380581539 0.053242572874540497 0 -0.0011846786309951572 0.053159238893620245 0 -0.00092887881305716853 0.053506588684275685 0 -0.00057582059380581539 0.053242572874540497 0 -0.00092887881305716853 0.053506588684275685 0 -0.00086495991642479358 0.053773032613209808 0 -0.00037605792103095897 0.05366267305631689 0 -0.0010168534834406318 0.054035246914078412 0 -0.00086495991642479358 0.053773032613209808 0 -0.00037605792103095897 0.05366267305631689 0 -0.0011684630787458605 0.053884933859724281 0 -0.00092887881305716853 0.053506588684275685 0 -0.00086495991642479358 0.053773032613209808 0 -0.0010168534834406318 0.054035246914078412 0 -0.0011684630787458605 0.053884933859724281 0 -0.00086495991642479358 0.053773032613209808 0 0.00090157513390732929 0.053990474699033612 0 0.00097933052392308183 0.053441326417615065 0 0.00012270469385601749 0.053324053423663136 0 0.00090157513390732929 0.053990474699033612 0 0.00097933052392308183 0.053441326417615065 0 0.0010493834112247382 0.053826232038303855 0 0.00097933052392308183 0.053441326417615065 0 0.00039216356609928475 0.052607574338670623 0 0.0013468449145243192 0.051979833111493158 0 0.00097933052392308183 0.053441326417615065 0 0.00039216356609928475 0.052607574338670623 0 0.00012270469385601749 0.053324053423663136 0 0.00039216356609928475 0.052607574338670623 0 0.0013468449145243192 0.051979833111493158 0 0.0002643217287517171 0.051626875158159551 0 -0.0015403016405661073 0.052608815527586728 0 -0.0011846786309951572 0.053159238893620245 0 -0.00055244762052983115 0.052510967881144018 0 -0.0011846786309951572 0.053159238893620245 0 -0.00057582059380581539 0.053242572874540497 0 -0.00055244762052983115 0.052510967881144018 0 -0.00057582059380581539 0.053242572874540497 0 0.00012270469385601749 0.053324053423663136 0 -0.00055244762052983115 0.052510967881144018 0 0.00039216356609928475 0.052607574338670623 0 0.00012270469385601749 0.053324053423663136 0 -0.00055244762052983115 0.052510967881144018 0 0.00039216356609928475 0.052607574338670623 0 -0.00055244762052983115 0.052510967881144018 0 0.0002643217287517171 0.051626875158159551 0 -0.00055244762052983115 0.052510967881144018 0 -0.0010105835895327011 0.051618565817522249 0 0.0002643217287517171 0.051626875158159551 0 -0.0015403016405661073 0.052608815527586728 0 -0.00055244762052983115 0.052510967881144018 0 -0.0010105835895327011 0.051618565817522249 0 -0.0010105835895327011 0.051618565817522249 0 -0.00063237997199568443 0.049905261651185417 0 0.0002643217287517171 0.051626875158159551 0 -0.00063237997199568443 0.049905261651185417 0 0.0002643217287517171 0.051626875158159551 0 0.00052326367473476475 0.050323115534628454 0 0.0002643217287517171 0.051626875158159551 0 0.0018173817342310198 0.050704877589021154 0 0.00052326367473476475 0.050323115534628454 0 0.0013468449145243192 0.051979833111493158 0 0.0002643217287517171 0.051626875158159551 0 0.0018173817342310198 0.050704877589021154 0 0.00081867838332091731 0.049234037699622563 0 0.0025820333414087681 0.049741070449994117 0 0.0022657983844754839 0.048393636859340519 0 0.0018173817342310198 0.050704877589021154 0 0.00081867838332091731 0.049234037699622563 0 0.0025820333414087681 0.049741070449994117 0 0.0018173817342310198 0.050704877589021154 0 0.00052326367473476475 0.050323115534628454 0 0.00081867838332091731 0.049234037699622563 0 0.0015017097454167888 0.048622059048210035 0 0.0010446684946038719 0.050798522006659075 0 -0.0012090636453549006 0.047227092056170199 0 -0.00063237997199568443 0.049905261651185417 0 0.0013666391286793898 0.04857906975939056 0 -0.00063237997199568443 0.049905261651185417 0 0.00052326367473476475 0.050323115534628454 0 0.00081867838332091731 0.049234037699622563 0 -0.00060780288603987966 0.049917885956627377 0 0.0015017097454167888 0.048622059048210035 0 0.0021255853629786135 0.052038019437971011 0 0.0014535077980012778 0.053261134411654976 0 0.0039426017659264555 0.049202839071781537 0 0.0025820333414087681 0.049741070449994117 0 0.0022657983844754839 0.048393636859340519 0 0.0021255853629786135 0.052038019437971011 0 0.0010446684946038719 0.050798522006659075 0 0.0039426017659264555 0.049202839071781537 0 0.0025820333414087681 0.049741070449994117 0 0.0034471974062174884 0.051488924545736149 0 0.0013468449145243192 0.051979833111493158 0 0.0018173817342310198 0.050704877589021154 0 0.0034471974062174884 0.051488924545736149 0 0.0018173817342310198 0.050704877589021154 0 0.0025820333414087681 0.049741070449994117 0 0.0034471974062174884 0.051488924545736149 0 0.001046202666169817 0.05417242957769048 0 0.00089004936853169145 0.05418484359404243 0 0.00077764757656184158 0.054603045944578849 0 0.0025983011058604059 0.052597499134930878 0 0.0014535077980012778 0.053261134411654976 0 0.0039426017659264555 0.049202839071781537 0 0.0034471974062174884 0.051488924545736149 0 0.0055314368528019756 0.049975732403970644 0 0.001046202666169817 0.05417242957769048 0 0.00089004936853169145 0.05418484359404243 0 0.00096500508100121117 0.05397336394760241 0 0.00085054935602941323 0.053566824034857935 0 0.0025983011058604059 0.052597499134930878 0 0.001046202666169817 0.05417242957769048 0 0.0010493834112247382 0.053826232038303855 0 0.00096500508100121117 0.05397336394760241 0 0.00097933052392308183 0.053441326417615065 0 0.0013468449145243192 0.051979833111493158 0 0.0034471974062174884 0.051488924545736149 0 0.00097933052392308183 0.053441326417615065 0 0.001046202666169817 0.05417242957769048 0 0.0010493834112247382 0.053826232038303855 0 0.0010493834112247382 0.053826232038303855 0 0.00096500508100121117 0.05397336394760241 0 0.00098756480467245152 0.053877560540546578 0 0.00089004936853169145 0.05418484359404243 0 0.00096500508100121117 0.05397336394760241 0 0.00078854578339115715 0.054097961267126481 0 0.00096500508100121117 0.05397336394760241 0 0.00078854578339115715 0.054097961267126481 0 0.00091654415592898125 0.053904583181183317 0 0.00096500508100121117 0.05397336394760241 0 0.00098756480467245152 0.053877560540546578 0 0.00091654415592898125 0.053904583181183317 0 0.00078854578339115715 0.054097961267126481 0 0.00055903097201700656 0.054216590827357559 0 0.00063778912292070653 0.053987214613876039 0 0.00078854578339115715 0.054097961267126481 0 0.00055903097201700656 0.054216590827357559 0 0.00060034133610113434 0.054369729013550479 0 0.00055903097201700656 0.054216590827357559 0 0.0004259358269143978 0.054086777343800962 0 0.00063778912292070653 0.053987214613876039 0 0.00060034133610113434 0.054369729013550479 0 0.00071962224533504346 0.054367798495907942 0 0.00051180573677422859 0.054629455304530602 0 0.00060034133610113434 0.054369729013550479 0 0.00040272939693416316 0.054508165894459046 0 0.00051180573677422859 0.054629455304530602 0 0.00055903097201700656 0.054216590827357559 0 0.00060034133610113434 0.054369729013550479 0 0.00040272939693416316 0.054508165894459046 0 0.00089004936853169145 0.05418484359404243 0 0.00078854578339115715 0.054097961267126481 0 0.00071962224533504346 0.054367798495907942 0 0.00078854578339115715 0.054097961267126481 0 0.00060034133610113434 0.054369729013550479 0 0.00071962224533504346 0.054367798495907942 0 2.4814416838829618e-08 0.055000089652223381 0 -2.9513351562293385e-06 0.054997422003753862 0 -5.6606906447460338e-06 0.054978239116129347 0 4.5625459515360502e-06 0.054165574395249293 0 0.00025647067171702907 0.054173061564199987 0 0.00025144384792037097 0.053985898448389677 0 4.5625459515360502e-06 0.054165574395249293 0 0.00019367920186181572 0.054335396978869542 0 0.00025647067171702907 0.054173061564199987 0 4.5625459515360502e-06 0.054165574395249293 0 0.00019367920186181572 0.054335396978869542 0 0.00010388645974996923 0.054575272565400887 0 0.00019367920186181572 0.054335396978869542 0 0.00035235826263319258 0.054295378713427635 0 0.000211792207227057 0.054558885053770184 0 0.00019367920186181572 0.054335396978869542 0 0.00025647067171702907 0.054173061564199987 0 0.00035235826263319258 0.054295378713427635 0 0.00055903097201700656 0.054216590827357559 0 0.0004259358269143978 0.054086777343800962 0 0.00035235826263319258 0.054295378713427635 0 0.00025647067171702907 0.054173061564199987 0 0.0004259358269143978 0.054086777343800962 0 0.00035235826263319258 0.054295378713427635 0 0.00055903097201700656 0.054216590827357559 0 0.00035235826263319258 0.054295378713427635 0 0.00040272939693416316 0.054508165894459046 0 0.00040272939693416316 0.054508165894459046 0 0.000211792207227057 0.054558885053770184 0 0.00012549572511868877 0.054838793530592081 0 0.00035235826263319258 0.054295378713427635 0 0.00040272939693416316 0.054508165894459046 0 0.000211792207227057 0.054558885053770184 0 2.4814416838829618e-08 0.055000089652223381 0 -5.6606906447460338e-06 0.054978239116129347 0 -1.0796578399037739e-07 0.054999507541136375 0 4.5625459515360502e-06 0.054165574395249293 0 0.00010388645974996923 0.054575272565400887 0 -5.6606906447460338e-06 0.054978239116129347 0 1.7472952577822464e-05 0.054590419690312822 0 -1.7948034465971454e-05 0.054933263629662242 0 0.00019367920186181572 0.054335396978869542 0 0.000211792207227057 0.054558885053770184 0 0.00010388645974996923 0.054575272565400887 0 0.000211792207227057 0.054558885053770184 0 0.00010388645974996923 0.054575272565400887 0 7.435077820569142e-05 0.054804136440794779 0 0.000211792207227057 0.054558885053770184 0 0.00012549572511868877 0.054838793530592081 0 7.435077820569142e-05 0.054804136440794779 0 7.435077820569142e-05 0.054804136440794779 0 -5.6606906447460338e-06 0.054978239116129347 0 -1.0796578399037739e-07 0.054999507541136375 0 0.00012549572511868877 0.054838793530592081 0 7.435077820569142e-05 0.054804136440794779 0 -1.0796578399037739e-07 0.054999507541136375 0 0.00010388645974996923 0.054575272565400887 0 7.435077820569142e-05 0.054804136440794779 0 -5.6606906447460338e-06 0.054978239116129347 0 -1.0796578399037739e-07 0.054999507541136375 0 7.3480006740208551e-05 0.054930917801493825 0 9.362713438284193e-08 0.05499999200236131 0 0.00012549572511868877 0.054838793530592081 0 -1.0796578399037739e-07 0.054999507541136375 0 7.3480006740208551e-05 0.054930917801493825 0 0.00015800299013920565 0.054793979215817808 0 0.00015743691934391632 0.054861160421667506 0 0.00012549572511868877 0.054838793530592081 0 7.3480006740208551e-05 0.054930917801493825 0 8.6236432718940953e-05 0.054901337850567847 0 0.00040272939693416316 0.054508165894459046 0 0.00012549572511868877 0.054838793530592081 0 0.00051180573677422859 0.054629455304530602 0 7.3480006740208551e-05 0.054930917801493825 0 8.6236432718940953e-05 0.054901337850567847 0 6.3992162699616739e-05 0.054869293118441916 0 7.3480006740208551e-05 0.054930917801493825 0 6.3992162699616739e-05 0.054869293118441916 0 4.2938014590064414e-05 0.054950126163122941 0 7.3480006740208551e-05 0.054930917801493825 0 9.362713438284193e-08 0.05499999200236131 0 4.2938014590064414e-05 0.054950126163122941 0 0.00089004936853169145 0.05418484359404243 0 0.00071962224533504346 0.054367798495907942 0 0.00077764757656184158 0.054603045944578849 0 0.00071962224533504346 0.054367798495907942 0 0.00051180573677422859 0.054629455304530602 0 0.00077764757656184158 0.054603045944578849 0 0.00015743691934391632 0.054861160421667506 0 0.0014535077980012778 0.053261134411654976 0 8.6236432718940953e-05 0.054901337850567847 0 6.3992162699616739e-05 0.054869293118441916 0 6.5154295763103346e-05 0.054875410240688476 0 -0.00056003705637482635 0.05537180224748571 0 0.0014535077980012778 0.053261134411654976 0 -9.0299249533471899e-05 0.054750122069328132 0 6.40554268308039e-06 0.054820279031859584 0 -3.1826295399401362e-06 0.054732420014400054 0 6.3992162699616739e-05 0.054869293118441916 0 6.40554268308039e-06 0.054820279031859584 0 -3.1826295399401362e-06 0.054732420014400054 0 -3.1826295399401362e-06 0.054732420014400054 0 -2.7574884568461699e-05 0.054537362624730003 0 -0.00011096505944012286 0.054645398487467065 0 -1.4708726819109835e-05 0.054742885412734213 0 9.4826188406714875e-05 0.054764383855834056 0 -3.1826295399401362e-06 0.054732420014400054 0 3.659182207253729e-05 0.05458204759368588 0 0.00012249481276257931 0.054577070215433003 0 6.3992162699616739e-05 0.054869293118441916 0 -3.1826295399401362e-06 0.054732420014400054 0 6.4304257093138119e-05 0.05493336400176338 0 5.2792233891569997e-05 0.054477511083458788 0 0.00012249481276257931 0.054577070215433003 0 9.5408040456578441e-05 0.054504991509115537 0 3.659182207253729e-05 0.05458204759368588 0 5.2792233891569997e-05 0.054477511083458788 0 0.00012249481276257931 0.054577070215433003 0 5.2792233891569997e-05 0.054477511083458788 0 -6.9636715705859956e-05 0.054287765771900476 0 2.6715581064887366e-05 0.054341038288423293 0 5.2792233891569997e-05 0.054477511083458788 0 2.6715581064887366e-05 0.054341038288423293 0 9.5408040456578441e-05 0.054504991509115537 0 -3.1826295399401362e-06 0.054732420014400054 0 3.659182207253729e-05 0.05458204759368588 0 -2.7574884568461699e-05 0.054537362624730003 0 1.6598635027476952e-05 0.054270873783935823 0 -0.00014459479642868329 0.05353979518769892 0 5.2792233891569997e-05 0.054477511083458788 0 -6.9636715705859956e-05 0.054287765771900476 0 -0.00025804699979739283 0.054380135238752812 0 -0.00027023421363097505 0.053989895005586964 0 -0.00014459479642868329 0.05353979518769892 0 3.659182207253729e-05 0.05458204759368588 0 5.2792233891569997e-05 0.054477511083458788 0 -2.7574884568461699e-05 0.054537362624730003 0 9.362713438284193e-08 0.05499999200236131 0 4.2938014590064414e-05 0.054950126163122941 0 -1.4718076316474388e-08 0.054999980405367167 0 6.3992162699616739e-05 0.054869293118441916 0 4.2938014590064414e-05 0.054950126163122941 0 6.4304257093138119e-05 0.05493336400176338 0 0.00012249481276257931 0.054577070215433003 0 7.4431551711949786e-05 0.054716918235049275 0 9.5408040456578441e-05 0.054504991509115537 0 4.2938014590064414e-05 0.054950126163122941 0 6.4304257093138119e-05 0.05493336400176338 0 -1.4718076316474388e-08 0.054999980405367167 0 9.4826188406714875e-05 0.054764383855834056 0 7.760473515772724e-08 0.054999892899305056 0 0.00012249481276257931 0.054577070215433003 0 1.0096054904122372e-07 0.054999218858396391 0 7.4431551711949786e-05 0.054716918235049275 0 7.4431551711949786e-05 0.054716918235049275 0 7.7648743683606205e-05 0.054628702139180856 0 7.6351142302643633e-08 0.054999604458570307 0 1.0096054904122372e-07 0.054999218858396391 0 7.4431551711949786e-05 0.054716918235049275 0 7.6351142302643633e-08 0.054999604458570307 0 7.4431551711949786e-05 0.054716918235049275 0 8.5861672972128677e-05 0.054512019148966639 0 7.7648743683606205e-05 0.054628702139180856 0 7.4431551711949786e-05 0.054716918235049275 0 8.5861672972128677e-05 0.054512019148966639 0 9.5408040456578441e-05 0.054504991509115537 0 6.5486563551999408e-05 0.054137471469112269 0 0.00010250055580212817 0.054519191660164952 0 8.1387259663217847e-05 0.054380507505440628 0 0.00010250055580212817 0.054519191660164952 0 8.1387259663217847e-05 0.054380507505440628 0 7.7648743683606205e-05 0.054628702139180856 0 8.5861672972128677e-05 0.054512019148966639 0 8.1387259663217847e-05 0.054380507505440628 0 7.7648743683606205e-05 0.054628702139180856 0 0.00010250055580212817 0.054519191660164952 0 7.7648743683606205e-05 0.054628702139180856 0 7.6351142302643633e-08 0.054999604458570307 0 -4.1003345509137028e-05 0.054158798472786603 0 -0.0001720571269482714 0.053922339282082135 0 -1.4640363616865835e-05 0.054041099575196018 0 -6.9636715705859956e-05 0.054287765771900476 0 -0.00012317272604794524 0.054172689009195085 0 -0.0001720571269482714 0.053922339282082135 0 -6.9636715705859956e-05 0.054287765771900476 0 -4.1003345509137028e-05 0.054158798472786603 0 -0.0001720571269482714 0.053922339282082135 0 -4.1003345509137028e-05 0.054158798472786603 0 2.6715581064887366e-05 0.054341038288423293 0 4.9049010277303101e-05 0.054326598543841718 0 -6.9636715705859956e-05 0.054287765771900476 0 -4.1003345509137028e-05 0.054158798472786603 0 2.6715581064887366e-05 0.054341038288423293 0 8.5861672972128677e-05 0.054512019148966639 0 9.5408040456578441e-05 0.054504991509115537 0 4.9049010277303101e-05 0.054326598543841718 0 2.6715581064887366e-05 0.054341038288423293 0 9.5408040456578441e-05 0.054504991509115537 0 4.9049010277303101e-05 0.054326598543841718 0 8.5861672972128677e-05 0.054512019148966639 0 8.1387259663217847e-05 0.054380507505440628 0 4.9049010277303101e-05 0.054326598543841718 0 -4.1003345509137028e-05 0.054158798472786603 0 4.9049010277303101e-05 0.054326598543841718 0 -1.4640363616865835e-05 0.054041099575196018 0 6.5486563551999408e-05 0.054137471469112269 0 8.1387259663217847e-05 0.054380507505440628 0 -1.4640363616865835e-05 0.054041099575196018 0 8.1387259663217847e-05 0.054380507505440628 0 4.9049010277303101e-05 0.054326598543841718 0 -1.4640363616865835e-05 0.054041099575196018 0 -2.8869657416558147e-05 0.053802533090275724 0 6.5486563551999408e-05 0.054137471469112269 0 -1.4640363616865835e-05 0.054041099575196018 0 -2.8869657416558147e-05 0.053802533090275724 0 -1.4640363616865835e-05 0.054041099575196018 0 -0.00018470500850710701 0.05361754923459696 0 -0.0001720571269482714 0.053922339282082135 0 -1.4640363616865835e-05 0.054041099575196018 0 -0.00018470500850710701 0.05361754923459696 0 -0.0001720571269482714 0.053922339282082135 0 -0.00018470500850710701 0.05361754923459696 0 -0.00046329018349561951 0.053442392988093577 0 -0.00045842632912647288 0.053196115845682602 0 -0.00018470500850710701 0.05361754923459696 0 -0.00046329018349561951 0.053442392988093577 0 -0.0001720571269482714 0.053922339282082135 0 -0.00046329018349561951 0.053442392988093577 0 -0.00044301905714876007 0.053852525351904115 0 -0.00046329018349561951 0.053442392988093577 0 -0.00090760211443601977 0.053249348884543121 0 -0.00044301905714876007 0.053852525351904115 0 -0.00046329018349561951 0.053442392988093577 0 -0.00072122350050378241 0.052861884273787164 0 -0.00090760211443601977 0.053249348884543121 0 -0.00045842632912647288 0.053196115845682602 0 -0.00046329018349561951 0.053442392988093577 0 -0.00072122350050378241 0.052861884273787164 0 -0.00072122350050378241 0.052861884273787164 0 -0.0016013486853071316 0.052469912390414611 0 -0.00090760211443601977 0.053249348884543121 0 -0.0016272486570994805 0.050959825437981957 0 -0.0023644646774982842 0.051765006005550881 0 -0.0016013486853071316 0.052469912390414611 0 -0.0016272486570994805 0.050959825437981957 0 -0.00072122350050378241 0.052861884273787164 0 -0.0016013486853071316 0.052469912390414611 0 -0.0016013486853071316 0.052469912390414611 0 -0.0016612832915206836 0.053134557667847672 0 -0.00090760211443601977 0.053249348884543121 0 -0.0022918373277614583 0.05258266604139377 0 -0.0016013486853071316 0.052469912390414611 0 -0.0016612832915206836 0.053134557667847672 0 -0.0016612832915206836 0.053134557667847672 0 -0.00090760211443601977 0.053249348884543121 0 -0.001101199040563067 0.053631420884397554 0 -0.00068570331891292587 0.051870845273513912 0 -0.00073704693061547931 0.051967962108917763 0 -0.00056726882425699816 0.051953721868795877 0 -0.00090760211443601977 0.053249348884543121 0 -0.001101199040563067 0.053631420884397554 0 -0.00044301905714876007 0.053852525351904115 0 -0.0021459123635214341 0.053373893989528368 0 -0.0016612832915206836 0.053134557667847672 0 -0.001101199040563067 0.053631420884397554 0 -0.00097790306332609027 0.051845988839096982 0 -0.00068570331891292587 0.051870845273513912 0 -0.00073704693061547931 0.051967962108917763 0 -0.0018557304154233967 0.050707194433652979 0 -0.0008299589099269735 0.052950588363421668 0 -0.0018557304154233967 0.050707194433652979 0 -3.8259225192267876e-05 0.048806068648323368 0 -0.0012090636453549006 0.047227092056170199 0 -0.0019495743637794271 0.045066850370165938 0 0.00073137325687065832 0.046177068052773662 0 -0.0012090636453549006 0.047227092056170199 0 0.0013666391286793898 0.04857906975939056 0 0.00073137325687065832 0.046177068052773662 0 -3.8259225192267876e-05 0.048806068648323368 0 0.0010446684946038719 0.050798522006659075 0 0.0013666391286793898 0.04857906975939056 0 0.00073137325687065832 0.046177068052773662 0 0.0032839082761677045 0.04737644435802809 0 -0.00073704693061547931 0.051967962108917763 0 -0.00056726882425699816 0.051953721868795877 0 -0.00054992325949125196 0.052046175927045121 0 -9.0299249533471899e-05 0.054750122069328132 0 -0.00016870950227931432 0.05467355810992295 0 -0.00011096505944012286 0.054645398487467065 0 0.0010446684946038719 0.050798522006659075 0 -0.00062362123778516567 0.053600655534231219 0 -0.00056726882425699816 0.051953721868795877 0 -0.00054992325949125196 0.052046175927045121 0 -0.00043127333867869476 0.051977344951159292 0 -9.0299249533471899e-05 0.054750122069328132 0 -3.1826295399401362e-06 0.054732420014400054 0 -0.00011096505944012286 0.054645398487467065 0 -0.00012317272604794524 0.054172689009195085 0 -0.0001720571269482714 0.053922339282082135 0 -0.00044301905714876007 0.053852525351904115 0 -0.00014459479642868329 0.05353979518769892 0 -0.00062362123778516567 0.053600655534231219 0 -0.00014459479642868329 0.05353979518769892 0 -0.00047521687133918606 0.052813672561810757 0 -0.0003309988918713766 0.051939575035887406 0 -0.00043127333867869476 0.051977344951159292 0 -0.00047881820862894951 0.051908934246043995 0 -0.00056726882425699816 0.051953721868795877 0 -0.00043127333867869476 0.051977344951159292 0 -0.00047881820862894951 0.051908934246043995 0 -0.0008299589099269735 0.052950588363421668 0 -0.00047521687133918606 0.052813672561810757 0 -0.00068570331891292587 0.051870845273513912 0 -0.00056726882425699816 0.051953721868795877 0 -0.00047881820862894951 0.051908934246043995 0 -0.0069959749337827485 -0.015070478927667134 0 -0.0066833748177158722 -0.014671058012095792 0 -0.0071855401702900241 -0.015153674424558209 0 -0.0069959749337827485 -0.015070478927667134 0 -0.0072271234517006034 -0.014518898999635887 0 -0.0066833748177158722 -0.014671058012095792 0 -0.0072271234517006034 -0.014518898999635887 0 -0.007146559588508389 -0.015714756930137148 0 -0.0086980630321838691 -0.014808293033982664 0 -0.0069959749337827485 -0.015070478927667134 0 -0.0072271234517006034 -0.014518898999635887 0 -0.007146559588508389 -0.015714756930137148 0 -0.0072271234517006034 -0.014518898999635887 0 -0.0076963115760642865 -0.013739739757255662 0 -0.0069050429832183983 -0.013512831893982172 0 -0.0076963115760642865 -0.013739739757255662 0 -0.0069050429832183983 -0.013512831893982172 0 -0.0073149706344021207 -0.012835066910099937 0 -0.0069050429832183983 -0.013512831893982172 0 -0.006593635873273879 -0.013580567191517748 0 -0.0068376010183634189 -0.014060988543043433 0 -0.0072271234517006034 -0.014518898999635887 0 -0.0069050429832183983 -0.013512831893982172 0 -0.0068376010183634189 -0.014060988543043433 0 -0.0072271234517006034 -0.014518898999635887 0 -0.0068376010183634189 -0.014060988543043433 0 -0.0066833748177158722 -0.014671058012095792 0 -0.0066833748177158722 -0.014671058012095792 0 -0.0063974661306438569 -0.01379843030638645 0 -0.0049994433048699584 -0.01403479961373146 0 -0.0068376010183634189 -0.014060988543043433 0 -0.0066833748177158722 -0.014671058012095792 0 -0.0063974661306438569 -0.01379843030638645 0 -0.006593635873273879 -0.013580567191517748 0 -0.0063974661306438569 -0.01379843030638645 0 -0.0062748392676011166 -0.013025360667868047 0 -0.006593635873273879 -0.013580567191517748 0 -0.0068376010183634189 -0.014060988543043433 0 -0.0063974661306438569 -0.01379843030638645 0 -0.0049994433048699584 -0.01403479961373146 0 -0.0038151614156877191 -0.012873263938011749 0 -0.0037753527356755964 -0.015091997582412761 0 -0.0066833748177158722 -0.014671058012095792 0 -0.0049994433048699584 -0.01403479961373146 0 -0.0037753527356755964 -0.015091997582412761 0 -0.0063974661306438569 -0.01379843030638645 0 -0.0053643786742087829 -0.012935152950817111 0 -0.0049994433048699584 -0.01403479961373146 0 -0.0053643786742087829 -0.012935152950817111 0 -0.0049994433048699584 -0.01403479961373146 0 -0.0038151614156877191 -0.012873263938011749 0 -0.0038151614156877191 -0.012873263938011749 0 -0.0037753527356755964 -0.015091997582412761 0 -0.0019682571536791308 -0.013766805330192068 0 -0.0038151614156877191 -0.012873263938011749 0 -0.0023459069126732833 -0.012330314914344062 0 -0.0019682571536791308 -0.013766805330192068 0 -0.0037753527356755964 -0.015091997582412761 0 -0.0010349926599905242 -0.015620502536814788 0 -0.0019682571536791308 -0.013766805330192068 0 -0.0052283145020840076 -0.015583848902221732 0 -0.0060299873071735103 -0.011159718656360149 0 -0.0075041638549422978 -0.015212637245698348 0 -0.0077096062776906629 -0.015009024924037622 0 -0.0080223200840565563 -0.015148124294347469 0 -0.0068875333442746977 -0.014600710305034539 0 -0.0052283145020840076 -0.015583848902221732 0 -0.0066833748177158722 -0.014671058012095792 0 -0.0075041638549422978 -0.015212637245698348 0 -0.0071855401702900241 -0.015153674424558209 0 -0.0075041638549422978 -0.015212637245698348 0 -0.0071855401702900241 -0.015153674424558209 0 -0.0077096062776906629 -0.015009024924037622 0 -0.0071855401702900241 -0.015153674424558209 0 -0.0077096062776906629 -0.015009024924037622 0 -0.0076601972212739719 -0.014727194987165822 0 -0.0077096062776906629 -0.015009024924037622 0 -0.0080677708904427214 -0.014743146085881521 0 -0.0080223200840565563 -0.015148124294347469 0 -0.0080677708904427214 -0.014743146085881521 0 -0.0076601972212739719 -0.014727194987165822 0 -0.008309446512013742 -0.013373086720709543 0 -0.0077096062776906629 -0.015009024924037622 0 -0.0080677708904427214 -0.014743146085881521 0 -0.0076601972212739719 -0.014727194987165822 0 -0.0071855401702900241 -0.015153674424558209 0 -0.0076601972212739719 -0.014727194987165822 0 -0.0072411185319690343 -0.01486216789659211 0 -0.0071855401702900241 -0.015153674424558209 0 -0.0072411185319690343 -0.01486216789659211 0 -0.007146559588508389 -0.015714756930137148 0 -0.0069959749337827485 -0.015070478927667134 0 -0.0071855401702900241 -0.015153674424558209 0 -0.007146559588508389 -0.015714756930137148 0 -0.0072411185319690343 -0.01486216789659211 0 -0.007146559588508389 -0.015714756930137148 0 -0.0067771269402540696 -0.015208915460006996 0 -0.007146559588508389 -0.015714756930137148 0 -0.0067771269402540696 -0.015208915460006996 0 -0.0062211511994904991 -0.016074007572125331 0 -0.0067771269402540696 -0.015208915460006996 0 -0.0062211511994904991 -0.016074007572125331 0 -0.0058467763565499516 -0.015286136608927475 0 -0.0055656260754183362 -0.016231300221062034 0 -0.0050073251439750064 -0.016224748158380438 0 -0.0058467763565499516 -0.015286136608927475 0 -0.0062211511994904991 -0.016074007572125331 0 -0.0055656260754183362 -0.016231300221062034 0 -0.0058467763565499516 -0.015286136608927475 0 -0.0055656260754183362 -0.016231300221062034 0 -0.0055271026175397232 -0.017028207466984979 0 -0.0050913479292904254 -0.016825206606200495 0 -0.0062211511994904991 -0.016074007572125331 0 -0.0055656260754183362 -0.016231300221062034 0 -0.0055271026175397232 -0.017028207466984979 0 -0.0062211511994904991 -0.016074007572125331 0 -0.0055271026175397232 -0.017028207466984979 0 -0.0060571469184932019 -0.017686859135359993 0 -0.0055271026175397232 -0.017028207466984979 0 -0.0051276466130640852 -0.017971450899845382 0 -0.0060571469184932019 -0.017686859135359993 0 -0.007146559588508389 -0.015714756930137148 0 -0.0062211511994904991 -0.016074007572125331 0 -0.0060571469184932019 -0.017686859135359993 0 -0.0039286662006792197 -0.017341672359358573 0 -0.0043269697313009555 -0.016441339307309934 0 -0.003603580727293641 -0.016914670553700169 0 -0.0039286662006792197 -0.017341672359358573 0 -0.0045386769107172301 -0.017092623166823799 0 -0.0043269697313009555 -0.016441339307309934 0 -0.0039286662006792197 -0.017341672359358573 0 -0.0045386769107172301 -0.017092623166823799 0 -0.0041019952865891159 -0.017977138151406443 0 -0.0045386769107172301 -0.017092623166823799 0 -0.0050073251439750064 -0.016224748158380438 0 -0.0043269697313009555 -0.016441339307309934 0 -0.0055656260754183362 -0.016231300221062034 0 -0.0050073251439750064 -0.016224748158380438 0 -0.0050913479292904254 -0.016825206606200495 0 -0.0045386769107172301 -0.017092623166823799 0 -0.0050073251439750064 -0.016224748158380438 0 -0.0050913479292904254 -0.016825206606200495 0 -0.0055271026175397232 -0.017028207466984979 0 -0.0050913479292904254 -0.016825206606200495 0 -0.0047956332353946531 -0.017616892064456959 0 -0.0055271026175397232 -0.017028207466984979 0 -0.0047956332353946531 -0.017616892064456959 0 -0.0051276466130640852 -0.017971450899845382 0 -0.0047956332353946531 -0.017616892064456959 0 -0.0044667350633586225 -0.0184525890118796 0 -0.0051276466130640852 -0.017971450899845382 0 -0.0045386769107172301 -0.017092623166823799 0 -0.0047956332353946531 -0.017616892064456959 0 -0.0041019952865891159 -0.017977138151406443 0 -0.0045386769107172301 -0.017092623166823799 0 -0.0050913479292904254 -0.016825206606200495 0 -0.0047956332353946531 -0.017616892064456959 0 -0.0047956332353946531 -0.017616892064456959 0 -0.0041019952865891159 -0.017977138151406443 0 -0.0044667350633586225 -0.0184525890118796 0 -0.0041019952865891159 -0.017977138151406443 0 -0.0038938680223800691 -0.018740940251698764 0 -0.003501097428975637 -0.01850156476922879 0 -0.0041019952865891159 -0.017977138151406443 0 -0.003501097428975637 -0.01850156476922879 0 -0.0036691186523284194 -0.017985909273981856 0 -0.0039286662006792197 -0.017341672359358573 0 -0.0041019952865891159 -0.017977138151406443 0 -0.0036691186523284194 -0.017985909273981856 0 -0.0037637552171732348 -0.019311690977194467 0 -0.0038938680223800691 -0.018740940251698764 0 -0.0041958836278973913 -0.019123683117030346 0 -0.0038938680223800691 -0.018740940251698764 0 -0.0044667350633586225 -0.0184525890118796 0 -0.0041958836278973913 -0.019123683117030346 0 -0.0041019952865891159 -0.017977138151406443 0 -0.0038938680223800691 -0.018740940251698764 0 -0.0044667350633586225 -0.0184525890118796 0 -0.0044667350633586225 -0.0184525890118796 0 -0.0041958836278973913 -0.019123683117030346 0 -0.0047215727138919198 -0.019168161085274762 0 -0.0044667350633586225 -0.0184525890118796 0 -0.0051276466130640852 -0.017971450899845382 0 -0.0047215727138919198 -0.019168161085274762 0 -0.0095914290606786898 -0.013485115590970273 0 -0.010052811705373005 -0.013838287579779125 0 -0.0091986958620927286 -0.013863846955462418 0 -0.0095914290606786898 -0.013485115590970273 0 -0.01000921459233269 -0.013710239407647739 0 -0.0096597718851411593 -0.012769556597778177 0 -0.0095914290606786898 -0.013485115590970273 0 -0.01000921459233269 -0.013710239407647739 0 -0.010052811705373005 -0.013838287579779125 0 -0.0041958836278973913 -0.019123683117030346 0 -0.0047215727138919198 -0.019168161085274762 0 -0.0033622499111458995 -0.020201797521594813 0 -0.0037637552171732348 -0.019311690977194467 0 -0.0041958836278973913 -0.019123683117030346 0 -0.0033622499111458995 -0.020201797521594813 0 -0.010052811705373005 -0.013838287579779125 0 -0.0097806126068622507 -0.013920187267053259 0 -0.009504048397826011 -0.013781970271114517 0 -0.010069363980248507 -0.013689818127890987 0 -0.010521323499011461 -0.013482156546738103 0 -0.01000921459233269 -0.013710239407647739 0 -0.010052811705373005 -0.013838287579779125 0 -0.0097806126068622507 -0.013920187267053259 0 -0.0073545943682443021 -0.016511323358354511 0 -0.0062845450543159778 -0.017041724427891845 0 -0.0072271234517006034 -0.014518898999635887 0 -0.0076963115760642865 -0.013739739757255662 0 -0.0086980630321838691 -0.014808293033982664 0 -0.0071164794788034112 -0.015834878276507463 0 -0.007297624619376975 -0.016238036529623159 0 -0.010052811705373005 -0.013838287579779125 0 -0.0086980630321838691 -0.014808293033982664 0 -0.0091986958620927286 -0.013863846955462418 0 -0.0051276466130640852 -0.017971450899845382 0 -0.0047215727138919198 -0.019168161085274762 0 -0.0060571469184932019 -0.017686859135359993 0 -0.0073545943682443021 -0.016511323358354511 0 -0.007297624619376975 -0.016238036529623159 0 -0.0091986958620927286 -0.013863846955462418 0 -0.0082832493866153468 -0.013253315259270317 0 -0.0089226147094920317 -0.01285619735969884 0 -0.0086980630321838691 -0.014808293033982664 0 -0.0091986958620927286 -0.013863846955462418 0 -0.0082832493866153468 -0.013253315259270317 0 -0.0095914290606786898 -0.013485115590970273 0 -0.0091986958620927286 -0.013863846955462418 0 -0.0089226147094920317 -0.01285619735969884 0 -0.0076963115760642865 -0.013739739757255662 0 -0.0086980630321838691 -0.014808293033982664 0 -0.0082832493866153468 -0.013253315259270317 0 -0.0080815883524202933 -0.012508905106612072 0 -0.0082832493866153468 -0.013253315259270317 0 -0.0073149706344021207 -0.012835066910099937 0 -0.0076963115760642865 -0.013739739757255662 0 -0.0082832493866153468 -0.013253315259270317 0 -0.0073149706344021207 -0.012835066910099937 0 -0.0080815883524202933 -0.012508905106612072 0 -0.0077428478517974925 -0.01187464003110218 0 -0.0073149706344021207 -0.012835066910099937 0 -0.0080815883524202933 -0.012508905106612072 0 -0.0089226147094920317 -0.01285619735969884 0 -0.0085488607376681281 -0.01194291258753467 0 -0.0080815883524202933 -0.012508905106612072 0 -0.0082832493866153468 -0.013253315259270317 0 -0.0089226147094920317 -0.01285619735969884 0 -0.0095914290606786898 -0.013485115590970273 0 -0.0089226147094920317 -0.01285619735969884 0 -0.0096597718851411593 -0.012769556597778177 0 -0.0089226147094920317 -0.01285619735969884 0 -0.0092628117900317615 -0.012190436636819679 0 -0.0096597718851411593 -0.012769556597778177 0 -0.0089226147094920317 -0.01285619735969884 0 -0.0092628117900317615 -0.012190436636819679 0 -0.0085488607376681281 -0.01194291258753467 0 -0.0091538742027439616 -0.011309862680101705 0 -0.0081746088239065037 -0.011205445680748676 0 -0.0085488607376681281 -0.01194291258753467 0 -0.0092628117900317615 -0.012190436636819679 0 -0.0091538742027439616 -0.011309862680101705 0 -0.0085488607376681281 -0.01194291258753467 0 -0.0081746088239065037 -0.011205445680748676 0 -0.0077428478517974925 -0.01187464003110218 0 -0.0071992652551998125 -0.010924351549147868 0 -0.0081746088239065037 -0.011205445680748676 0 -0.0077428478517974925 -0.01187464003110218 0 -0.0085488607376681281 -0.01194291258753467 0 -0.0080815883524202933 -0.012508905106612072 0 -0.0077428478517974925 -0.01187464003110218 0 -0.0085488607376681281 -0.01194291258753467 0 -0.01000921459233269 -0.013710239407647739 0 -0.011296477321436899 -0.012996763579052257 0 -0.010395430381895998 -0.012846203820603952 0 -0.011337360052093541 -0.012060930893763262 0 -0.011296477321436899 -0.012996763579052257 0 -0.010395430381895998 -0.012846203820603952 0 -0.011337360052093541 -0.012060930893763262 0 -0.010395430381895998 -0.012846203820603952 0 -0.010125359795433879 -0.011767325928417442 0 -0.010395430381895998 -0.012846203820603952 0 -0.0096597718851411593 -0.012769556597778177 0 -0.010125359795433879 -0.011767325928417442 0 -0.01000921459233269 -0.013710239407647739 0 -0.010395430381895998 -0.012846203820603952 0 -0.0096597718851411593 -0.012769556597778177 0 -0.0092628117900317615 -0.012190436636819679 0 -0.0096597718851411593 -0.012769556597778177 0 -0.010125359795433879 -0.011767325928417442 0 -0.0092628117900317615 -0.012190436636819679 0 -0.0091538742027439616 -0.011309862680101705 0 -0.010125359795433879 -0.011767325928417442 0 -0.0091538742027439616 -0.011309862680101705 0 -0.010125359795433879 -0.011767325928417442 0 -0.0099853581940294589 -0.010862339987883232 0 -0.010125359795433879 -0.011767325928417442 0 -0.010496131156832102 -0.011220705725761761 0 -0.0099853581940294589 -0.010862339987883232 0 -0.010698261832928605 -0.01154277868585935 0 -0.010125359795433879 -0.011767325928417442 0 -0.010496131156832102 -0.011220705725761761 0 -0.011137025592548623 -0.011881347000396777 0 -0.010172541754391076 -0.011723845725174238 0 -0.010496131156832102 -0.011220705725761761 0 -0.010607661434006484 -0.010606605672127642 0 -0.010950141426491698 -0.011057383714523999 0 -0.010698261832928605 -0.01154277868585935 0 -0.010496131156832102 -0.011220705725761761 0 -0.010950141426491698 -0.011057383714523999 0 -0.010607661434006484 -0.010606605672127642 0 -0.0099853581940294589 -0.010862339987883232 0 -0.01027233984913163 -0.0099090831091371411 0 -0.010607661434006484 -0.010606605672127642 0 -0.01027233984913163 -0.0099090831091371411 0 -0.010874689177751874 -0.009815119770721633 0 -0.010496131156832102 -0.011220705725761761 0 -0.010607661434006484 -0.010606605672127642 0 -0.0099853581940294589 -0.010862339987883232 0 -0.0091538742027439616 -0.011309862680101705 0 -0.0099853581940294589 -0.010862339987883232 0 -0.0094495377025258943 -0.010155334712047213 0 -0.0099853581940294589 -0.010862339987883232 0 -0.0094495377025258943 -0.010155334712047213 0 -0.01027233984913163 -0.0099090831091371411 0 -0.0094495377025258943 -0.010155334712047213 0 -0.0099303874159010676 -0.0090979979077879941 0 -0.0092041829364014633 -0.0091428566472910675 0 -0.0094495377025258943 -0.010155334712047213 0 -0.01027233984913163 -0.0099090831091371411 0 -0.0099303874159010676 -0.0090979979077879941 0 -0.01027233984913163 -0.0099090831091371411 0 -0.010732340895801537 -0.0090587247887960534 0 -0.0099303874159010676 -0.0090979979077879941 0 -0.01027233984913163 -0.0099090831091371411 0 -0.010874689177751874 -0.009815119770721633 0 -0.010732340895801537 -0.0090587247887960534 0 -0.0081746088239065037 -0.011205445680748676 0 -0.0078098112444502498 -0.010157563665465169 0 -0.0086662518148923427 -0.010502627583794893 0 -0.0081746088239065037 -0.011205445680748676 0 -0.0078098112444502498 -0.010157563665465169 0 -0.0071992652551998125 -0.010924351549147868 0 -0.0091538742027439616 -0.011309862680101705 0 -0.0094495377025258943 -0.010155334712047213 0 -0.0086662518148923427 -0.010502627583794893 0 -0.0091538742027439616 -0.011309862680101705 0 -0.0081746088239065037 -0.011205445680748676 0 -0.0086662518148923427 -0.010502627583794893 0 -0.0094495377025258943 -0.010155334712047213 0 -0.0086592977158437175 -0.0097498010539994948 0 -0.0092041829364014633 -0.0091428566472910675 0 -0.0086592977158437175 -0.0097498010539994948 0 -0.0092041829364014633 -0.0091428566472910675 0 -0.0080623492464157315 -0.0089375171955932645 0 -0.0094495377025258943 -0.010155334712047213 0 -0.0086662518148923427 -0.010502627583794893 0 -0.0086592977158437175 -0.0097498010539994948 0 -0.0078098112444502498 -0.010157563665465169 0 -0.0086592977158437175 -0.0097498010539994948 0 -0.0080623492464157315 -0.0089375171955932645 0 -0.0078098112444502498 -0.010157563665465169 0 -0.0071598786060909749 -0.0095940376711982096 0 -0.0080623492464157315 -0.0089375171955932645 0 -0.0078098112444502498 -0.010157563665465169 0 -0.0086662518148923427 -0.010502627583794893 0 -0.0086592977158437175 -0.0097498010539994948 0 -0.0071598786060909749 -0.0095940376711982096 0 -0.0062358371404053099 -0.0094652515686952376 0 -0.0068332143798435479 -0.008735944385486168 0 -0.0071598786060909749 -0.0095940376711982096 0 -0.0071922967091816031 -0.010207528337658386 0 -0.0065827367450500803 -0.010161604004753317 0 -0.0071598786060909749 -0.0095940376711982096 0 -0.0062358371404053099 -0.0094652515686952376 0 -0.0065827367450500803 -0.010161604004753317 0 -0.0078098112444502498 -0.010157563665465169 0 -0.0071598786060909749 -0.0095940376711982096 0 -0.0071922967091816031 -0.010207528337658386 0 -0.005441877427289723 -0.009582672688500514 0 -0.0062358371404053099 -0.0094652515686952376 0 -0.0055362508053670191 -0.0085649890013798774 0 -0.0062358371404053099 -0.0094652515686952376 0 -0.0058125450923232052 -0.01012051333800853 0 -0.0065827367450500803 -0.010161604004753317 0 -0.005441877427289723 -0.009582672688500514 0 -0.0062358371404053099 -0.0094652515686952376 0 -0.0058125450923232052 -0.01012051333800853 0 -0.005441877427289723 -0.009582672688500514 0 -0.0058125450923232052 -0.01012051333800853 0 -0.0050763836903999536 -0.010113181925320611 0 -0.0058125450923232052 -0.01012051333800853 0 -0.0062035263429403254 -0.010627281557609896 0 -0.0055310035878876332 -0.010713157068305688 0 -0.0058125450923232052 -0.01012051333800853 0 -0.0055310035878876332 -0.010713157068305688 0 -0.0050763836903999536 -0.010113181925320611 0 -0.0058125450923232052 -0.01012051333800853 0 -0.0062035263429403254 -0.010627281557609896 0 -0.0065827367450500803 -0.010161604004753317 0 -0.0062035263429403254 -0.010627281557609896 0 -0.0055310035878876332 -0.010713157068305688 0 -0.0063916131308333068 -0.011227929048575279 0 -0.0055310035878876332 -0.010713157068305688 0 -0.0063916131308333068 -0.011227929048575279 0 -0.0055885177614895688 -0.011314784227378968 0 -0.0078098112444502498 -0.010157563665465169 0 -0.0071922967091816031 -0.010207528337658386 0 -0.0071992652551998125 -0.010924351549147868 0 -0.0071922967091816031 -0.010207528337658386 0 -0.0065827367450500803 -0.010161604004753317 0 -0.0071992652551998125 -0.010924351549147868 0 -0.0062035263429403254 -0.010627281557609896 0 -0.0065827367450500803 -0.010161604004753317 0 -0.0071992652551998125 -0.010924351549147868 0 -0.0062035263429403254 -0.010627281557609896 0 -0.0071992652551998125 -0.010924351549147868 0 -0.0063916131308333068 -0.011227929048575279 0 -0.0077428478517974925 -0.01187464003110218 0 -0.0071992652551998125 -0.010924351549147868 0 -0.0071094399803999647 -0.011850590545937848 0 -0.0077428478517974925 -0.01187464003110218 0 -0.0071094399803999647 -0.011850590545937848 0 -0.0073149706344021207 -0.012835066910099937 0 -0.0071094399803999647 -0.011850590545937848 0 -0.006567128004152995 -0.012063083498700063 0 -0.0073149706344021207 -0.012835066910099937 0 -0.0071992652551998125 -0.010924351549147868 0 -0.0071094399803999647 -0.011850590545937848 0 -0.0063916131308333068 -0.011227929048575279 0 -0.0071094399803999647 -0.011850590545937848 0 -0.0063916131308333068 -0.011227929048575279 0 -0.006567128004152995 -0.012063083498700063 0 -0.0063916131308333068 -0.011227929048575279 0 -0.006037226718592136 -0.011655282857980039 0 -0.006567128004152995 -0.012063083498700063 0 -0.0063916131308333068 -0.011227929048575279 0 -0.0055885177614895688 -0.011314784227378968 0 -0.006037226718592136 -0.011655282857980039 0 -0.0055885177614895688 -0.011314784227378968 0 -0.006037226718592136 -0.011655282857980039 0 -0.0055409675642389029 -0.011746846704608809 0 -0.0059503833402508857 -0.012065067282516604 0 -0.0064285571862687137 -0.012755847378366937 0 -0.0053778359836681817 -0.012118121181800482 0 -0.0055409675642389029 -0.011746846704608809 0 -0.0059503833402508857 -0.012065067282516604 0 -0.0053657080361437619 -0.012117462896226477 0 -0.006037226718592136 -0.011655282857980039 0 -0.0055409675642389029 -0.011746846704608809 0 -0.0059503833402508857 -0.012065067282516604 0 -0.0057641405975338931 -0.0099746916474952214 0 -0.0065317304872329063 -0.0088073336538965537 0 -0.006037226718592136 -0.011655282857980039 0 -0.0059503833402508857 -0.012065067282516604 0 -0.006567128004152995 -0.012063083498700063 0 -0.0059503833402508857 -0.012065067282516604 0 -0.006567128004152995 -0.012063083498700063 0 -0.0064285571862687137 -0.012755847378366937 0 -0.006567128004152995 -0.012063083498700063 0 -0.0064285571862687137 -0.012755847378366937 0 -0.0073149706344021207 -0.012835066910099937 0 -0.0063974661306438569 -0.01379843030638645 0 -0.0062748392676011166 -0.013025360667868047 0 -0.0055207712110081015 -0.0122661449338036 0 -0.0068702969241874086 -0.012437981389206701 0 -0.0065317304872329063 -0.0088073336538965537 0 -0.0064285571862687137 -0.012755847378366937 0 -0.0062748392676011166 -0.013025360667868047 0 -0.0058443543235635791 -0.012237001384921758 0 -0.0069050429832183983 -0.013512831893982172 0 -0.006593635873273879 -0.013580567191517748 0 -0.0062748392676011166 -0.013025360667868047 0 -0.0069050429832183983 -0.013512831893982172 0 -0.0064285571862687137 -0.012755847378366937 0 -0.0062748392676011166 -0.013025360667868047 0 -0.0069050429832183983 -0.013512831893982172 0 -0.0064285571862687137 -0.012755847378366937 0 -0.0073149706344021207 -0.012835066910099937 0 -0.0038151614156877191 -0.012873263938011749 0 -0.0044350803410706467 -0.01165959404945799 0 -0.0025935698690683498 -0.010555184885260561 0 -0.0038151614156877191 -0.012873263938011749 0 -0.0023459069126732833 -0.012330314914344062 0 -0.0025935698690683498 -0.010555184885260561 0 -0.0053643786742087829 -0.012935152950817111 0 -0.0044350803410706467 -0.01165959404945799 0 -0.0052648591992487115 -0.010306076571679701 0 -0.0044350803410706467 -0.01165959404945799 0 -0.0052648591992487115 -0.010306076571679701 0 -0.0025935698690683498 -0.010555184885260561 0 -0.0063102933453940075 -0.015501531263839565 0 -0.0065533410116060441 -0.0065283062149424451 0 -0.0063974661306438569 -0.01379843030638645 0 -0.0053643786742087829 -0.012935152950817111 0 -0.0052648591992487115 -0.010306076571679701 0 -0.0053643786742087829 -0.012935152950817111 0 -0.0038151614156877191 -0.012873263938011749 0 -0.0044350803410706467 -0.01165959404945799 0 -0.0062748392676011166 -0.013025360667868047 0 -0.0058443543235635791 -0.012237001384921758 0 -0.0055207712110081015 -0.0122661449338036 0 -0.0058169237240556296 0.0053944134070373524 0 -0.0055625119833221789 0.0060616835030975896 0 -0.003690306334669627 0.0052803435003223277 0 -0.0055409675642389029 -0.011746846704608809 0 -0.0053657080361437619 -0.012117462896226477 0 -0.0047740305712463699 -0.011605668244133777 0 -0.0065317304872329063 -0.0088073336538965537 0 -0.0065533410116060441 -0.0065283062149424451 0 -0.0065317304872329063 -0.0088073336538965537 0 -0.0069914295040154678 -0.0027303593825337316 0 -0.0065533410116060441 -0.0065283062149424451 0 -0.0069914295040154678 -0.0027303593825337316 0 -0.0078204625223345457 -0.0057915773738728355 0 -0.0062852996476321634 -0.005926424479341762 0 -0.0055128066969259036 -0.0039428554164310479 0 -0.0055885177614895688 -0.011314784227378968 0 -0.0055409675642389029 -0.011746846704608809 0 -0.0047740305712463699 -0.011605668244133777 0 -0.0055885177614895688 -0.011314784227378968 0 -0.0047740305712463699 -0.011605668244133777 0 -0.0051590176719911304 -0.01106747614823226 0 -0.0055625119833221789 0.0060616835030975896 0 -0.003690306334669627 0.0052803435003223277 0 -0.0027898450657835847 0.0068278521203804171 0 -0.0065533410116060441 -0.0065283062149424451 0 -0.0029445284334400509 -0.0026030475518224413 0 -0.0069914295040154678 -0.0027303593825337316 0 -0.0046461984512946681 0.0066846032601156182 0 -0.0055625119833221789 0.0060616835030975896 0 -0.003195478230519347 0.0078322417635544074 0 -0.0027898450657835847 0.0068278521203804171 0 -0.011457868040189076 -0.0009526056551926455 0 -0.0059304939614008012 0.0038642026622313507 0 -0.0089566748410664972 0.0055538630768205465 0 -0.0069914295040154678 -0.0027303593825337316 0 -0.004213606838398362 -0.0051772608577117553 0 -0.0047740305712463699 -0.011605668244133777 0 -0.0047420131734464991 -0.010643775914586319 0 -0.0039857934470600657 -0.0098648061933770733 0 -0.0047740305712463699 -0.011605668244133777 0 -0.0051590176719911304 -0.01106747614823226 0 -0.0047420131734464991 -0.010643775914586319 0 -0.0055310035878876332 -0.010713157068305688 0 -0.0051590176719911304 -0.01106747614823226 0 -0.0047420131734464991 -0.010643775914586319 0 -0.0055310035878876332 -0.010713157068305688 0 -0.0055885177614895688 -0.011314784227378968 0 -0.0051590176719911304 -0.01106747614823226 0 -0.0047420131734464991 -0.010643775914586319 0 -0.0043223115011330714 -0.010085790896201652 0 -0.0039857934470600657 -0.0098648061933770733 0 -0.0047420131734464991 -0.010643775914586319 0 -0.0043223115011330714 -0.010085790896201652 0 -0.0050763836903999536 -0.010113181925320611 0 -0.0055310035878876332 -0.010713157068305688 0 -0.0047420131734464991 -0.010643775914586319 0 -0.0050763836903999536 -0.010113181925320611 0 -0.0046291982868765132 -0.0095452327578195873 0 -0.0039897215414784765 -0.0099742860877021916 0 -0.0042183509304390288 -0.0087425149319107186 0 -0.005441877427289723 -0.009582672688500514 0 -0.0050763836903999536 -0.010113181925320611 0 -0.0046291982868765132 -0.0095452327578195873 0 -0.0043223115011330714 -0.010085790896201652 0 -0.0050763836903999536 -0.010113181925320611 0 -0.0046291982868765132 -0.0095452327578195873 0 -0.0043223115011330714 -0.010085790896201652 0 -0.0046291982868765132 -0.0095452327578195873 0 -0.0039897215414784765 -0.0099742860877021916 0 -0.005441877427289723 -0.009582672688500514 0 -0.0046291982868765132 -0.0095452327578195873 0 -0.0055362508053670191 -0.0085649890013798774 0 -0.0059304939614008012 0.0038642026622313507 0 -0.0089566748410664972 0.0055538630768205465 0 -0.0046619386390801265 0.0081123479189681765 0 -0.0012308508736163194 -0.0053144292483381129 0 -0.00097936625434075415 -0.0051957767576706225 0 -0.0010434316548825944 -0.0050337292959784169 0 -0.004213606838398362 -0.0051772608577117553 0 -0.0026751279968410119 0.0019200715110573761 0 -0.0050606494023253852 -0.0068188664311605862 0 -0.004213606838398362 -0.0051772608577117553 0 -0.003195478230519347 0.0078322417635544074 0 -0.0019748451157332149 0.0079473928797517725 0 -0.0019447619824419368 0.0082095933493788777 0 -0.0046461984512946681 0.0066846032601156182 0 -0.0021542003653161721 0.0077603382604999318 0 -0.0059304939614008012 0.0038642026622313507 0 -0.0046619386390801265 0.0081123479189681765 0 -0.0019447619824419368 0.0082095933493788777 0 -0.003195478230519347 0.0078322417635544074 0 -0.0025970001047333148 0.0073419552841169806 0 -0.002241057977067167 0.0076690825518173685 0 -0.003195478230519347 0.0078322417635544074 0 -0.002241057977067167 0.0076690825518173685 0 -0.0019748451157332149 0.0079473928797517725 0 -0.0025970001047333148 0.0073419552841169806 0 -0.0027898450657835847 0.0068278521203804171 0 -0.0022567342640099656 0.0070831589523585436 0 -0.0025970001047333148 0.0073419552841169806 0 -0.002241057977067167 0.0076690825518173685 0 -0.0022567342640099656 0.0070831589523585436 0 -0.003195478230519347 0.0078322417635544074 0 -0.0025970001047333148 0.0073419552841169806 0 -0.0027898450657835847 0.0068278521203804171 0 -0.0018403936535122838 0.0074982152798791423 0 -0.0014436510932169071 0.0080864209411490428 0 -0.0014519837017351956 0.0072470969949871957 0 -0.0018403936535122838 0.0074982152798791423 0 -0.0018025793864906274 0.0069767290011778669 0 -0.0014519837017351956 0.0072470969949871957 0 -0.0018403936535122838 0.0074982152798791423 0 -0.002241057977067167 0.0076690825518173685 0 -0.0022567342640099656 0.0070831589523585436 0 -0.0018403936535122838 0.0074982152798791423 0 -0.0022567342640099656 0.0070831589523585436 0 -0.0018025793864906274 0.0069767290011778669 0 -0.002241057977067167 0.0076690825518173685 0 -0.0017239727175205387 0.0078570646635559207 0 -0.0019748451157332149 0.0079473928797517725 0 -0.0018403936535122838 0.0074982152798791423 0 -0.002241057977067167 0.0076690825518173685 0 -0.0017239727175205387 0.0078570646635559207 0 -0.0017239727175205387 0.0078570646635559207 0 -0.0015027470502894961 0.0078708426641169466 0 -0.0019748451157332149 0.0079473928797517725 0 -0.0018403936535122838 0.0074982152798791423 0 -0.0017239727175205387 0.0078570646635559207 0 -0.0014436510932169071 0.0080864209411490428 0 -0.0017239727175205387 0.0078570646635559207 0 -0.0014436510932169071 0.0080864209411490428 0 -0.0015027470502894961 0.0078708426641169466 0 -0.0019748451157332149 0.0079473928797517725 0 -0.0019447619824419368 0.0082095933493788777 0 -0.0015527285175412592 0.0082087093761099086 0 -0.0015027470502894961 0.0078708426641169466 0 -0.0019748451157332149 0.0079473928797517725 0 -0.0015527285175412592 0.0082087093761099086 0 -0.0019447619824419368 0.0082095933493788777 0 -0.0015527285175412592 0.0082087093761099086 0 -0.0011743113904351061 0.0085058551632903531 0 -0.0017142712147955998 0.007845023629382171 0 -0.001414479979027579 0.0077541926689433183 0 -0.0015027470502894961 0.0078708426641169466 0 -0.0011743113904351061 0.0085058551632903531 0 -0.00061599731457661635 0.0083110600014836347 0 -0.0015027470502894961 0.0078708426641169466 0 -0.0032169717411058285 0.007321715093650304 0 -0.0022529187338104586 0.008149467907056963 0 -0.0011743113904351061 0.0085058551632903531 0 -0.00061599731457661635 0.0083110600014836347 0 -0.00087084722168500716 0.0090109474414845261 0 -0.0032169717411058285 0.007321715093650304 0 -0.0030444471236541933 0.008366771395531436 0 -0.0022529187338104586 0.008149467907056963 0 -0.0015027470502894961 0.0078708426641169466 0 -0.0015527285175412592 0.0082087093761099086 0 -0.0011743113904351061 0.0085058551632903531 0 -0.0032169717411058285 0.007321715093650304 0 -0.0053895892670105666 0.0067055222539490139 0 -0.0048301664558938733 0.0080567221829517706 0 -0.001414479979027579 0.0077541926689433183 0 -0.006280204409216927 0.011085466433299872 0 -0.00061599731457661635 0.0083110600014836347 0 7.6899424371200083e-05 0.0086705895988691273 0 -0.00037138441385598658 0.0091042398326286935 0 -0.0032169717411058285 0.007321715093650304 0 -0.003827545217316626 0.0085078181938171016 0 -0.0048301664558938733 0.0080567221829517706 0 -0.003827545217316626 0.0085078181938171016 0 -0.0048301664558938733 0.0080567221829517706 0 -0.0048694513353962016 0.0091299160970759047 0 -0.0032169717411058285 0.007321715093650304 0 -0.003827545217316626 0.0085078181938171016 0 -0.0030444471236541933 0.008366771395531436 0 -0.003827545217316626 0.0085078181938171016 0 -0.0030444471236541933 0.008366771395531436 0 -0.0033441153876338169 0.0091171874403528797 0 -0.003827545217316626 0.0085078181938171016 0 -0.0033441153876338169 0.0091171874403528797 0 -0.0040945103056951974 0.009540496522097857 0 -0.0033441153876338169 0.0091171874403528797 0 -0.0027996630632007983 0.0098430902690411371 0 -0.0035227303294263278 0.0099508672728195538 0 -0.0033441153876338169 0.0091171874403528797 0 -0.0040945103056951974 0.009540496522097857 0 -0.0035227303294263278 0.0099508672728195538 0 -0.0040945103056951974 0.009540496522097857 0 -0.0047267397525720279 0.010078226143836855 0 -0.0048694513353962016 0.0091299160970759047 0 -0.003827545217316626 0.0085078181938171016 0 -0.0040945103056951974 0.009540496522097857 0 -0.0048694513353962016 0.0091299160970759047 0 -0.0014436510932169071 0.0080864209411490428 0 -0.002104230383876915 0.0085530281384991556 0 -0.0022529187338104586 0.008149467907056963 0 -0.0014436510932169071 0.0080864209411490428 0 -0.0015027470502894961 0.0078708426641169466 0 -0.0022529187338104586 0.008149467907056963 0 -0.0030444471236541933 0.008366771395531436 0 -0.0022529187338104586 0.008149467907056963 0 -0.0026111310999843845 0.0088211783634645352 0 -0.0030444471236541933 0.008366771395531436 0 -0.0033441153876338169 0.0091171874403528797 0 -0.0026111310999843845 0.0088211783634645352 0 -0.002104230383876915 0.0085530281384991556 0 -0.0022529187338104586 0.008149467907056963 0 -0.0026111310999843845 0.0088211783634645352 0 -0.002104230383876915 0.0085530281384991556 0 -0.0026111310999843845 0.0088211783634645352 0 -0.0021203985244009518 0.0091878705016718194 0 -0.0033441153876338169 0.0091171874403528797 0 -0.0026111310999843845 0.0088211783634645352 0 -0.0027996630632007983 0.0098430902690411371 0 -0.0026111310999843845 0.0088211783634645352 0 -0.0021203985244009518 0.0091878705016718194 0 -0.0027996630632007983 0.0098430902690411371 0 -0.0013981375917013457 0.0082586043112216276 0 -0.0013684903733009173 0.0085765547166084897 0 -0.0014436510932169071 0.0080864209411490428 0 -0.0021203985244009518 0.0091878705016718194 0 -0.0018580837321461388 0.010420777342137569 0 -0.0014436510932169071 0.0080864209411490428 0 -0.00084559212597652906 0.0068487566924940024 0 -0.0014519837017351956 0.0072470969949871957 0 -0.0014436510932169071 0.0080864209411490428 0 -0.002104230383876915 0.0085530281384991556 0 -0.0021203985244009518 0.0091878705016718194 0 -0.00084559212597652906 0.0068487566924940024 0 -0.0014519837017351956 0.0072470969949871957 0 -0.0013457508583496424 0.0068023942621909615 0 -0.00084559212597652906 0.0068487566924940024 0 -0.0010195963516664091 0.0064795455208620728 0 -0.0013457508583496424 0.0068023942621909615 0 -0.0018580837321461388 0.010420777342137569 0 -0.0027996630632007983 0.0098430902690411371 0 -0.0027873630211573629 0.01105329473628873 0 -0.0021203985244009518 0.0091878705016718194 0 -0.0018580837321461388 0.010420777342137569 0 -0.0027996630632007983 0.0098430902690411371 0 -0.0018580837321461388 0.010420777342137569 0 -0.0027873630211573629 0.01105329473628873 0 -0.0026356264558614127 0.012412866308001968 0 -0.00084559212597652906 0.0068487566924940024 0 -0.0010195963516664091 0.0064795455208620728 0 -0.00049560417708614812 0.0060092918909638339 0 -0.0013684903733009173 0.0085765547166084897 0 -0.0015909621106676385 0.009747644487257779 0 -0.0010195963516664091 0.0064795455208620728 0 -0.0013457508583496424 0.0068023942621909615 0 -0.0015466942766779403 0.006483522281375333 0 -0.0010195963516664091 0.0064795455208620728 0 -0.0012974694802558933 0.0060225233671611558 0 -0.0015466942766779403 0.006483522281375333 0 -0.00050633043858908393 0.0059375389094710627 0 -0.00073535535939775996 0.0042554343501943143 0 -0.0047267397525720279 0.010078226143836855 0 -0.0040128890218179628 0.010392889081252198 0 -0.0044562583896739583 0.010933591988534844 0 -0.0040945103056951974 0.009540496522097857 0 -0.0047267397525720279 0.010078226143836855 0 -0.0040128890218179628 0.010392889081252198 0 -0.0027996630632007983 0.0098430902690411371 0 -0.0027873630211573629 0.01105329473628873 0 -0.0033556052961983447 0.010712801164540944 0 -0.0040128890218179628 0.010392889081252198 0 -0.0033556052961983447 0.010712801164540944 0 -0.0038391651788089571 0.011254254223061888 0 -0.0040128890218179628 0.010392889081252198 0 -0.0035227303294263278 0.0099508672728195538 0 -0.0033556052961983447 0.010712801164540944 0 -0.0040945103056951974 0.009540496522097857 0 -0.0040128890218179628 0.010392889081252198 0 -0.0035227303294263278 0.0099508672728195538 0 -0.0027996630632007983 0.0098430902690411371 0 -0.0035227303294263278 0.0099508672728195538 0 -0.0033556052961983447 0.010712801164540944 0 -0.0027873630211573629 0.01105329473628873 0 -0.0033209485075057733 0.011694819992675774 0 -0.0026356264558614127 0.012412866308001968 0 -0.0027873630211573629 0.01105329473628873 0 -0.0033556052961983447 0.010712801164540944 0 -0.0033209485075057733 0.011694819992675774 0 -0.0033209485075057733 0.011694819992675774 0 -0.0038391651788089571 0.011254254223061888 0 -0.0041108807004122064 0.012291779276248487 0 -0.0033556052961983447 0.010712801164540944 0 -0.0033209485075057733 0.011694819992675774 0 -0.0038391651788089571 0.011254254223061888 0 -0.0038391651788089571 0.011254254223061888 0 -0.0044562583896739583 0.010933591988534844 0 -0.0041108807004122064 0.012291779276248487 0 -0.0044562583896739583 0.010933591988534844 0 -0.0041108807004122064 0.012291779276248487 0 -0.0052809287910306757 0.01064131366770244 0 -0.0040128890218179628 0.010392889081252198 0 -0.0038391651788089571 0.011254254223061888 0 -0.0044562583896739583 0.010933591988534844 0 -0.0019666927407594819 0.014801815171747057 0 -0.0023966846475928982 0.01599975678830658 0 -0.0013419990101987518 0.016540188153783164 0 -0.0019666927407594819 0.014801815171747057 0 -0.00044615437484361024 0.014621925441852184 0 -0.0013419990101987518 0.016540188153783164 0 -0.0015909621106676385 0.009747644487257779 0 -0.002701995479984164 0.011638243132958481 0 -0.0046249566714427265 0.01281318399854019 0 -0.0041108807004122064 0.012291779276248487 0 -0.0026356264558614127 0.012412866308001968 0 -0.003463085713355104 0.01386843326132715 0 -0.0015909621106676385 0.009747644487257779 0 -0.0033209485075057733 0.011694819992675774 0 -0.0041108807004122064 0.012291779276248487 0 -0.0026356264558614127 0.012412866308001968 0 -0.0028681177826465065 0.0044732606113692718 0 -0.0021590673901658482 0.0058860107087220703 0 -0.0040956883517804894 0.0070437607881512487 0 -0.0010881456663654335 0.0042806868510150463 0 -0.0028681177826465065 0.0044732606113692718 0 -0.0021590673901658482 0.0058860107087220703 0 -0.0010195963516664091 0.0064795455208620728 0 -0.0012463987047777929 0.0060727725076263166 0 -0.00049560417708614812 0.0060092918909638339 0 -0.00073535535939775996 0.0042554343501943143 0 -0.0015909621106676385 0.009747644487257779 0 -0.0010881456663654335 0.0042806868510150463 0 -0.0021590673901658482 0.0058860107087220703 0 -0.00037002921437962003 0.0055366519525804694 0 -0.00073535535939775996 0.0042554343501943143 0 -0.0019581175368570472 -0.0030273813855115077 0 -0.0012974694802558933 0.0060225233671611558 0 -0.0021460045698116939 0.0061288329001967026 0 -0.0015466942766779403 0.006483522281375333 0 -0.00055539302589685308 0.00041642770618136537 0 -0.00086115976638059734 -0.00014180223609336711 0 -0.0013446231292860099 0.00047868047866820744 0 -0.00073535535939775996 0.0042554343501943143 0 -0.00077498089333303882 0.0004233920495066841 0 -0.0019581175368570472 -0.0030273813855115077 0 -0.00077498089333303882 0.0004233920495066841 0 0.00095764067980844071 -0.012027693919369224 0 -7.6218325874917878e-05 -0.010726900974970364 0 -0.00079581941320184049 -0.012283719414494465 0 -0.0025935698690683498 -0.010555184885260561 0 -7.6218325874917878e-05 -0.010726900974970364 0 -0.00079581941320184049 -0.012283719414494465 0 -0.0029445284334400509 -0.0026030475518224413 0 -0.00077498089333303882 0.0004233920495066841 0 -0.0023459069126732833 -0.012330314914344062 0 -0.0025935698690683498 -0.010555184885260561 0 -0.00079581941320184049 -0.012283719414494465 0 -0.003690306334669627 0.0052803435003223277 0 -0.0013570984913360981 0.005017752454012374 0 -0.0027898450657835847 0.0068278521203804171 0 -0.0021460045698116939 0.0061288329001967026 0 -0.0027898450657835847 0.0068278521203804171 0 -0.0022567342640099656 0.0070831589523585436 0 -0.00077498089333303882 0.0004233920495066841 0 -0.0035987177899044712 0.0082143324866484416 0 -0.0021460045698116939 0.0061288329001967026 0 -0.0022567342640099656 0.0070831589523585436 0 -0.0018025793864906274 0.0069767290011778669 0 -0.0018025793864906274 0.0069767290011778669 0 -0.0013457508583496424 0.0068023942621909615 0 -0.0015466942766779403 0.006483522281375333 0 -0.0018025793864906274 0.0069767290011778669 0 -0.0014519837017351956 0.0072470969949871957 0 -0.0013457508583496424 0.0068023942621909615 0 -0.0021460045698116939 0.0061288329001967026 0 -0.0018025793864906274 0.0069767290011778669 0 -0.0015466942766779403 0.006483522281375333 0 -0.0039729937948735977 0.022051500912571107 0 -0.0047305593613896782 0.022292195641404455 0 -0.0049575110480501909 0.022897646971957078 0 -0.0044213526242217541 0.021803911118671252 0 -0.0047305593613896782 0.022292195641404455 0 -0.005544605653700926 0.021911117028306008 0 -0.0051350219890096138 0.027596359625267967 0 -0.0036899358580563873 0.023510302818178484 0 -0.0047305593613896782 0.022292195641404455 0 -0.005544605653700926 0.021911117028306008 0 -0.0049575110480501909 0.022897646971957078 0 -0.0027614585762447846 0.027285946760418216 0 -0.0032295890793170379 0.029048721086945353 0 -0.0022210275499455292 0.029194593690930522 0 -0.0027614585762447846 0.027285946760418216 0 -0.0039763503034994452 0.028376334836877466 0 -0.0032295890793170379 0.029048721086945353 0 -0.0042705674105680902 0.022938708285074529 0 -0.0049218103920720428 0.020030741984332936 0 -0.0048852461737619399 0.010955738257488995 0 -0.0066976941303677536 0.012618413362463108 0 -0.0078493914578122298 0.011424392977291618 0 -0.0066976941303677536 0.012618413362463108 0 -0.0086504244820747745 0.012694311095213257 0 -0.0084911715794010797 0.014242096509043931 0 -0.0066976941303677536 0.012618413362463108 0 -0.0078493914578122298 0.011424392977291618 0 -0.0086504244820747745 0.012694311095213257 0 -0.0048852461737619399 0.010955738257488995 0 -0.0076729623602464752 0.0095329445375826449 0 -0.0075479820842476956 0.0097374928918130127 0 -0.0042705674105680902 0.022938708285074529 0 -0.0076172159507410476 0.015293629582259667 0 -0.0048852461737619399 0.010955738257488995 0 -0.0078493914578122298 0.011424392977291618 0 -0.0075479820842476956 0.0097374928918130127 0 -0.005544605653700926 0.021911117028306008 0 -0.0049575110480501909 0.022897646971957078 0 -0.0066631670511671012 0.02198111187728214 0 -0.0076729623602464752 0.0095329445375826449 0 -0.0075479820842476956 0.0097374928918130127 0 -0.0071195795467483497 0.0091405191747772237 0 -0.0067275424821515231 0.0095065630735901852 0 -0.0061641740420922348 0.0088249454664152249 0 -0.0061877757423007222 0.010334475932415961 0 -0.0076729623602464752 0.0095329445375826449 0 -0.0067275424821515231 0.0095065630735901852 0 -0.0071195795467483497 0.0091405191747772237 0 -0.0067275424821515231 0.0095065630735901852 0 -0.0071195795467483497 0.0091405191747772237 0 -0.0061641740420922348 0.0088249454664152249 0 -0.0071195795467483497 0.0091405191747772237 0 -0.006871402756070134 0.0082445151643795577 0 -0.0061641740420922348 0.0088249454664152249 0 -0.007554487500454476 0.0096438756040396669 0 -0.0082663759272825436 0.0099083621364796232 0 -0.0078493914578122298 0.011424392977291618 0 -0.0075479820842476956 0.0097374928918130127 0 -0.0094441553872733498 0.011531601978459826 0 -0.0075479820842476956 0.0097374928918130127 0 -0.0071195795467483497 0.0091405191747772237 0 -0.006871402756070134 0.0082445151643795577 0 -0.0078493914578122298 0.011424392977291618 0 -0.0086504244820747745 0.012694311095213257 0 -0.0094441553872733498 0.011531601978459826 0 -0.0086504244820747745 0.012694311095213257 0 -0.0094441553872733498 0.011531601978459826 0 -0.011283587838065169 0.013173768882998789 0 -0.0086504244820747745 0.012694311095213257 0 -0.011283587838065169 0.013173768882998789 0 -0.0084911715794010797 0.014242096509043931 0 -0.0082663759272825436 0.0099083621364796232 0 -0.006280204409216927 0.011085466433299872 0 -0.006871402756070134 0.0082445151643795577 0 -0.0057419213652416291 0.0078859775640186362 0 -0.0053895892670105666 0.0067055222539490139 0 -0.0057419213652416291 0.0078859775640186362 0 -0.0053895892670105666 0.0067055222539490139 0 -0.0048301664558938733 0.0080567221829517706 0 -0.0062084829237791074 0.0080279175079881592 0 -0.0059261235207517448 0.013361144474307803 0 -0.0048301664558938733 0.0080567221829517706 0 -0.0061641740420922348 0.0088249454664152249 0 -0.0048694513353962016 0.0091299160970759047 0 -0.0061641740420922348 0.0088249454664152249 0 -0.005492077097851971 0.0098463085109301695 0 -0.0063548379750965585 0.010855210481128431 0 -0.006871402756070134 0.0082445151643795577 0 -0.0057419213652416291 0.0078859775640186362 0 -0.0061641740420922348 0.0088249454664152249 0 -0.0057419213652416291 0.0078859775640186362 0 -0.0048301664558938733 0.0080567221829517706 0 -0.0061641740420922348 0.0088249454664152249 0 -0.0061641740420922348 0.0088249454664152249 0 -0.005492077097851971 0.0098463085109301695 0 -0.0048694513353962016 0.0091299160970759047 0 -0.0047267397525720279 0.010078226143836855 0 -0.005492077097851971 0.0098463085109301695 0 -0.0048694513353962016 0.0091299160970759047 0 -0.0041108807004122064 0.012291779276248487 0 -0.0052809287910306757 0.01064131366770244 0 -0.0063548379750965585 0.010855210481128431 0 -0.0046239471486784938 0.011800659121844781 0 -0.0059261235207517448 0.013361144474307803 0 -0.0047267397525720279 0.010078226143836855 0 -0.0044562583896739583 0.010933591988534844 0 -0.0052809287910306757 0.01064131366770244 0 -0.0047267397525720279 0.010078226143836855 0 -0.005492077097851971 0.0098463085109301695 0 -0.0052809287910306757 0.01064131366770244 0 -0.005492077097851971 0.0098463085109301695 0 -0.0052809287910306757 0.01064131366770244 0 -0.0063548379750965585 0.010855210481128431 0 -0.0059261235207517448 0.013361144474307803 0 -0.0049142812596654328 0.019693673499759506 0 -0.003463085713355104 0.01386843326132715 0 -0.0039446554095918848 0.018515179757657364 0 -0.0046249566714427265 0.01281318399854019 0 -0.0041108807004122064 0.012291779276248487 0 -0.0065350703912624057 0.011599289563013454 0 -0.0019666927407594819 0.014801815171747057 0 -0.0034784830132674189 0.014979812147894735 0 -0.0023966846475928982 0.01599975678830658 0 -0.0046249566714427265 0.01281318399854019 0 -0.0065350703912624057 0.011599289563013454 0 -0.0065424535094208034 0.012765474615829109 0 -0.0039446554095918848 0.018515179757657364 0 -0.0049142812596654328 0.019693673499759506 0 -0.0046249566714427265 0.01281318399854019 0 -0.0065490765257001397 0.013432868371152398 0 -0.0065424535094208034 0.012765474615829109 0 -0.0019979888345394914 0.022797434317500941 0 -0.0031377588855978876 0.023765236292725228 0 -0.0056497720555175185 0.02197345657852335 0 -0.0019408497310576586 0.023636694542968496 0 -0.0031377588855978876 0.023765236292725228 0 -0.0019469634447048128 0.026950364173565208 0 -0.0031377588855978876 0.023765236292725228 0 -0.0056993913429525707 0.024561631022376077 0 -0.004083531850478178 0.02561453558760524 0 -0.0020194240441423518 0.023442666198771677 0 -0.0019979888345394914 0.022797434317500941 0 -0.0031377588855978876 0.023765236292725228 0 -0.0039446554095918848 0.018515179757657364 0 -0.0031101335473933383 0.020718629830710059 0 -0.0049142812596654328 0.019693673499759506 0 -0.00652175577681984 0.020908641142433064 0 -0.0076172159507410476 0.015293629582259667 0 -0.0059261235207517448 0.013361144474307803 0 -0.0076729623602464752 0.0095329445375826449 0 -0.0067275424821515231 0.0095065630735901852 0 -0.0061877757423007222 0.010334475932415961 0 -0.0083224489656513068 0.021073659031045064 0 -0.0083110800026189834 0.020323657416269274 0 -0.0063868085034612049 0.021040645165702341 0 -0.0066631670511671012 0.02198111187728214 0 -0.0083224489656513068 0.021073659031045064 0 -0.0063868085034612049 0.021040645165702341 0 -0.005544605653700926 0.021911117028306008 0 -0.0066631670511671012 0.02198111187728214 0 -0.0063868085034612049 0.021040645165702341 0 -0.0056497720555175185 0.02197345657852335 0 -0.0056993913429525707 0.024561631022376077 0 -0.0082687563257940449 0.023524095409971284 0 -0.0031377588855978876 0.023765236292725228 0 -0.0056497720555175185 0.02197345657852335 0 -0.0056993913429525707 0.024561631022376077 0 -0.0056993913429525707 0.024561631022376077 0 -0.0082687563257940449 0.023524095409971284 0 -0.0089493681155613479 0.027530979491888201 0 -0.0092542356701823085 0.020922832810679737 0 -0.0056497720555175185 0.02197345657852335 0 -0.0082687563257940449 0.023524095409971284 0 -0.0044213526242217541 0.021803911118671252 0 -0.005544605653700926 0.021911117028306008 0 -0.0063868085034612049 0.021040645165702341 0 -0.0051350219890096138 0.027596359625267967 0 -0.00652175577681984 0.020908641142433064 0 -0.0075307455790520859 0.026953840773481758 0 -0.0020732145016465653 0.026318849320463161 0 -0.0038080653954166263 0.027588205926083284 0 -0.0047343373012983135 0.026100903710368713 0 -0.0014134261163396657 0.026717434692612629 0 -0.0075307455790520859 0.026953840773481758 0 -0.0045578569884799766 0.026117432015422982 0 -0.0056993913429525707 0.024561631022376077 0 -0.0089493681155613479 0.027530979491888201 0 -0.005497825099481519 0.027189217277862134 0 -0.0056993913429525707 0.024561631022376077 0 -0.005497825099481519 0.027189217277862134 0 -0.004083531850478178 0.02561453558760524 0 -0.0065457845147716505 0.024857346828584041 0 -0.0037552976470275022 0.024657165400974724 0 -0.0037551897554701352 0.02533273852966304 0 -0.0025087123333909092 0.027757308698040956 0 0.0020936218316962201 0.028286897899259797 0 -0.00026002450715201974 0.029514760074368235 0 -0.0038080653954166263 0.027588205926083284 0 -0.0014134261163396657 0.026717434692612629 0 -0.00098094900390575186 0.027907065695367682 0 -0.0032868440166674904 0.027649682336385015 0 0.00087878249907929811 0.028386969771412331 0 -0.0037551897554701352 0.02533273852966304 0 -0.0010469180238225509 0.024484602350771635 0 -0.0010489011517980766 0.025815894007983439 0 -0.0014134261163396657 0.026717434692612629 0 -0.00098094900390575186 0.027907065695367682 0 0.0017079476272671246 0.027270522088416738 0 0.00087878249907929811 0.028386969771412331 0 0.0031589212255233707 0.023916552471991922 0 -0.00098094900390575186 0.027907065695367682 0 0.0017079476272671246 0.027270522088416738 0 0.0017065889287102918 0.028243095262287878 0 -0.0020732145016465653 0.026318849320463161 0 -0.000103147938277377 0.022570878971555644 0 -0.005497825099481519 0.027189217277862134 0 -0.004083531850478178 0.02561453558760524 0 -0.0019469634447048128 0.026950364173565208 0 -0.0031377588855978876 0.023765236292725228 0 -0.004083531850478178 0.02561453558760524 0 -0.0019469634447048128 0.026950364173565208 0 -0.0037552976470275022 0.024657165400974724 0 -0.0037551897554701352 0.02533273852966304 0 -0.0010469180238225509 0.024484602350771635 0 -0.0045578569884799766 0.026117432015422982 0 -0.0021332516252319717 0.02287131234043658 0 -0.0034784830132674189 0.014979812147894735 0 -0.0034727025122558851 0.017075569643214369 0 -0.0030108494718382654 0.016556999297783391 0 -0.0034784830132674189 0.014979812147894735 0 -0.0030108494718382654 0.016556999297783391 0 -0.0023966846475928982 0.01599975678830658 0 -0.0039446554095918848 0.018515179757657364 0 -0.0021332516252319717 0.02287131234043658 0 -0.0034727025122558851 0.017075569643214369 0 -0.0029516419402587481 0.017048239109073299 0 -0.0029820185271082016 0.017501513097459277 0 -0.0034727025122558851 0.017075569643214369 0 -0.0029516419402587481 0.017048239109073299 0 -0.0030108494718382654 0.016556999297783391 0 -0.0030108494718382654 0.016556999297783391 0 -0.0023966846475928982 0.01599975678830658 0 -0.0024029381986060759 0.017062874084282524 0 -0.0029516419402587481 0.017048239109073299 0 -0.0030108494718382654 0.016556999297783391 0 -0.0024029381986060759 0.017062874084282524 0 -0.0029516419402587481 0.017048239109073299 0 -0.0024029381986060759 0.017062874084282524 0 -0.0029820185271082016 0.017501513097459277 0 -0.0024029381986060759 0.017062874084282524 0 -0.0029820185271082016 0.017501513097459277 0 -0.0022362348386024879 0.018432666262951369 0 -0.0029820185271082016 0.017501513097459277 0 -0.0034674116131315322 0.018211897458488387 0 -0.0022362348386024879 0.018432666262951369 0 -0.0021332516252319717 0.02287131234043658 0 -0.000103147938277377 0.022570878971555644 0 -0.0034727025122558851 0.017075569643214369 0 -0.0029820185271082016 0.017501513097459277 0 -0.0034674116131315322 0.018211897458488387 0 0.00063143353454723854 0.020226114368395848 0 -0.001366484205342956 0.018377778712174282 0 0.00064098403653063088 0.018704847368611464 0 -0.000103147938277377 0.022570878971555644 0 0.0031589212255233707 0.023916552471991922 0 -0.000103147938277377 0.022570878971555644 0 -0.0034304025143869102 0.01487043722402394 0 0.00063143353454723854 0.020226114368395848 0 -0.0019968730483213388 0.019682697973361699 0 -0.001366484205342956 0.018377778712174282 0 -0.0052970302907089581 0.0096375199516898803 0 -0.0056969428722365946 0.010477270427655767 0 -0.0045864829092568792 0.0097627872348608705 0 -0.0034304025143869102 0.01487043722402394 0 -0.0027388883321122688 0.01378869819736466 0 -0.010076994317946432 0.0008883326873743814 0 -0.01068890451205066 0.0022893296996537912 0 -0.00893251884736883 0.0011692832582279251 0 -0.0027388883321122688 0.01378869819736466 0 -0.0027414423394198279 0.01053272524794919 0 0.0060954006796857156 0.018775679503354327 0 0.0044330609511314002 0.019970986115206982 0 0.0047382034430959608 0.021677992275417973 0 0.0032488076105432816 0.018423035582505923 0 0.0044330609511314002 0.019970986115206982 0 0.0032410653991018119 0.022119692743480777 0 -0.0027388883321122688 0.01378869819736466 0 0.0031589212255233707 0.023916552471991922 0 0.0060954006796857156 0.018775679503354327 0 0.0032488076105432816 0.018423035582505923 0 0.0044330609511314002 0.019970986115206982 0 0.0067658228020552489 0.028836008223527606 0 0.0067766224771598511 0.03173922395106784 0 0.0057775098576735113 0.030318130838170747 0 0.0031589212255233707 0.023916552471991922 0 0.0049323396654140121 0.023170497993463875 0 0.0044330609511314002 0.019970986115206982 0 0.0032410653991018119 0.022119692743480777 0 0.0047382034430959608 0.021677992275417973 0 0.0049323396654140121 0.023170497993463875 0 -0.0027414423394198279 0.01053272524794919 0 -0.0099386522205007054 -0.00042058862415777132 0 -0.011910001951320382 0.001992300043248795 0 -0.008274234500230928 9.3055180996892166e-05 0 -0.0081881233769539388 -0.0018415126325872996 0 -0.0066149512128590663 -0.0019552280336878306 0 -0.0076086866608244168 -0.0013239123032281379 0 -0.010685580249651477 -0.0021048358176111921 0 -0.0099386522205007054 -0.00042058862415777132 0 -0.0077512613400735888 -0.0016475645298664454 0 -0.0087718026998315681 0.0045841146306568551 0 -0.0075990429831346729 -0.00106150343409458 0 -0.012948863434722275 0.014644460983022465 0 -0.013116916366170042 0.0076898384672434202 0 -0.016727683909602949 0.015829162141684894 0 -0.0099386522205007054 -0.00042058862415777132 0 -0.011910001951320382 0.001992300043248795 0 -0.011956111999529092 0.00035185549971321778 0 -0.0087718026998315681 0.0045841146306568551 0 -0.00314711486588511 0.0161993580067166 0 -0.010685580249651477 -0.0021048358176111921 0 -0.0099386522205007054 -0.00042058862415777132 0 -0.011956111999529092 0.00035185549971321778 0 -0.0027414423394198279 0.01053272524794919 0 -0.00314711486588511 0.0161993580067166 0 0.010350108266382857 0.029495293256340632 0 0.01047084423336753 0.033075645436156702 0 0.0086143667757136774 0.033295934818608285 0 0.0055089483560896426 0.013915632720974114 0 0.01348731505668084 0.011698885106239012 0 0.0054808199474828826 0.028610080814824895 0 0.0049323396654140121 0.023170497993463875 0 -0.00314711486588511 0.0161993580067166 0 0.010350108266382857 0.029495293256340632 0 0.0046818091879847618 0.034380616953049732 0 0.00013724848397094248 0.033814609787081229 0 0.0049323396654140121 0.023170497993463875 0 0.0017932661214258066 0.035611310335724143 0 0.0089630804608677363 0.036171714731607338 0 0.0046818091879847618 0.034380616953049732 0 0.0021491662682474686 0.038433262992981318 0 0.010350108266382857 0.029495293256340632 0 0.0086143667757136774 0.033295934818608285 0 0.0046818091879847618 0.034380616953049732 0 0.0086143667757136774 0.033295934818608285 0 0.0089630804608677363 0.036171714731607338 0 0.0046818091879847618 0.034380616953049732 0 0.01047084423336753 0.033075645436156702 0 0.0086143667757136774 0.033295934818608285 0 0.0089630804608677363 0.036171714731607338 0 -0.00314711486588511 0.0161993580067166 0 -0.0060147725183274858 0.010105497864686074 0 -0.0087718026998315681 0.0045841146306568551 0 -0.0060147725183274858 0.010105497864686074 0 0.0067766224771598511 0.03173922395106784 0 0.0042062205532793547 0.03114010601101716 0 0.00013724848397094248 0.033814609787081229 0 0.0020936218316962201 0.028286897899259797 0 0.0067658228020552489 0.028836008223527606 0 0.0042598257494679713 0.029941142308071281 0 0.0042062205532793547 0.03114010601101716 0 0.0042598257494679713 0.029941142308071281 0 0.0024560091262405396 0.031126071031103333 0 0.0067766224771598511 0.03173922395106784 0 0.0042062205532793547 0.03114010601101716 0 0.0057775098576735113 0.030318130838170747 0 0.0042062205532793547 0.03114010601101716 0 0.0057775098576735113 0.030318130838170747 0 0.0042598257494679713 0.029941142308071281 0 0.0067658228020552489 0.028836008223527606 0 0.0057775098576735113 0.030318130838170747 0 0.0042598257494679713 0.029941142308071281 0 0.0020936218316962201 0.028286897899259797 0 0.0042598257494679713 0.029941142308071281 0 0.0024560091262405396 0.031126071031103333 0 -0.00026002450715201974 0.029514760074368235 0 0.0024560091262405396 0.031126071031103333 0 -0.0030424826806464949 0.030911192456433326 0 0.0042062205532793547 0.03114010601101716 0 0.0024560091262405396 0.031126071031103333 0 0.00013724848397094248 0.033814609787081229 0 0.0020291205682954399 0.031132035109638957 0 -0.003081411995036535 0.031125052794187147 0 0.0024560091262405396 0.031126071031103333 0 -0.0017683531858425792 0.033073330054483256 0 -0.0036053126663995378 0.031191230676007726 0 0.0020936218316962201 0.028286897899259797 0 -0.00026002450715201974 0.029514760074368235 0 0.0024560091262405396 0.031126071031103333 0 0.0024560091262405396 0.031126071031103333 0 0.00013724848397094248 0.033814609787081229 0 -0.0017683531858425792 0.033073330054483256 0 0.0046818091879847618 0.034380616953049732 0 0.00013724848397094248 0.033814609787081229 0 0.0021491662682474686 0.038433262992981318 0 0.00013724848397094248 0.033814609787081229 0 -0.0012737102449603354 0.037431452320686759 0 0.0021491662682474686 0.038433262992981318 0 0.00013724848397094248 0.033814609787081229 0 -0.0017683531858425792 0.033073330054483256 0 -0.0034210592121758704 0.035872005006966322 0 0.00013724848397094248 0.033814609787081229 0 -0.0034210592121758704 0.035872005006966322 0 -0.0012737102449603354 0.037431452320686759 0 -0.0034210592121758704 0.035872005006966322 0 -0.0012737102449603354 0.037431452320686759 0 -0.0030339611148773433 0.037892406880287839 0 -0.0017683531858425792 0.033073330054483256 0 -0.0034210592121758704 0.035872005006966322 0 -0.0049065264391802412 0.033889820355249151 0 -0.0071044750434479569 0.035827522316227774 0 -0.0034210592121758704 0.035872005006966322 0 -0.0049065264391802412 0.033889820355249151 0 -0.0072565511792370297 0.033477189192755906 0 -0.0049065264391802412 0.033889820355249151 0 -0.0036053126663995378 0.031191230676007726 0 -0.0017683531858425792 0.033073330054483256 0 -0.0049065264391802412 0.033889820355249151 0 -0.0036053126663995378 0.031191230676007726 0 -0.0025087123333909092 0.027757308698040956 0 -0.00026002450715201974 0.029514760074368235 0 -0.0030424826806464949 0.030911192456433326 0 -0.0049188548974761232 0.029038335205746564 0 -0.0025087123333909092 0.027757308698040956 0 -0.0030424826806464949 0.030911192456433326 0 -0.0038543002844891238 -0.00040713315948070583 0 -0.0056043132979790543 -0.00072953045088400108 0 -0.0071594926183582482 0.00087512289260750309 0 -0.0046435703975179245 -0.0015514722303230141 0 -0.0038124810727785756 -0.00092543272269590422 0 -0.0039388378296144775 -0.0024086552447021461 0 -0.0046435703975179245 -0.0015514722303230141 0 -0.0038543002844891238 -0.00040713315948070583 0 -0.0056043132979790543 -0.00072953045088400108 0 -0.0046435703975179245 -0.0015514722303230141 0 -0.0038124810727785756 -0.00092543272269590422 0 -0.0038543002844891238 -0.00040713315948070583 0 -0.0048948996232093768 -0.0034509496192830567 0 -0.0048540371494612761 -0.0057018468542941146 0 -0.0048540371494612761 -0.0057018468542941146 0 -0.0060299873071735103 -0.011159718656360149 0 -0.0010349926599905242 -0.015620502536814788 0 -0.0019682571536791308 -0.013766805330192068 0 -2.5728153675466089e-05 -0.013838916256122767 0 -0.0038124810727785756 -0.00092543272269590422 0 -0.0038682675692260238 -0.0005226851909794568 0 -0.0030520239635418093 -0.00075694931468535387 0 -0.0038124810727785756 -0.00092543272269590422 0 -0.0030520239635418093 -0.00075694931468535387 0 -0.0039388378296144775 -0.0024086552447021461 0 -0.0060299873071735103 -0.011159718656360149 0 -0.0020055076954955571 -0.0081012817843292093 0 -0.00079581941320184049 -0.012283719414494465 0 -0.0019682571536791308 -0.013766805330192068 0 -2.5728153675466089e-05 -0.013838916256122767 0 -0.0023459069126732833 -0.012330314914344062 0 -0.00079581941320184049 -0.012283719414494465 0 -0.0019682571536791308 -0.013766805330192068 0 -0.0049254716598266081 -0.0041969900837182149 0 -0.0046435703975179245 -0.0015514722303230141 0 -0.0039388378296144775 -0.0024086552447021461 0 -0.0049254716598266081 -0.0041969900837182149 0 -0.0046435703975179245 -0.0015514722303230141 0 -0.0068074350156154245 -0.0018465139370039776 0 -0.0019581175368570472 -0.0030273813855115077 0 -0.0020055076954955571 -0.0081012817843292093 0 0.00095764067980844071 -0.012027693919369224 0 -0.00079581941320184049 -0.012283719414494465 0 -2.5728153675466089e-05 -0.013838916256122767 0 -0.0021590673901658482 0.0058860107087220703 0 -0.0040956883517804894 0.0070437607881512487 0 -0.0023756146122835635 0.0081092233728743603 0 -0.0019581175368570472 -0.0030273813855115077 0 -0.0048066829161372048 0.0038817533110397694 0 -0.0021590673901658482 0.0058860107087220703 0 -0.00037002921437962003 0.0055366519525804694 0 -0.0023756146122835635 0.0081092233728743603 0 -0.0023966846475928982 0.01599975678830658 0 -0.0024029381986060759 0.017062874084282524 0 -0.0013419990101987518 0.016540188153783164 0 -0.0040956883517804894 0.0070437607881512487 0 -0.0040515378051886822 0.0088874692483715736 0 -0.0023756146122835635 0.0081092233728743603 0 -0.0034304025143869102 0.01487043722402394 0 -0.002701995479984164 0.011638243132958481 0 -0.0024029381986060759 0.017062874084282524 0 -0.0022362348386024879 0.018432666262951369 0 -0.0013419990101987518 0.016540188153783164 0 -0.0068074350156154245 -0.0018465139370039776 0 -0.0071594926183582482 0.00087512289260750309 0 -0.0087602104138542868 0.00087717945434964153 0 -0.0048066829161372048 0.0038817533110397694 0 -0.0074149314670761933 0.004855044331621294 0 -0.0040515378051886822 0.0088874692483715736 0 -0.0023756146122835635 0.0081092233728743603 0 -0.0043827713883624374 0.010666282766899286 0 -0.0053142579536419573 0.009631699687243131 0 -0.0040956883517804894 0.0070437607881512487 0 -0.0040515378051886822 0.0088874692483715736 0 -0.0053142579536419573 0.009631699687243131 0 -0.0040515378051886822 0.0088874692483715736 0 -0.0045864829092568792 0.0097627872348608705 0 -0.0040515378051886822 0.0088874692483715736 0 -0.0045864829092568792 0.0097627872348608705 0 -0.0043827713883624374 0.010666282766899286 0 -0.0034304025143869102 0.01487043722402394 0 -0.004767497277933996 0.01335490963833382 0 -0.0046435703975179245 -0.0015514722303230141 0 -0.0068074350156154245 -0.0018465139370039776 0 -0.0056043132979790543 -0.00072953045088400108 0 -0.0068074350156154245 -0.0018465139370039776 0 -0.0056043132979790543 -0.00072953045088400108 0 -0.0071594926183582482 0.00087512289260750309 0 -0.0060828949688085266 -0.0033890093682969451 0 -0.0077512613400735888 -0.0016475645298664454 0 -0.0056425476430488663 -0.0019694875553112165 0 -0.0060828949688085266 -0.0033890093682969451 0 -0.0056425476430488663 -0.0019694875553112165 0 -0.0050698836394246953 -0.0027353915333272537 0 -0.01068890451205066 0.0022893296996537912 0 -0.0071594926183582482 0.00087512289260750309 0 -0.00893251884736883 0.0011692832582279251 0 -0.0027414423394198279 0.01053272524794919 0 -0.0080335754154983816 -0.0019753155218566426 0 -0.010685580249651477 -0.0021048358176111921 0 -0.0060828949688085266 -0.0033890093682969451 0 -0.0077512613400735888 -0.0016475645298664454 0 -0.010076994317946432 0.0008883326873743814 0 -0.0087579545073059976 0.00095263876245016118 0 -0.00893251884736883 0.0011692832582279251 0 -0.0056969428722365946 0.010477270427655767 0 -0.0045864829092568792 0.0097627872348608705 0 -0.0043827713883624374 0.010666282766899286 0 -0.0027388883321122688 0.01378869819736466 0 -0.0074149314670761933 0.004855044331621294 0 -0.0074149314670761933 0.004855044331621294 0 -0.0073252806057625165 0.004491020709417877 0 -0.0071594926183582482 0.00087512289260750309 0 -0.0087602104138542868 0.00087717945434964153 0 -0.00893251884736883 0.0011692832582279251 0 -0.0066149512128590663 -0.0019552280336878306 0 -0.0056425476430488663 -0.0019694875553112165 0 -0.0063541438056877323 -0.0013508637716481021 0 -0.0075990429831346729 -0.00106150343409458 0 -0.0058788819736464281 -0.0017333707199179286 0 -0.0077512613400735888 -0.0016475645298664454 0 -0.008274234500230928 9.3055180996892166e-05 0 -0.0056425476430488663 -0.0019694875553112165 0 -0.0099386522205007054 -0.00042058862415777132 0 -0.0077512613400735888 -0.0016475645298664454 0 -0.008274234500230928 9.3055180996892166e-05 0 -0.0056425476430488663 -0.0019694875553112165 0 -0.0046061979521628393 -0.0020921955118891763 0 -0.0051690217720412792 -0.0015420501500385195 0 -0.0056425476430488663 -0.0019694875553112165 0 -0.0046061979521628393 -0.0020921955118891763 0 -0.0050698836394246953 -0.0027353915333272537 0 -0.0099717248168838517 -0.014015601948302312 0 -0.010232004723399604 -0.01303421292475737 0 -0.0097442977138281449 -0.013593065487371105 0 -0.0048540371494612761 -0.0057018468542941146 0 -0.0076934159546400141 -0.0082764442945517519 0 -0.0048540371494612761 -0.0057018468542941146 0 -0.0080335754154983816 -0.0019753155218566426 0 -0.004231476141555039 -0.0036227705317591337 0 -0.0046061979521628393 -0.0020921955118891763 0 -0.0050698836394246953 -0.0027353915333272537 0 -0.004231476141555039 -0.0036227705317591337 0 -0.0060828949688085266 -0.0033890093682969451 0 -0.0050698836394246953 -0.0027353915333272537 0 -0.009251016949706722 -0.013423949125732033 0 -0.0097481231193555021 -0.014061167425002862 0 -0.0097442977138281449 -0.013593065487371105 0 -0.0099717248168838517 -0.014015601948302312 0 -0.0097481231193555021 -0.014061167425002862 0 -0.0097442977138281449 -0.013593065487371105 0 -0.0092470239305692155 -0.014899606388113364 0 -0.0060299873071735103 -0.011159718656360149 0 -0.009251016949706722 -0.013423949125732033 0 -0.010232004723399604 -0.01303421292475737 0 -0.0095376094397444083 -0.01282929918137788 0 -0.009251016949706722 -0.013423949125732033 0 -0.010232004723399604 -0.01303421292475737 0 -0.0097442977138281449 -0.013593065487371105 0 -0.010791694801036684 -0.011667207856118512 0 -0.010127078100820556 -0.011106586438042321 0 -0.0092149831646498696 -0.012133227323142386 0 -0.0095376094397444083 -0.01282929918137788 0 -0.010791694801036684 -0.011667207856118512 0 -0.0092149831646498696 -0.012133227323142386 0 -0.0076934159546400141 -0.0082764442945517519 0 -0.0076751254640693781 -0.0059007550092910668 0 -0.010232004723399604 -0.01303421292475737 0 -0.0095376094397444083 -0.01282929918137788 0 -0.010791694801036684 -0.011667207856118512 0 -0.0046061979521628393 -0.0020921955118891763 0 -0.0046304262991002376 -0.00086989668563115883 0 -0.0051690217720412792 -0.0015420501500385195 0 -0.0056425476430488663 -0.0019694875553112165 0 -0.005753893232039984 -0.0011635585475613273 0 -0.0063541438056877323 -0.0013508637716481021 0 -0.0056425476430488663 -0.0019694875553112165 0 -0.0051690217720412792 -0.0015420501500385195 0 -0.005753893232039984 -0.0011635585475613273 0 -0.0046304262991002376 -0.00086989668563115883 0 -0.0051690217720412792 -0.0015420501500385195 0 -0.005753893232039984 -0.0011635585475613273 0 -0.0063541438056877323 -0.0013508637716481021 0 -0.0069890126365057502 -0.00070250939575495434 0 -0.0070680011891569973 -0.0012201225976290226 0 -0.0066149512128590663 -0.0019552280336878306 0 -0.0063541438056877323 -0.0013508637716481021 0 -0.0070680011891569973 -0.0012201225976290226 0 -0.005753893232039984 -0.0011635585475613273 0 -0.0063541438056877323 -0.0013508637716481021 0 -0.0064432455116303312 -0.0006628925539697429 0 -0.0064432455116303312 -0.0006628925539697429 0 -0.0069890126365057502 -0.00070250939575495434 0 -0.0069729467709616052 -0.00016676335758946368 0 -0.0063541438056877323 -0.0013508637716481021 0 -0.0064432455116303312 -0.0006628925539697429 0 -0.0069890126365057502 -0.00070250939575495434 0 -0.005753893232039984 -0.0011635585475613273 0 -0.0064432455116303312 -0.0006628925539697429 0 -0.0060575717466457403 -9.5353873612980032e-05 0 -0.0064432455116303312 -0.0006628925539697429 0 -0.0069729467709616052 -0.00016676335758946368 0 -0.0060575717466457403 -9.5353873612980032e-05 0 -0.0069729467709616052 -0.00016676335758946368 0 -0.0060575717466457403 -9.5353873612980032e-05 0 -0.0070812658126003132 0.00037339572186713762 0 -0.0046304262991002376 -0.00086989668563115883 0 -0.005753893232039984 -0.0011635585475613273 0 -0.0060575717466457403 -9.5353873612980032e-05 0 -0.0046304262991002376 -0.00086989668563115883 0 -0.0060575717466457403 -9.5353873612980032e-05 0 -0.0047266541689996548 0.0011625343598207292 0 -0.0060575717466457403 -9.5353873612980032e-05 0 -0.0065790930484585283 0.00095089983413585496 0 -0.0047266541689996548 0.0011625343598207292 0 -0.0065790930484585283 0.00095089983413585496 0 -0.0070812658126003132 0.00037339572186713762 0 -0.0074708052826306147 0.0013046388707219181 0 -0.0060575717466457403 -9.5353873612980032e-05 0 -0.0065790930484585283 0.00095089983413585496 0 -0.0070812658126003132 0.00037339572186713762 0 -0.0065790930484585283 0.00095089983413585496 0 -0.0064189433863655471 0.0019479416114646579 0 -0.0074708052826306147 0.0013046388707219181 0 -0.0065790930484585283 0.00095089983413585496 0 -0.0064189433863655471 0.0019479416114646579 0 -0.0047266541689996548 0.0011625343598207292 0 -0.0064189433863655471 0.0019479416114646579 0 -0.0047266541689996548 0.0011625343598207292 0 -0.0061893018168294447 0.0031084320787428538 0 -0.011408951159345163 -0.0099196697076309702 0 -0.010022697293161959 -0.010250358594145782 0 -0.010127078100820556 -0.011106586438042321 0 -0.011408951159345163 -0.0099196697076309702 0 -0.010022697293161959 -0.010250358594145782 0 -0.010640814649519742 -0.0091769179962538725 0 -0.010022697293161959 -0.010250358594145782 0 -0.0096842625407485214 -0.009345300441069895 0 -0.010640814649519742 -0.0091769179962538725 0 -0.010022697293161959 -0.010250358594145782 0 -0.0096842625407485214 -0.009345300441069895 0 -0.0090540801535023367 -0.010348838482671681 0 -0.010022697293161959 -0.010250358594145782 0 -0.0090540801535023367 -0.010348838482671681 0 -0.0092254628357738497 -0.011207534174503524 0 -0.010127078100820556 -0.011106586438042321 0 -0.0092254628357738497 -0.011207534174503524 0 -0.0092149831646498696 -0.012133227323142386 0 -0.010022697293161959 -0.010250358594145782 0 -0.010127078100820556 -0.011106586438042321 0 -0.0092254628357738497 -0.011207534174503524 0 -0.0076751254640693781 -0.0059007550092910668 0 -0.0082117405890312824 -0.0051754721487694754 0 -0.010791694801036684 -0.011667207856118512 0 -0.011408951159345163 -0.0099196697076309702 0 -0.010127078100820556 -0.011106586438042321 0 -0.014193749985497953 0.0032738788409204639 0 -0.013868559173130571 0.00012874159783179601 0 -0.011934190639823759 0.0015819379728157247 0 -0.014193749985497953 0.0032738788409204639 0 -0.011934190639823759 0.0015819379728157247 0 -0.012646561624879581 0.004537592908836441 0 -0.016793410663126829 0.0037845344830889391 0 -0.014193749985497953 0.0032738788409204639 0 -0.013868559173130571 0.00012874159783179601 0 -0.0057959811213596319 0.038480077180185701 0 -0.0034499681361699753 0.040133566588671857 0 -0.0038952332026959626 0.039108631219289126 0 -0.0057959811213596319 0.038480077180185701 0 -0.0038952332026959626 0.039108631219289126 0 -0.0030339611148773433 0.037892406880287839 0 -0.0057959811213596319 0.038480077180185701 0 -0.0034210592121758704 0.035872005006966322 0 -0.0030339611148773433 0.037892406880287839 0 -0.0034499681361699753 0.040133566588671857 0 -0.0038952332026959626 0.039108631219289126 0 -0.0030339611148773433 0.037892406880287839 0 -0.0034499681361699753 0.040133566588671857 0 -0.0012737102449603354 0.037431452320686759 0 -0.0030339611148773433 0.037892406880287839 0 -0.013868559173130571 0.00012874159783179601 0 -0.011031838944363097 -0.00063495923778292696 0 -0.011934190639823759 0.0015819379728157247 0 -0.0034499681361699753 0.040133566588671857 0 -0.0012737102449603354 0.037431452320686759 0 0.0021491662682474686 0.038433262992981318 0 -0.0068503824217590386 0.019230099482017694 0 -0.0040280626345527218 0.019159546556445053 0 -0.011031838944363097 -0.00063495923778292696 0 -0.011934190639823759 0.0015819379728157247 0 -0.0098103453846184047 0.00040469559264318529 0 -0.011934190639823759 0.0015819379728157247 0 -0.0098344026649481962 0.0024269109215633252 0 -0.012646561624879581 0.004537592908836441 0 -0.011934190639823759 0.0015819379728157247 0 -0.0098344026649481962 0.0024269109215633252 0 -0.0098103453846184047 0.00040469559264318529 0 -0.0098344026649481962 0.0024269109215633252 0 -0.0075387808724542722 -9.7806404940815205e-05 0 -0.0083408254789041035 0.00042252923265031394 0 -0.0094197342144293882 0.0014503182489963109 0 -0.0077172725581252455 0.00012271965608437883 0 -0.0098344026649481962 0.0024269109215633252 0 -0.0098103453846184047 0.00040469559264318529 0 -0.0083408254789041035 0.00042252923265031394 0 -0.011031838944363097 -0.00063495923778292696 0 -0.0098103453846184047 0.00040469559264318529 0 -0.0090434687823304008 -0.00071529734127025548 0 -0.0088579994309398394 -0.0010496442005260053 0 -0.011031838944363097 -0.00063495923778292696 0 -0.0090434687823304008 -0.00071529734127025548 0 -0.0060147725183274858 0.010105497864686074 0 -0.0040280626345527218 0.019159546556445053 0 -0.0087918655055271803 -0.00096700298997722 0 -0.0090434687823304008 -0.00071529734127025548 0 -0.0089326882564091416 -0.00018826176207290731 0 -0.0087918655055271803 -0.00096700298997722 0 -0.0090017586890592648 -0.00089239835843310045 0 -0.0090434687823304008 -0.00071529734127025548 0 -0.0060147725183274858 0.010105497864686074 0 -0.0053795326638576262 0.0066841187130923978 0 -0.0098103453846184047 0.00040469559264318529 0 -0.0090434687823304008 -0.00071529734127025548 0 -0.0089326882564091416 -0.00018826176207290731 0 -0.0098103453846184047 0.00040469559264318529 0 -0.0089326882564091416 -0.00018826176207290731 0 -0.0083408254789041035 0.00042252923265031394 0 -0.007800238366951347 -0.00068789373597126383 0 -0.0075387808724542722 -9.7806404940815205e-05 0 -0.0083408254789041035 0.00042252923265031394 0 -0.0087918655055271803 -0.00096700298997722 0 -0.0089326882564091416 -0.00018826176207290731 0 -0.0083408254789041035 0.00042252923265031394 0 -0.0081881233769539388 -0.0018415126325872996 0 -0.007800238366951347 -0.00068789373597126383 0 -0.0083408254789041035 0.00042252923265031394 0 -0.0087718026998315681 0.0045841146306568551 0 -0.0083496723362010833 -0.0019090738390579768 0 -0.0081881233769539388 -0.0018415126325872996 0 -0.007800238366951347 -0.00068789373597126383 0 -0.0076086866608244168 -0.0013239123032281379 0 -0.0066149512128590663 -0.0019552280336878306 0 -0.0076086866608244168 -0.0013239123032281379 0 -0.0070680011891569973 -0.0012201225976290226 0 -0.0076086866608244168 -0.0013239123032281379 0 -0.0070680011891569973 -0.0012201225976290226 0 -0.007437394302445461 -0.0007156185340064016 0 -0.007800238366951347 -0.00068789373597126383 0 -0.0076086866608244168 -0.0013239123032281379 0 -0.007437394302445461 -0.0007156185340064016 0 -0.0069890126365057502 -0.00070250939575495434 0 -0.0070680011891569973 -0.0012201225976290226 0 -0.007437394302445461 -0.0007156185340064016 0 -0.007800238366951347 -0.00068789373597126383 0 -0.007437394302445461 -0.0007156185340064016 0 -0.0075387808724542722 -9.7806404940815205e-05 0 -0.0069890126365057502 -0.00070250939575495434 0 -0.007437394302445461 -0.0007156185340064016 0 -0.0075387808724542722 -9.7806404940815205e-05 0 -0.0090155521447926306 0.00052442848525865082 0 -0.0075387808724542722 -9.7806404940815205e-05 0 -0.0079086944375570262 0.00068127765374569418 0 -0.0069890126365057502 -0.00070250939575495434 0 -0.0069729467709616052 -0.00016676335758946368 0 -0.0075387808724542722 -9.7806404940815205e-05 0 -0.0069729467709616052 -0.00016676335758946368 0 -0.0075387808724542722 -9.7806404940815205e-05 0 -0.0070812658126003132 0.00037339572186713762 0 -0.0075387808724542722 -9.7806404940815205e-05 0 -0.0070812658126003132 0.00037339572186713762 0 -0.0079086944375570262 0.00068127765374569418 0 -0.0070812658126003132 0.00037339572186713762 0 -0.0079086944375570262 0.00068127765374569418 0 -0.0074708052826306147 0.0013046388707219181 0 -0.0079086944375570262 0.00068127765374569418 0 -0.0074708052826306147 0.0013046388707219181 0 -0.0085935495903931621 0.001568742058797516 0 -0.0074708052826306147 0.0013046388707219181 0 -0.0080265755363474588 0.0023893321321429382 0 -0.0085935495903931621 0.001568742058797516 0 -0.0064189433863655471 0.0019479416114646579 0 -0.0080265755363474588 0.0023893321321429382 0 -0.0074649774265961692 0.0033647147287346191 0 -0.0064189433863655471 0.0019479416114646579 0 -0.0074708052826306147 0.0013046388707219181 0 -0.0080265755363474588 0.0023893321321429382 0 -0.0080265755363474588 0.0023893321321429382 0 -0.0094550400866129144 0.0027984658663043754 0 -0.0088314536531415369 0.0035971832687838106 0 -0.0080265755363474588 0.0023893321321429382 0 -0.0094550400866129144 0.0027984658663043754 0 -0.0085935495903931621 0.001568742058797516 0 -0.0090155521447926306 0.00052442848525865082 0 -0.0079086944375570262 0.00068127765374569418 0 -0.0085935495903931621 0.001568742058797516 0 -0.0090155521447926306 0.00052442848525865082 0 -0.0085935495903931621 0.001568742058797516 0 -0.010595282785609507 0.0017633827482960681 0 -0.0094197342144293882 0.0014503182489963109 0 -0.011728211580552927 0.0032627029612582042 0 -0.0094550400866129144 0.0027984658663043754 0 -0.0085935495903931621 0.001568742058797516 0 -0.010595282785609507 0.0017633827482960681 0 -0.0094550400866129144 0.0027984658663043754 0 -0.010664204399047817 0.003490073083777565 0 -0.010595282785609507 0.0017633827482960681 0 -0.0094550400866129144 0.0027984658663043754 0 -0.010664204399047817 0.003490073083777565 0 -0.0098681954610447403 0.0037988656547720116 0 -0.011736352347335173 0.0030623613534195393 0 -0.010664204399047817 0.003490073083777565 0 -0.011300409872460723 0.0043962904203578256 0 -0.011736352347335173 0.0030623613534195393 0 -0.010664204399047817 0.003490073083777565 0 -0.010595282785609507 0.0017633827482960681 0 -0.013339100014162721 0.0040297717080560111 0 -0.011728211580552927 0.0032627029612582042 0 -0.015785876855345746 0.0065909517906464106 0 -0.014193749985497953 0.0032738788409204639 0 -0.012646561624879581 0.004537592908836441 0 -0.010556414275655866 0.0047011010314588391 0 -0.01017315624853082 0.0057308318281059159 0 -0.011234067529337975 0.0056808479299610979 0 -0.011300409872460723 0.0043962904203578256 0 -0.010556414275655866 0.0047011010314588391 0 -0.011234067529337975 0.0056808479299610979 0 -0.010664204399047817 0.003490073083777565 0 -0.011300409872460723 0.0043962904203578256 0 -0.010556414275655866 0.0047011010314588391 0 -0.010664204399047817 0.003490073083777565 0 -0.0098681954610447403 0.0037988656547720116 0 -0.010556414275655866 0.0047011010314588391 0 -0.0098681954610447403 0.0037988656547720116 0 -0.0099510514921373246 0.0048243178705844785 0 -0.010556414275655866 0.0047011010314588391 0 -0.0099510514921373246 0.0048243178705844785 0 -0.010556414275655866 0.0047011010314588391 0 -0.01017315624853082 0.0057308318281059159 0 -0.010199913317303515 0.0052183986453694653 0 -0.010462244438150175 0.0055536343940351934 0 -0.0099510514921373246 0.0048243178705844785 0 -0.0092628168813300143 0.0062806431130054841 0 -0.011290489215127436 0.0065243482624802313 0 -0.0099510514921373246 0.0048243178705844785 0 -0.0083293828672464168 0.0048538750686748146 0 -0.0092628168813300143 0.0062806431130054841 0 -0.0083293828672464168 0.0048538750686748146 0 -0.0076680455815091942 0.0062258015666039447 0 -0.0092628168813300143 0.0062806431130054841 0 -0.0099510514921373246 0.0048243178705844785 0 -0.0088314536531415369 0.0035971832687838106 0 -0.0083293828672464168 0.0048538750686748146 0 -0.0098681954610447403 0.0037988656547720116 0 -0.0099510514921373246 0.0048243178705844785 0 -0.0088314536531415369 0.0035971832687838106 0 -0.0094550400866129144 0.0027984658663043754 0 -0.0098681954610447403 0.0037988656547720116 0 -0.0088314536531415369 0.0035971832687838106 0 -0.0074649774265961692 0.0033647147287346191 0 -0.0083293828672464168 0.0048538750686748146 0 -0.0068558781636324584 0.0051597803699372467 0 -0.0080265755363474588 0.0023893321321429382 0 -0.0088314536531415369 0.0035971832687838106 0 -0.0074649774265961692 0.0033647147287346191 0 -0.0088314536531415369 0.0035971832687838106 0 -0.0074649774265961692 0.0033647147287346191 0 -0.0083293828672464168 0.0048538750686748146 0 -0.0083293828672464168 0.0048538750686748146 0 -0.0076680455815091942 0.0062258015666039447 0 -0.0068558781636324584 0.0051597803699372467 0 -0.0076680455815091942 0.0062258015666039447 0 -0.0084466251721457865 0.0077846021361925866 0 -0.0065508437562298606 0.0074891543770275269 0 -0.0074086103320839683 0.0087757590781768254 0 -0.0084466251721457865 0.0077846021361925866 0 -0.0065508437562298606 0.0074891543770275269 0 -0.0074086103320839683 0.0087757590781768254 0 -0.0096417161374092245 0.0096708285837379306 0 -0.0084466251721457865 0.0077846021361925866 0 -0.0072572788779873701 0.0085246794495741681 0 -0.0090756555278717638 0.0088850502441108793 0 -0.0096417161374092245 0.0096708285837379306 0 -0.0084466251721457865 0.0077846021361925866 0 -0.010470845839838674 0.0081190239376727376 0 -0.0084466251721457865 0.0077846021361925866 0 -0.0092628168813300143 0.0062806431130054841 0 -0.010470845839838674 0.0081190239376727376 0 -0.0076680455815091942 0.0062258015666039447 0 -0.0084466251721457865 0.0077846021361925866 0 -0.0092628168813300143 0.0062806431130054841 0 -0.0092628168813300143 0.0062806431130054841 0 -0.011290489215127436 0.0065243482624802313 0 -0.010470845839838674 0.0081190239376727376 0 -0.011290489215127436 0.0065243482624802313 0 -0.010470845839838674 0.0081190239376727376 0 -0.012839697499003681 0.0092899109532729087 0 -0.010462244438150175 0.0055536343940351934 0 -0.011319289003566662 0.012524033686272888 0 -0.0090756555278717638 0.0088850502441108793 0 -0.011421878156907588 0.014810789767915536 0 -0.0082614933144839961 0.0085493269026877174 0 -0.0095433516280861302 0.0089175220783646574 0 -0.008884641070546569 0.0094216464572170859 0 -0.0096417161374092245 0.0096708285837379306 0 -0.010470845839838674 0.0081190239376727376 0 -0.012541038182365721 0.009763794555855897 0 -0.0096417161374092245 0.0096708285837379306 0 -0.012541038182365721 0.009763794555855897 0 -0.013336035190396476 0.010815645174874537 0 -0.012541038182365721 0.009763794555855897 0 -0.012940685792851635 0.0096230504658451881 0 -0.013336035190396476 0.010815645174874537 0 -0.011319289003566662 0.012524033686272888 0 -0.011421878156907588 0.014810789767915536 0 -0.010470845839838674 0.0081190239376727376 0 -0.012541038182365721 0.009763794555855897 0 -0.012839697499003681 0.0092899109532729087 0 -0.011711404618336842 0.01197180785371987 0 -0.011319289003566662 0.012524033686272888 0 -0.014553757643395176 0.021960572462612658 0 -0.013351177897673544 0.020982335331882641 0 -0.013946411319138255 0.021213076229447233 0 -0.012101488744398431 0.019813339223415608 0 -0.010077456410855347 0.019214890026216007 0 -0.011094419519612372 0.020068394727713115 0 -0.013304407843785939 0.020799834415999571 0 -0.013351177897673544 0.020982335331882641 0 -0.013946411319138255 0.021213076229447233 0 -0.013374960370100917 0.021392006361697885 0 -0.011421878156907588 0.014810789767915536 0 -0.011319289003566662 0.012524033686272888 0 -0.012630414205655078 0.013479706733325072 0 -0.013304407843785939 0.020799834415999571 0 -0.013946411319138255 0.021213076229447233 0 -0.014088642689930798 0.020987882633231241 0 -0.01017315624853082 0.0057308318281059159 0 -0.010498898696461274 0.0066465449856735687 0 -0.011234067529337975 0.0056808479299610979 0 -0.0085325447745503297 -0.00064441901052175266 0 -0.0070737273334046964 0.00121566838782054 0 -0.0060294832218987368 0.0066260818699885888 0 -0.0050674661460160903 0.0067950427264400785 0 -0.0055382896632341309 0.0059509315112460451 0 -0.010356622649089655 -0.0074259121765254026 0 -0.010274577957950292 -0.008382928952072103 0 -0.011838197408344757 -0.00774148069489049 0 -0.010356622649089655 -0.0074259121765254026 0 -0.0086608068820701999 -0.006752387034579809 0 -0.0091918988988628197 -0.0082615105284446506 0 -0.0085325447745503297 -0.00064441901052175266 0 -0.0080336307591676679 0.00065867495730598789 0 -0.010356622649089655 -0.0074259121765254026 0 -0.010274577957950292 -0.008382928952072103 0 -0.0091918988988628197 -0.0082615105284446506 0 -0.010274577957950292 -0.008382928952072103 0 -0.0096842625407485214 -0.009345300441069895 0 -0.0091918988988628197 -0.0082615105284446506 0 -0.010274577957950292 -0.008382928952072103 0 -0.0096842625407485214 -0.009345300441069895 0 -0.010640814649519742 -0.0091769179962538725 0 -0.011408951159345163 -0.0099196697076309702 0 -0.010640814649519742 -0.0091769179962538725 0 -0.011838197408344757 -0.00774148069489049 0 -0.0082117405890312824 -0.0051754721487694754 0 -0.0070737273334046964 0.00121566838782054 0 -0.010274577957950292 -0.008382928952072103 0 -0.010640814649519742 -0.0091769179962538725 0 -0.011838197408344757 -0.00774148069489049 0 -0.0047266541689996548 0.0011625343598207292 0 -0.0061893018168294447 0.0031084320787428538 0 -0.0049592862408924911 0.0031510536506195608 0 -0.005518665938725846 0.0039626717277174081 0 -0.0070737273334046964 0.00121566838782054 0 -0.0075850881347988529 0.0032694989940075256 0 -0.005518665938725846 0.0039626717277174081 0 -0.0074649774265961692 0.0033647147287346191 0 -0.0058094223758258434 0.0043281371760816381 0 -0.0068558781636324584 0.0051597803699372467 0 -0.0064189433863655471 0.0019479416114646579 0 -0.0074649774265961692 0.0033647147287346191 0 -0.0061893018168294447 0.0031084320787428538 0 -0.0076680455815091942 0.0062258015666039447 0 -0.0068558781636324584 0.0051597803699372467 0 -0.0059904784342348673 0.006180450120789706 0 -0.0058094223758258434 0.0043281371760816381 0 -0.0068558781636324584 0.0051597803699372467 0 -0.0059904784342348673 0.006180450120789706 0 -0.0058094223758258434 0.0043281371760816381 0 -0.0059904784342348673 0.006180450120789706 0 -0.0043657430965978201 0.0050005402441234874 0 -0.0059904784342348673 0.006180450120789706 0 -0.0043657430965978201 0.0050005402441234874 0 -0.0049989261683613178 0.0074367628269968178 0 -0.0070737273334046964 0.00121566838782054 0 -0.0048000627127346013 0.00752026933032363 0 -0.0059904784342348673 0.006180450120789706 0 -0.0049989261683613178 0.0074367628269968178 0 -0.0065508437562298606 0.0074891543770275269 0 -0.0076680455815091942 0.0062258015666039447 0 -0.0059904784342348673 0.006180450120789706 0 -0.0065508437562298606 0.0074891543770275269 0 -0.0072572788779873701 0.0085246794495741681 0 -0.0060468111174666389 0.0081548852924638315 0 -0.0074086103320839683 0.0087757590781768254 0 -0.0065508437562298606 0.0074891543770275269 0 -0.0058855424354166555 0.0080199884216539882 0 -0.0049989261683613178 0.0074367628269968178 0 -0.0065508437562298606 0.0074891543770275269 0 -0.0058855424354166555 0.0080199884216539882 0 -0.0050857679646577787 0.0053730037986259626 0 -0.0046422138071412706 0.006035420872527039 0 -0.0056150969573563088 0.0081657231660965911 0 -0.0049989261683613178 0.0074367628269968178 0 -0.0058855424354166555 0.0080199884216539882 0 -0.0056150969573563088 0.0081657231660965911 0 -0.0048000627127346013 0.00752026933032363 0 -0.0055879178375328065 0.0075952767517007032 0 -0.0046422138071412706 0.006035420872527039 0 -0.0058317771300437178 0.0052997031425535959 0 -0.0063825458382887118 0.0041389023629132982 0 -0.0051732442057958322 0.0056303218944520504 0 -0.0055382896632341309 0.0059509315112460451 0 -0.0058317771300437178 0.0052997031425535959 0 -0.0046422138071412706 0.006035420872527039 0 -0.0051732442057958322 0.0056303218944520504 0 -0.0058317771300437178 0.0052997031425535959 0 -0.0050857679646577787 0.0053730037986259626 0 -0.0046422138071412706 0.006035420872527039 0 -0.0051732442057958322 0.0056303218944520504 0 -0.0050674661460160903 0.0067950427264400785 0 -0.0050857679646577787 0.0053730037986259626 0 -0.0055382896632341309 0.0059509315112460451 0 -0.0050857679646577787 0.0053730037986259626 0 -0.0051732442057958322 0.0056303218944520504 0 -0.0055382896632341309 0.0059509315112460451 0 -0.0060294832218987368 0.0066260818699885888 0 -0.0065996700588399583 0.0060550991066690846 0 -0.007112991811118353 0.0063511554782838906 0 -0.0055382896632341309 0.0059509315112460451 0 -0.0065996700588399583 0.0060550991066690846 0 -0.0058317771300437178 0.0052997031425535959 0 -0.0060294832218987368 0.0066260818699885888 0 -0.0055382896632341309 0.0059509315112460451 0 -0.0065996700588399583 0.0060550991066690846 0 -0.0065996700588399583 0.0060550991066690846 0 -0.0068123631938619327 0.0051918454566080513 0 -0.0058317771300437178 0.0052997031425535959 0 -0.0068123631938619327 0.0051918454566080513 0 -0.0058317771300437178 0.0052997031425535959 0 -0.0063825458382887118 0.0041389023629132982 0 -0.0068123631938619327 0.0051918454566080513 0 -0.0074370384546599477 0.0042488256390207767 0 -0.0063825458382887118 0.0041389023629132982 0 -0.0074370384546599477 0.0042488256390207767 0 -0.0080425367814689567 0.0054504206864757548 0 -0.0084989894917869759 0.0037071938734795054 0 -0.0068123631938619327 0.0051918454566080513 0 -0.0074370384546599477 0.0042488256390207767 0 -0.0080425367814689567 0.0054504206864757548 0 -0.010163512256977742 0.0047834791282911071 0 -0.0080425367814689567 0.0054504206864757548 0 -0.0084989894917869759 0.0037071938734795054 0 -0.010163512256977742 0.0047834791282911071 0 -0.0084989894917869759 0.0037071938734795054 0 -0.010125237055955461 0.0031721432392095624 0 -0.010163512256977742 0.0047834791282911071 0 -0.0096698296806094937 0.0063433490431858419 0 -0.011445830282848863 0.0056530890187658379 0 -0.010163512256977742 0.0047834791282911071 0 -0.0096698296806094937 0.0063433490431858419 0 -0.0080425367814689567 0.0054504206864757548 0 -0.0081526855709665603 -0.0032405392583828357 0 -0.0074186039966140632 -0.0029854876633009096 0 -0.0080629280898510697 -0.0040796847940839896 0 -0.0088019720536994285 0.0015714247386704806 0 -0.0080336307591676679 0.00065867495730598789 0 -0.0096698296806094937 0.0063433490431858419 0 -0.0078478889931320895 0.0069449614900786985 0 -0.0080425367814689567 0.0054504206864757548 0 -0.0078991862351452426 0.0056564428847074447 0 -0.0080336307591676679 0.00065867495730598789 0 -0.0065996700588399583 0.0060550991066690846 0 -0.0078478889931320895 0.0069449614900786985 0 -0.0080425367814689567 0.0054504206864757548 0 -0.0065996700588399583 0.0060550991066690846 0 -0.0068123631938619327 0.0051918454566080513 0 -0.0080425367814689567 0.0054504206864757548 0 -0.0047415818302423713 -0.0040015703477694568 0 -0.004909997860165099 -0.0047849932651374558 0 -0.0039180265394831324 -0.0046067396330191019 0 -0.0078838368534025153 -0.0011814610790239547 0 -0.0059389537045833607 -0.0030018042200679073 0 -0.0047415818302423713 -0.0040015703477694568 0 -0.0058084925956487917 -0.0044240848973641639 0 -0.0052774422282539741 -0.0028095632024218889 0 -0.0067325880775643832 -0.0070310635386870149 0 -0.0078838368534025153 -0.0011814610790239547 0 -0.0047415818302423713 -0.0040015703477694568 0 -0.004909997860165099 -0.0047849932651374558 0 -0.0058084925956487917 -0.0044240848973641639 0 -0.0078838368534025153 -0.0011814610790239547 0 -0.0089979074665055107 0.0010952233702874712 0 -0.010163512256977742 0.0047834791282911071 0 -0.012068475323048364 0.0046051943713776534 0 -0.010125237055955461 0.0031721432392095624 0 -0.010163512256977742 0.0047834791282911071 0 -0.012068475323048364 0.0046051943713776534 0 -0.011445830282848863 0.0056530890187658379 0 -0.0078838368534025153 -0.0011814610790239547 0 -0.0082947364963349996 -0.0037334533924561521 0 -0.0073212147685980892 -0.0043591811258533574 0 -0.0075923175028948754 -0.0041601065981898572 0 -0.0078152806512388311 -0.0045237007725710812 0 -0.007138405269400256 -0.010787036610763686 0 -0.0067371022548865008 -0.011049976730166756 0 -0.0069625721771725537 -0.011445112847320053 0 -0.0082947364963349996 -0.0037334533924561521 0 -0.0074630994942717467 -0.0092633860737627288 0 -0.0088019720536994285 0.0015714247386704806 0 -0.0082947364963349996 -0.0037334533924561521 0 -0.0067325880775643832 -0.0070310635386870149 0 -0.0069231870998335008 -0.010910565286415418 0 -0.0067371022548865008 -0.011049976730166756 0 -0.0066137868823650872 -0.011403690133090727 0 -0.006108585501152594 -0.011108120899981384 0 -0.0066896406600927645 -0.010639287680677399 0 -0.0067371022548865008 -0.011049976730166756 0 -0.006108585501152594 -0.011108120899981384 0 -0.0066896406600927645 -0.010639287680677399 0 -0.007138405269400256 -0.010787036610763686 0 -0.0067371022548865008 -0.011049976730166756 0 -0.0067325880775643832 -0.0070310635386870149 0 -0.0082947364963349996 -0.0037334533924561521 0 -0.006649347873912163 -0.011754665159509577 0 -0.0069625721771725537 -0.011445112847320053 0 -0.0068892905265115793 -0.01209918936900355 0 -0.0066137868823650872 -0.011403690133090727 0 -0.006649347873912163 -0.011754665159509577 0 -0.0062095226880156656 -0.011680837806178519 0 -0.0067371022548865008 -0.011049976730166756 0 -0.0066137868823650872 -0.011403690133090727 0 -0.0069625721771725537 -0.011445112847320053 0 -0.0066137868823650872 -0.011403690133090727 0 -0.006649347873912163 -0.011754665159509577 0 -0.0069625721771725537 -0.011445112847320053 0 -0.007138405269400256 -0.010787036610763686 0 -0.0069625721771725537 -0.011445112847320053 0 -0.0076271209941054085 -0.011609663393795999 0 -0.0069625721771725537 -0.011445112847320053 0 -0.0068892905265115793 -0.01209918936900355 0 -0.0076271209941054085 -0.011609663393795999 0 -0.0069245137570781139 -0.011640908521716826 0 -0.0074630994942717467 -0.0092633860737627288 0 -0.0069762642245088206 -0.010737890750164894 0 -0.0077844674792220498 -0.009993896708861548 0 -0.0076287469293139223 -0.010534375514343355 0 -0.0069762642245088206 -0.010737890750164894 0 -0.0076287469293139223 -0.010534375514343355 0 -0.0077259400937416825 -0.011061278366873704 0 -0.0068892905265115793 -0.01209918936900355 0 -0.0062656815444490366 -0.012319675614201326 0 -0.0063712551622108256 -0.01206785154852591 0 -0.006649347873912163 -0.011754665159509577 0 -0.0068892905265115793 -0.01209918936900355 0 -0.0063712551622108256 -0.01206785154852591 0 -0.006649347873912163 -0.011754665159509577 0 -0.0063712551622108256 -0.01206785154852591 0 -0.0062095226880156656 -0.011680837806178519 0 -0.0086608068820701999 -0.006752387034579809 0 -0.0091918988988628197 -0.0082615105284446506 0 -0.0069126132649825521 -0.0078835923333958422 0 -0.0081526855709665603 -0.0032405392583828357 0 -0.0088902273720210239 -0.003484987239036186 0 -0.0080629280898510697 -0.0040796847940839896 0 -0.0080336307591676679 0.00065867495730598789 0 -0.0074630994942717467 -0.0092633860737627288 0 -0.0077844674792220498 -0.009993896708861548 0 -0.0076287469293139223 -0.010534375514343355 0 -0.0085346150197537999 -0.010430482981337769 0 -0.0074630994942717467 -0.0092633860737627288 0 -0.0084083620150683155 -0.010261899866214419 0 -0.0069126132649825521 -0.0078835923333958422 0 -0.0089744318894024178 -0.0095010512526842415 0 -0.0085346150197537999 -0.010430482981337769 0 -0.0091918988988628197 -0.0082615105284446506 0 -0.0069126132649825521 -0.0078835923333958422 0 -0.0089744318894024178 -0.0095010512526842415 0 -0.0096842625407485214 -0.009345300441069895 0 -0.0091918988988628197 -0.0082615105284446506 0 -0.0089744318894024178 -0.0095010512526842415 0 -0.0096842625407485214 -0.009345300441069895 0 -0.0089744318894024178 -0.0095010512526842415 0 -0.0090540801535023367 -0.010348838482671681 0 -0.0090540801535023367 -0.010348838482671681 0 -0.0085346150197537999 -0.010430482981337769 0 -0.0077259400937416825 -0.011061278366873704 0 -0.0090540801535023367 -0.010348838482671681 0 -0.0085247760739249057 -0.011373339784649479 0 -0.0079219275417950659 -0.01138662144071937 0 -0.0089744318894024178 -0.0095010512526842415 0 -0.0090540801535023367 -0.010348838482671681 0 -0.0085346150197537999 -0.010430482981337769 0 -0.0089951831465775942 -0.01052085054437002 0 -0.0078630648771438431 -0.011197604362362452 0 -0.0090540801535023367 -0.010348838482671681 0 -0.0085247760739249057 -0.011373339784649479 0 -0.0092254628357738497 -0.011207534174503524 0 -0.0092254628357738497 -0.011207534174503524 0 -0.0085770777513894982 -0.011901112822480549 0 -0.0092149831646498696 -0.012133227323142386 0 -0.0085770777513894982 -0.011901112822480549 0 -0.0092149831646498696 -0.012133227323142386 0 -0.0080349195919910254 -0.01277254421438369 0 -0.0085247760739249057 -0.011373339784649479 0 -0.0092254628357738497 -0.011207534174503524 0 -0.0085770777513894982 -0.011901112822480549 0 -0.0079728864368186613 -0.012050036922240912 0 -0.0074370533642428675 -0.012874150299640768 0 -0.0080349195919910254 -0.01277254421438369 0 -0.0085770777513894982 -0.011901112822480549 0 -0.0079728864368186613 -0.012050036922240912 0 -0.0080349195919910254 -0.01277254421438369 0 -0.0085247760739249057 -0.011373339784649479 0 -0.0085770777513894982 -0.011901112822480549 0 -0.0079728864368186613 -0.012050036922240912 0 -0.0079728864368186613 -0.012050036922240912 0 -0.0079219275417950659 -0.01138662144071937 0 -0.0074424882511543713 -0.012273286849512137 0 -0.0076287469293139223 -0.010534375514343355 0 -0.0085346150197537999 -0.010430482981337769 0 -0.0077259400937416825 -0.011061278366873704 0 -0.0085247760739249057 -0.011373339784649479 0 -0.0079728864368186613 -0.012050036922240912 0 -0.0079219275417950659 -0.01138662144071937 0 -0.0069762642245088206 -0.010737890750164894 0 -0.0077259400937416825 -0.011061278366873704 0 -0.006771153785313495 -0.0117793179307671 0 -0.0078630648771438431 -0.011197604362362452 0 -0.0068501090533481385 -0.012024482072087653 0 -0.0079219275417950659 -0.01138662144071937 0 -0.0069336295109208787 -0.012250262372561743 0 -0.0074424882511543713 -0.012273286849512137 0 -0.0069762642245088206 -0.010737890750164894 0 -0.006771153785313495 -0.0117793179307671 0 -0.0062656815444490366 -0.012319675614201326 0 -0.0069245137570781139 -0.011640908521716826 0 -0.0063654670441188567 -0.012118218533718734 0 -0.0069336295109208787 -0.012250262372561743 0 -0.0069607451052707712 -0.012891181397204821 0 -0.0064897991319386398 -0.01301876709908221 0 -0.0069607451052707712 -0.012891181397204821 0 -0.0065324017158214943 -0.013414446641660494 0 -0.0064897991319386398 -0.01301876709908221 0 -0.0069336295109208787 -0.012250262372561743 0 -0.0069607451052707712 -0.012891181397204821 0 -0.0074424882511543713 -0.012273286849512137 0 -0.0069607451052707712 -0.012891181397204821 0 -0.0065324017158214943 -0.013414446641660494 0 -0.0069631592989796813 -0.013561748057783466 0 -0.0079728864368186613 -0.012050036922240912 0 -0.0074424882511543713 -0.012273286849512137 0 -0.0074370533642428675 -0.012874150299640768 0 -0.0069607451052707712 -0.012891181397204821 0 -0.0074424882511543713 -0.012273286849512137 0 -0.0074370533642428675 -0.012874150299640768 0 -0.0069607451052707712 -0.012891181397204821 0 -0.0074370533642428675 -0.012874150299640768 0 -0.0069631592989796813 -0.013561748057783466 0 -0.0074370533642428675 -0.012874150299640768 0 -0.0072821040632329564 -0.013896783052020627 0 -0.0069631592989796813 -0.013561748057783466 0 -0.0074370533642428675 -0.012874150299640768 0 -0.0072821040632329564 -0.013896783052020627 0 -0.0080349195919910254 -0.01277254421438369 0 -0.0065324017158214943 -0.013414446641660494 0 -0.0069631592989796813 -0.013561748057783466 0 -0.0061942863364894997 -0.014196270256660483 0 -0.0069631592989796813 -0.013561748057783466 0 -0.0066231832217750839 -0.014444228841775405 0 -0.0061942863364894997 -0.014196270256660483 0 -0.0072821040632329564 -0.013896783052020627 0 -0.0069631592989796813 -0.013561748057783466 0 -0.0066231832217750839 -0.014444228841775405 0 -0.0067771269402540696 -0.015208915460006996 0 -0.0072821040632329564 -0.013896783052020627 0 -0.0066231832217750839 -0.014444228841775405 0 -0.0072411185319690343 -0.01486216789659211 0 -0.0067771269402540696 -0.015208915460006996 0 -0.0072821040632329564 -0.013896783052020627 0 -0.0072411185319690343 -0.01486216789659211 0 -0.0072821040632329564 -0.013896783052020627 0 -0.008309446512013742 -0.013373086720709543 0 -0.0076601972212739719 -0.014727194987165822 0 -0.0072411185319690343 -0.01486216789659211 0 -0.008309446512013742 -0.013373086720709543 0 -0.0092470239305692155 -0.014899606388113364 0 -0.0080294330079693881 -0.01295098952975024 0 -0.009251016949706722 -0.013423949125732033 0 -0.0095376094397444083 -0.01282929918137788 0 -0.008309446512013742 -0.013373086720709543 0 -0.0095376094397444083 -0.01282929918137788 0 -0.008309446512013742 -0.013373086720709543 0 -0.0092149831646498696 -0.012133227323142386 0 -0.008309446512013742 -0.013373086720709543 0 -0.0092149831646498696 -0.012133227323142386 0 -0.0080349195919910254 -0.01277254421438369 0 -0.0072821040632329564 -0.013896783052020627 0 -0.008309446512013742 -0.013373086720709543 0 -0.0080349195919910254 -0.01277254421438369 0 -0.0048687878430066518 -0.015435253287896191 0 -0.0054160299321097689 -0.01444575127008562 0 -0.0045121938673684109 -0.014622200687963582 0 -0.0048687878430066518 -0.015435253287896191 0 -0.0040322717371401315 -0.015814933013768677 0 -0.0045121938673684109 -0.014622200687963582 0 -0.0040322717371401315 -0.015814933013768677 0 -0.0045121938673684109 -0.014622200687963582 0 -0.0037235633858814922 -0.015088692167033331 0 -0.0048687878430066518 -0.015435253287896191 0 -0.0040322717371401315 -0.015814933013768677 0 -0.0043269697313009555 -0.016441339307309934 0 -0.0040322717371401315 -0.015814933013768677 0 -0.0043269697313009555 -0.016441339307309934 0 -0.003603580727293641 -0.016914670553700169 0 -0.0050073251439750064 -0.016224748158380438 0 -0.0048687878430066518 -0.015435253287896191 0 -0.0043269697313009555 -0.016441339307309934 0 -0.0050073251439750064 -0.016224748158380438 0 -0.0048687878430066518 -0.015435253287896191 0 -0.0058467763565499516 -0.015286136608927475 0 -0.0066231832217750839 -0.014444228841775405 0 -0.0058467763565499516 -0.015286136608927475 0 -0.0061942863364894997 -0.014196270256660483 0 -0.0067771269402540696 -0.015208915460006996 0 -0.0066231832217750839 -0.014444228841775405 0 -0.0058467763565499516 -0.015286136608927475 0 -0.0048687878430066518 -0.015435253287896191 0 -0.0058467763565499516 -0.015286136608927475 0 -0.0054160299321097689 -0.01444575127008562 0 -0.0061942863364894997 -0.014196270256660483 0 -0.0054160299321097689 -0.01444575127008562 0 -0.0059797087428333758 -0.013654318763355064 0 -0.0058467763565499516 -0.015286136608927475 0 -0.0061942863364894997 -0.014196270256660483 0 -0.0054160299321097689 -0.01444575127008562 0 -0.0054160299321097689 -0.01444575127008562 0 -0.0059797087428333758 -0.013654318763355064 0 -0.0050384662046997573 -0.013487696633810642 0 -0.0059797087428333758 -0.013654318763355064 0 -0.0060152721652820965 -0.012950260784795551 0 -0.0050384662046997573 -0.013487696633810642 0 -0.0065324017158214943 -0.013414446641660494 0 -0.0061942863364894997 -0.014196270256660483 0 -0.0059797087428333758 -0.013654318763355064 0 -0.0065324017158214943 -0.013414446641660494 0 -0.0059797087428333758 -0.013654318763355064 0 -0.0064897991319386398 -0.01301876709908221 0 -0.0059797087428333758 -0.013654318763355064 0 -0.0064897991319386398 -0.01301876709908221 0 -0.0060152721652820965 -0.012950260784795551 0 -0.0068501090533481385 -0.012024482072087653 0 -0.0059797969727352854 -0.012844736210746976 0 -0.006771153785313495 -0.0117793179307671 0 -0.0060130911018650658 -0.012759606130382323 0 -0.0062656815444490366 -0.012319675614201326 0 -0.0069336295109208787 -0.012250262372561743 0 -0.0064897991319386398 -0.01301876709908221 0 -0.0060152721652820965 -0.012950260784795551 0 -0.0060130911018650658 -0.012759606130382323 0 -0.0060539232664467294 -0.012389330574496283 0 -0.0062656815444490366 -0.012319675614201326 0 -0.0059797969727352854 -0.012844736210746976 0 -0.005092435604088244 -0.013369386307817931 0 -0.0060130911018650658 -0.012759606130382323 0 -0.0055453595092821249 -0.012763437345030314 0 -0.0050384662046997573 -0.013487696633810642 0 -0.0060130911018650658 -0.012759606130382323 0 -0.0060539232664467294 -0.012389330574496283 0 -0.0055453595092821249 -0.012763437345030314 0 -0.0055453595092821249 -0.012763437345030314 0 -0.0050384662046997573 -0.013487696633810642 0 -0.0047202664289264099 -0.012287497568851422 0 -0.0050384662046997573 -0.013487696633810642 0 -0.0038437690066773235 -0.013674216011000375 0 -0.0047202664289264099 -0.012287497568851422 0 -0.0054160299321097689 -0.01444575127008562 0 -0.0050384662046997573 -0.013487696633810642 0 -0.0045121938673684109 -0.014622200687963582 0 -0.0050384662046997573 -0.013487696633810642 0 -0.0045121938673684109 -0.014622200687963582 0 -0.0038437690066773235 -0.013674216011000375 0 -0.0045121938673684109 -0.014622200687963582 0 -0.0037235633858814922 -0.015088692167033331 0 -0.0038437690066773235 -0.013674216011000375 0 -0.0038437690066773235 -0.013674216011000375 0 -0.0047202664289264099 -0.012287497568851422 0 -0.0036257464722169682 -0.011822417041498771 0 -0.0055453595092821249 -0.012763437345030314 0 -0.0047202664289264099 -0.012287497568851422 0 -0.005412802500277215 -0.012185208493384966 0 -0.0047202664289264099 -0.012287497568851422 0 -0.005412802500277215 -0.012185208493384966 0 -0.0054943446183016841 -0.011590348596091498 0 -0.0048043458570449695 -0.012216826667925458 0 -0.0057968180085805525 -0.01146599573284666 0 -0.0047202664289264099 -0.012287497568851422 0 -0.0060897158060641944 -0.011369386257118259 0 -0.0045200128479023433 -0.010692172921280781 0 -0.0047202664289264099 -0.012287497568851422 0 -0.0036257464722169682 -0.011822417041498771 0 -0.0045200128479023433 -0.010692172921280781 0 -0.0036257464722169682 -0.011822417041498771 0 -0.0045200128479023433 -0.010692172921280781 0 -0.0032681993807424747 -0.010088628931354836 0 -0.0060539232664467294 -0.012389330574496283 0 -0.0062656815444490366 -0.012319675614201326 0 -0.0063712551622108256 -0.01206785154852591 0 -0.0060539232664467294 -0.012389330574496283 0 -0.0063712551622108256 -0.01206785154852591 0 -0.0058727167729600068 -0.012105409584873198 0 -0.0063712551622108256 -0.01206785154852591 0 -0.0058727167729600068 -0.012105409584873198 0 -0.0062095226880156656 -0.011680837806178519 0 -0.0060539232664467294 -0.012389330574496283 0 -0.0055453595092821249 -0.012763437345030314 0 -0.0058727167729600068 -0.012105409584873198 0 -0.0055453595092821249 -0.012763437345030314 0 -0.0058727167729600068 -0.012105409584873198 0 -0.005412802500277215 -0.012185208493384966 0 -0.0058727167729600068 -0.012105409584873198 0 -0.005412802500277215 -0.012185208493384966 0 -0.0054943446183016841 -0.011590348596091498 0 -0.0058727167729600068 -0.012105409584873198 0 -0.0054943446183016841 -0.011590348596091498 0 -0.0062095226880156656 -0.011680837806178519 0 -0.0057968180085805525 -0.01146599573284666 0 -0.0069231870998335008 -0.010910565286415418 0 -0.0066137868823650872 -0.011403690133090727 0 -0.0062095226880156656 -0.011680837806178519 0 -0.006108585501152594 -0.011108120899981384 0 -0.0054943446183016841 -0.011590348596091498 0 -0.0062095226880156656 -0.011680837806178519 0 -0.006108585501152594 -0.011108120899981384 0 -0.0092795877212118461 -0.0091089119627647784 0 -0.0077045357768063955 -0.010252412751674555 0 -0.0077722632916949778 -0.0093025610671727075 0 -0.0077045357768063955 -0.010252412751674555 0 -0.0077722632916949778 -0.0093025610671727075 0 -0.0068214050333116928 -0.0095058482955339176 0 -0.0060897158060641944 -0.011369386257118259 0 -0.0068214050333116928 -0.0095058482955339176 0 -0.0055645650991165843 -0.0094498200144994323 0 -0.0060897158060641944 -0.011369386257118259 0 -0.0077045357768063955 -0.010252412751674555 0 -0.0068214050333116928 -0.0095058482955339176 0 -0.0055969305366426287 -0.0067108318628437517 0 -0.0048192163264328559 -0.0071223906585237097 0 -0.0068214050333116928 -0.0095058482955339176 0 -0.0072573118305839096 -0.0083424955555028643 0 -0.0055645650991165843 -0.0094498200144994323 0 -0.0072573118305839096 -0.0083424955555028643 0 -0.0055645650991165843 -0.0094498200144994323 0 -0.0048848284081254101 -0.0073593918038803371 0 -0.004909997860165099 -0.0047849932651374558 0 -0.0039269836205802419 -0.0049208206503332614 0 -0.0039180265394831324 -0.0046067396330191019 0 -0.0067325880775643832 -0.0070310635386870149 0 -0.0055969305366426287 -0.0067108318628437517 0 -0.0092795877212118461 -0.0091089119627647784 0 -0.0077722632916949778 -0.0093025610671727075 0 -0.0072573118305839096 -0.0083424955555028643 0 -0.0077722632916949778 -0.0093025610671727075 0 -0.0068214050333116928 -0.0095058482955339176 0 -0.0072573118305839096 -0.0083424955555028643 0 -0.0039269836205802419 -0.0049208206503332614 0 -0.0039180265394831324 -0.0046067396330191019 0 -0.0044343617382163287 -0.0062210786900545644 0 -0.0045200128479023433 -0.010692172921280781 0 -0.0040128440546481009 -0.0088342614156767408 0 -0.0032681993807424747 -0.010088628931354836 0 -0.0045200128479023433 -0.010692172921280781 0 -0.0055645650991165843 -0.0094498200144994323 0 -0.0040128440546481009 -0.0088342614156767408 0 -0.0060897158060641944 -0.011369386257118259 0 -0.0045200128479023433 -0.010692172921280781 0 -0.0055645650991165843 -0.0094498200144994323 0 -0.0055645650991165843 -0.0094498200144994323 0 -0.0040128440546481009 -0.0088342614156767408 0 -0.0048848284081254101 -0.0073593918038803371 0 -0.0040128440546481009 -0.0088342614156767408 0 -0.0030366874396359259 -0.0083767834113120648 0 -0.0032681993807424747 -0.010088628931354836 0 -0.0040128440546481009 -0.0088342614156767408 0 -0.0039317762164931191 -0.0071915596698131339 0 -0.0030366874396359259 -0.0083767834113120648 0 -0.0040128440546481009 -0.0088342614156767408 0 -0.0039317762164931191 -0.0071915596698131339 0 -0.0048848284081254101 -0.0073593918038803371 0 -0.0039317762164931191 -0.0071915596698131339 0 -0.0048848284081254101 -0.0073593918038803371 0 -0.0046295277626535033 -0.0067605483521483668 0 -0.0039317762164931191 -0.0071915596698131339 0 -0.0042093029054810788 -0.0063630811973613604 0 -0.0046295277626535033 -0.0067605483521483668 0 -0.0039317762164931191 -0.0071915596698131339 0 -0.0032049497385991657 -0.0064831002848844826 0 -0.0042093029054810788 -0.0063630811973613604 0 -0.0039317762164931191 -0.0071915596698131339 0 -0.0032049497385991657 -0.0064831002848844826 0 -0.0025151978273143367 -0.0075009816141664498 0 -0.0032049497385991657 -0.0064831002848844826 0 -0.0037923200230389627 -0.0057962720982909482 0 -0.0042093029054810788 -0.0063630811973613604 0 -0.0032049497385991657 -0.0064831002848844826 0 -0.0037923200230389627 -0.0057962720982909482 0 -0.003048686793510546 -0.005514372417840049 0 -0.0042093029054810788 -0.0063630811973613604 0 -0.0042920337015163257 -0.0058293719732652616 0 -0.0048133455514898877 -0.0061737054067368628 0 -0.0037923200230389627 -0.0057962720982909482 0 -0.0042093029054810788 -0.0063630811973613604 0 -0.0042920337015163257 -0.0058293719732652616 0 -0.0040713698706176873 -0.005298023596335257 0 -0.0037836137983853738 -0.0047313450830664145 0 -0.0048100338178958873 -0.0048105757056854034 0 -0.0037923200230389627 -0.0057962720982909482 0 -0.0042920337015163257 -0.0058293719732652616 0 -0.0040713698706176873 -0.005298023596335257 0 -0.0042920337015163257 -0.0058293719732652616 0 -0.0040713698706176873 -0.005298023596335257 0 -0.0045094929861303045 -0.0054771589616772086 0 -0.0035060366291878369 -0.0049867570542343675 0 -0.0015827585371248794 0.0046053054413230489 0 -0.0040713698706176873 -0.005298023596335257 0 -0.0045094929861303045 -0.0054771589616772086 0 -0.0046797807241924496 -0.0049983961816153118 0 -0.0040713698706176873 -0.005298023596335257 0 -0.0035084592362177799 -0.005174504031844258 0 -0.0037836137983853738 -0.0047313450830664145 0 -0.0035084592362177799 -0.005174504031844258 0 -0.003048686793510546 -0.005514372417840049 0 -0.0028101750303215116 -0.0045091364154174222 0 -0.0037923200230389627 -0.0057962720982909482 0 -0.0035084592362177799 -0.005174504031844258 0 -0.003048686793510546 -0.005514372417840049 0 -0.0037923200230389627 -0.0057962720982909482 0 -0.0040713698706176873 -0.005298023596335257 0 -0.0035084592362177799 -0.005174504031844258 0 -0.0030832901307629849 0.0056441513443099989 0 -0.0015827585371248794 0.0046053054413230489 0 -0.0041230861682280372 0.0030978841670926825 0 -0.0021459060590370278 0.0012918495068663641 0 -0.0014389407926446328 0.0036075695964853226 0 -0.0045094929861303045 -0.0054771589616772086 0 -0.0048133455514898877 -0.0061737054067368628 0 -0.0046797807241924496 -0.0049983961816153118 0 -0.003773322940289852 -0.0035533964653177183 0 -0.0015827585371248794 0.0046053054413230489 0 -0.0042920337015163257 -0.0058293719732652616 0 -0.0045094929861303045 -0.0054771589616772086 0 -0.0048133455514898877 -0.0061737054067368628 0 -0.0041230861682280372 0.0030978841670926825 0 -0.0021459060590370278 0.0012918495068663641 0 -0.004261756555524048 0.0013387365488535228 0 -0.0021459060590370278 0.0012918495068663641 0 -0.0040633879883982919 -0.00016379627656685204 0 -0.004261756555524048 0.0013387365488535228 0 -0.0040633879883982919 -0.00016379627656685204 0 -0.0026949883620406845 -0.0010565582136555932 0 -0.004410778962877321 -0.0022869498830033561 0 -0.0021459060590370278 0.0012918495068663641 0 -0.0040633879883982919 -0.00016379627656685204 0 -0.0026949883620406845 -0.0010565582136555932 0 -0.0042093029054810788 -0.0063630811973613604 0 -0.0048133455514898877 -0.0061737054067368628 0 -0.0046295277626535033 -0.0067605483521483668 0 -0.003773322940289852 -0.0035533964653177183 0 -0.0035064094022334846 -0.0035902781938400015 0 -0.0048133455514898877 -0.0061737054067368628 0 -0.0043510930659115647 -0.0066876540941947123 0 -0.0046295277626535033 -0.0067605483521483668 0 -0.0039269836205802419 -0.0049208206503332614 0 -0.0048848284081254101 -0.0073593918038803371 0 -0.0044343617382163287 -0.0062210786900545644 0 -0.0043510930659115647 -0.0066876540941947123 0 -0.0046295277626535033 -0.0067605483521483668 0 -0.0044343617382163287 -0.0062210786900545644 0 -0.0048848284081254101 -0.0073593918038803371 0 -0.0046295277626535033 -0.0067605483521483668 0 -0.0044343617382163287 -0.0062210786900545644 0 -0.0038925069794611879 -0.0046808511278700372 0 -0.0035064094022334846 -0.0035902781938400015 0 -0.0039180265394831324 -0.0046067396330191019 0 -0.0026949883620406845 -0.0010565582136555932 0 -0.004410778962877321 -0.0022869498830033561 0 -0.0039180265394831324 -0.0046067396330191019 0 -0.0043510930659115647 -0.0066876540941947123 0 -0.0044343617382163287 -0.0062210786900545644 0 -0.0047415818302423713 -0.0040015703477694568 0 -0.0039180265394831324 -0.0046067396330191019 0 -0.004410778962877321 -0.0022869498830033561 0 -0.0047415818302423713 -0.0040015703477694568 0 -0.004410778962877321 -0.0022869498830033561 0 -0.0052774422282539741 -0.0028095632024218889 0 -0.0059137330406496538 -0.0036224672081338121 0 -0.0052774422282539741 -0.0028095632024218889 0 -0.0063263433163415423 -0.00109602659376784 0 -0.004410778962877321 -0.0022869498830033561 0 -0.0052774422282539741 -0.0028095632024218889 0 -0.0051587048745891095 -0.0012032254614901621 0 -0.0052774422282539741 -0.0028095632024218889 0 -0.0063263433163415423 -0.00109602659376784 0 -0.0051587048745891095 -0.0012032254614901621 0 -0.0059137330406496538 -0.0036224672081338121 0 -0.0063263433163415423 -0.00109602659376784 0 -0.0075601813166059767 -0.0015470022920930342 0 -0.0063263433163415423 -0.00109602659376784 0 -0.0076112721677256611 0.00012358326166218831 0 -0.0068166435375686535 0.000760301577007207 0 -0.0063263433163415423 -0.00109602659376784 0 -0.0054905377743726651 0.00026833517796960127 0 -0.0068166435375686535 0.000760301577007207 0 -0.0040633879883982919 -0.00016379627656685204 0 -0.004410778962877321 -0.0022869498830033561 0 -0.0051587048745891095 -0.0012032254614901621 0 -0.0040633879883982919 -0.00016379627656685204 0 -0.0054905377743726651 0.00026833517796960127 0 -0.0051587048745891095 -0.0012032254614901621 0 -0.0063263433163415423 -0.00109602659376784 0 -0.0054905377743726651 0.00026833517796960127 0 -0.0051587048745891095 -0.0012032254614901621 0 -0.0073424392829744712 0.0028984881216297434 0 -0.0084989894917869759 0.0037071938734795054 0 -0.0078421450590113913 0.0011866746012278854 0 -0.0073424392829744712 0.0028984881216297434 0 -0.0078421450590113913 0.0011866746012278854 0 -0.0065731483785599308 0.0016183366610243045 0 -0.0074370384546599477 0.0042488256390207767 0 -0.0073424392829744712 0.0028984881216297434 0 -0.0084989894917869759 0.0037071938734795054 0 -0.0075601813166059767 -0.0015470022920930342 0 -0.0076112721677256611 0.00012358326166218831 0 -0.0078421450590113913 0.0011866746012278854 0 -0.0084989894917869759 0.0037071938734795054 0 -0.010125237055955461 0.0031721432392095624 0 -0.0078421450590113913 0.0011866746012278854 0 -0.0089979074665055107 0.0010952233702874712 0 -0.0077557346851954891 0.00086371574145948195 0 -0.0063263433163415423 -0.00109602659376784 0 -0.0075601813166059767 -0.0015470022920930342 0 -0.0076112721677256611 0.00012358326166218831 0 -0.0076112721677256611 0.00012358326166218831 0 -0.0081128557542148264 0.00064670505457122972 0 -0.0068166435375686535 0.000760301577007207 0 -0.0076112721677256611 0.00012358326166218831 0 -0.0078421450590113913 0.0011866746012278854 0 -0.0081128557542148264 0.00064670505457122972 0 -0.0078421450590113913 0.0011866746012278854 0 -0.0081128557542148264 0.00064670505457122972 0 -0.0065731483785599308 0.0016183366610243045 0 -0.0018315479681028169 0.0097483627400247429 0 -0.0028087323551900284 0.0084754045675033089 0 -0.0027473821946062608 0.0096680586458352136 0 -0.0052990804581804669 0.0047195035172693071 0 -0.0046925013227891695 0.0052008357880486585 0 -0.0018315479681028169 0.0097483627400247429 0 -0.0020049018099060497 0.010401456737171284 0 -0.0027473821946062608 0.0096680586458352136 0 -0.0018315479681028169 0.0097483627400247429 0 -0.0020049018099060497 0.010401456737171284 0 -0.0011287203087250604 0.010440672931346744 0 -0.0081128557542148264 0.00064670505457122972 0 -0.0068166435375686535 0.000760301577007207 0 -0.0065989508640427724 0.0025358438199077709 0 -0.0052990804581804669 0.0047195035172693071 0 -0.002447704663049026 0.0089906459993910025 0 0.001013846011657853 0.015637980287640282 0 0.00087215341918948181 0.015677971835091776 0 0.00093522842229646881 0.015600942098828204 0 7.2309701768252587e-05 0.0135184612853456 0 -0.002447704663049026 0.0089906459993910025 0 0.001013846011657853 0.015637980287640282 0 0.001066627050171488 0.015584895295454718 0 0.00087215341918948181 0.015677971835091776 0 0.001013846011657853 0.015637980287640282 0 0.001066627050171488 0.015584895295454718 0 0.001021062551383939 0.015673314074731819 0 -0.0040633879883982919 -0.00016379627656685204 0 -0.0054905377743726651 0.00026833517796960127 0 -0.004261756555524048 0.0013387365488535228 0 -0.0054905377743726651 0.00026833517796960127 0 -0.0054857127811427427 0.0016105005100605662 0 -0.004261756555524048 0.0013387365488535228 0 -0.0054905377743726651 0.00026833517796960127 0 -0.0054857127811427427 0.0016105005100605662 0 -0.0068166435375686535 0.000760301577007207 0 -0.0054857127811427427 0.0016105005100605662 0 -0.0068166435375686535 0.000760301577007207 0 -0.0065989508640427724 0.0025358438199077709 0 0.00087215341918948181 0.015677971835091776 0 0.00072810976262547135 0.015604476109168772 0 0.00093522842229646881 0.015600942098828204 0 -0.002447704663049026 0.0089906459993910025 0 -0.00027865237718393735 0.012432957703978745 0 -0.0041230861682280372 0.0030978841670926825 0 -0.0054857127811427427 0.0016105005100605662 0 -0.0065989508640427724 0.0025358438199077709 0 -0.0014415935622267661 0.0086746758492030254 0 -0.0020858442912642383 0.0085880811913631692 0 -0.001759822029666747 0.008865217439536225 0 -0.0041230861682280372 0.0030978841670926825 0 -0.0054857127811427427 0.0016105005100605662 0 -0.004261756555524048 0.0013387365488535228 0 -0.0030832901307629849 0.0056441513443099989 0 -0.002447704663049026 0.0089906459993910025 0 -0.00027865237718393735 0.012432957703978745 0 0.00019356428980808806 0.013968059765343203 0 0.00072810976262547135 0.015604476109168772 0 0.00072802362829228447 0.015426172644487422 0 0.00058443597972122961 0.015485480663395198 0 -0.0014415935622267661 0.0086746758492030254 0 -0.001759822029666747 0.008865217439536225 0 -0.0014326132904555369 0.0091475944252597235 0 0.00072810976262547135 0.015604476109168772 0 0.00086218379389314316 0.015490253888239686 0 0.00093522842229646881 0.015600942098828204 0 0.00072810976262547135 0.015604476109168772 0 0.00086218379389314316 0.015490253888239686 0 0.00072802362829228447 0.015426172644487422 0 0.00086218379389314316 0.015490253888239686 0 0.00089956553152897845 0.015287351939170342 0 0.00072802362829228447 0.015426172644487422 0 0.00090261976094329873 0.015214382072526015 0 0.00094592230637009897 0.015047481830755665 0 0.00089956553152897845 0.015287351939170342 0 0.0010728163072058548 0.014769311687801752 0 0.0010761344645606955 0.015078066293816641 0 0.0012723298855741891 0.014705292188284693 0 0.0010728163072058548 0.014769311687801752 0 0.0010761344645606955 0.015078066293816641 0 0.0012723298855741891 0.014705292188284693 0 0.0013245728008538273 0.014950299800956489 0 0.0010761344645606955 0.015078066293816641 0 0.00094592230637009897 0.015047481830755665 0 0.00019356428980808806 0.013968059765343203 0 0.0012723298855741891 0.014705292188284693 0 0.0010728163072058548 0.014769311687801752 0 0.0013051308993523218 0.01441423478856935 0 0.001013846011657853 0.015637980287640282 0 0.001021062551383939 0.015673314074731819 0 0.0010247669803495039 0.015715393066567253 0 0.0010247669803495039 0.015715393066567253 0 0.00099794964042510784 0.015829388761708387 0 0.00097660009230121398 0.015898164761902554 0 0.001021062551383939 0.015673314074731819 0 0.0010247669803495039 0.015715393066567253 0 0.00097660009230121398 0.015898164761902554 0 0.0010247669803495039 0.015715393066567253 0 0.00093522842229646881 0.015600942098828204 0 0.00097441993316078467 0.015577065660908029 0 0.001013846011657853 0.015637980287640282 0 0.0010247669803495039 0.015715393066567253 0 0.00093522842229646881 0.015600942098828204 0 0.00086218379389314316 0.015490253888239686 0 0.00093522842229646881 0.015600942098828204 0 0.00097441993316078467 0.015577065660908029 0 0.00093597862666307209 0.015475171420631043 0 0.00097441993316078467 0.015577065660908029 0 0.00097327541760234377 0.015699158023839022 0 0.00086218379389314316 0.015490253888239686 0 0.00089956553152897845 0.015287351939170342 0 0.00097441993316078467 0.015577065660908029 0 0.00089956553152897845 0.015287351939170342 0 0.00093597862666307209 0.015475171420631043 0 0.00097441993316078467 0.015577065660908029 0 0.00097441993316078467 0.015577065660908029 0 0.00099794964042510784 0.015829388761708387 0 0.00097327541760234377 0.015699158023839022 0 0.0010247669803495039 0.015715393066567253 0 0.00097441993316078467 0.015577065660908029 0 0.00099794964042510784 0.015829388761708387 0 0.00059520530801690584 0.015353935641195415 0 0.00073040312130346772 0.015667516547307286 0 0.00049697653152991795 0.015575350784594665 0 0.00059520530801690584 0.015353935641195415 0 0.0009200257495313377 0.015364184119907028 0 0.00073040312130346772 0.015667516547307286 0 0.00093597862666307209 0.015475171420631043 0 0.00097327541760234377 0.015699158023839022 0 0.00089529603014766666 0.015340576189052333 0 0.00056543543243899117 0.015321726559271691 0 0.00096230822613556084 0.015378748783839647 0 0.00089956553152897845 0.015287351939170342 0 0.00093597862666307209 0.015475171420631043 0 0.00089529603014766666 0.015340576189052333 0 0.0009200257495313377 0.015364184119907028 0 0.00073040312130346772 0.015667516547307286 0 0.0010044700821559757 0.015569616288054471 0 0.00073040312130346772 0.015667516547307286 0 0.00049697653152991795 0.015575350784594665 0 0.00040757006781029438 0.01580272818380056 0 0.00073040312130346772 0.015667516547307286 0 0.00040757006781029438 0.01580272818380056 0 0.00053394378413022575 0.015996280000882684 0 0.0013245728008538273 0.014950299800956489 0 0.0012049029803114573 0.015232995917693152 0 0.0014480544731069671 0.015129508179939036 0 0.0013245728008538273 0.014950299800956489 0 0.0010761344645606955 0.015078066293816641 0 0.0012049029803114573 0.015232995917693152 0 0.00096230822613556084 0.015378748783839647 0 0.0011578024117966375 0.015258382595656567 0 0.00089529603014766666 0.015340576189052333 0 0.0010761344645606955 0.015078066293816641 0 0.0012049029803114573 0.015232995917693152 0 0.00089956553152897845 0.015287351939170342 0 0.00089529603014766666 0.015340576189052333 0 0.0010761344645606955 0.015078066293816641 0 0.0009200257495313377 0.015364184119907028 0 0.0010044700821559757 0.015569616288054471 0 0.0012049029803114573 0.015232995917693152 0 0.0010044700821559757 0.015569616288054471 0 0.0012049029803114573 0.015232995917693152 0 0.0013262068961990177 0.015417997324304083 0 0.0012049029803114573 0.015232995917693152 0 0.0014480544731069671 0.015129508179939036 0 0.0013262068961990177 0.015417997324304083 0 0.0016331025210393076 0.01524045055629873 0 0.0014480544731069671 0.015129508179939036 0 0.0013262068961990177 0.015417997324304083 0 0.0016331025210393076 0.01524045055629873 0 0.001651157317555317 0.015034045824390593 0 0.0014480544731069671 0.015129508179939036 0 0.0013245728008538273 0.014950299800956489 0 0.0014480544731069671 0.015129508179939036 0 0.0015523896604080485 0.014861561234545691 0 0.001651157317555317 0.015034045824390593 0 0.0014480544731069671 0.015129508179939036 0 0.0015523896604080485 0.014861561234545691 0 0.0013245728008538273 0.014950299800956489 0 0.0015523896604080485 0.014861561234545691 0 0.0014486665972714785 0.014676741608661982 0 0.0017685231359666003 0.014818577665475193 0 0.0018403606896356787 0.014980449396898436 0 0.0018661153050650377 0.014629148084708771 0 0.0012924659472098544 0.014710093633425096 0 0.0023237725795142569 0.012257635347912093 0 0.0017685231359666003 0.014818577665475193 0 0.0020636340875964231 0.014637898118415923 0 0.0018136322599951033 0.014569338295068802 0 0.0015523896604080485 0.014861561234545691 0 0.0017685231359666003 0.014818577665475193 0 0.0016422787705397748 0.014613794358535633 0 0.001651157317555317 0.015034045824390593 0 0.0017685231359666003 0.014818577665475193 0 0.0018403606896356787 0.014980449396898436 0 0.001651157317555317 0.015034045824390593 0 0.0015523896604080485 0.014861561234545691 0 0.0017685231359666003 0.014818577665475193 0 0.0016331025210393076 0.01524045055629873 0 0.0018403606896356787 0.014980449396898436 0 0.0020162500961575817 0.015239567435418197 0 0.0016331025210393076 0.01524045055629873 0 0.001651157317555317 0.015034045824390593 0 0.0018403606896356787 0.014980449396898436 0 0.0018403606896356787 0.014980449396898436 0 0.0020514812341669679 0.014907855749818935 0 0.0020162500961575817 0.015239567435418197 0 -0.010732648600116893 -0.011880170946009823 0 -0.0094433559052065578 -0.0093916401597541714 0 -0.0079926067188228322 -0.011858238959195428 0 -0.010732648600116893 -0.011880170946009823 0 -0.0087487266496042645 -0.014335391022268634 0 -0.0079926067188228322 -0.011858238959195428 0 -0.003414728989988848 0.0019918010334194114 0 -0.0036120432755373496 -0.0055493425781703697 0 -5.5359237961896793e-05 0.0060455297079756339 0 0.001101912639079934 0.0044961504675062412 0 5.4730999561977967e-05 0.0038213733151504768 0 0.001101912639079934 0.0044961504675062412 0 5.4730999561977967e-05 0.0038213733151504768 0 0.0022647231187059385 0.0029060107492696282 0 -5.5359237961896793e-05 0.0060455297079756339 0 5.4730999561977967e-05 0.0038213733151504768 0 -0.0013958013824865308 0.0036249006132440518 0 0.0018403606896356787 0.014980449396898436 0 0.0020514812341669679 0.014907855749818935 0 0.0018661153050650377 0.014629148084708771 0 -0.003414728989988848 0.0019918010334194114 0 0.0023237725795142569 0.012257635347912093 0 0.0023237725795142569 0.012257635347912093 0 0.0012623925242913076 0.0085989766808756887 0 5.4730999561977967e-05 0.0038213733151504768 0 -0.0013958013824865308 0.0036249006132440518 0 9.0038878552985591e-05 0.002363987132270721 0 0.0021119368151694944 0.014714273811474275 0 0.0022479108164827613 0.014220286179826165 0 0.002861048599142628 0.014128694960872721 0 0.0022479108164827613 0.014220286179826165 0 0.002861048599142628 0.014128694960872721 0 0.0024226570177147753 0.013914451405891568 0 0.0022479108164827613 0.014220286179826165 0 0.0019787225254762953 0.014003991624915075 0 0.0019173996957640507 0.014336342337070474 0 0.0021119368151694944 0.014714273811474275 0 0.0022479108164827613 0.014220286179826165 0 0.0019173996957640507 0.014336342337070474 0 9.0038878552985591e-05 0.002363987132270721 0 0.0016133099691321242 0.0010997490083083901 0 0.0022647231187059385 0.0029060107492696282 0 5.4730999561977967e-05 0.0038213733151504768 0 9.0038878552985591e-05 0.002363987132270721 0 0.0022647231187059385 0.0029060107492696282 0 -0.0035084592362177799 -0.005174504031844258 0 -0.0037836137983853738 -0.0047313450830664145 0 -0.0028101750303215116 -0.0045091364154174222 0 -0.00039711650964180373 0.0044059634762947698 0 0.0004357318351993877 0.00038014404240984989 0 0.0012623925242913076 0.0085989766808756887 0 0.0004357318351993877 0.00038014404240984989 0 0.002861048599142628 0.014128694960872721 0 0.0027450461323891306 0.013380293581443265 0 0.0036274439135562013 0.013413415000671249 0 -0.00039711650964180373 0.0044059634762947698 0 -0.0015827585371248794 0.0046053054413230489 0 0.0027450461323891306 0.013380293581443265 0 0.0022404068679827355 0.013642692776142469 0 0.0017180755365372854 0.013230871673264024 0 0.0022479108164827613 0.014220286179826165 0 0.0024226570177147753 0.013914451405891568 0 0.0019787225254762953 0.014003991624915075 0 0.0024226570177147753 0.013914451405891568 0 0.0022404068679827355 0.013642692776142469 0 0.0019787225254762953 0.014003991624915075 0 0.002861048599142628 0.014128694960872721 0 0.0024226570177147753 0.013914451405891568 0 0.0027450461323891306 0.013380293581443265 0 0.0024226570177147753 0.013914451405891568 0 0.0027450461323891306 0.013380293581443265 0 0.0022404068679827355 0.013642692776142469 0 -0.0015827585371248794 0.0046053054413230489 0 0.002446458280376105 0.015950667532530726 0 0.0022404068679827355 0.013642692776142469 0 0.0017180755365372854 0.013230871673264024 0 0.0019787225254762953 0.014003991624915075 0 0.0018162834860857332 0.014116291033620615 0 0.0019787225254762953 0.014003991624915075 0 0.0019173996957640507 0.014336342337070474 0 0.0018803844525769047 0.013715485543648535 0 0.0018162834860857332 0.014116291033620615 0 0.0019787225254762953 0.014003991624915075 0 0.0018803844525769047 0.013715485543648535 0 0.0018162834860857332 0.014116291033620615 0 0.0016019542054422147 0.014214170462243081 0 0.0018803844525769047 0.013715485543648535 0 0.0012386292202188471 0.014296297744989776 0 0.0016019542054422147 0.014214170462243081 0 -0.0014415935622267661 0.0086746758492030254 0 -0.00079330865843901051 0.0087569254141403458 0 -0.0014326132904555369 0.0091475944252597235 0 -0.0015827585371248794 0.0046053054413230489 0 0.00019356428980808806 0.013968059765343203 0 0.0012386292202188471 0.014296297744989776 0 0.0016019542054422147 0.014214170462243081 0 0.0013669145820100054 0.014428158718731696 0 0.00019356428980808806 0.013968059765343203 0 0.00085825076341381108 0.014400062316140796 0 0.0015580857375441912 0.014447390993498736 0 0.0013669145820100054 0.014428158718731696 0 0.0014486665972714785 0.014676741608661982 0 0.0016019542054422147 0.014214170462243081 0 0.0015580857375441912 0.014447390993498736 0 0.0013669145820100054 0.014428158718731696 0 0.0016019542054422147 0.014214170462243081 0 0.0015580857375441912 0.014447390993498736 0 0.0017171463917690312 0.014387131345315248 0 0.0012723298855741891 0.014705292188284693 0 0.0013669145820100054 0.014428158718731696 0 0.0014486665972714785 0.014676741608661982 0 0.0012723298855741891 0.014705292188284693 0 0.0013051308993523218 0.01441423478856935 0 0.0013669145820100054 0.014428158718731696 0 0.0012723298855741891 0.014705292188284693 0 0.0013245728008538273 0.014950299800956489 0 0.0014486665972714785 0.014676741608661982 0 0.0015523896604080485 0.014861561234545691 0 0.0014486665972714785 0.014676741608661982 0 0.0016422787705397748 0.014613794358535633 0 0.0015580857375441912 0.014447390993498736 0 0.0014486665972714785 0.014676741608661982 0 0.0016422787705397748 0.014613794358535633 0 0.0017685231359666003 0.014818577665475193 0 0.0016422787705397748 0.014613794358535633 0 0.0018136322599951033 0.014569338295068802 0 0.0016422787705397748 0.014613794358535633 0 0.0018136322599951033 0.014569338295068802 0 0.0017171463917690312 0.014387131345315248 0 0.0023237725795142569 0.012257635347912093 0 0.0024903488271326444 0.014455572556396351 0 0.0020636340875964231 0.014637898118415923 0 0.0018136322599951033 0.014569338295068802 0 0.0019173996957640507 0.014336342337070474 0 0.0018162834860857332 0.014116291033620615 0 0.0019173996957640507 0.014336342337070474 0 0.0017171463917690312 0.014387131345315248 0 0.0018136322599951033 0.014569338295068802 0 0.0019173996957640507 0.014336342337070474 0 0.0017171463917690312 0.014387131345315248 0 0.0018162834860857332 0.014116291033620615 0 0.0016019542054422147 0.014214170462243081 0 0.0017171463917690312 0.014387131345315248 0 0.0015580857375441912 0.014447390993498736 0 0.0016422787705397748 0.014613794358535633 0 0.0017171463917690312 0.014387131345315248 0 -0.0078088288420042626 0.018074305267950192 0 -0.0077028173002877624 0.017410311145191579 0 -0.0072162666716228787 0.018493335655799366 0 -0.0084566697811687651 0.014988495852658724 0 -0.0074541253573249342 0.017850126961083776 0 -0.0082220213578609192 0.018396526836572977 0 -0.0078088288420042626 0.018074305267950192 0 -0.0072162666716228787 0.018493335655799366 0 -0.0081206270593167287 0.017672661392449631 0 -0.0078088288420042626 0.018074305267950192 0 -0.0077028173002877624 0.017410311145191579 0 -0.0081206270593167287 0.017672661392449631 0 -0.0078088288420042626 0.018074305267950192 0 -0.0081689921336883554 0.018032762272840293 0 -0.0082220213578609192 0.018396526836572977 0 -0.0078088288420042626 0.018074305267950192 0 -0.0081689921336883554 0.018032762272840293 0 -0.0059973022737644151 0.015210549043012641 0 -0.0090673081466809032 0.013942262170006953 0 -0.0078032778368863224 0.016868565020985757 0 -0.0059973022737644151 0.015210549043012641 0 -0.00476757376852276 0.01711264744652706 0 -0.0078032778368863224 0.016868565020985757 0 -0.0059973022737644151 0.015210549043012641 0 -0.0090673081466809032 0.013942262170006953 0 -0.0057196768550555731 0.012401899654526866 0 -0.0090673081466809032 0.013942262170006953 0 -0.0098074569546481999 0.011341456120598907 0 -0.0057196768550555731 0.012401899654526866 0 -0.0084566697811687651 0.014988495852658724 0 -0.010089666306727179 0.017228786337012591 0 -0.0083979613709038899 0.017160530803838198 0 -0.0077028173002877624 0.017410311145191579 0 -0.008101977860789816 0.016380039244488793 0 -0.0090673081466809032 0.013942262170006953 0 -0.0098074569546481999 0.011341456120598907 0 -0.010334927282229038 0.010729878079979764 0 -0.0083979613709038899 0.017160530803838198 0 -0.0081206270593167287 0.017672661392449631 0 -0.0077028173002877624 0.017410311145191579 0 -0.0098074569546481999 0.011341456120598907 0 -0.010334927282229038 0.010729878079979764 0 -0.009412498722135506 0.010399368965860242 0 -0.010334927282229038 0.010729878079979764 0 -0.009412498722135506 0.010399368965860242 0 -0.009862619272752074 0.009841487018747189 0 -0.010089666306727179 0.017228786337012591 0 -0.010141100731325672 0.01479179126195496 0 -0.011520603738953892 0.020672667045220864 0 -0.010948490646380314 0.020995981945858881 0 -0.010686873406935003 0.020502184866763116 0 -0.009412498722135506 0.010399368965860242 0 -0.009862619272752074 0.009841487018747189 0 -0.008884641070546569 0.0094216464572170859 0 -0.011421878156907588 0.014810789767915536 0 -0.010141100731325672 0.01479179126195496 0 -0.010077456410855347 0.019214890026216007 0 -0.010686873406935003 0.020502184866763116 0 -0.011094419519612372 0.020068394727713115 0 -0.011520603738953892 0.020672667045220864 0 -0.010686873406935003 0.020502184866763116 0 -0.011094419519612372 0.020068394727713115 0 -0.0095433516280861302 0.0089175220783646574 0 -0.009862619272752074 0.009841487018747189 0 -0.008884641070546569 0.0094216464572170859 0 -0.009412498722135506 0.010399368965860242 0 -0.008884641070546569 0.0094216464572170859 0 -0.0086224661298562738 0.0099987625149012826 0 -0.0098074569546481999 0.011341456120598907 0 -0.009412498722135506 0.010399368965860242 0 -0.0083671775957103213 0.010662547173646024 0 -0.009412498722135506 0.010399368965860242 0 -0.0086224661298562738 0.0099987625149012826 0 -0.0083671775957103213 0.010662547173646024 0 -0.0097029173026139722 0.011305380099951983 0 -0.0071490178562144202 0.011544818659148914 0 -0.0078258109176009491 0.009486582673010573 0 -0.0070050236534469094 0.010350065102671198 0 -0.0083671775957103213 0.010662547173646024 0 -0.0086224661298562738 0.0099987625149012826 0 -0.0078258109176009491 0.009486582673010573 0 -0.0083671775957103213 0.010662547173646024 0 -0.008884641070546569 0.0094216464572170859 0 -0.0086224661298562738 0.0099987625149012826 0 -0.0078258109176009491 0.009486582673010573 0 -0.0070842982221922066 0.0082297438152646746 0 -0.0082614933144839961 0.0085493269026877174 0 -0.0078258109176009491 0.009486582673010573 0 -0.0082614933144839961 0.0085493269026877174 0 -0.008884641070546569 0.0094216464572170859 0 -0.0078258109176009491 0.009486582673010573 0 -0.0070842982221922066 0.0082297438152646746 0 -0.0078258109176009491 0.009486582673010573 0 -0.0065795960639485887 0.0089566573196423072 0 -0.0078258109176009491 0.009486582673010573 0 -0.0070050236534469094 0.010350065102671198 0 -0.0065795960639485887 0.0089566573196423072 0 -0.0025582939253654224 0.013484976186325345 0 -0.0057196768550555731 0.012401899654526866 0 -0.0032355869753733996 0.015562253606470629 0 -0.0048320469182923124 0.011917205244047404 0 -0.0071490178562144202 0.011544818659148914 0 -0.0059973022737644151 0.015210549043012641 0 -0.0057196768550555731 0.012401899654526866 0 -0.0032355869753733996 0.015562253606470629 0 -0.0059973022737644151 0.015210549043012641 0 -0.0032355869753733996 0.015562253606470629 0 -0.00476757376852276 0.01711264744652706 0 -0.0025582939253654224 0.013484976186325345 0 -0.0032355869753733996 0.015562253606470629 0 -0.00090741628234880804 0.016029265802121318 0 -0.00090741628234880804 0.016029265802121318 0 -0.00036353285743032988 0.014401361501459807 0 0.00029210338682253775 0.015640597112755623 0 -0.0048320469182923124 0.011917205244047404 0 -0.0029296320899474771 0.012385129954817277 0 -0.0025582939253654224 0.013484976186325345 0 -0.00090741628234880804 0.016029265802121318 0 -0.00036353285743032988 0.014401361501459807 0 -0.0070050236534469094 0.010350065102671198 0 -0.0054757359926287403 0.010354208216936948 0 -0.0060416746433988693 0.0094394523416337292 0 -0.0060416746433988693 0.0094394523416337292 0 -0.0065795960639485887 0.0089566573196423072 0 -0.0056150969573563088 0.0081657231660965911 0 -0.0070050236534469094 0.010350065102671198 0 -0.0060416746433988693 0.0094394523416337292 0 -0.0065795960639485887 0.0089566573196423072 0 -0.0070842982221922066 0.0082297438152646746 0 -0.0058855424354166555 0.0080199884216539882 0 -0.0065795960639485887 0.0089566573196423072 0 -0.0058855424354166555 0.0080199884216539882 0 -0.0065795960639485887 0.0089566573196423072 0 -0.0056150969573563088 0.0081657231660965911 0 -0.0060416746433988693 0.0094394523416337292 0 -0.0056150969573563088 0.0081657231660965911 0 -0.0043284820764796202 0.0092289627667200141 0 -0.0054757359926287403 0.010354208216936948 0 -0.0060416746433988693 0.0094394523416337292 0 -0.0043284820764796202 0.0092289627667200141 0 -0.0043284820764796202 0.0092289627667200141 0 -0.0043570396701630423 0.0080209566292588109 0 -0.0028087323551900284 0.0084754045675033089 0 -0.0056150969573563088 0.0081657231660965911 0 -0.0043284820764796202 0.0092289627667200141 0 -0.0043570396701630423 0.0080209566292588109 0 -0.0047347978476914195 0.0057674687725462444 0 -0.0046925013227891695 0.0052008357880486585 0 -0.0046422138071412706 0.006035420872527039 0 -0.0043570396701630423 0.0080209566292588109 0 -0.0028087323551900284 0.0084754045675033089 0 -0.0046422138071412706 0.006035420872527039 0 -0.0056150969573563088 0.0081657231660965911 0 -0.0043570396701630423 0.0080209566292588109 0 -0.0073424392829744712 0.0028984881216297434 0 -0.0063825458382887118 0.0041389023629132982 0 -0.0065731483785599308 0.0016183366610243045 0 -0.0046422138071412706 0.006035420872527039 0 -0.0063825458382887118 0.0041389023629132982 0 -0.0065731483785599308 0.0016183366610243045 0 -0.0074370384546599477 0.0042488256390207767 0 -0.0073424392829744712 0.0028984881216297434 0 -0.0063825458382887118 0.0041389023629132982 0 -0.0043284820764796202 0.0092289627667200141 0 -0.0028087323551900284 0.0084754045675033089 0 -0.0027473821946062608 0.0096680586458352136 0 -0.0043284820764796202 0.0092289627667200141 0 -0.003541247447039935 0.010464951763756669 0 -0.0027473821946062608 0.0096680586458352136 0 -0.0020049018099060497 0.010401456737171284 0 -0.003541247447039935 0.010464951763756669 0 -0.0027473821946062608 0.0096680586458352136 0 -0.0054757359926287403 0.010354208216936948 0 -0.0043284820764796202 0.0092289627667200141 0 -0.003541247447039935 0.010464951763756669 0 -0.0029296320899474771 0.012385129954817277 0 -0.0015543566419835724 0.012717256365251764 0 0.00079747200179048901 0.015159694457609105 0 0.00029210338682253775 0.015640597112755623 0 0.0008159424491148414 0.015706643041959678 0 -0.00036353285743032988 0.014401361501459807 0 0.00079747200179048901 0.015159694457609105 0 0.00029210338682253775 0.015640597112755623 0 0.001021062551383939 0.015673314074731819 0 0.00079747200179048901 0.015159694457609105 0 0.0008159424491148414 0.015706643041959678 0 0.001066627050171488 0.015584895295454718 0 0.001021062551383939 0.015673314074731819 0 0.00079747200179048901 0.015159694457609105 0 7.2309701768252587e-05 0.0135184612853456 0 -0.0015543566419835724 0.012717256365251764 0 0.00097660009230121398 0.015898164761902554 0 0.00075479156489742906 0.016054901712668709 0 0.00095172878323845499 0.016186235663248581 0 0.001021062551383939 0.015673314074731819 0 0.0008159424491148414 0.015706643041959678 0 0.00097660009230121398 0.015898164761902554 0 0.0008159424491148414 0.015706643041959678 0 0.00097660009230121398 0.015898164761902554 0 0.00075479156489742906 0.016054901712668709 0 0.00029210338682253775 0.015640597112755623 0 0.00031928397909762184 0.016363470566876103 0 0.00075479156489742906 0.016054901712668709 0 0.00029210338682253775 0.015640597112755623 0 0.0008159424491148414 0.015706643041959678 0 0.00075479156489742906 0.016054901712668709 0 0.00031928397909762184 0.016363470566876103 0 0.00075479156489742906 0.016054901712668709 0 0.00095172878323845499 0.016186235663248581 0 0.00031928397909762184 0.016363470566876103 0 0.00070039123985835038 0.016712768149367244 0 0.00095172878323845499 0.016186235663248581 0 0.003792810802266241 0.019770976537521801 0 0.0019720083039623331 0.021690535049404366 0 0.0007816988241160838 0.018905181918930557 0 0.0013230126036552657 0.017318939037004627 0 0.00028651880417484036 0.018168633431116445 0 0.00031928397909762184 0.016363470566876103 0 0.00070039123985835038 0.016712768149367244 0 -0.00045885596541133652 0.017176102935876288 0 0.00056543543243899117 0.015321726559271691 0 0.0013230126036552657 0.017318939037004627 0 0.00099794964042510784 0.015829388761708387 0 0.00097660009230121398 0.015898164761902554 0 0.00095172878323845499 0.016186235663248581 0 0.00099794964042510784 0.015829388761708387 0 0.00097327541760234377 0.015699158023839022 0 0.00095172878323845499 0.016186235663248581 0 0.00097327541760234377 0.015699158023839022 0 0.0010286199501776288 0.016113486323953489 0 0.00095172878323845499 0.016186235663248581 0 0.0013230126036552657 0.017318939037004627 0 0.0012451031082200532 0.016568953544503731 0 0.00059520530801690584 0.015353935641195415 0 0.00025627703388627943 0.015545893018749099 0 0.00049697653152991795 0.015575350784594665 0 0.00059520530801690584 0.015353935641195415 0 0.00020687681110565488 0.015265758959004901 0 0.00025627703388627943 0.015545893018749099 0 0.00025627703388627943 0.015545893018749099 0 0.00040757006781029438 0.01580272818380056 0 9.7607762206718506e-05 0.015824077800851984 0 0.00025627703388627943 0.015545893018749099 0 0.00049697653152991795 0.015575350784594665 0 0.00040757006781029438 0.01580272818380056 0 0.00025627703388627943 0.015545893018749099 0 9.7607762206718506e-05 0.015824077800851984 0 -7.0231407870335866e-05 0.015532499378735552 0 9.7607762206718506e-05 0.015824077800851984 0 -7.0231407870335866e-05 0.015532499378735552 0 -0.00013450537764493907 0.015970017360130484 0 0.00040757006781029438 0.01580272818380056 0 9.7607762206718506e-05 0.015824077800851984 0 0.00024988450866140881 0.016043143845395028 0 0.00020687681110565488 0.015265758959004901 0 0.00025627703388627943 0.015545893018749099 0 -7.0231407870335866e-05 0.015532499378735552 0 0.0013230126036552657 0.017318939037004627 0 0.0011258737530505788 0.018505301536723508 0 0.00031159995266473884 0.021218872375578811 0 0.0019720083039623331 0.021690535049404366 0 0.00013855736781010077 0.023559052114884873 0 0.00031159995266473884 0.021218872375578811 0 0.0019720083039623331 0.021690535049404366 0 0.0007816988241160838 0.018905181918930557 0 -7.0231407870335866e-05 0.015532499378735552 0 -0.00037404273950399737 0.015846595850787553 0 -0.00013450537764493907 0.015970017360130484 0 0.0011258737530505788 0.018505301536723508 0 -0.00084707683485024589 0.020000629018590354 0 -0.0018404812213624546 0.023130497297307571 0 -0.00038028961559877147 0.023320071554466134 0 -0.0019698835852964068 0.024756691729519165 0 -0.0018404812213624546 0.023130497297307571 0 -0.00038028961559877147 0.023320071554466134 0 -0.0016318894018898073 0.020646884191550887 0 0.00031159995266473884 0.021218872375578811 0 0.00013855736781010077 0.023559052114884873 0 -0.0016318894018898073 0.020646884191550887 0 -0.00084707683485024589 0.020000629018590354 0 -0.0011020757143495176 0.022146535518535924 0 0.00031159995266473884 0.021218872375578811 0 -0.0016318894018898073 0.020646884191550887 0 0.0007816988241160838 0.018905181918930557 0 -0.0016318894018898073 0.020646884191550887 0 0.0007816988241160838 0.018905181918930557 0 -0.0023588244545154021 0.017822670907085648 0 0.00028651880417484036 0.018168633431116445 0 -0.0023469988180802844 0.017711553602754431 0 -0.00090741628234880804 0.016029265802121318 0 0.00031928397909762184 0.016363470566876103 0 -0.00045885596541133652 0.017176102935876288 0 -0.00090741628234880804 0.016029265802121318 0 0.00029210338682253775 0.015640597112755623 0 0.00031928397909762184 0.016363470566876103 0 -0.00090741628234880804 0.016029265802121318 0 -0.00045885596541133652 0.017176102935876288 0 -0.0023588244545154021 0.017822670907085648 0 -0.0032355869753733996 0.015562253606470629 0 -0.0023588244545154021 0.017822670907085648 0 -0.00476757376852276 0.01711264744652706 0 -0.0032355869753733996 0.015562253606470629 0 -0.00090741628234880804 0.016029265802121318 0 -0.0023588244545154021 0.017822670907085648 0 -0.0023588244545154021 0.017822670907085648 0 -0.00476757376852276 0.01711264744652706 0 -0.0042649274504175348 0.018723630372159062 0 -0.00476757376852276 0.01711264744652706 0 -0.0042649274504175348 0.018723630372159062 0 -0.005627188679035197 0.018662594870693567 0 -0.0042649274504175348 0.018723630372159062 0 -0.005627188679035197 0.018662594870693567 0 -0.0049757758273904409 0.019984998006367591 0 -0.005627188679035197 0.018662594870693567 0 -0.0049757758273904409 0.019984998006367591 0 -0.005726965246961104 0.019718819905932904 0 -0.0049757758273904409 0.019984998006367591 0 -0.005399122435475863 0.021209029973781792 0 -0.0058351743163290249 0.020422197709839902 0 -0.0049757758273904409 0.019984998006367591 0 -0.0058351743163290249 0.020422197709839902 0 -0.005726965246961104 0.019718819905932904 0 -0.0042649274504175348 0.018723630372159062 0 -0.0049757758273904409 0.019984998006367591 0 -0.00359795857821833 0.020039898469879858 0 -0.0049757758273904409 0.019984998006367591 0 -0.00359795857821833 0.020039898469879858 0 -0.0044991481556931135 0.021068562783723811 0 -0.0016318894018898073 0.020646884191550887 0 -0.0023588244545154021 0.017822670907085648 0 -0.00359795857821833 0.020039898469879858 0 -0.0023588244545154021 0.017822670907085648 0 -0.0042649274504175348 0.018723630372159062 0 -0.00359795857821833 0.020039898469879858 0 -0.0016318894018898073 0.020646884191550887 0 -0.0036093511920507167 0.021613272485682157 0 -0.0028855159806436565 0.022692084123444086 0 -0.0016318894018898073 0.020646884191550887 0 -0.00359795857821833 0.020039898469879858 0 -0.0036093511920507167 0.021613272485682157 0 -0.0018404812213624546 0.023130497297307571 0 -0.0016318894018898073 0.020646884191550887 0 -0.0028855159806436565 0.022692084123444086 0 -0.0036093511920507167 0.021613272485682157 0 -0.0028855159806436565 0.022692084123444086 0 -0.0041398825605239191 0.022814254495580197 0 -0.0028855159806436565 0.022692084123444086 0 -0.0036885578548827114 0.023667074771941649 0 -0.0041398825605239191 0.022814254495580197 0 -0.0028855159806436565 0.022692084123444086 0 -0.002712882196220151 0.023773446368203263 0 -0.0036885578548827114 0.023667074771941649 0 -0.0018404812213624546 0.023130497297307571 0 -0.0028855159806436565 0.022692084123444086 0 -0.002712882196220151 0.023773446368203263 0 -0.0047068033912476305 0.023676703098082532 0 -0.0036885578548827114 0.023667074771941649 0 -0.0041398825605239191 0.022814254495580197 0 -0.0047068033912476305 0.023676703098082532 0 -0.0041398825605239191 0.022814254495580197 0 -0.0052730964579353022 0.022972340611795396 0 -0.0041398825605239191 0.022814254495580197 0 -0.0048830174997467326 0.022124428068708443 0 -0.0052730964579353022 0.022972340611795396 0 -0.0048830174997467326 0.022124428068708443 0 -0.005399122435475863 0.021209029973781792 0 -0.0057242121350829251 0.021998611438878178 0 -0.0036093511920507167 0.021613272485682157 0 -0.0041398825605239191 0.022814254495580197 0 -0.0048830174997467326 0.022124428068708443 0 -0.0036093511920507167 0.021613272485682157 0 -0.0048830174997467326 0.022124428068708443 0 -0.0044991481556931135 0.021068562783723811 0 -0.00359795857821833 0.020039898469879858 0 -0.0036093511920507167 0.021613272485682157 0 -0.0044991481556931135 0.021068562783723811 0 -0.0049757758273904409 0.019984998006367591 0 -0.0044991481556931135 0.021068562783723811 0 -0.005399122435475863 0.021209029973781792 0 -0.0048830174997467326 0.022124428068708443 0 -0.0044991481556931135 0.021068562783723811 0 -0.005399122435475863 0.021209029973781792 0 -0.005399122435475863 0.021209029973781792 0 -0.0062272485581655445 0.02126501473067224 0 -0.0058351743163290249 0.020422197709839902 0 -0.005399122435475863 0.021209029973781792 0 -0.0062272485581655445 0.02126501473067224 0 -0.0057242121350829251 0.021998611438878178 0 -0.0062272485581655445 0.02126501473067224 0 -0.0063399700194328688 0.022098928279075152 0 -0.0057242121350829251 0.021998611438878178 0 -0.0062272485581655445 0.02126501473067224 0 -0.0063399700194328688 0.022098928279075152 0 -0.0067124052439331873 0.021793298985433567 0 -0.0063399700194328688 0.022098928279075152 0 -0.0057242121350829251 0.021998611438878178 0 -0.0060879041063480266 0.022900654121935864 0 -0.0063399700194328688 0.022098928279075152 0 -0.0060879041063480266 0.022900654121935864 0 -0.0067427832482930385 0.022593152186147204 0 -0.0048830174997467326 0.022124428068708443 0 -0.0057242121350829251 0.021998611438878178 0 -0.0052730964579353022 0.022972340611795396 0 -0.0052730964579353022 0.022972340611795396 0 -0.0060879041063480266 0.022900654121935864 0 -0.0055933143793725363 0.023745544239005812 0 -0.0057242121350829251 0.021998611438878178 0 -0.0052730964579353022 0.022972340611795396 0 -0.0060879041063480266 0.022900654121935864 0 -0.0060879041063480266 0.022900654121935864 0 -0.0063079726982531968 0.023869514234376277 0 -0.0055933143793725363 0.023745544239005812 0 -0.0060879041063480266 0.022900654121935864 0 -0.0063079726982531968 0.023869514234376277 0 -0.0066808625027184069 0.023270051035090823 0 -0.0047068033912476305 0.023676703098082532 0 -0.0052730964579353022 0.022972340611795396 0 -0.0055933143793725363 0.023745544239005812 0 -0.0076312229107755184 0.024047676555520821 0 -0.0069733559368148025 0.023920521911797867 0 -0.0072777994527755165 0.023216731505351158 0 -0.0069733559368148025 0.023920521911797867 0 -0.0066808625027184069 0.023270051035090823 0 -0.0072777994527755165 0.023216731505351158 0 -0.0063079726982531968 0.023869514234376277 0 -0.0069733559368148025 0.023920521911797867 0 -0.0066808625027184069 0.023270051035090823 0 -0.0060879041063480266 0.022900654121935864 0 -0.0066808625027184069 0.023270051035090823 0 -0.0067427832482930385 0.022593152186147204 0 -0.0066808625027184069 0.023270051035090823 0 -0.0072777994527755165 0.023216731505351158 0 -0.0067427832482930385 0.022593152186147204 0 -0.0072777994527755165 0.023216731505351158 0 -0.0072493684946734697 0.022415919384597117 0 -0.0067427832482930385 0.022593152186147204 0 -0.0063399700194328688 0.022098928279075152 0 -0.0067427832482930385 0.022593152186147204 0 -0.0067124052439331873 0.021793298985433567 0 -0.0072493684946734697 0.022415919384597117 0 -0.0067427832482930385 0.022593152186147204 0 -0.0067124052439331873 0.021793298985433567 0 -0.0072493684946734697 0.022415919384597117 0 -0.0067124052439331873 0.021793298985433567 0 -0.0072432834317352835 0.021767166670235344 0 -0.0087013455701639465 0.021735129224089354 0 -0.0080880847711076332 0.021816790553457505 0 -0.0085632832117470414 0.021378842905710703 0 -0.0080361950913617978 0.021506483404490885 0 -0.0074800117480792305 0.02071800449648413 0 -0.0075108826671727224 0.021213926033966095 0 -0.0072432834317352835 0.021767166670235344 0 -0.0066941050210234925 0.021267637303914223 0 -0.0067124052439331873 0.021793298985433567 0 -0.0072432834317352835 0.021767166670235344 0 -0.0066941050210234925 0.021267637303914223 0 -0.0062272485581655445 0.02126501473067224 0 -0.0082927978892398148 0.019503979604867269 0 -0.0067599035760217618 0.019715643159656428 0 -0.0064760597015401005 0.021164372398342512 0 -0.0074800117480792305 0.02071800449648413 0 -0.0062272485581655445 0.02126501473067224 0 -0.0067124052439331873 0.021793298985433567 0 -0.0066941050210234925 0.021267637303914223 0 -0.0065451504072042768 0.01981152360519536 0 -0.0067599035760217618 0.019715643159656428 0 -0.0072162666716228787 0.018493335655799366 0 -0.0062272485581655445 0.02126501473067224 0 -0.0065451504072042768 0.01981152360519536 0 -0.0067599035760217618 0.019715643159656428 0 -0.0062272485581655445 0.02126501473067224 0 -0.0058351743163290249 0.020422197709839902 0 -0.0065451504072042768 0.01981152360519536 0 -0.0058351743163290249 0.020422197709839902 0 -0.0065451504072042768 0.01981152360519536 0 -0.005726965246961104 0.019718819905932904 0 -0.005627188679035197 0.018662594870693567 0 -0.0065451504072042768 0.01981152360519536 0 -0.005726965246961104 0.019718819905932904 0 -0.0074800117480792305 0.02071800449648413 0 -0.0071885979385816175 0.020156376347164138 0 -0.00476757376852276 0.01711264744652706 0 -0.005627188679035197 0.018662594870693567 0 -0.0078032778368863224 0.016868565020985757 0 -0.0066710936305516546 0.019602264457670771 0 -0.0074541253573249342 0.017850126961083776 0 -0.005627188679035197 0.018662594870693567 0 -0.0065451504072042768 0.01981152360519536 0 -0.0078032778368863224 0.016868565020985757 0 -0.0074096581271822079 0.019633070622317502 0 -0.0067599035760217618 0.019715643159656428 0 -0.0072162666716228787 0.018493335655799366 0 -0.0074096581271822079 0.019633070622317502 0 -0.0072162666716228787 0.018493335655799366 0 -0.0081806816691280277 0.01891520663195469 0 -0.0082220213578609192 0.018396526836572977 0 -0.0072162666716228787 0.018493335655799366 0 -0.0081806816691280277 0.01891520663195469 0 -0.0074800117480792305 0.02071800449648413 0 -0.0084717938418174665 0.020068772874813883 0 -0.0026049317044141212 0.018174775513486355 0 -0.0022353612329725587 0.017991673301484472 0 -0.0026489595521375607 0.018211403144504788 0 -0.0022519520798671322 0.018358957486242652 0 -0.0015355535412702125 0.017457241610584401 0 -0.0026998904200250737 0.01825520519401844 0 -0.0026489595521375607 0.018211403144504788 0 -0.0022519520798671322 0.018358957486242652 0 -0.0022519520798671322 0.018358957486242652 0 -0.0015355535412702125 0.017457241610584401 0 -0.001728984632658136 0.018587203221500665 0 -0.0011367872937621812 0.018088701594898404 0 -0.0015355535412702125 0.017457241610584401 0 -0.001728984632658136 0.018587203221500665 0 -0.0011367872937621812 0.018088701594898404 0 -0.0015355535412702125 0.017457241610584401 0 -0.00086445578462926963 0.017504269086708126 0 -0.002955691080336444 0.018489299864347535 0 -0.0027855749005756053 0.018604279156681482 0 -0.0029847330714608683 0.018658554086088092 0 -0.0026489595521375607 0.018211403144504788 0 -0.002955691080336444 0.018489299864347535 0 -0.0027855749005756053 0.018604279156681482 0 -0.0077727475702939683 0.025513273725435135 0 -0.0067982081599440138 0.026375517315231682 0 -0.0069501516299033906 0.025380249297165425 0 -0.0067982081599440138 0.026375517315231682 0 -0.0069501516299033906 0.025380249297165425 0 -0.0061522190138658672 0.025482375972587491 0 -0.0069501516299033906 0.025380249297165425 0 -0.0065969640832458116 0.024645136094744252 0 -0.0072837817974115001 0.024631512488961487 0 -0.0069501516299033906 0.025380249297165425 0 -0.0065969640832458116 0.024645136094744252 0 -0.0061522190138658672 0.025482375972587491 0 -0.0063079726982531968 0.023869514234376277 0 -0.0069733559368148025 0.023920521911797867 0 -0.0065969640832458116 0.024645136094744252 0 -0.0076312229107755184 0.024047676555520821 0 -0.0069733559368148025 0.023920521911797867 0 -0.0072837817974115001 0.024631512488961487 0 -0.0069733559368148025 0.023920521911797867 0 -0.0065969640832458116 0.024645136094744252 0 -0.0072837817974115001 0.024631512488961487 0 -0.0055933143793725363 0.023745544239005812 0 -0.0058373824427264739 0.024712604014342911 0 -0.0050626328850891201 0.024563731640122183 0 -0.0047068033912476305 0.023676703098082532 0 -0.0055933143793725363 0.023745544239005812 0 -0.0050626328850891201 0.024563731640122183 0 -0.0063079726982531968 0.023869514234376277 0 -0.0065969640832458116 0.024645136094744252 0 -0.0058373824427264739 0.024712604014342911 0 -0.0063079726982531968 0.023869514234376277 0 -0.0055933143793725363 0.023745544239005812 0 -0.0058373824427264739 0.024712604014342911 0 -0.0065969640832458116 0.024645136094744252 0 -0.0058373824427264739 0.024712604014342911 0 -0.0061522190138658672 0.025482375972587491 0 -0.0058373824427264739 0.024712604014342911 0 -0.0053916277601375609 0.025340991863006933 0 -0.0050626328850891201 0.024563731640122183 0 -0.0053916277601375609 0.025340991863006933 0 -0.0061522190138658672 0.025482375972587491 0 -0.0052810809425011054 0.026197796047609332 0 -0.0067982081599440138 0.026375517315231682 0 -0.0061522190138658672 0.025482375972587491 0 -0.0052810809425011054 0.026197796047609332 0 -0.0049639551390243848 0.022291392777576313 0 -0.0041148792227837733 0.02256375235505766 0 -0.0053916277601375609 0.025340991863006933 0 -0.0052810809425011054 0.026197796047609332 0 -0.00454587840224247 0.025356542213873384 0 -0.0058373824427264739 0.024712604014342911 0 -0.0053916277601375609 0.025340991863006933 0 -0.0061522190138658672 0.025482375972587491 0 -0.0041148792227837733 0.02256375235505766 0 -0.0032970715695836315 0.020581370472895929 0 -0.0052810809425011054 0.026197796047609332 0 -0.00454587840224247 0.025356542213873384 0 -0.0034282817920774787 0.025979295678452557 0 -0.0029847330714608683 0.018658554086088092 0 -0.002991951288492594 0.018669351855914163 0 -0.0029985429339490824 0.018691610532131999 0 -0.002991951288492594 0.018669351855914163 0 -0.0028887180356283503 0.018598613524191596 0 -0.0029976679063323402 0.018697502870726416 0 -0.0025850064870927597 0.019074822537016103 0 -0.0032970715695836315 0.020581370472895929 0 -0.00454587840224247 0.025356542213873384 0 -0.0036546680116324275 0.025159793203203853 0 -0.0034282817920774787 0.025979295678452557 0 -0.00454587840224247 0.025356542213873384 0 -0.0050626328850891201 0.024563731640122183 0 -0.0042314103249897622 0.024494014587236074 0 -0.0053916277601375609 0.025340991863006933 0 -0.00454587840224247 0.025356542213873384 0 -0.0050626328850891201 0.024563731640122183 0 -0.0042314103249897622 0.024494014587236074 0 -0.0033443141904800013 0.024441755460573193 0 -0.0036546680116324275 0.025159793203203853 0 -0.00454587840224247 0.025356542213873384 0 -0.0042314103249897622 0.024494014587236074 0 -0.0036546680116324275 0.025159793203203853 0 -0.0047068033912476305 0.023676703098082532 0 -0.0036885578548827114 0.023667074771941649 0 -0.0042314103249897622 0.024494014587236074 0 -0.0036885578548827114 0.023667074771941649 0 -0.0042314103249897622 0.024494014587236074 0 -0.0033443141904800013 0.024441755460573193 0 -0.0047068033912476305 0.023676703098082532 0 -0.0050626328850891201 0.024563731640122183 0 -0.0042314103249897622 0.024494014587236074 0 -0.0018404812213624546 0.023130497297307571 0 -0.002712882196220151 0.023773446368203263 0 -0.0019698835852964068 0.024756691729519165 0 -0.0033443141904800013 0.024441755460573193 0 -0.0036546680116324275 0.025159793203203853 0 -0.0019698835852964068 0.024756691729519165 0 -0.002712882196220151 0.023773446368203263 0 -0.0033443141904800013 0.024441755460573193 0 -0.0019698835852964068 0.024756691729519165 0 -0.002712882196220151 0.023773446368203263 0 -0.0036885578548827114 0.023667074771941649 0 -0.0033443141904800013 0.024441755460573193 0 -0.0029013741257058944 0.018847109761308389 0 -0.0025507191848611792 0.018747125929264103 0 -0.002589645058469862 0.018530959881090603 0 -0.0028887180356283503 0.018598613524191596 0 -0.0027518152548150149 0.018648463859492443 0 -0.0025734567384311882 0.018593957470201136 0 -0.0032970715695836315 0.020581370472895929 0 -0.0024320757548115866 0.018663365522097394 0 -0.0036546680116324275 0.025159793203203853 0 -0.0034282817920774787 0.025979295678452557 0 -0.0019698835852964068 0.024756691729519165 0 -0.0016973260485991604 0.017876350264597773 0 -0.0012413693562675105 0.017967154280097149 0 -0.0027518152548150149 0.018648463859492443 0 -0.0029976679063323402 0.018697502870726416 0 -0.0025439307673526929 0.018688181880787778 0 -0.0032970715695836315 0.020581370472895929 0 -0.0024953808816761103 0.02197627656897623 0 -0.0028887180356283503 0.018598613524191596 0 -0.0027518152548150149 0.018648463859492443 0 -0.0029976679063323402 0.018697502870726416 0 -8.1544429698063851e-05 0.017132712675991434 0 9.1987574451340417e-05 0.017114429003779921 0 0.00022988664469589709 0.017020855939974624 0 -8.1544429698063851e-05 0.017132712675991434 0 6.025076910448881e-05 0.017215554713375662 0 9.1987574451340417e-05 0.017114429003779921 0 -8.1544429698063851e-05 0.017132712675991434 0 -0.00044439078799271423 0.01708232281014679 0 0.00022988664469589709 0.017020855939974624 0 -8.1544429698063851e-05 0.017132712675991434 0 -0.00013063221160668743 0.017241563872309781 0 6.025076910448881e-05 0.017215554713375662 0 6.025076910448881e-05 0.017215554713375662 0 -7.0797455755850723e-05 0.017444397495480286 0 0.0001304526950990308 0.017443546344492741 0 -0.00013063221160668743 0.017241563872309781 0 6.025076910448881e-05 0.017215554713375662 0 -7.0797455755850723e-05 0.017444397495480286 0 -7.0797455755850723e-05 0.017444397495480286 0 -0.00029781432437190421 0.017311616178925546 0 -0.0003140683812864695 0.017638443713585677 0 -0.00029781432437190421 0.017311616178925546 0 -0.00047707658238674598 0.017384508129336337 0 -0.0003140683812864695 0.017638443713585677 0 -0.00013063221160668743 0.017241563872309781 0 -7.0797455755850723e-05 0.017444397495480286 0 -0.00029781432437190421 0.017311616178925546 0 -0.00029781432437190421 0.017311616178925546 0 -0.00024385381535118662 0.017183018371064219 0 -0.00044439078799271423 0.01708232281014679 0 -8.1544429698063851e-05 0.017132712675991434 0 -0.00024385381535118662 0.017183018371064219 0 -0.00044439078799271423 0.01708232281014679 0 -8.1544429698063851e-05 0.017132712675991434 0 -0.00013063221160668743 0.017241563872309781 0 -0.00024385381535118662 0.017183018371064219 0 -0.00013063221160668743 0.017241563872309781 0 -0.00029781432437190421 0.017311616178925546 0 -0.00024385381535118662 0.017183018371064219 0 -0.002955691080336444 0.018489299864347535 0 -0.0029847330714608683 0.018658554086088092 0 -0.0029976679063323402 0.018697502870726416 0 -0.0015355535412702125 0.017457241610584401 0 -0.00044439078799271423 0.01708232281014679 0 -0.00086445578462926963 0.017504269086708126 0 -0.0029847330714608683 0.018658554086088092 0 -0.002991951288492594 0.018669351855914163 0 -0.0029976679063323402 0.018697502870726416 0 -0.0022353612329725587 0.017991673301484472 0 -0.0016973260485991604 0.017876350264597773 0 -0.00044439078799271423 0.01708232281014679 0 -0.00086445578462926963 0.017504269086708126 0 -0.00047707658238674598 0.017384508129336337 0 -0.00086445578462926963 0.017504269086708126 0 -0.00047707658238674598 0.017384508129336337 0 -0.0003140683812864695 0.017638443713585677 0 -0.00029781432437190421 0.017311616178925546 0 -0.00044439078799271423 0.01708232281014679 0 -0.00047707658238674598 0.017384508129336337 0 -0.00086445578462926963 0.017504269086708126 0 -0.00055573601096713826 0.018118969840503037 0 -0.0003140683812864695 0.017638443713585677 0 -0.0011367872937621812 0.018088701594898404 0 -0.00086445578462926963 0.017504269086708126 0 -0.00055573601096713826 0.018118969840503037 0 1.0991140446268312e-05 0.017657506013082677 0 -0.0003140683812864695 0.017638443713585677 0 1.1012383332597053e-05 0.018081286324561737 0 -0.00055573601096713826 0.018118969840503037 0 -0.0003140683812864695 0.017638443713585677 0 1.1012383332597053e-05 0.018081286324561737 0 1.0991140446268312e-05 0.017657506013082677 0 0.00023425819461061218 0.01771234770397612 0 1.1012383332597053e-05 0.018081286324561737 0 -7.0797455755850723e-05 0.017444397495480286 0 1.0991140446268312e-05 0.017657506013082677 0 0.0001304526950990308 0.017443546344492741 0 -7.0797455755850723e-05 0.017444397495480286 0 1.0991140446268312e-05 0.017657506013082677 0 -0.0003140683812864695 0.017638443713585677 0 0.00040161818914000841 0.017549822932537602 0 0.00023425819461061218 0.01771234770397612 0 0.00030911673345894648 0.017372269365842585 0 1.0991140446268312e-05 0.017657506013082677 0 0.00023425819461061218 0.01771234770397612 0 0.0001304526950990308 0.017443546344492741 0 0.00023425819461061218 0.01771234770397612 0 0.00030911673345894648 0.017372269365842585 0 0.0001304526950990308 0.017443546344492741 0 0.00023425819461061218 0.01771234770397612 0 0.00042304087689474428 0.017967202584109592 0 1.1012383332597053e-05 0.018081286324561737 0 0.00040161818914000841 0.017549822932537602 0 0.00023425819461061218 0.01771234770397612 0 0.00042304087689474428 0.017967202584109592 0 0.00040161818914000841 0.017549822932537602 0 0.00056267879988127617 0.01752987746053207 0 0.00042304087689474428 0.017967202584109592 0 0.00040161818914000841 0.017549822932537602 0 0.00056267879988127617 0.01752987746053207 0 0.00039412566663665907 0.017214634299425526 0 0.00039412566663665907 0.017214634299425526 0 0.00037021849608281557 0.017093606608000935 0 0.0003716068024065678 0.016997789921780075 0 0.00056267879988127617 0.01752987746053207 0 0.00039412566663665907 0.017214634299425526 0 0.0003716068024065678 0.016997789921780075 0 0.00039412566663665907 0.017214634299425526 0 0.00029794298401807556 0.017127136621771562 0 0.00037021849608281557 0.017093606608000935 0 0.00039412566663665907 0.017214634299425526 0 0.00029794298401807556 0.017127136621771562 0 0.00030943241732775276 0.017232942046031305 0 0.00029794298401807556 0.017127136621771562 0 0.00030943241732775276 0.017232942046031305 0 0.0002152104323477852 0.01723055870326573 0 0.00039412566663665907 0.017214634299425526 0 0.00030943241732775276 0.017232942046031305 0 0.00030911673345894648 0.017372269365842585 0 0.00040161818914000841 0.017549822932537602 0 0.00039412566663665907 0.017214634299425526 0 0.00030911673345894648 0.017372269365842585 0 0.00030943241732775276 0.017232942046031305 0 0.00030911673345894648 0.017372269365842585 0 0.0002152104323477852 0.01723055870326573 0 0.00030911673345894648 0.017372269365842585 0 0.0001304526950990308 0.017443546344492741 0 0.0002152104323477852 0.01723055870326573 0 6.025076910448881e-05 0.017215554713375662 0 0.0001304526950990308 0.017443546344492741 0 0.0002152104323477852 0.01723055870326573 0 6.025076910448881e-05 0.017215554713375662 0 0.0002152104323477852 0.01723055870326573 0 0.00018567125970915372 0.017138560045115919 0 0.00029794298401807556 0.017127136621771562 0 0.0002152104323477852 0.01723055870326573 0 0.00018567125970915372 0.017138560045115919 0 6.025076910448881e-05 0.017215554713375662 0 0.00018567125970915372 0.017138560045115919 0 9.1987574451340417e-05 0.017114429003779921 0 -0.0025507191848611792 0.018747125929264103 0 -0.0024270994301169215 0.018572948302783564 0 -0.0022683682050738761 0.018622587347599511 0 -0.0027518152548150149 0.018648463859492443 0 -0.0025439307673526929 0.018688181880787778 0 -0.0025734567384311882 0.018593957470201136 0 0.00018567125970915372 0.017138560045115919 0 9.1987574451340417e-05 0.017114429003779921 0 0.00022988664469589709 0.017020855939974624 0 -0.0024320757548115866 0.018663365522097394 0 -0.002359285525338939 0.018637281793496906 0 -0.0025439307673526929 0.018688181880787778 0 -0.0025734567384311882 0.018593957470201136 0 -0.0022683682050738761 0.018622587347599511 0 0.00029794298401807556 0.017127136621771562 0 0.00018567125970915372 0.017138560045115919 0 0.00022988664469589709 0.017020855939974624 0 0.00029794298401807556 0.017127136621771562 0 0.00022988664469589709 0.017020855939974624 0 0.00037021849608281557 0.017093606608000935 0 -0.0023309688999418616 0.018299697968674731 0 -0.0024270994301169215 0.018572948302783564 0 -0.0022683682050738761 0.018622587347599511 0 -0.0023309688999418616 0.018299697968674731 0 -0.002589645058469862 0.018530959881090603 0 -0.0024270994301169215 0.018572948302783564 0 -0.0025507191848611792 0.018747125929264103 0 -0.002589645058469862 0.018530959881090603 0 -0.0024270994301169215 0.018572948302783564 0 -0.00084707683485024589 0.020000629018590354 0 -0.0024953808816761103 0.02197627656897623 0 -0.00037404273950399737 0.015846595850787553 0 -0.00013450537764493907 0.015970017360130484 0 -0.00013780220226278965 0.016256600717618277 0 -0.0023309688999418616 0.018299697968674731 0 -0.0022683682050738761 0.018622587347599511 0 -0.0021348772956097028 0.018621257747997173 0 -0.00084707683485024589 0.020000629018590354 0 -0.00070199743658041125 0.016909323766294043 0 -0.00013450537764493907 0.015970017360130484 0 -0.00013780220226278965 0.016256600717618277 0 -8.6394972448285183e-06 0.016199177185760652 0 -0.00070199743658041125 0.016909323766294043 0 -8.9784678708750774e-05 0.016494837112145277 0 0.00022988664469589709 0.017020855939974624 0 0.00039405618296015191 0.017060416658861009 0 0.00037021849608281557 0.017093606608000935 0 -0.0025439307673526929 0.018688181880787778 0 -0.0022683682050738761 0.018622587347599511 0 -0.0021348772956097028 0.018621257747997173 0 -0.0012413693562675105 0.017967154280097149 0 -0.00070199743658041125 0.016909323766294043 0 0.00039405618296015191 0.017060416658861009 0 0.00037021849608281557 0.017093606608000935 0 0.0003716068024065678 0.016997789921780075 0 -0.00022167779899686461 0.016278347647648388 0 0.00027244126478461513 0.016483225896943676 0 0.0003716068024065678 0.016997789921780075 0 0.00027244126478461513 0.016483225896943676 0 0.00047862890505323671 0.016623556873374988 0 0.0003716068024065678 0.016997789921780075 0 -0.00070199743658041125 0.016909323766294043 0 0.00052931542955254743 0.016956170385873458 0 -0.00022167779899686461 0.016278347647648388 0 0.00027244126478461513 0.016483225896943676 0 -8.6394972448285183e-06 0.016199177185760652 0 0.00027244126478461513 0.016483225896943676 0 -8.6394972448285183e-06 0.016199177185760652 0 0.00024988450866140881 0.016043143845395028 0 -8.6394972448285183e-06 0.016199177185760652 0 0.00024988450866140881 0.016043143845395028 0 4.9999792388481937e-05 0.016008011817201045 0 9.7607762206718506e-05 0.015824077800851984 0 0.00024988450866140881 0.016043143845395028 0 4.9999792388481937e-05 0.016008011817201045 0 -0.00013450537764493907 0.015970017360130484 0 -8.6394972448285183e-06 0.016199177185760652 0 4.9999792388481937e-05 0.016008011817201045 0 9.7607762206718506e-05 0.015824077800851984 0 -0.00013450537764493907 0.015970017360130484 0 4.9999792388481937e-05 0.016008011817201045 0 0.00040757006781029438 0.01580272818380056 0 0.00024988450866140881 0.016043143845395028 0 0.00053394378413022575 0.015996280000882684 0 0.00024988450866140881 0.016043143845395028 0 0.00042033417868744854 0.016275090897512483 0 0.00053394378413022575 0.015996280000882684 0 0.00042033417868744854 0.016275090897512483 0 0.00047862890505323671 0.016623556873374988 0 0.00065402457526007158 0.016154471622225029 0 0.00027244126478461513 0.016483225896943676 0 0.00024988450866140881 0.016043143845395028 0 0.00042033417868744854 0.016275090897512483 0 0.00027244126478461513 0.016483225896943676 0 0.00042033417868744854 0.016275090897512483 0 0.00047862890505323671 0.016623556873374988 0 0.00047862890505323671 0.016623556873374988 0 0.00051228181115266452 0.016966005150487927 0 0.00057853639685353586 0.016612304819212741 0 0.00047862890505323671 0.016623556873374988 0 0.0003716068024065678 0.016997789921780075 0 0.00051228181115266452 0.016966005150487927 0 0.00056267879988127617 0.01752987746053207 0 0.0003716068024065678 0.016997789921780075 0 0.00058512454296118287 0.017338476312247733 0 0.0003716068024065678 0.016997789921780075 0 0.00051228181115266452 0.016966005150487927 0 0.00058512454296118287 0.017338476312247733 0 0.00051228181115266452 0.016966005150487927 0 0.00058512454296118287 0.017338476312247733 0 0.0004555856664511885 0.017102364253931555 0 0.00058512454296118287 0.017338476312247733 0 0.00055828754972458018 0.017267234684359523 0 0.0004555856664511885 0.017102364253931555 0 0.00058512454296118287 0.017338476312247733 0 0.00077275150529135825 0.017752460588381886 0 0.00055828754972458018 0.017267234684359523 0 0.00056267879988127617 0.01752987746053207 0 0.00058512454296118287 0.017338476312247733 0 0.00077275150529135825 0.017752460588381886 0 0.00077275150529135825 0.017752460588381886 0 0.00055828754972458018 0.017267234684359523 0 0.00062845868116476026 0.01687077234774988 0 0.00077275150529135825 0.017752460588381886 0 0.00062845868116476026 0.01687077234774988 0 0.00086757196449593519 0.018274188455605491 0 0.00055828754972458018 0.017267234684359523 0 0.00062845868116476026 0.01687077234774988 0 0.00018591791705831559 0.016824847734101447 0 0.00062845868116476026 0.01687077234774988 0 2.3814058462678784e-06 0.016010664302079824 0 0.00029314555596076329 0.015747050767916798 0 2.3814058462678784e-06 0.016010664302079824 0 0.00029314555596076329 0.015747050767916798 0 -2.1746966117171034e-06 0.013195457893116375 0 0.00062845868116476026 0.01687077234774988 0 2.3814058462678784e-06 0.016010664302079824 0 0.0003634850680313422 0.016976958407069646 0 0.00059140073557008657 0.017099567719057802 0 0.00060831206404264896 0.01787277756065804 0 0.00062845868116476026 0.01687077234774988 0 0.00096425988510243793 0.018618376427824761 0 0.00086757196449593519 0.018274188455605491 0 0.00096425988510243793 0.018618376427824761 0 0.00070884914330948472 0.019313728738993018 0 0.00086757196449593519 0.018274188455605491 0 0.00096425988510243793 0.018618376427824761 0 0.00074959279592110484 0.020263860851085676 0 0.00070884914330948472 0.019313728738993018 0 0.00070884914330948472 0.019313728738993018 0 0.00061943023588559949 0.018838356903095866 0 0.00086757196449593519 0.018274188455605491 0 0.00060831206404264896 0.01787277756065804 0 0.00041480102877458906 0.019505171030361115 0 2.3814058462678784e-06 0.016010664302079824 0 0.0003634850680313422 0.016976958407069646 0 -1.6124027768079472e-07 0.018834974359320359 0 0.0003634850680313422 0.016976958407069646 0 -1.6124027768079472e-07 0.018834974359320359 0 -0.00010089674015165732 0.018725908054185923 0 0.00041480102877458906 0.019505171030361115 0 2.0992288434968553e-07 0.021657966630296569 0 -1.6124027768079472e-07 0.018834974359320359 0 -0.00010089674015165732 0.018725908054185923 0 -5.365513630749866e-07 0.021657364505053074 0 0.00074959279592110484 0.020263860851085676 0 0.00070884914330948472 0.019313728738993018 0 0.00033678073487314217 0.020182159930071285 0 0.00070884914330948472 0.019313728738993018 0 0.00037851024941862007 0.019309453482545008 0 0.00061943023588559949 0.018838356903095866 0 0.00070884914330948472 0.019313728738993018 0 0.00037851024941862007 0.019309453482545008 0 0.00033678073487314217 0.020182159930071285 0 0.00061943023588559949 0.018838356903095866 0 0.00066115302826518635 0.018174968032585039 0 0.00029041107357282467 0.018759401969642788 0 0.00037851024941862007 0.019309453482545008 0 0.00061943023588559949 0.018838356903095866 0 0.00029041107357282467 0.018759401969642788 0 0.00077275150529135825 0.017752460588381886 0 0.00086757196449593519 0.018274188455605491 0 0.00066115302826518635 0.018174968032585039 0 0.00061943023588559949 0.018838356903095866 0 0.00086757196449593519 0.018274188455605491 0 0.00066115302826518635 0.018174968032585039 0 0.00056267879988127617 0.01752987746053207 0 0.00077275150529135825 0.017752460588381886 0 0.00066115302826518635 0.018174968032585039 0 0.00056267879988127617 0.01752987746053207 0 0.00066115302826518635 0.018174968032585039 0 0.00042304087689474428 0.017967202584109592 0 0.00066115302826518635 0.018174968032585039 0 0.00042304087689474428 0.017967202584109592 0 0.00029041107357282467 0.018759401969642788 0 0.00042304087689474428 0.017967202584109592 0 1.1012383332597053e-05 0.018081286324561737 0 0.00029041107357282467 0.018759401969642788 0 -0.00018871073153006222 0.018703513776653038 0 1.1012383332597053e-05 0.018081286324561737 0 0.00029041107357282467 0.018759401969642788 0 -0.00055573601096713826 0.018118969840503037 0 -0.00018871073153006222 0.018703513776653038 0 1.1012383332597053e-05 0.018081286324561737 0 -0.0011367872937621812 0.018088701594898404 0 -0.00055573601096713826 0.018118969840503037 0 -0.00086532492359798032 0.019035003888004762 0 -0.00055573601096713826 0.018118969840503037 0 -0.00018871073153006222 0.018703513776653038 0 -0.00086532492359798032 0.019035003888004762 0 -0.00018871073153006222 0.018703513776653038 0 -0.00086532492359798032 0.019035003888004762 0 5.5346402275734562e-05 0.019706542884214643 0 -0.00086532492359798032 0.019035003888004762 0 5.5346402275734562e-05 0.019706542884214643 0 -0.0007688704590030045 0.020153263492174112 0 -0.00018871073153006222 0.018703513776653038 0 5.5346402275734562e-05 0.019706542884214643 0 0.00029041107357282467 0.018759401969642788 0 0.00037851024941862007 0.019309453482545008 0 5.5346402275734562e-05 0.019706542884214643 0 0.00029041107357282467 0.018759401969642788 0 5.5346402275734562e-05 0.019706542884214643 0 0.00033678073487314217 0.020182159930071285 0 3.0599526106660119e-05 0.021625904946094433 0 0.00037851024941862007 0.019309453482545008 0 5.5346402275734562e-05 0.019706542884214643 0 0.00033678073487314217 0.020182159930071285 0 0.00033678073487314217 0.020182159930071285 0 4.6858994735570203e-06 0.021663146160853047 0 3.0599526106660119e-05 0.021625904946094433 0 0.00074959279592110484 0.020263860851085676 0 0.00033678073487314217 0.020182159930071285 0 4.6858994735570203e-06 0.021663146160853047 0 4.6858994735570203e-06 0.021663146160853047 0 3.0599526106660119e-05 0.021625904946094433 0 -6.1658582373897272e-06 0.024661672027882661 0 5.5346402275734562e-05 0.019706542884214643 0 3.0599526106660119e-05 0.021625904946094433 0 -0.0007688704590030045 0.020153263492174112 0 -0.0007688704590030045 0.020153263492174112 0 -0.0020858588450684708 0.021052842542313627 0 -0.0016156192875220029 0.019740274185658144 0 3.0599526106660119e-05 0.021625904946094433 0 -0.0007688704590030045 0.020153263492174112 0 -0.0020858588450684708 0.021052842542313627 0 -0.00027264365180921471 0.026213414766372647 0 -0.00012237904713101303 0.025444913862107389 0 -1.8976179213327435e-06 0.024673266930627213 0 3.0599526106660119e-05 0.021625904946094433 0 -0.0020858588450684708 0.021052842542313627 0 -6.1658582373897272e-06 0.024661672027882661 0 -0.0010854538182228652 0.023618869430291036 0 -3.7420800263005923e-07 0.024669285973028185 0 -0.00027264365180921471 0.026213414766372647 0 -0.00012237904713101303 0.025444913862107389 0 -0.00010745220913940005 0.026238503143017608 0 -2.4596830606411491e-07 0.027507479974313999 0 -0.00012237904713101303 0.025444913862107389 0 -0.00020307982968712721 0.028008074891220074 0 -0.00012237904713101303 0.025444913862107389 0 -0.00020307982968712721 0.028008074891220074 0 -0.00068344557378526699 0.029980475103895111 0 -0.00025974188060683763 0.025922978321131732 0 -0.00023729143314165545 0.028021892042645557 0 -2.4596830606411491e-07 0.027507479974313999 0 -0.00012237904713101303 0.025444913862107389 0 -1.8976179213327435e-06 0.024673266930627213 0 2.2367572819387533e-05 0.029293582993452406 0 -0.00020307982968712721 0.028008074891220074 0 -0.00068344557378526699 0.029980475103895111 0 -0.00027264365180921471 0.026213414766372647 0 -0.00010745220913940005 0.026238503143017608 0 -0.00017588886617456945 0.02630629016475455 0 -0.0025000445942797499 0.019331275886786129 0 -0.0016156192875220029 0.019740274185658144 0 -0.001728984632658136 0.018587203221500665 0 -0.0010854538182228652 0.023618869430291036 0 -0.0013383457826973925 0.022932453253153594 0 -0.00020678920214242826 0.026323030827917742 0 -0.00010745220913940005 0.026238503143017608 0 -0.00017588886617456945 0.02630629016475455 0 -0.0020858588450684708 0.021052842542313627 0 -0.0025000445942797499 0.019331275886786129 0 -0.0016156192875220029 0.019740274185658144 0 -0.00086532492359798032 0.019035003888004762 0 -0.0007688704590030045 0.020153263492174112 0 -0.0016156192875220029 0.019740274185658144 0 -0.00086532492359798032 0.019035003888004762 0 -0.0016156192875220029 0.019740274185658144 0 -0.001728984632658136 0.018587203221500665 0 -0.0011367872937621812 0.018088701594898404 0 -0.00086532492359798032 0.019035003888004762 0 -0.001728984632658136 0.018587203221500665 0 -0.0013258109649496536 0.021751968058838687 0 -0.0013383457826973925 0.022932453253153594 0 -0.0026998904200250737 0.01825520519401844 0 -0.0022519520798671322 0.018358957486242652 0 -0.0025000445942797499 0.019331275886786129 0 -0.0022519520798671322 0.018358957486242652 0 -0.0025000445942797499 0.019331275886786129 0 -0.001728984632658136 0.018587203221500665 0 -0.0072611479546014473 -0.003950203151101229 0 -0.0072817884905246157 -0.0045147039062141672 0 -0.0075644232482347286 -0.0045705966114730464 0 -0.0074357827004539632 -0.0037512136459762098 0 -0.0072611479546014473 -0.003950203151101229 0 -0.0075644232482347286 -0.0045705966114730464 0 -0.0030206765641456117 0.0060040058464741622 0 -0.0027979696831283993 0.0055110303325304503 0 0.0016043145868232908 0.016179009216751614 0 0.0018479920136386292 0.015693202604886061 0 0.0014708975563373652 0.015897281210522432 0 -0.0074357827004539632 -0.0037512136459762098 0 -0.0072611479546014473 -0.003950203151101229 0 -0.0071037166212179134 -0.003478256311991021 0 -0.0074357827004539632 -0.0037512136459762098 0 -0.007092627413737492 -0.0030006232099611878 0 -0.0071037166212179134 -0.003478256311991021 0 -0.0072611479546014473 -0.003950203151101229 0 -0.0071587040039207571 -0.0040231773705391542 0 -0.0070124239416176851 -0.0035941063367185108 0 -0.0071587040039207571 -0.0040231773705391542 0 -0.0070271522114057645 -0.0043322145612468381 0 -0.0072817884905246157 -0.0045147039062141672 0 -0.0071587040039207571 -0.0040231773705391542 0 -0.0070271522114057645 -0.0043322145612468381 0 -0.0070844584954022679 -0.0037877988317690167 0 -0.0072611479546014473 -0.003950203151101229 0 -0.0071587040039207571 -0.0040231773705391542 0 -0.0072817884905246157 -0.0045147039062141672 0 -0.0070271522114057645 -0.0043322145612468381 0 -0.0072446503630424174 -0.0052244356324795214 0 -0.0072817884905246157 -0.0045147039062141672 0 -0.0072446503630424174 -0.0052244356324795214 0 -0.0072817884905246157 -0.0045147039062141672 0 -0.0073122709169911237 -0.0052457272694271416 0 -0.0072817884905246157 -0.0045147039062141672 0 -0.0073122709169911237 -0.0052457272694271416 0 -0.0075644232482347286 -0.0045705966114730464 0 -0.0073122709169911237 -0.0052457272694271416 0 -0.0073329317119398456 -0.0053940682048276515 0 -0.0074458318368941043 -0.0051674335663025013 0 -0.0073122709169911237 -0.0052457272694271416 0 -0.0074458318368941043 -0.0051674335663025013 0 -0.0075644232482347286 -0.0045705966114730464 0 -0.0073122709169911237 -0.0052457272694271416 0 -0.0073329317119398456 -0.0053940682048276515 0 -0.0073964536467589206 -0.0062684328943237383 0 -0.0072446503630424174 -0.0052244356324795214 0 -0.0073122709169911237 -0.0052457272694271416 0 -0.0073964536467589206 -0.0062684328943237383 0 -0.0093679806914110063 -0.0092967954230691544 0 -0.0072073537327972228 -0.0057030926578460284 0 -0.003414728989988848 0.0019918010334194114 0 -0.0093679806914110063 -0.0092967954230691544 0 -0.0073460745606017709 -0.0053156373453638762 0 -0.0073329317119398456 -0.0053940682048276515 0 -0.0074458318368941043 -0.0051674335663025013 0 -0.003414728989988848 0.0019918010334194114 0 -0.0027772997955007369 0.0054600363475567773 0 0.0016331025210393076 0.01524045055629873 0 0.0020162500961575817 0.015239567435418197 0 0.0015389793775256047 0.015589169664424809 0 -0.0027772997955007369 0.0054600363475567773 0 -0.0027979696831283993 0.0055110303325304503 0 0.0020162500961575817 0.015239567435418197 0 0.0018479920136386292 0.015693202604886061 0 0.0015389793775256047 0.015589169664424809 0 0.0018479920136386292 0.015693202604886061 0 0.0015389793775256047 0.015589169664424809 0 0.0014708975563373652 0.015897281210522432 0 0.0016331025210393076 0.01524045055629873 0 0.0015389793775256047 0.015589169664424809 0 0.0013262068961990177 0.015417997324304083 0 0.0015389793775256047 0.015589169664424809 0 0.0013262068961990177 0.015417997324304083 0 0.0011749459480065996 0.015826728731064874 0 0.0010044700821559757 0.015569616288054471 0 0.0013262068961990177 0.015417997324304083 0 0.0011749459480065996 0.015826728731064874 0 0.0010044700821559757 0.015569616288054471 0 0.0011749459480065996 0.015826728731064874 0 0.00087290231782740486 0.015904827813053173 0 0.0011749459480065996 0.015826728731064874 0 0.00087290231782740486 0.015904827813053173 0 0.00077788972117798737 0.016316851626606396 0 0.0015389793775256047 0.015589169664424809 0 0.0011749459480065996 0.015826728731064874 0 0.0014708975563373652 0.015897281210522432 0 0.0011749459480065996 0.015826728731064874 0 0.0011645305881027707 0.016234197175281257 0 0.0014708975563373652 0.015897281210522432 0 0.00042033417868744854 0.016275090897512483 0 0.00053394378413022575 0.015996280000882684 0 0.00065402457526007158 0.016154471622225029 0 0.00073040312130346772 0.015667516547307286 0 0.00053394378413022575 0.015996280000882684 0 0.00065402457526007158 0.016154471622225029 0 0.00073040312130346772 0.015667516547307286 0 0.0010044700821559757 0.015569616288054471 0 0.00087290231782740486 0.015904827813053173 0 0.00073040312130346772 0.015667516547307286 0 0.00087290231782740486 0.015904827813053173 0 0.00065402457526007158 0.016154471622225029 0 0.00087290231782740486 0.015904827813053173 0 0.00065402457526007158 0.016154471622225029 0 0.00077788972117798737 0.016316851626606396 0 0.00065402457526007158 0.016154471622225029 0 0.00057853639685353586 0.016612304819212741 0 0.00077788972117798737 0.016316851626606396 0 0.00047862890505323671 0.016623556873374988 0 0.00065402457526007158 0.016154471622225029 0 0.00057853639685353586 0.016612304819212741 0 0.00057853639685353586 0.016612304819212741 0 0.00077788972117798737 0.016316851626606396 0 0.0005164021059445717 0.016836897800059397 0 0.0005164021059445717 0.016836897800059397 0 0.00064805156655939171 0.016665742549004398 0 0.00032489128501175433 0.016868116863122028 0 0.00077788972117798737 0.016316851626606396 0 0.0005164021059445717 0.016836897800059397 0 0.00064805156655939171 0.016665742549004398 0 0.00051228181115266452 0.016966005150487927 0 0.0005164021059445717 0.016836897800059397 0 0.0004555856664511885 0.017102364253931555 0 0.00051228181115266452 0.016966005150487927 0 0.00057853639685353586 0.016612304819212741 0 0.0005164021059445717 0.016836897800059397 0 0.0016043145868232908 0.016179009216751614 0 0.0011645305881027707 0.016234197175281257 0 0.0014708975563373652 0.015897281210522432 0 0.00077788972117798737 0.016316851626606396 0 0.0011645305881027707 0.016234197175281257 0 0.00064805156655939171 0.016665742549004398 0 0.0011749459480065996 0.015826728731064874 0 0.00077788972117798737 0.016316851626606396 0 0.0011645305881027707 0.016234197175281257 0 0.0011645305881027707 0.016234197175281257 0 0.00064805156655939171 0.016665742549004398 0 0.0013261700267546751 0.016609337510741482 0 0.0021277712750524076 0.018794545642049514 0 -0.0011539530360020662 0.0086044866413599753 0 -0.0030206765641456117 0.0060040058464741622 0 -0.0011539530360020662 0.0086044866413599753 0 0.0016043145868232908 0.016179009216751614 0 0.0011645305881027707 0.016234197175281257 0 0.0013261700267546751 0.016609337510741482 0 -0.00065608648671889463 0.0053002595238099354 0 -0.0002543628721714477 0.0059476294889912107 0 -0.00040669217798605737 0.0055030080212268495 0 -0.0011539530360020662 0.0086044866413599753 0 -0.0046525567431857937 0.0005955625972277229 0 0.00035410700294277172 0.016719296862296867 0 0.000360604133721693 0.016760438341128531 0 7.3767437582551791e-05 0.016698203911640661 0 0.00064805156655939171 0.016665742549004398 0 0.00035410700294277172 0.016719296862296867 0 0.000360604133721693 0.016760438341128531 0 -0.0011539530360020662 0.0086044866413599753 0 -0.00022973979675798225 0.011847278823699391 0 -0.00062829894255010763 0.006341307720877991 0 -0.0002543628721714477 0.0059476294889912107 0 3.7280832537719383e-05 0.0072114005075700292 0 -0.00065608648671889463 0.0053002595238099354 0 -0.00062829894255010763 0.006341307720877991 0 -0.0002543628721714477 0.0059476294889912107 0 0.0004555856664511885 0.017102364253931555 0 0.00032489128501175433 0.016868116863122028 0 0.00018591791705831559 0.016824847734101447 0 0.0005164021059445717 0.016836897800059397 0 0.0004555856664511885 0.017102364253931555 0 0.00032489128501175433 0.016868116863122028 0 0.000360604133721693 0.016760438341128531 0 7.3767437582551791e-05 0.016698203911640661 0 0.00032489128501175433 0.016868116863122028 0 0.00064805156655939171 0.016665742549004398 0 0.000360604133721693 0.016760438341128531 0 0.00032489128501175433 0.016868116863122028 0 7.3767437582551791e-05 0.016698203911640661 0 0.00018591791705831559 0.016824847734101447 0 -0.00048716436706710111 0.016077568754134196 0 7.3767437582551791e-05 0.016698203911640661 0 0.00032489128501175433 0.016868116863122028 0 0.00018591791705831559 0.016824847734101447 0 0.00055828754972458018 0.017267234684359523 0 0.0004555856664511885 0.017102364253931555 0 0.00018591791705831559 0.016824847734101447 0 0.00018591791705831559 0.016824847734101447 0 0.00029314555596076329 0.015747050767916798 0 -0.00048716436706710111 0.016077568754134196 0 0.00062845868116476026 0.01687077234774988 0 0.00018591791705831559 0.016824847734101447 0 0.00029314555596076329 0.015747050767916798 0 -0.00022973979675798225 0.011847278823699391 0 -0.00039741913904810098 0.012212433572839736 0 -0.00076199777830397524 0.0087919098961864416 0 -2.9789500700943676e-06 0.013184110648097483 0 3.5552801993760398e-07 0.009998126760528088 0 0.00029314555596076329 0.015747050767916798 0 -0.00048716436706710111 0.016077568754134196 0 -2.1746966117171034e-06 0.013195457893116375 0 -0.00039741913904810098 0.012212433572839736 0 1.5979300719126994e-07 0.013187474736671716 0 -0.0002543628721714477 0.0059476294889912107 0 3.7280832537719383e-05 0.0072114005075700292 0 -5.9558447298190974e-05 0.0055255439466386364 0 3.7280832537719383e-05 0.0072114005075700292 0 7.6192161164847518e-05 0.0057428984728421168 0 -5.9558447298190974e-05 0.0055255439466386364 0 -0.00062829894255010763 0.006341307720877991 0 -0.00076199777830397524 0.0087919098961864416 0 3.7280832537719383e-05 0.0072114005075700292 0 -0.00076199777830397524 0.0087919098961864416 0 3.7280832537719383e-05 0.0072114005075700292 0 3.5552801993760398e-07 0.009998126760528088 0 3.7280832537719383e-05 0.0072114005075700292 0 3.5552801993760398e-07 0.009998126760528088 0 3.3760105980485323e-07 0.0068090479165473202 0 3.7280832537719383e-05 0.0072114005075700292 0 3.3760105980485323e-07 0.0068090479165473202 0 7.6192161164847518e-05 0.0057428984728421168 0 3.3760105980485323e-07 0.0068090479165473202 0 7.6192161164847518e-05 0.0057428984728421168 0 6.6683711483737314e-08 0.0036195489080025223 0 7.6192161164847518e-05 0.0057428984728421168 0 6.6683711483737314e-08 0.0036195489080025223 0 4.4810847994323273e-05 0.0047096985079852884 0 4.4810847994323273e-05 0.0047096985079852884 0 -3.4479596311885843e-06 0.0049446536287266699 0 -0.00012469550252941733 0.003622882158745561 0 6.6683711483737314e-08 0.0036195489080025223 0 4.4810847994323273e-05 0.0047096985079852884 0 -0.00012469550252941733 0.003622882158745561 0 7.6192161164847518e-05 0.0057428984728421168 0 4.4810847994323273e-05 0.0047096985079852884 0 -5.9558447298190974e-05 0.0055255439466386364 0 -0.0002543628721714477 0.0059476294889912107 0 -5.9558447298190974e-05 0.0055255439466386364 0 -0.00040669217798605737 0.0055030080212268495 0 4.4810847994323273e-05 0.0047096985079852884 0 -5.9558447298190974e-05 0.0055255439466386364 0 -3.4479596311885843e-06 0.0049446536287266699 0 -5.9558447298190974e-05 0.0055255439466386364 0 -0.00060572103335762128 0.0053764496706931505 0 -0.00040669217798605737 0.0055030080212268495 0 -0.003229793943564054 0.0012550492561067988 0 -0.0046525567431857937 0.0005955625972277229 0 -0.00048241242664677633 0.0048992749808776555 0 -0.003229793943564054 0.0012550492561067988 0 -0.0036962376270313008 -0.0027915540183477859 0 -0.0051996550431449981 -0.0027714869988596947 0 -0.0031649211435057284 -0.0041983235880951458 0 -0.003229793943564054 0.0012550492561067988 0 -0.0049203457533810212 -0.0062138824003972687 0 -0.003229793943564054 0.0012550492561067988 0 -0.0013718586719872106 0.0011233677269268168 0 -0.0036962376270313008 -0.0027915540183477859 0 -0.0051996550431449981 -0.0027714869988596947 0 -0.0031095518322720064 -0.0013521355136911187 0 -0.0068755805890781162 -0.003188367688436315 0 -0.0070124239416176851 -0.0035941063367185108 0 -0.0068416685410115996 -0.0035789894117960607 0 -0.0068755805890781162 -0.003188367688436315 0 -0.0070124239416176851 -0.0035941063367185108 0 -0.0071037166212179134 -0.003478256311991021 0 -0.0072611479546014473 -0.003950203151101229 0 -0.0070124239416176851 -0.0035941063367185108 0 -0.0071037166212179134 -0.003478256311991021 0 -0.0069557997166569364 -0.0047546494647824986 0 -0.0049203457533810212 -0.0062138824003972687 0 -0.007092627413737492 -0.0030006232099611878 0 -0.0071037166212179134 -0.003478256311991021 0 -0.0069156221264779251 -0.0031535412520359899 0 -0.0068755805890781162 -0.003188367688436315 0 -0.0071037166212179134 -0.003478256311991021 0 -0.0069156221264779251 -0.0031535412520359899 0 -0.0022138812978611437 -0.011566327324333398 0 -0.0021546697168362346 -0.011086516983516438 0 -0.0028056014180619982 -0.011125023814228578 0 -0.00094501214086498142 -0.0074550647530791884 0 -0.0049203457533810212 -0.0062138824003972687 0 -0.0045634994290867179 -0.0081443392744704936 0 -0.0049203457533810212 -0.0062138824003972687 0 -0.0071587040039207571 -0.0040231773705391542 0 -0.0070124239416176851 -0.0035941063367185108 0 -0.0070844584954022679 -0.0037877988317690167 0 -0.0036962376270313008 -0.0027915540183477859 0 -0.0031649211435057284 -0.0041983235880951458 0 -0.0018721694802948401 -0.0027750469566330304 0 -0.0036962376270313008 -0.0027915540183477859 0 -0.0018721694802948401 -0.0027750469566330304 0 -0.0031095518322720064 -0.0013521355136911187 0 -0.00046338579028372726 -0.0035013792097224202 0 -0.0018721694802948401 -0.0027750469566330304 0 2.3793550684536743e-05 -0.0021559602103983517 0 -0.00046338579028372726 -0.0035013792097224202 0 -0.0031649211435057284 -0.0041983235880951458 0 -0.0018721694802948401 -0.0027750469566330304 0 -0.0018721694802948401 -0.0027750469566330304 0 -0.00060905086155280791 0.00034814940454105383 0 2.3793550684536743e-05 -0.0021559602103983517 0 -0.0018721694802948401 -0.0027750469566330304 0 -0.00060905086155280791 0.00034814940454105383 0 -0.0031095518322720064 -0.0013521355136911187 0 -0.00069104954565149946 0.00066354461457489322 0 -0.0013718586719872106 0.0011233677269268168 0 6.6683711483737314e-08 0.0036195489080025223 0 -0.00060905086155280791 0.00034814940454105383 0 -0.00012469550252941733 0.003622882158745561 0 6.6683711483737314e-08 0.0036195489080025223 0 -0.00060905086155280791 0.00034814940454105383 0 -1.1507138190853984e-06 0.00043028910024973759 0 -0.00060905086155280791 0.00034814940454105383 0 -1.1507138190853984e-06 0.00043028910024973759 0 1.3869785849580198e-05 -0.0012252545604175074 0 -1.1507138190853984e-06 0.00043028910024973759 0 1.3869785849580198e-05 -0.0012252545604175074 0 8.0412019562919275e-07 -0.0027593318217026021 0 8.0412019562919275e-07 -0.0027593318217026021 0 0.00024374482883080881 -0.0028256020693243939 0 0.00013494273589370319 -0.0047774752572847332 0 1.3869785849580198e-05 -0.0012252545604175074 0 8.0412019562919275e-07 -0.0027593318217026021 0 0.00024374482883080881 -0.0028256020693243939 0 0.00024374482883080881 -0.0028256020693243939 0 0.00013494273589370319 -0.0047774752572847332 0 0.00047846689340861622 -0.0036237392453170353 0 1.3869785849580198e-05 -0.0012252545604175074 0 0.00024374482883080881 -0.0028256020693243939 0 2.3793550684536743e-05 -0.0021559602103983517 0 -0.00060905086155280791 0.00034814940454105383 0 1.3869785849580198e-05 -0.0012252545604175074 0 2.3793550684536743e-05 -0.0021559602103983517 0 0.00024374482883080881 -0.0028256020693243939 0 2.3793550684536743e-05 -0.0021559602103983517 0 0.00047846689340861622 -0.0036237392453170353 0 -5.310245305884894e-07 -0.0059490905101429892 0 0.00013494273589370319 -0.0047774752572847332 0 -0.00026986648330328932 -0.0072981382001656133 0 8.0412019562919275e-07 -0.0027593318217026021 0 -5.310245305884894e-07 -0.0059490905101429892 0 0.00013494273589370319 -0.0047774752572847332 0 0.00013494273589370319 -0.0047774752572847332 0 -0.00026986648330328932 -0.0072981382001656133 0 -7.222282885775721e-05 -0.0057154720408167277 0 -0.00026986648330328932 -0.0072981382001656133 0 -7.222282885775721e-05 -0.0057154720408167277 0 -0.00053421945227870294 -0.0099624793116152993 0 -0.0014461569768499292 -0.010953389776979494 0 -0.0011544218960029497 -0.011706494521989156 0 -0.00053421945227870294 -0.0099624793116152993 0 0.00013494273589370319 -0.0047774752572847332 0 -7.222282885775721e-05 -0.0057154720408167277 0 0.00047846689340861622 -0.0036237392453170353 0 -0.00054269343857946378 -0.0083918113256264918 0 -0.00065169977546810655 -0.0074107498877844661 0 -0.0014461569768499292 -0.010953389776979494 0 -0.0014558220148005482 -0.011380312654734864 0 -0.0016688169146445617 -0.011129766146112339 0 -0.0014558220148005482 -0.011380312654734864 0 -0.001632957542998095 -0.011510543525077238 0 -0.0011927169075671333 -0.011710558234505465 0 -0.0014461569768499292 -0.010953389776979494 0 -0.0014558220148005482 -0.011380312654734864 0 -0.0011544218960029497 -0.011706494521989156 0 -0.0014558220148005482 -0.011380312654734864 0 -0.0011544218960029497 -0.011706494521989156 0 -0.0011927169075671333 -0.011710558234505465 0 -0.00094501214086498142 -0.0074550647530791884 0 -0.00065169977546810655 -0.0074107498877844661 0 -0.00046338579028372726 -0.0035013792097224202 0 2.3793550684536743e-05 -0.0021559602103983517 0 0.00047846689340861622 -0.0036237392453170353 0 -0.0014558220148005482 -0.011380312654734864 0 -0.0016688169146445617 -0.011129766146112339 0 -0.001632957542998095 -0.011510543525077238 0 -0.0021546697168362346 -0.011086516983516438 0 -0.0016688169146445617 -0.011129766146112339 0 -0.001632957542998095 -0.011510543525077238 0 -0.0022138812978611437 -0.011566327324333398 0 -0.0021546697168362346 -0.011086516983516438 0 -0.001632957542998095 -0.011510543525077238 0 -0.0022138812978611437 -0.011566327324333398 0 -0.0016600621492712383 -0.01188952591682994 0 -0.001632957542998095 -0.011510543525077238 0 -0.0072446503630424174 -0.0052244356324795214 0 -0.0055719049030594344 -0.0054192539232179046 0 -0.0073964536467589206 -0.0062684328943237383 0 -0.0070271522114057645 -0.0043322145612468381 0 -0.0072446503630424174 -0.0052244356324795214 0 -0.0055719049030594344 -0.0054192539232179046 0 -0.0045634994290867179 -0.0081443392744704936 0 -0.0036359715805932497 -0.0086301536584612298 0 -0.0016600621492712383 -0.01188952591682994 0 -0.001632957542998095 -0.011510543525077238 0 -0.0012405164303706899 -0.011819281397854426 0 -0.001632957542998095 -0.011510543525077238 0 -0.0011927169075671333 -0.011710558234505465 0 -0.0012405164303706899 -0.011819281397854426 0 -0.0011544218960029497 -0.011706494521989156 0 -0.0011927169075671333 -0.011710558234505465 0 -0.0009382534205154031 -0.011906550897593812 0 -0.0011927169075671333 -0.011710558234505465 0 -0.00087390006782887733 -0.0118314262397974 0 -0.0009382534205154031 -0.011906550897593812 0 -0.0011927169075671333 -0.011710558234505465 0 -0.00087390006782887733 -0.0118314262397974 0 -0.0012405164303706899 -0.011819281397854426 0 -0.00087390006782887733 -0.0118314262397974 0 -0.0012405164303706899 -0.011819281397854426 0 -0.0010049898297401262 -0.011998056399062399 0 -0.0016600621492712383 -0.01188952591682994 0 -0.0012405164303706899 -0.011819281397854426 0 -0.0010049898297401262 -0.011998056399062399 0 -0.0036359715805932497 -0.0086301536584612298 0 -0.0017803782744235776 -0.010231899900502519 0 -0.0010049898297401262 -0.011998056399062399 0 -0.0001981476506944786 -0.011906536844146082 0 -0.00052836854881839208 -0.011793378152103419 0 -0.00087390006782887733 -0.0118314262397974 0 -0.0010049898297401262 -0.011998056399062399 0 -0.00052836854881839208 -0.011793378152103419 0 -0.0017803782744235776 -0.010231899900502519 0 -0.00031231471791121274 -0.011726629618442693 0 -0.0024412500343289644 -0.008464474758269008 0 -0.0020096274214481034 -0.011307846059809697 0 -0.0001981476506944786 -0.011906536844146082 0 -0.0020096274214481034 -0.011307846059809697 0 -0.0001981476506944786 -0.011906536844146082 0 -0.0010273632852706102 -0.012453295562547201 0 -0.0024412500343289644 -0.008464474758269008 0 -0.0036399936149231552 -0.011101706924561907 0 -0.0053051512831908927 -0.008370696753093796 0 -0.0024412500343289644 -0.008464474758269008 0 -0.0020096274214481034 -0.011307846059809697 0 -0.0036399936149231552 -0.011101706924561907 0 -0.0070374702890608548 -0.0095601457419236882 0 -0.0053051512831908927 -0.008370696753093796 0 -0.0057113812110957908 -0.011533142878964392 0 -0.0036399936149231552 -0.011101706924561907 0 -0.0053051512831908927 -0.008370696753093796 0 -0.0057113812110957908 -0.011533142878964392 0 -0.0094433559052065578 -0.0093916401597541714 0 -0.0070374702890608548 -0.0095601457419236882 0 -0.0073964536467589206 -0.0062684328943237383 0 -0.0070374702890608548 -0.0095601457419236882 0 -0.0057113812110957908 -0.011533142878964392 0 -0.0079926067188228322 -0.011858238959195428 0 -0.0094433559052065578 -0.0093916401597541714 0 -0.0070374702890608548 -0.0095601457419236882 0 -0.0079926067188228322 -0.011858238959195428 0 -0.0070374702890608548 -0.0095601457419236882 0 -0.0073964536467589206 -0.0062684328943237383 0 -0.0053051512831908927 -0.008370696753093796 0 -0.0055719049030594344 -0.0054192539232179046 0 -0.0073964536467589206 -0.0062684328943237383 0 -0.0053051512831908927 -0.008370696753093796 0 -0.0055719049030594344 -0.0054192539232179046 0 -0.0024412500343289644 -0.008464474758269008 0 -0.0053051512831908927 -0.008370696753093796 0 -0.00061778045683819841 -0.017590741770717486 0 -0.00093387243830323494 -0.01731731177704654 0 -0.00056471685945861598 -0.017084220453375442 0 0.00058520941713509009 -0.019011911195760057 0 -0.00056471685945861598 -0.017084220453375442 0 0.00029432264470005459 -0.017320124360401402 0 -0.00012374909981664996 -0.017545408110756618 0 -0.00061778045683819841 -0.017590741770717486 0 -0.00056471685945861598 -0.017084220453375442 0 0.00025986553313768934 -0.018256827145343161 0 -0.00053033172532463172 -0.017221180621015578 0 0.00058520941713509009 -0.019011911195760057 0 0.00029432264470005459 -0.017320124360401402 0 0.00080092408996321164 -0.018284104728772337 0 -0.00012374909981664996 -0.017545408110756618 0 -0.00048888814469931258 -0.01785787408968597 0 -0.00023879306447904054 -0.018362943376705288 0 -0.00012374909981664996 -0.017545408110756618 0 -0.00048888814469931258 -0.01785787408968597 0 -0.00061778045683819841 -0.017590741770717486 0 -0.00048888814469931258 -0.01785787408968597 0 -0.00061778045683819841 -0.017590741770717486 0 -0.0007065720970677895 -0.017830584198421349 0 -0.00089296324801799545 -0.017725480349022792 0 -0.00087814940354883947 -0.017686307036916222 0 -0.0013655371850541202 -0.017447923142812741 0 -0.0007065720970677895 -0.017830584198421349 0 -0.00087814940354883947 -0.017686307036916222 0 -0.00081087360105312962 -0.017770589407062998 0 -0.00089296324801799545 -0.017725480349022792 0 -0.00087814940354883947 -0.017686307036916222 0 -0.00081087360105312962 -0.017770589407062998 0 -0.00061778045683819841 -0.017590741770717486 0 -0.0007065720970677895 -0.017830584198421349 0 -0.00087814940354883947 -0.017686307036916222 0 -0.00091460547820341152 -0.014599041323444145 0 -0.00033297986686054885 -0.015060009368580868 0 -0.00089296324801799545 -0.017725480349022792 0 -0.0013655371850541202 -0.017447923142812741 0 -0.00064370033099394642 -0.017825557055088034 0 -0.0001981476506944786 -0.011906536844146082 0 -0.00052836854881839208 -0.011793378152103419 0 0.00018363459872671964 -0.01220049799793697 0 -0.0013655371850541202 -0.017447923142812741 0 -0.00093387243830323494 -0.01731731177704654 0 -0.001706713496825735 -0.01577643620867247 0 -0.00061778045683819841 -0.017590741770717486 0 -0.00087814940354883947 -0.017686307036916222 0 -0.00093387243830323494 -0.01731731177704654 0 -0.00087814940354883947 -0.017686307036916222 0 -0.0013655371850541202 -0.017447923142812741 0 -0.00093387243830323494 -0.01731731177704654 0 -0.001706713496825735 -0.01577643620867247 0 -0.00022977140115336238 -0.016110262863890418 0 -0.00056471685945861598 -0.017084220453375442 0 -0.00093387243830323494 -0.01731731177704654 0 -0.001706713496825735 -0.01577643620867247 0 -0.00056471685945861598 -0.017084220453375442 0 -0.00091460547820341152 -0.014599041323444145 0 -0.0012269246362615687 -0.013797290183376455 0 -0.00087390006782887733 -0.0118314262397974 0 -0.00052836854881839208 -0.011793378152103419 0 -0.00091452132176485332 -0.011868189261371467 0 -0.0009382534205154031 -0.011906550897593812 0 -0.00091452132176485332 -0.011868189261371467 0 -0.00079586433481006376 -0.012488436212766857 0 -0.00087390006782887733 -0.0118314262397974 0 -0.0009382534205154031 -0.011906550897593812 0 -0.00091452132176485332 -0.011868189261371467 0 -0.001706713496825735 -0.01577643620867247 0 4.848700460040278e-05 -0.014691930723635296 0 -0.00079586433481006376 -0.012488436212766857 0 -0.001706713496825735 -0.01577643620867247 0 4.848700460040278e-05 -0.014691930723635296 0 -0.00022977140115336238 -0.016110262863890418 0 -0.0012269246362615687 -0.013797290183376455 0 -0.00088300085973755165 -0.012577883114499413 0 4.848700460040278e-05 -0.014691930723635296 0 -0.00022977140115336238 -0.016110262863890418 0 0.00063808394968270152 -0.015744704061618944 0 -0.00022977140115336238 -0.016110262863890418 0 0.00029432264470005459 -0.017320124360401402 0 0.00063808394968270152 -0.015744704061618944 0 -0.00022977140115336238 -0.016110262863890418 0 -0.00056471685945861598 -0.017084220453375442 0 0.00029432264470005459 -0.017320124360401402 0 0.00029432264470005459 -0.017320124360401402 0 0.00063808394968270152 -0.015744704061618944 0 0.0014538898120839451 -0.015826325719534878 0 0.00026060678542520678 -0.017361606789047527 0 0.0011412042647789722 -0.017073812175902817 0 0.00029432264470005459 -0.017320124360401402 0 0.0010021528882941406 -0.018247064037286272 0 0.00080092408996321164 -0.018284104728772337 0 0.00094358493720094882 -0.014905703537526257 0 0.00063808394968270152 -0.015744704061618944 0 0.0014538898120839451 -0.015826325719534878 0 4.848700460040278e-05 -0.014691930723635296 0 0.00094358493720094882 -0.014905703537526257 0 0.00063808394968270152 -0.015744704061618944 0 0.00094358493720094882 -0.014905703537526257 0 0.00029755862559386828 -0.013172380354717558 0 0.00083973236054640766 -0.014046819028935974 0 4.848700460040278e-05 -0.014691930723635296 0 0.00094358493720094882 -0.014905703537526257 0 0.00029755862559386828 -0.013172380354717558 0 4.848700460040278e-05 -0.014691930723635296 0 0.00029755862559386828 -0.013172380354717558 0 -0.00079586433481006376 -0.012488436212766857 0 0.00029755862559386828 -0.013172380354717558 0 -0.00015164102135917758 -0.011783043665957451 0 0.0002155423207886744 -0.011836997453630619 0 0.00029755862559386828 -0.013172380354717558 0 0.00083973236054640766 -0.014046819028935974 0 0.0002155423207886744 -0.011836997453630619 0 -0.0011544218960029497 -0.011706494521989156 0 -0.0009382534205154031 -0.011906550897593812 0 -0.00079586433481006376 -0.012488436212766857 0 0.00029755862559386828 -0.013172380354717558 0 -0.00079586433481006376 -0.012488436212766857 0 -0.00015164102135917758 -0.011783043665957451 0 -0.00015164102135917758 -0.011783043665957451 0 -0.00053421945227870294 -0.0099624793116152993 0 0.0002155423207886744 -0.011836997453630619 0 -0.00079586433481006376 -0.012488436212766857 0 -0.00015164102135917758 -0.011783043665957451 0 -0.00053421945227870294 -0.0099624793116152993 0 -0.00054269343857946378 -0.0083918113256264918 0 -0.00035352228689130921 -0.0096048738043855303 0 -0.0011544218960029497 -0.011706494521989156 0 -0.00079586433481006376 -0.012488436212766857 0 -0.00053421945227870294 -0.0099624793116152993 0 -0.00026986648330328932 -0.0072981382001656133 0 -0.00053421945227870294 -0.0099624793116152993 0 -2.2553942161810994e-07 -0.0091379568534384163 0 -0.00053421945227870294 -0.0099624793116152993 0 -2.2553942161810994e-07 -0.0091379568534384163 0 0.0002155423207886744 -0.011836997453630619 0 -5.310245305884894e-07 -0.0059490905101429892 0 -0.00026986648330328932 -0.0072981382001656133 0 -2.2553942161810994e-07 -0.0091379568534384163 0 0.00083973236054640766 -0.014046819028935974 0 0.0002155423207886744 -0.011836997453630619 0 0.00059745712534904388 -0.014165661522442074 0 -2.2553942161810994e-07 -0.0091379568534384163 0 0.0002155423207886744 -0.011836997453630619 0 7.6906742759019601e-07 -0.012327464637219187 0 0.0002155423207886744 -0.011836997453630619 0 7.6906742759019601e-07 -0.012327464637219187 0 0.00059745712534904388 -0.014165661522442074 0 7.6906742759019601e-07 -0.012327464637219187 0 0.00059745712534904388 -0.014165661522442074 0 1.1367950369336802e-06 -0.01551556927860622 0 0.00059745712534904388 -0.014165661522442074 0 0.00058759786134970156 -0.015788515030101608 0 0.0011425044523652188 -0.015208148662590145 0 0.00059745712534904388 -0.014165661522442074 0 0.00058759786134970156 -0.015788515030101608 0 1.1367950369336802e-06 -0.01551556927860622 0 0.00058759786134970156 -0.015788515030101608 0 1.1367950369336802e-06 -0.01551556927860622 0 1.3647586435893734e-06 -0.018706468597830095 0 0.00058759786134970156 -0.015788515030101608 0 1.3647586435893734e-06 -0.018706468597830095 0 0.00027199314780572268 -0.018875145507033949 0 1.3647586435893734e-06 -0.018706468597830095 0 0.00027199314780572268 -0.018875145507033949 0 -3.0681428489866883e-06 -0.021889987250960377 0 0.00058759786134970156 -0.015788515030101608 0 0.0021575168152280009 -0.015108198905410123 0 0.0015245166392317258 -0.015919068523040012 0 0.00066436183017797013 -0.01619447682709297 0 0.0016790444053393935 -0.016204070683588461 0 0.00058759786134970156 -0.015788515030101608 0 0.0015245166392317258 -0.015919068523040012 0 0.0011425044523652188 -0.015208148662590145 0 0.0021575168152280009 -0.015108198905410123 0 0.0015245166392317258 -0.015919068523040012 0 0.0032733819772289745 -0.01656342420631466 0 0.0015245166392317258 -0.015919068523040012 0 0.0022352704178520964 -0.017190923298956422 0 0.0032733819772289745 -0.01656342420631466 0 0.0015245166392317258 -0.015919068523040012 0 0.0011425044523652188 -0.015208148662590145 0 0.001479120797837716 -0.016062809291577679 0 0.0015245166392317258 -0.015919068523040012 0 0.0022352704178520964 -0.017190923298956422 0 0.001479120797837716 -0.016062809291577679 0 0.0012533741482857778 -0.015272762175065529 0 0.0011425044523652188 -0.015208148662590145 0 0.001479120797837716 -0.016062809291577679 0 0.00094358493720094882 -0.014905703537526257 0 0.00083973236054640766 -0.014046819028935974 0 0.0012533741482857778 -0.015272762175065529 0 0.00083973236054640766 -0.014046819028935974 0 0.0012533741482857778 -0.015272762175065529 0 0.0011425044523652188 -0.015208148662590145 0 0.00083973236054640766 -0.014046819028935974 0 0.00059745712534904388 -0.014165661522442074 0 0.0011425044523652188 -0.015208148662590145 0 0.00018442294323951395 -0.027832268676614397 0 2.3319456451426247e-08 -0.025248128381847642 0 1.424467287933304e-06 -0.029764634073815983 0 0.00018442294323951395 -0.027832268676614397 0 -0.00082003462495601411 -0.027813304458372493 0 0.0002924740351499817 -0.029590123921372599 0 0.00018442294323951395 -0.027832268676614397 0 2.3319456451426247e-08 -0.025248128381847642 0 -0.00082003462495601411 -0.027813304458372493 0 2.3319456451426247e-08 -0.025248128381847642 0 -0.00082003462495601411 -0.027813304458372493 0 -0.00079569781511105086 -0.025997891782291227 0 -0.0015816269650810952 -0.028114136050124403 0 -0.00055671733819273757 -0.022389858831636349 0 -0.00055671733819273757 -0.022389858831636349 0 -6.4288194337071864e-07 -0.021896290419777753 0 2.3319456451426247e-08 -0.025248128381847642 0 -0.00079569781511105086 -0.025997891782291227 0 -2.9782088981430668e-06 -0.021900880258385821 0 0.00027199314780572268 -0.018875145507033949 0 -0.0017285212010205657 -0.019205768855846569 0 -3.0681428489866883e-06 -0.021889987250960377 0 0.0016790444053393935 -0.016204070683588461 0 -0.00055671733819273757 -0.022389858831636349 0 0.0021575168152280009 -0.015108198905410123 0 0.004214285903484688 -0.015169614210117985 0 0.0032733819772289745 -0.01656342420631466 0 0.0022352704178520964 -0.017190923298956422 0 0.0032733819772289745 -0.01656342420631466 0 0.0041676344936595463 -0.018578578008060381 0 0.0032733819772289745 -0.01656342420631466 0 0.0053264418530179457 -0.017070158943265665 0 0.0041676344936595463 -0.018578578008060381 0 0.004214285903484688 -0.015169614210117985 0 0.0032733819772289745 -0.01656342420631466 0 0.0053264418530179457 -0.017070158943265665 0 -0.00055671733819273757 -0.022389858831636349 0 0.0011391356921286973 -0.023994390152433265 0 -0.00082003462495601411 -0.027813304458372493 0 -0.0030662696572814276 -0.031403909041747932 0 -0.00040647886290350559 -0.031778785824646084 0 -0.00082003462495601411 -0.027813304458372493 0 -0.0047761963330872426 -0.027352626306174632 0 -0.0030662696572814276 -0.031403909041747932 0 -0.0030662696572814276 -0.031403909041747932 0 -0.00056002120696745995 -0.035719601762871457 0 -0.00099658392314697737 -0.035830960843153833 0 0.0011391356921286973 -0.023994390152433265 0 0.0025038457149374345 -0.027939401033709524 0 0.0053264418530179457 -0.017070158943265665 0 0.0063049589802678732 -0.01933363035041492 0 0.0041676344936595463 -0.018578578008060381 0 -0.0030662696572814276 -0.031403909041747932 0 -0.00040647886290350559 -0.031778785824646084 0 -0.00056002120696745995 -0.035719601762871457 0 -0.00066473676503623854 -0.035890917541607545 0 6.7274889843049973e-05 -0.035422253855802631 0 -0.00040647886290350559 -0.031778785824646084 0 -0.00056002120696745995 -0.035719601762871457 0 0.0014099420498537398 -0.031270049410378788 0 -0.00040647886290350559 -0.031778785824646084 0 0.0002924740351499817 -0.029590123921372599 0 0.0014099420498537398 -0.031270049410378788 0 -0.00082003462495601411 -0.027813304458372493 0 -0.00040647886290350559 -0.031778785824646084 0 0.0002924740351499817 -0.029590123921372599 0 0.0063049589802678732 -0.01933363035041492 0 0.005904189085062332 -0.021178528332378703 0 0.0071487089296050901 -0.021497746416534996 0 0.0025038457149374345 -0.027939401033709524 0 0.004690267026761747 -0.026278387409232308 0 -0.00056002120696745995 -0.035719601762871457 0 -0.00099658392314697737 -0.035830960843153833 0 -0.00095887078900909917 -0.035681775125422054 0 0.0063049589802678732 -0.01933363035041492 0 0.0051016044366231144 -0.020335450130121276 0 0.0041676344936595463 -0.018578578008060381 0 0.0063049589802678732 -0.01933363035041492 0 0.0051016044366231144 -0.020335450130121276 0 0.005904189085062332 -0.021178528332378703 0 0.0040977935245413762 -0.02015371572820918 0 0.0041676344936595463 -0.018578578008060381 0 0.0031747999855576223 -0.019299935297526362 0 0.0051016044366231144 -0.020335450130121276 0 0.0040977935245413762 -0.02015371572820918 0 0.0041676344936595463 -0.018578578008060381 0 0.0022352704178520964 -0.017190923298956422 0 0.0041676344936595463 -0.018578578008060381 0 0.0031747999855576223 -0.019299935297526362 0 0.0040977935245413762 -0.02015371572820918 0 0.0031747999855576223 -0.019299935297526362 0 0.0035069208795118142 -0.020385050707275122 0 0.0031747999855576223 -0.019299935297526362 0 0.0035069208795118142 -0.020385050707275122 0 0.0028055218047582215 -0.020039973521559576 0 0.0035069208795118142 -0.020385050707275122 0 0.0032942521374864004 -0.020776460309022353 0 0.0028055218047582215 -0.020039973521559576 0 0.0032942521374864004 -0.020776460309022353 0 0.0027550398108690346 -0.020819512107827912 0 0.0036195258332277335 -0.021476447118296639 0 0.0032942521374864004 -0.020776460309022353 0 0.0040021935758754405 -0.021086520467526904 0 0.0036195258332277335 -0.021476447118296639 0 0.0035069208795118142 -0.020385050707275122 0 0.0032942521374864004 -0.020776460309022353 0 0.0040021935758754405 -0.021086520467526904 0 0.0040021935758754405 -0.021086520467526904 0 0.0041883221047140052 -0.021676686742935453 0 0.0036195258332277335 -0.021476447118296639 0 0.0040021935758754405 -0.021086520467526904 0 0.0047962519547106357 -0.021038678983140331 0 0.004681779338224239 -0.021698198234545007 0 0.0040021935758754405 -0.021086520467526904 0 0.0041883221047140052 -0.021676686742935453 0 0.004681779338224239 -0.021698198234545007 0 0.0040977935245413762 -0.02015371572820918 0 0.0035069208795118142 -0.020385050707275122 0 0.0040021935758754405 -0.021086520467526904 0 0.0040977935245413762 -0.02015371572820918 0 0.0040021935758754405 -0.021086520467526904 0 0.0047962519547106357 -0.021038678983140331 0 0.0051016044366231144 -0.020335450130121276 0 0.0040977935245413762 -0.02015371572820918 0 0.0047962519547106357 -0.021038678983140331 0 0.0051016044366231144 -0.020335450130121276 0 0.0053824050996259861 -0.021256757795297239 0 0.0047962519547106357 -0.021038678983140331 0 0.0051016044366231144 -0.020335450130121276 0 0.0053824050996259861 -0.021256757795297239 0 0.005904189085062332 -0.021178528332378703 0 0.0053824050996259861 -0.021256757795297239 0 0.0047962519547106357 -0.021038678983140331 0 0.0053791540492604487 -0.021752756544307156 0 0.0047962519547106357 -0.021038678983140331 0 0.004681779338224239 -0.021698198234545007 0 0.0053791540492604487 -0.021752756544307156 0 0.0041883221047140052 -0.021676686742935453 0 0.004681779338224239 -0.021698198234545007 0 0.004658758920090259 -0.022178049362831742 0 0.004681779338224239 -0.021698198234545007 0 0.0051815857151163896 -0.022324053619834673 0 0.004658758920090259 -0.022178049362831742 0 0.004681779338224239 -0.021698198234545007 0 0.0051815857151163896 -0.022324053619834673 0 0.0053791540492604487 -0.021752756544307156 0 0.0051815857151163896 -0.022324053619834673 0 0.0053791540492604487 -0.021752756544307156 0 0.0057200707518999735 -0.022277491259956178 0 0.0053791540492604487 -0.021752756544307156 0 0.0057200707518999735 -0.022277491259956178 0 0.0058435966895464915 -0.021577240585829577 0 0.0051815857151163896 -0.022324053619834673 0 0.0056198935369190864 -0.022823838134963199 0 0.0057200707518999735 -0.022277491259956178 0 0.0056198935369190864 -0.022823838134963199 0 0.0057200707518999735 -0.022277491259956178 0 0.0060822425261181914 -0.023275045963332013 0 0.0057200707518999735 -0.022277491259956178 0 0.0058435966895464915 -0.021577240585829577 0 0.0064625735203161869 -0.02213778799496156 0 0.0058435966895464915 -0.021577240585829577 0 0.0061124664637453811 -0.021172131946334133 0 0.0064625735203161869 -0.02213778799496156 0 0.0053824050996259861 -0.021256757795297239 0 0.0053791540492604487 -0.021752756544307156 0 0.0058435966895464915 -0.021577240585829577 0 0.0053824050996259861 -0.021256757795297239 0 0.0058435966895464915 -0.021577240585829577 0 0.005904189085062332 -0.021178528332378703 0 0.0058435966895464915 -0.021577240585829577 0 0.005904189085062332 -0.021178528332378703 0 0.0061124664637453811 -0.021172131946334133 0 0.0067053028540156627 -0.022609370318393811 0 0.004690267026761747 -0.026278387409232308 0 0.0010021528882941406 -0.018247064037286272 0 0.0015104093464020315 -0.018140158392535705 0 0.0016648742501829232 -0.019223244455659719 0 0.0010021528882941406 -0.018247064037286272 0 0.0011477317023455263 -0.018868391803034679 0 0.00080092408996321164 -0.018284104728772337 0 0.00094358493720094882 -0.014905703537526257 0 0.0012533741482857778 -0.015272762175065529 0 0.0014538898120839451 -0.015826325719534878 0 0.0011412042647789722 -0.017073812175902817 0 0.0015870578127752818 -0.017091600044338812 0 0.0012533741482857778 -0.015272762175065529 0 0.0014538898120839451 -0.015826325719534878 0 0.001479120797837716 -0.016062809291577679 0 0.0022580349666362675 -0.017094973870761563 0 0.0015870578127752818 -0.017091600044338812 0 0.0022352704178520964 -0.017190923298956422 0 0.0015104093464020315 -0.018140158392535705 0 0.0021568331162674127 -0.019020082117707868 0 0.0022352704178520964 -0.017190923298956422 0 0.0031747999855576223 -0.019299935297526362 0 0.0021568331162674127 -0.019020082117707868 0 0.0031747999855576223 -0.019299935297526362 0 0.0021568331162674127 -0.019020082117707868 0 0.0028055218047582215 -0.020039973521559576 0 0.0015104093464020315 -0.018140158392535705 0 0.0021568331162674127 -0.019020082117707868 0 0.0016648742501829232 -0.019223244455659719 0 0.0021568331162674127 -0.019020082117707868 0 0.0022661852851022083 -0.020004748500423199 0 0.0016648742501829232 -0.019223244455659719 0 0.0021568331162674127 -0.019020082117707868 0 0.0028055218047582215 -0.020039973521559576 0 0.0022661852851022083 -0.020004748500423199 0 0.0032942521374864004 -0.020776460309022353 0 0.0028055218047582215 -0.020039973521559576 0 0.0027550398108690346 -0.020819512107827912 0 0.0028055218047582215 -0.020039973521559576 0 0.0027550398108690346 -0.020819512107827912 0 0.0022661852851022083 -0.020004748500423199 0 0.0019960578941957139 -0.02037034296573597 0 0.0022661852851022083 -0.020004748500423199 0 0.0016648742501829232 -0.019223244455659719 0 0.0027550398108690346 -0.020819512107827912 0 0.0019960578941957139 -0.02037034296573597 0 0.0022661852851022083 -0.020004748500423199 0 0.0019960578941957139 -0.02037034296573597 0 0.0016648742501829232 -0.019223244455659719 0 0.0014074192241883665 -0.020201376851013059 0 0.0016648742501829232 -0.019223244455659719 0 0.0011477317023455263 -0.018868391803034679 0 0.0014074192241883665 -0.020201376851013059 0 0.0010021528882941406 -0.018247064037286272 0 0.0016648742501829232 -0.019223244455659719 0 0.0011477317023455263 -0.018868391803034679 0 0.00058520941713509009 -0.019011911195760057 0 0.0011477317023455263 -0.018868391803034679 0 0.00080092408996321164 -0.018284104728772337 0 0.00025986553313768934 -0.018256827145343161 0 0.001117902635034595 -0.019309830995946124 0 0.00058520941713509009 -0.019011911195760057 0 0.0011477317023455263 -0.018868391803034679 0 0.0014074192241883665 -0.020201376851013059 0 -0.00012374909981664996 -0.017545408110756618 0 0.00084314743593794019 -0.018344933183864917 0 -0.00023879306447904054 -0.018362943376705288 0 0.00038770024805944239 -0.019068195101217933 0 0.00084314743593794019 -0.018344933183864917 0 -0.00023879306447904054 -0.018362943376705288 0 0.00038770024805944239 -0.019068195101217933 0 -0.00023879306447904054 -0.018362943376705288 0 -8.1107085299901143e-05 -0.018923851213417081 0 -0.0018840575541319105 -0.018011863175021372 0 -0.0018784190609211662 -0.017947197306265407 0 -0.001744141704202485 -0.017657443690266304 0 0.00038770024805944239 -0.019068195101217933 0 0.00051408753168284075 -0.019825456303130057 0 -8.1107085299901143e-05 -0.018923851213417081 0 0.00038770024805944239 -0.019068195101217933 0 0.00051408753168284075 -0.019825456303130057 0 0.0012241007679068096 -0.019803827223100538 0 -0.0018840575541319105 -0.018011863175021372 0 -0.0020654912428138246 -0.018354718781381611 0 -0.002065419546088115 -0.018325540612523793 0 -0.00073994254683448649 -0.018965364740017757 0 0.0004885651083279595 -0.019285936114542747 0 0.00051408753168284075 -0.019825456303130057 0 0.0012241007679068096 -0.019803827223100538 0 0.0020915631776896241 -0.020991438955919317 0 -0.0018840575541319105 -0.018011863175021372 0 -0.002065419546088115 -0.018325540612523793 0 -0.0018784190609211662 -0.017947197306265407 0 0.00038770024805944239 -0.019068195101217933 0 0.0012241007679068096 -0.019803827223100538 0 0.00084314743593794019 -0.018344933183864917 0 0.001117902635034595 -0.019309830995946124 0 0.0021383467893911316 -0.020502154682695985 0 0.0012241007679068096 -0.019803827223100538 0 0.00084314743593794019 -0.018344933183864917 0 0.0022162412824249383 -0.020668801791520017 0 0.0019960578941957139 -0.02037034296573597 0 0.0014074192241883665 -0.020201376851013059 0 0.0022162412824249383 -0.020668801791520017 0 0.0019960578941957139 -0.02037034296573597 0 0.0023875662139734035 -0.020769343817303609 0 0.0022162412824249383 -0.020668801791520017 0 0.0027550398108690346 -0.020819512107827912 0 0.0019960578941957139 -0.02037034296573597 0 0.0023875662139734035 -0.020769343817303609 0 0.0027550398108690346 -0.020819512107827912 0 0.0026398086049513876 -0.021155096038358585 0 0.0031851714519799037 -0.021508709232286663 0 0.0027550398108690346 -0.020819512107827912 0 0.0023875662139734035 -0.020769343817303609 0 0.0026398086049513876 -0.021155096038358585 0 0.0023875662139734035 -0.020769343817303609 0 0.0026398086049513876 -0.021155096038358585 0 0.0022162412824249383 -0.020668801791520017 0 -0.0044911227407437851 -0.023195566403816134 0 -0.0013511564010128098 -0.023244205326402135 0 -0.005763057263730431 -0.027941625985936275 0 -0.005782371953298786 -0.027995197943738465 0 -0.0057740046520681548 -0.028106531321490734 0 0.0004885651083279595 -0.019285936114542747 0 -0.0013511564010128098 -0.023244205326402135 0 0.0026398086049513876 -0.021155096038358585 0 0.0020915631776896241 -0.020991438955919317 0 0.003168317960843642 -0.022028626931021544 0 -0.0020654912428138246 -0.018354718781381611 0 -0.002065419546088115 -0.018325540612523793 0 -0.0021271784419448925 -0.018732844446837527 0 0.0012241007679068096 -0.019803827223100538 0 0.0022162412824249383 -0.020668801791520017 0 0.0020915631776896241 -0.020991438955919317 0 0.0026398086049513876 -0.021155096038358585 0 0.0022162412824249383 -0.020668801791520017 0 0.0020915631776896241 -0.020991438955919317 0 -0.005763057263730431 -0.027941625985936275 0 -0.005707228194708279 -0.027837199408931364 0 -0.005616709274212049 -0.027769248893122499 0 -0.005763057263730431 -0.027941625985936275 0 -0.005707228194708279 -0.027837199408931364 0 -0.0057607130541612109 -0.027914536324370982 0 -0.005763057263730431 -0.027941625985936275 0 -0.0057607130541612109 -0.027914536324370982 0 -0.005782371953298786 -0.027995197943738465 0 -0.0057607130541612109 -0.027914536324370982 0 -0.0057692198368128923 -0.027880863836952791 0 -0.005782371953298786 -0.027995197943738465 0 -0.005707228194708279 -0.027837199408931364 0 -0.0057607130541612109 -0.027914536324370982 0 -0.0057692198368128923 -0.027880863836952791 0 -0.005707228194708279 -0.027837199408931364 0 -0.0057692198368128923 -0.027880863836952791 0 -0.0056433194278432252 -0.027688232637910624 0 -0.0057692198368128923 -0.027880863836952791 0 -0.0057960091821217634 -0.028071875174265577 0 -0.0058155916067122266 -0.028111991391580753 0 -0.005782371953298786 -0.027995197943738465 0 -0.0057960091821217634 -0.028071875174265577 0 -0.0057740046520681548 -0.028106531321490734 0 -0.0057692198368128923 -0.027880863836952791 0 -0.005782371953298786 -0.027995197943738465 0 -0.0057960091821217634 -0.028071875174265577 0 -0.0069805621216522395 -0.02834200287097215 0 -0.0063121232605776924 -0.027841000560713414 0 -0.0068536665082115202 -0.027814184079900529 0 -0.0063861551083746089 -0.028226682836515946 0 -0.006026982822599127 -0.027774548408216353 0 -0.0057692198368128923 -0.027880863836952791 0 -0.0058155916067122266 -0.028111991391580753 0 -0.0057495764947021666 -0.027726164293631089 0 -0.0057692198368128923 -0.027880863836952791 0 -0.0057495764947021666 -0.027726164293631089 0 -0.0056433194278432252 -0.027688232637910624 0 -0.006026982822599127 -0.027774548408216353 0 -0.005582738058014282 -0.027423725417525031 0 -0.0057495764947021666 -0.027726164293631089 0 -0.0055474481192304657 -0.027323931924773524 0 -0.0056433194278432252 -0.027688232637910624 0 -0.0055474481192304657 -0.027323931924773524 0 -0.0054904997270864807 -0.027524120189944875 0 -0.0056433194278432252 -0.027688232637910624 0 -0.0055474481192304657 -0.027323931924773524 0 -0.0052353301322010885 -0.026855338057332066 0 -0.0051560041548039384 -0.027187958256029116 0 -0.0055474481192304657 -0.027323931924773524 0 -0.0054904997270864807 -0.027524120189944875 0 -0.0051560041548039384 -0.027187958256029116 0 -0.0054904997270864807 -0.027524120189944875 0 -0.0051434448533064347 -0.027392807350622297 0 -0.0051560041548039384 -0.027187958256029116 0 -0.0054904997270864807 -0.027524120189944875 0 -0.0054112164362992805 -0.027707566869552575 0 -0.005542945723003798 -0.027678414143278193 0 -0.0054904997270864807 -0.027524120189944875 0 -0.0054112164362992805 -0.027707566869552575 0 -0.0051434448533064347 -0.027392807350622297 0 -0.0044911227407437851 -0.023195566403816134 0 -0.003494513272967448 -0.022803263728186918 0 -0.0054112164362992805 -0.027707566869552575 0 -0.005616709274212049 -0.027769248893122499 0 -0.005542945723003798 -0.027678414143278193 0 -0.005763057263730431 -0.027941625985936275 0 -0.0054112164362992805 -0.027707566869552575 0 -0.005616709274212049 -0.027769248893122499 0 -0.005707228194708279 -0.027837199408931364 0 -0.005616709274212049 -0.027769248893122499 0 -0.0056433194278432252 -0.027688232637910624 0 -0.005616709274212049 -0.027769248893122499 0 -0.0056433194278432252 -0.027688232637910624 0 -0.005542945723003798 -0.027678414143278193 0 -0.0054904997270864807 -0.027524120189944875 0 -0.0056433194278432252 -0.027688232637910624 0 -0.005542945723003798 -0.027678414143278193 0 -0.0046133307847411572 -0.028031538218484614 0 -0.0045459975338276032 -0.028729022306126725 0 -0.0039672727967109836 -0.028630159973753278 0 -0.0046133307847411572 -0.028031538218484614 0 -0.0049796065337892187 -0.028320985136079294 0 -0.0045459975338276032 -0.028729022306126725 0 0.0052755391827094206 -0.023484601756171047 0 0.0058622879785955005 -0.023757980556009695 0 0.0056928474864642526 -0.023950219603639286 0 0.0058622879785955005 -0.023757980556009695 0 0.00544600118485929 -0.023131238145250425 0 0.0060586023251095978 -0.023719856295820883 0 0.0052755391827094206 -0.023484601756171047 0 0.0058622879785955005 -0.023757980556009695 0 0.00544600118485929 -0.023131238145250425 0 0.0056198935369190864 -0.022823838134963199 0 0.00544600118485929 -0.023131238145250425 0 0.0060586023251095978 -0.023719856295820883 0 0.0051815857151163896 -0.022324053619834673 0 0.0056198935369190864 -0.022823838134963199 0 0.00544600118485929 -0.023131238145250425 0 0.0051815857151163896 -0.022324053619834673 0 0.00544600118485929 -0.023131238145250425 0 0.005002241262586353 -0.022687891869663281 0 0.0051537013382192609 -0.023041921982024708 0 0.00544600118485929 -0.023131238145250425 0 0.005002241262586353 -0.022687891869663281 0 0.0052755391827094206 -0.023484601756171047 0 0.0051537013382192609 -0.023041921982024708 0 0.0049587222795112011 -0.022910408770913843 0 0.0052755391827094206 -0.023484601756171047 0 0.0051537013382192609 -0.023041921982024708 0 0.00544600118485929 -0.023131238145250425 0 0.0052755391827094206 -0.023484601756171047 0 0.0049587222795112011 -0.022910408770913843 0 0.0047157512590257477 -0.022813827967914167 0 0.0049587222795112011 -0.022910408770913843 0 0.005002241262586353 -0.022687891869663281 0 0.0046337310368553567 -0.022519095651731005 0 0.0051537013382192609 -0.023041921982024708 0 0.0049587222795112011 -0.022910408770913843 0 0.005002241262586353 -0.022687891869663281 0 0.0051815857151163896 -0.022324053619834673 0 0.005002241262586353 -0.022687891869663281 0 0.004658758920090259 -0.022178049362831742 0 0.005002241262586353 -0.022687891869663281 0 0.004658758920090259 -0.022178049362831742 0 0.0046337310368553567 -0.022519095651731005 0 0.004658758920090259 -0.022178049362831742 0 0.0046337310368553567 -0.022519095651731005 0 0.0042649262729871282 -0.022137184691137089 0 0.0049587222795112011 -0.022910408770913843 0 0.0046337310368553567 -0.022519095651731005 0 0.0047157512590257477 -0.022813827967914167 0 0.0046337310368553567 -0.022519095651731005 0 0.0047157512590257477 -0.022813827967914167 0 0.0043746732434399868 -0.022507092531355008 0 0.0047157512590257477 -0.022813827967914167 0 0.0046637752803349551 -0.022874599422057072 0 0.0043746732434399868 -0.022507092531355008 0 0.0052755391827094206 -0.023484601756171047 0 0.0046637752803349551 -0.022874599422057072 0 0.0042782972711578934 -0.022700083287338024 0 0.0046637752803349551 -0.022874599422057072 0 0.0042782972711578934 -0.022700083287338024 0 0.0043746732434399868 -0.022507092531355008 0 0.0049562494203521127 -0.023427169794722605 0 0.0040346490231672767 -0.023280222033137978 0 -0.0046133307847411572 -0.028031538218484614 0 -0.0049796065337892187 -0.028320985136079294 0 -0.0055253884619867119 -0.028137894510186577 0 -0.0049796065337892187 -0.028320985136079294 0 -0.0055253884619867119 -0.028137894510186577 0 -0.0051359856144735762 -0.028502760853577978 0 0.00061064079886988579 -0.025970581467843316 0 -0.0017910229561492656 -0.026535409083244421 0 0.0052755391827094206 -0.023484601756171047 0 0.0027872384619553351 -0.024267074457273295 0 0.0025029592736630474 -0.023959887535064589 0 0.0052755391827094206 -0.023484601756171047 0 0.0056928474864642526 -0.023950219603639286 0 0.0027872384619553351 -0.024267074457273295 0 0.0052755391827094206 -0.023484601756171047 0 0.0047157512590257477 -0.022813827967914167 0 0.0046637752803349551 -0.022874599422057072 0 -0.0017910229561492656 -0.026535409083244421 0 -0.0013511564010128098 -0.023244205326402135 0 0.0042782972711578934 -0.022700083287338024 0 0.0038238974835824182 -0.022086266593069059 0 0.003168317960843642 -0.022028626931021544 0 0.0027872384619553351 -0.024267074457273295 0 0.0025029592736630474 -0.023959887535064589 0 -0.00062880624631778798 -0.024507979841240268 0 0.0040346490231672767 -0.023280222033137978 0 -0.0013511564010128098 -0.023244205326402135 0 -0.0055253884619867119 -0.028137894510186577 0 -0.0057740046520681548 -0.028106531321490734 0 -0.0056712673394355741 -0.028229287785149104 0 -0.0055253884619867119 -0.028137894510186577 0 -0.0056712673394355741 -0.028229287785149104 0 -0.0055776026322266982 -0.02832404224867521 0 -0.0055253884619867119 -0.028137894510186577 0 -0.0055776026322266982 -0.02832404224867521 0 -0.0054462707415078599 -0.028407277150039805 0 0.0042782972711578934 -0.022700083287338024 0 0.0043746732434399868 -0.022507092531355008 0 0.0038238974835824182 -0.022086266593069059 0 0.0046337310368553567 -0.022519095651731005 0 0.0043746732434399868 -0.022507092531355008 0 0.0042649262729871282 -0.022137184691137089 0 0.0043746732434399868 -0.022507092531355008 0 0.0042649262729871282 -0.022137184691137089 0 0.0038238974835824182 -0.022086266593069059 0 0.0041883221047140052 -0.021676686742935453 0 0.004658758920090259 -0.022178049362831742 0 0.0042649262729871282 -0.022137184691137089 0 0.0041883221047140052 -0.021676686742935453 0 0.0042649262729871282 -0.022137184691137089 0 0.0036195258332277335 -0.021476447118296639 0 0.0042649262729871282 -0.022137184691137089 0 0.0038238974835824182 -0.022086266593069059 0 0.0036195258332277335 -0.021476447118296639 0 0.0027550398108690346 -0.020819512107827912 0 0.0036195258332277335 -0.021476447118296639 0 0.0031851714519799037 -0.021508709232286663 0 0.0038238974835824182 -0.022086266593069059 0 0.0036195258332277335 -0.021476447118296639 0 0.0031851714519799037 -0.021508709232286663 0 0.0026398086049513876 -0.021155096038358585 0 0.0031851714519799037 -0.021508709232286663 0 0.003168317960843642 -0.022028626931021544 0 0.0038238974835824182 -0.022086266593069059 0 0.0031851714519799037 -0.021508709232286663 0 0.003168317960843642 -0.022028626931021544 0 -0.0057960091821217634 -0.028071875174265577 0 -0.0057740046520681548 -0.028106531321490734 0 -0.0057634652225451452 -0.028250685080175336 0 -0.0057740046520681548 -0.028106531321490734 0 -0.0057634652225451452 -0.028250685080175336 0 -0.0056712673394355741 -0.028229287785149104 0 -0.0057634652225451452 -0.028250685080175336 0 -0.0056676495008700194 -0.028386637642159925 0 -0.0056712673394355741 -0.028229287785149104 0 -0.0057960091821217634 -0.028071875174265577 0 -0.0058155916067122266 -0.028111991391580753 0 -0.0057634652225451452 -0.028250685080175336 0 -0.0058155916067122266 -0.028111991391580753 0 -0.0057634652225451452 -0.028250685080175336 0 -0.0056804569833719077 -0.028554848486236982 0 -0.0069805621216522395 -0.02834200287097215 0 -0.006594219091364587 -0.028724771596724444 0 -0.0069167560619558966 -0.028868639507216968 0 -0.0063861551083746089 -0.028226682836515946 0 -0.0060984034761890661 -0.028660514936566642 0 -0.006594219091364587 -0.028724771596724444 0 -0.0055286413683039003 -0.029730651598754449 0 -0.0062030970308412821 -0.029465951140819485 0 -0.006594219091364587 -0.028724771596724444 0 -0.0062030970308412821 -0.029465951140819485 0 -0.0069167560619558966 -0.028868639507216968 0 -0.0056804569833719077 -0.028554848486236982 0 -0.0055463094192704388 -0.028465921448307417 0 -0.0053631971684084748 -0.028636711836239313 0 -0.0055463094192704388 -0.028465921448307417 0 -0.0056676495008700194 -0.028386637642159925 0 -0.0055776026322266982 -0.02832404224867521 0 -0.0057634652225451452 -0.028250685080175336 0 -0.0056804569833719077 -0.028554848486236982 0 -0.0056676495008700194 -0.028386637642159925 0 -0.0056804569833719077 -0.028554848486236982 0 -0.0055463094192704388 -0.028465921448307417 0 -0.0056676495008700194 -0.028386637642159925 0 -0.0056676495008700194 -0.028386637642159925 0 -0.0056712673394355741 -0.028229287785149104 0 -0.0055776026322266982 -0.02832404224867521 0 -0.0055463094192704388 -0.028465921448307417 0 -0.0055776026322266982 -0.02832404224867521 0 -0.0054462707415078599 -0.028407277150039805 0 -0.0051359856144735762 -0.028502760853577978 0 -0.0053631971684084748 -0.028636711836239313 0 -0.0052458685687724969 -0.029124015935012161 0 -0.0054462707415078599 -0.028407277150039805 0 -0.0051359856144735762 -0.028502760853577978 0 -0.0053631971684084748 -0.028636711836239313 0 -0.0055463094192704388 -0.028465921448307417 0 -0.0054462707415078599 -0.028407277150039805 0 -0.0053631971684084748 -0.028636711836239313 0 -0.0055253884619867119 -0.028137894510186577 0 -0.0054462707415078599 -0.028407277150039805 0 -0.0051359856144735762 -0.028502760853577978 0 -0.0056804569833719077 -0.028554848486236982 0 -0.0053631971684084748 -0.028636711836239313 0 -0.0052458685687724969 -0.029124015935012161 0 -0.0060984034761890661 -0.028660514936566642 0 -0.0053200253740438939 -0.029001509279521595 0 -0.006594219091364587 -0.028724771596724444 0 -0.0052458685687724969 -0.029124015935012161 0 -0.0055286413683039003 -0.029730651598754449 0 -0.0052458685687724969 -0.029124015935012161 0 -0.0048010635235017701 -0.030298793818600962 0 -0.0055286413683039003 -0.029730651598754449 0 -0.0052458685687724969 -0.029124015935012161 0 -0.0048010635235017701 -0.030298793818600962 0 -0.0041828864084581001 -0.029524681531335965 0 -0.0051359856144735762 -0.028502760853577978 0 -0.0052458685687724969 -0.029124015935012161 0 -0.0045459975338276032 -0.028729022306126725 0 -0.0052458685687724969 -0.029124015935012161 0 -0.0045459975338276032 -0.028729022306126725 0 -0.0041828864084581001 -0.029524681531335965 0 -0.0049796065337892187 -0.028320985136079294 0 -0.0051359856144735762 -0.028502760853577978 0 -0.0045459975338276032 -0.028729022306126725 0 -0.004786705520383459 -0.030999338405560194 0 -0.0048010635235017701 -0.030298793818600962 0 -0.0052775128002799758 -0.03050050276355375 0 -0.004786705520383459 -0.030999338405560194 0 -0.0052775128002799758 -0.03050050276355375 0 -0.0054571008629341108 -0.030939245234896887 0 -0.0055286413683039003 -0.029730651598754449 0 -0.0057390534926565597 -0.030135729133013791 0 -0.0052775128002799758 -0.03050050276355375 0 -0.0048010635235017701 -0.030298793818600962 0 -0.0055286413683039003 -0.029730651598754449 0 -0.0052775128002799758 -0.03050050276355375 0 -0.0055286413683039003 -0.029730651598754449 0 -0.0057390534926565597 -0.030135729133013791 0 -0.0062030970308412821 -0.029465951140819485 0 -0.0057390534926565597 -0.030135729133013791 0 -0.0052775128002799758 -0.03050050276355375 0 -0.0058505558451265247 -0.030681091814455205 0 -0.0052775128002799758 -0.03050050276355375 0 -0.0058505558451265247 -0.030681091814455205 0 -0.0054571008629341108 -0.030939245234896887 0 -0.0058505558451265247 -0.030681091814455205 0 -0.0063759887025356746 -0.030649260625672831 0 -0.0061722372278546819 -0.030949115445478924 0 -0.0057390534926565597 -0.030135729133013791 0 -0.0058505558451265247 -0.030681091814455205 0 -0.0063628167128760493 -0.030049782365359965 0 -0.0058505558451265247 -0.030681091814455205 0 -0.0063759887025356746 -0.030649260625672831 0 -0.0063628167128760493 -0.030049782365359965 0 -0.0057390534926565597 -0.030135729133013791 0 -0.0062030970308412821 -0.029465951140819485 0 -0.0063628167128760493 -0.030049782365359965 0 -0.0062030970308412821 -0.029465951140819485 0 -0.0063628167128760493 -0.030049782365359965 0 -0.0069167560619558966 -0.028868639507216968 0 -0.0069167560619558966 -0.028868639507216968 0 -0.0072452400557465758 -0.026995837925287487 0 -0.0068536665082115202 -0.027814184079900529 0 -0.0068861366303609719 -0.028756841440587873 0 -0.0069668939223758476 -0.028754918914303512 0 -0.0069805621216522395 -0.02834200287097215 0 -0.0069167560619558966 -0.028868639507216968 0 -0.0068536665082115202 -0.027814184079900529 0 -0.0063628167128760493 -0.030049782365359965 0 -0.0069167560619558966 -0.028868639507216968 0 -0.0068526525904663996 -0.030655585284706268 0 -0.0063759887025356746 -0.030649260625672831 0 -0.0068526525904663996 -0.030655585284706268 0 -0.0064919371428980403 -0.030944146219388183 0 -0.0063759887025356746 -0.030649260625672831 0 -0.0063628167128760493 -0.030049782365359965 0 -0.0068526525904663996 -0.030655585284706268 0 -0.0064919371428980403 -0.030944146219388183 0 -0.0064022519329554892 -0.030998235048444473 0 -0.0062464191293486329 -0.031095133899362259 0 -0.0064919371428980403 -0.030944146219388183 0 -0.0064022519329554892 -0.030998235048444473 0 -0.0063241849772927407 -0.031048397170532236 0 -0.0064022519329554892 -0.030998235048444473 0 -0.0064213500302136121 -0.030992874896804783 0 -0.0064124085601883806 -0.030844439081417641 0 -0.0064022519329554892 -0.030998235048444473 0 -0.0063241849772927407 -0.031048397170532236 0 -0.0064213500302136121 -0.030992874896804783 0 -0.0063241849772927407 -0.031048397170532236 0 -0.0064213500302136121 -0.030992874896804783 0 -0.0062762409087274949 -0.03108466319165 0 -0.0063241849772927407 -0.031048397170532236 0 -0.0062762409087274949 -0.03108466319165 0 -0.0060968383984988193 -0.031080763011374787 0 -0.0063241849772927407 -0.031048397170532236 0 -0.0061722372278546819 -0.030949115445478924 0 -0.0060968383984988193 -0.031080763011374787 0 -0.0064919371428980403 -0.030944146219388183 0 -0.0063241849772927407 -0.031048397170532236 0 -0.0061722372278546819 -0.030949115445478924 0 -0.0063759887025356746 -0.030649260625672831 0 -0.0064919371428980403 -0.030944146219388183 0 -0.0061722372278546819 -0.030949115445478924 0 -0.0058505558451265247 -0.030681091814455205 0 -0.0061722372278546819 -0.030949115445478924 0 -0.005879356725953677 -0.031100965406957296 0 -0.0058505558451265247 -0.030681091814455205 0 -0.005879356725953677 -0.031100965406957296 0 -0.0054571008629341108 -0.030939245234896887 0 -0.005879356725953677 -0.031100965406957296 0 -0.0054571008629341108 -0.030939245234896887 0 -0.0056044282710259602 -0.031457001422980996 0 -0.0062438350809285231 -0.031385809078062883 0 -0.0062093350586394135 -0.032364172622535103 0 -0.0061722372278546819 -0.030949115445478924 0 -0.005879356725953677 -0.031100965406957296 0 -0.0060968383984988193 -0.031080763011374787 0 -0.005879356725953677 -0.031100965406957296 0 -0.0059755530896071453 -0.031107884563647714 0 -0.0060968383984988193 -0.031080763011374787 0 -0.0062960830001558572 -0.030743425940655791 0 -0.0062093350586394135 -0.032364172622535103 0 -0.0062762409087274949 -0.03108466319165 0 -0.0059755530896071453 -0.031107884563647714 0 -0.0060968383984988193 -0.031080763011374787 0 -0.0064455105758243758 -0.030581537213546107 0 -0.0064512559442011239 -0.030769156131033485 0 -0.0062275882614619346 -0.030856024665750686 0 -0.0066176011893932171 -0.030769668048112389 0 -0.0064455105758243758 -0.030581537213546107 0 -0.0064512559442011239 -0.030769156131033485 0 -0.0062093350586394135 -0.032364172622535103 0 -0.0062276625943508074 -0.033179909731528394 0 -0.0070566416222266832 -0.034753870268475311 0 -0.0053467838529896146 -0.034864947117478146 0 -0.0058005575405723313 -0.036487428168697406 0 -0.0056077926758953591 -0.033136066211065227 0 -0.0070566416222266832 -0.034753870268475311 0 -0.0053467838529896146 -0.034864947117478146 0 -0.0052074942729623715 -0.032177662238820903 0 -0.0062093350586394135 -0.032364172622535103 0 -0.004786705520383459 -0.030999338405560194 0 -0.0054571008629341108 -0.030939245234896887 0 -0.0056044282710259602 -0.031457001422980996 0 -0.0056196732906062434 -0.026651169570651931 0 -0.0064006953099342125 -0.026848625101500871 0 -0.0058345444929390677 -0.026016139288960238 0 -0.0056196732906062434 -0.026651169570651931 0 -0.0058345444929390677 -0.026016139288960238 0 -0.0052671097171013209 -0.025882475651334225 0 -0.0056196732906062434 -0.026651169570651931 0 -0.0052671097171013209 -0.025882475651334225 0 -0.0050396681433698296 -0.026322310429797709 0 -0.0056196732906062434 -0.026651169570651931 0 -0.0052353301322010885 -0.026855338057332066 0 -0.0050396681433698296 -0.026322310429797709 0 -0.0055474481192304657 -0.027323931924773524 0 -0.0056196732906062434 -0.026651169570651931 0 -0.0052353301322010885 -0.026855338057332066 0 -0.0063121232605776924 -0.027841000560713414 0 -0.0055474481192304657 -0.027323931924773524 0 -0.0056196732906062434 -0.026651169570651931 0 -0.0063121232605776924 -0.027841000560713414 0 -0.0068536665082115202 -0.027814184079900529 0 -0.0064006953099342125 -0.026848625101500871 0 -0.0063121232605776924 -0.027841000560713414 0 -0.0056196732906062434 -0.026651169570651931 0 -0.0064006953099342125 -0.026848625101500871 0 -0.0072452400557465758 -0.026995837925287487 0 -0.0068536665082115202 -0.027814184079900529 0 -0.0064006953099342125 -0.026848625101500871 0 -0.0072452400557465758 -0.026995837925287487 0 -0.0064006953099342125 -0.026848625101500871 0 -0.0069243093210533775 -0.025706539172333662 0 -0.0064006953099342125 -0.026848625101500871 0 -0.0062829922792705236 -0.025556861693121921 0 -0.0058345444929390677 -0.026016139288960238 0 -0.0064006953099342125 -0.026848625101500871 0 -0.0062829922792705236 -0.025556861693121921 0 -0.0069243093210533775 -0.025706539172333662 0 -0.0068526525904663996 -0.030655585284706268 0 -0.0064919371428980403 -0.030944146219388183 0 -0.0062464191293486329 -0.031095133899362259 0 -0.0069668939223758476 -0.028754918914303512 0 -0.0065674495869839644 -0.02836270005574653 0 -0.0064022519329554892 -0.030998235048444473 0 -0.0062464191293486329 -0.031095133899362259 0 -0.0061387535457001641 -0.030736949108203491 0 -0.0062464191293486329 -0.031095133899362259 0 -0.0054306090961144197 -0.03080156167546003 0 -0.0061387535457001641 -0.030736949108203491 0 -0.0065674495869839644 -0.02836270005574653 0 -0.0059800777481034033 -0.027666621842945081 0 -0.0062829922792705236 -0.025556861693121921 0 -0.0069243093210533775 -0.025706539172333662 0 -0.0065644851556048408 -0.024640227754107555 0 -0.0062829922792705236 -0.025556861693121921 0 -0.0056523630449688035 -0.025208663767388784 0 -0.0065644851556048408 -0.024640227754107555 0 -0.0062829922792705236 -0.025556861693121921 0 -0.0058345444929390677 -0.026016139288960238 0 -0.0056523630449688035 -0.025208663767388784 0 -0.0058345444929390677 -0.026016139288960238 0 -0.0052671097171013209 -0.025882475651334225 0 -0.0056523630449688035 -0.025208663767388784 0 -0.0052671097171013209 -0.025882475651334225 0 -0.0056523630449688035 -0.025208663767388784 0 -0.0049309938973603959 -0.02523844573890147 0 -0.0056523630449688035 -0.025208663767388784 0 -0.0052463925892360045 -0.024703943970924715 0 -0.0057288729889216688 -0.024290606870360609 0 -0.0056523630449688035 -0.025208663767388784 0 -0.0052463925892360045 -0.024703943970924715 0 -0.0049309938973603959 -0.02523844573890147 0 -0.0052463925892360045 -0.024703943970924715 0 -0.0045446206476277076 -0.024698234116727179 0 -0.0049309938973603959 -0.02523844573890147 0 -0.0045446206476277076 -0.024698234116727179 0 -0.0044557937587530756 -0.025151560854513064 0 -0.0041461604909999606 -0.024830707457093256 0 -0.0045446206476277076 -0.024698234116727179 0 -0.0044557937587530756 -0.025151560854513064 0 -0.0049309938973603959 -0.02523844573890147 0 -0.0044557937587530756 -0.025151560854513064 0 -0.0046612254453379642 -0.025754403458358832 0 -0.0042649854954054447 -0.025457401122058188 0 -0.0044557937587530756 -0.025151560854513064 0 -0.0049309938973603959 -0.02523844573890147 0 -0.0046612254453379642 -0.025754403458358832 0 -0.0052671097171013209 -0.025882475651334225 0 -0.0049309938973603959 -0.02523844573890147 0 -0.0046612254453379642 -0.025754403458358832 0 -0.0052671097171013209 -0.025882475651334225 0 -0.0050396681433698296 -0.026322310429797709 0 -0.0046612254453379642 -0.025754403458358832 0 -0.0050396681433698296 -0.026322310429797709 0 -0.0046612254453379642 -0.025754403458358832 0 -0.004553707871140949 -0.02632080025745669 0 -0.0046612254453379642 -0.025754403458358832 0 -0.004553707871140949 -0.02632080025745669 0 -0.0043203884389954213 -0.025933243473701999 0 -0.0046612254453379642 -0.025754403458358832 0 -0.0043203884389954213 -0.025933243473701999 0 -0.0042649854954054447 -0.025457401122058188 0 -0.004553707871140949 -0.02632080025745669 0 -0.0048571266815754903 -0.026720677542992784 0 -0.0044197413067133921 -0.026658583870029604 0 -0.0050396681433698296 -0.026322310429797709 0 -0.004553707871140949 -0.02632080025745669 0 -0.0048571266815754903 -0.026720677542992784 0 -0.0052353301322010885 -0.026855338057332066 0 -0.0050396681433698296 -0.026322310429797709 0 -0.0048571266815754903 -0.026720677542992784 0 -0.0037855087144312493 -0.025830601617984408 0 -0.00409007655734339 -0.026306144294657573 0 -0.0036555420013969983 -0.026420876247511972 0 -0.0037855087144312493 -0.025830601617984408 0 -0.0033360148946676772 -0.025885514514777469 0 -0.0036555420013969983 -0.026420876247511972 0 -0.0037855087144312493 -0.025830601617984408 0 -0.0036478549736614204 -0.025407873511147993 0 -0.0033360148946676772 -0.025885514514777469 0 -0.004553707871140949 -0.02632080025745669 0 -0.00409007655734339 -0.026306144294657573 0 -0.0044197413067133921 -0.026658583870029604 0 -0.004553707871140949 -0.02632080025745669 0 -0.00409007655734339 -0.026306144294657573 0 -0.0043203884389954213 -0.025933243473701999 0 -0.00409007655734339 -0.026306144294657573 0 -0.0040780370449761917 -0.025875969413487129 0 -0.0043203884389954213 -0.025933243473701999 0 -0.0037855087144312493 -0.025830601617984408 0 -0.00409007655734339 -0.026306144294657573 0 -0.0040780370449761917 -0.025875969413487129 0 -0.0040780370449761917 -0.025875969413487129 0 -0.0042649854954054447 -0.025457401122058188 0 -0.0039589329633401664 -0.025221058045641911 0 -0.0040780370449761917 -0.025875969413487129 0 -0.0043203884389954213 -0.025933243473701999 0 -0.0042649854954054447 -0.025457401122058188 0 -0.0037855087144312493 -0.025830601617984408 0 -0.0036478549736614204 -0.025407873511147993 0 -0.0039589329633401664 -0.025221058045641911 0 -0.0037855087144312493 -0.025830601617984408 0 -0.0040780370449761917 -0.025875969413487129 0 -0.0039589329633401664 -0.025221058045641911 0 -0.0036478549736614204 -0.025407873511147993 0 -0.0037527012266229901 -0.025102778578977854 0 -0.0036118778644974861 -0.025105015523983518 0 -0.0036478549736614204 -0.025407873511147993 0 -0.0037527012266229901 -0.025102778578977854 0 -0.0039589329633401664 -0.025221058045641911 0 -0.0039589329633401664 -0.025221058045641911 0 -0.0041461604909999606 -0.024830707457093256 0 -0.003941216738936242 -0.02458232898288704 0 -0.0037527012266229901 -0.025102778578977854 0 -0.003941216738936242 -0.02458232898288704 0 -0.0035157710029715874 -0.024958811435122141 0 -0.0037527012266229901 -0.025102778578977854 0 -0.0039589329633401664 -0.025221058045641911 0 -0.003941216738936242 -0.02458232898288704 0 -0.0011704040576250498 -0.016609347301856994 0 -0.00043230445546740083 -0.015661034725322001 0 -0.0044557937587530756 -0.025151560854513064 0 -0.0042649854954054447 -0.025457401122058188 0 -0.0041461604909999606 -0.024830707457093256 0 -0.0042649854954054447 -0.025457401122058188 0 -0.0039589329633401664 -0.025221058045641911 0 -0.0041461604909999606 -0.024830707457093256 0 -0.0041461604909999606 -0.024830707457093256 0 -0.003941216738936242 -0.02458232898288704 0 -0.0039922497932149961 -0.024352413902016729 0 -0.0045446206476277076 -0.024698234116727179 0 -0.0041461604909999606 -0.024830707457093256 0 -0.0039922497932149961 -0.024352413902016729 0 -0.0011704040576250498 -0.016609347301856994 0 -0.00076207843771671272 -0.017003751893267353 0 0.0017693371432362253 -0.0086215782481559745 0 -7.5823884260639601e-05 -0.0082633275582031391 0 0.00017314436487444443 -0.0094252543756565658 0 -7.5823884260639601e-05 -0.0082633275582031391 0 -0.0013882496445642705 -0.0084195159495921833 0 0.00017314436487444443 -0.0094252543756565658 0 -7.5823884260639601e-05 -0.0082633275582031391 0 -0.0006109323672372493 -0.0073784987116014495 0 -0.0013882496445642705 -0.0084195159495921833 0 -7.5823884260639601e-05 -0.0082633275582031391 0 -0.0006109323672372493 -0.0073784987116014495 0 0.00088147565667087029 -0.0072505768638479072 0 0.0017693371432362253 -0.0086215782481559745 0 -7.5823884260639601e-05 -0.0082633275582031391 0 0.00088147565667087029 -0.0072505768638479072 0 -0.0037527012266229901 -0.025102778578977854 0 -0.0035157710029715874 -0.024958811435122141 0 -0.0036118778644974861 -0.025105015523983518 0 -0.0039317762164931191 -0.0071915596698131339 0 -0.0030366874396359259 -0.0083767834113120648 0 -0.0025151978273143367 -0.0075009816141664498 0 -0.0030366874396359259 -0.0083767834113120648 0 -0.0013882496445642705 -0.0084195159495921833 0 -0.0025151978273143367 -0.0075009816141664498 0 -0.0006109323672372493 -0.0073784987116014495 0 -0.0013882496445642705 -0.0084195159495921833 0 -0.0017726707298445763 -0.0068227864659266939 0 -0.0013882496445642705 -0.0084195159495921833 0 -0.0017726707298445763 -0.0068227864659266939 0 -0.0025151978273143367 -0.0075009816141664498 0 -0.0032049497385991657 -0.0064831002848844826 0 -0.0017726707298445763 -0.0068227864659266939 0 -0.0025151978273143367 -0.0075009816141664498 0 -0.0032049497385991657 -0.0064831002848844826 0 -0.003048686793510546 -0.005514372417840049 0 -0.0024748945864100694 -0.0059952983793250848 0 -0.0032049497385991657 -0.0064831002848844826 0 -0.0017726707298445763 -0.0068227864659266939 0 -0.0024748945864100694 -0.0059952983793250848 0 -0.0017726707298445763 -0.0068227864659266939 0 -0.0024748945864100694 -0.0059952983793250848 0 -0.0018068167391312609 -0.0051789127386096673 0 -0.0017726707298445763 -0.0068227864659266939 0 -0.0018068167391312609 -0.0051789127386096673 0 -0.00057956005048395568 -0.0060104885379818514 0 -0.0013917238182039379 -0.0092623870248644408 0 -0.00015680715060022296 -0.008971302759574213 0 -0.0010912473788766035 -0.011799924551483307 0 0.00051750012707968082 -0.012293985764144222 0 -0.0009185900165681486 -0.010377084789139353 0 -0.00079316003168483835 -0.020517611498744932 0 -0.0018053212700145525 -0.013670475154825395 0 -0.0013917238182039379 -0.0092623870248644408 0 0.0004357318351993877 0.00038014404240984989 0 -0.003048686793510546 -0.005514372417840049 0 -0.0018068167391312609 -0.0051789127386096673 0 -0.0028101750303215116 -0.0045091364154174222 0 -0.003048686793510546 -0.005514372417840049 0 -0.0024748945864100694 -0.0059952983793250848 0 -0.0018068167391312609 -0.0051789127386096673 0 -0.00043230445546740083 -0.015661034725322001 0 -0.00079316003168483835 -0.020517611498744932 0 -0.0036478549736614204 -0.025407873511147993 0 -0.0035157710029715874 -0.024958811435122141 0 -0.0033360148946676772 -0.025885514514777469 0 -0.00043230445546740083 -0.015661034725322001 0 -0.00015680715060022296 -0.008971302759574213 0 -0.0035157710029715874 -0.024958811435122141 0 -0.0028073307566986445 -0.025768539075981898 0 -0.0033360148946676772 -0.025885514514777469 0 -0.0036478549736614204 -0.025407873511147993 0 -0.0035157710029715874 -0.024958811435122141 0 -0.0036118778644974861 -0.025105015523983518 0 0.0018768107987353854 -0.014129417781972799 0 0.00042786294817784173 -0.012984849483412162 0 0.00051750012707968082 -0.012293985764144222 0 -0.0006109323672372493 -0.0073784987116014495 0 -0.0017726707298445763 -0.0068227864659266939 0 -0.00057956005048395568 -0.0060104885379818514 0 -0.0006109323672372493 -0.0073784987116014495 0 0.00088147565667087029 -0.0072505768638479072 0 -0.00057956005048395568 -0.0060104885379818514 0 -0.0010912473788766035 -0.011799924551483307 0 0.00042786294817784173 -0.012984849483412162 0 0.00051750012707968082 -0.012293985764144222 0 -0.0028073307566986445 -0.025768539075981898 0 -0.0033360148946676772 -0.025885514514777469 0 -0.0031851747271623657 -0.026597073051196744 0 -0.0033360148946676772 -0.025885514514777469 0 -0.0031851747271623657 -0.026597073051196744 0 -0.0036555420013969983 -0.026420876247511972 0 -0.0037370570344110528 -0.02332876187801278 0 -0.0018053212700145525 -0.013670475154825395 0 -0.0028073307566986445 -0.025768539075981898 0 -0.0031851747271623657 -0.026597073051196744 0 -0.0023342940533714997 -0.026284765154570077 0 -0.0030855731562236272 -0.017621557287687009 0 -0.0053094326161645016 -0.018027182578045774 0 -0.0048599594293926391 -0.016289668068388705 0 -0.0021319292563522206 -0.01653605509252928 0 -0.0047243102904271665 -0.016335725998272117 0 -0.0030855731562236272 -0.017621557287687009 0 -0.0029108581230747575 -0.016793949074574016 0 -0.0048599594293926391 -0.016289668068388705 0 -0.0030855731562236272 -0.017621557287687009 0 -0.0029108581230747575 -0.016793949074574016 0 -0.0020126558488763905 -0.017499178769980309 0 -0.0010912473788766035 -0.011799924551483307 0 -0.0026199858608455923 -0.01056822120661376 0 -0.0009185900165681486 -0.010377084789139353 0 0.0016133099691321242 0.0010997490083083901 0 0.0034277402976316653 0.0012918469638952543 0 0.0022647231187059385 0.0029060107492696282 0 0.0004357318351993877 0.00038014404240984989 0 -0.0018053212700145525 -0.013670475154825395 0 -0.0018053212700145525 -0.013670475154825395 0 -0.0026492778231259149 -0.0060255079665743061 0 -0.0053094326161645016 -0.018027182578045774 0 -0.0048599594293926391 -0.016289668068388705 0 -0.0068613760414414594 -0.016518389788984914 0 -0.0036120432755373496 -0.0055493425781703697 0 -0.0026492778231259149 -0.0060255079665743061 0 -0.0087487266496042645 -0.014335391022268634 0 -0.0068613760414414594 -0.016518389788984914 0 -0.0064182123927360654 -0.014067916469172407 0 -0.0048599594293926391 -0.016289668068388705 0 -0.0064182123927360654 -0.014067916469172407 0 -0.0044296430424313376 -0.013497749683203041 0 -0.0048599594293926391 -0.016289668068388705 0 -0.0068613760414414594 -0.016518389788984914 0 -0.0064182123927360654 -0.014067916469172407 0 -0.0064182123927360654 -0.014067916469172407 0 -0.0044296430424313376 -0.013497749683203041 0 -0.0057113812110957908 -0.011533142878964392 0 -0.0036399936149231552 -0.011101706924561907 0 -0.0044296430424313376 -0.013497749683203041 0 -0.0057113812110957908 -0.011533142878964392 0 -0.0087487266496042645 -0.014335391022268634 0 -0.0064182123927360654 -0.014067916469172407 0 -0.0079926067188228322 -0.011858238959195428 0 -0.0064182123927360654 -0.014067916469172407 0 -0.0057113812110957908 -0.011533142878964392 0 -0.0079926067188228322 -0.011858238959195428 0 -0.0017092157645018425 -0.014852044515988361 0 -0.0028453049827611076 -0.014801115184338026 0 -0.0021704534899286291 -0.01318185902378383 0 -0.0017092157645018425 -0.014852044515988361 0 -0.0010824004599441705 -0.013842274009153459 0 -0.00060375029237827698 -0.016436225013715854 0 -0.0011977747965535464 -0.016217261634596875 0 -0.0017092157645018425 -0.014852044515988361 0 -0.00060375029237827698 -0.016436225013715854 0 -0.0011977747965535464 -0.016217261634596875 0 -0.0017092157645018425 -0.014852044515988361 0 -0.0028453049827611076 -0.014801115184338026 0 -0.0048599594293926391 -0.016289668068388705 0 -0.0044296430424313376 -0.013497749683203041 0 -0.0028453049827611076 -0.014801115184338026 0 -0.0011977747965535464 -0.016217261634596875 0 -0.0048599594293926391 -0.016289668068388705 0 -0.0028453049827611076 -0.014801115184338026 0 -0.0044296430424313376 -0.013497749683203041 0 -0.0028453049827611076 -0.014801115184338026 0 -0.0021704534899286291 -0.01318185902378383 0 -0.0036399936149231552 -0.011101706924561907 0 -0.0044296430424313376 -0.013497749683203041 0 -0.0021704534899286291 -0.01318185902378383 0 -0.0020096274214481034 -0.011307846059809697 0 -0.0036399936149231552 -0.011101706924561907 0 -0.0021704534899286291 -0.01318185902378383 0 -0.0020096274214481034 -0.011307846059809697 0 -0.0021704534899286291 -0.01318185902378383 0 -0.0010273632852706102 -0.012453295562547201 0 -0.0017092157645018425 -0.014852044515988361 0 -0.0021704534899286291 -0.01318185902378383 0 -0.0010824004599441705 -0.013842274009153459 0 -0.0021704534899286291 -0.01318185902378383 0 -0.0010824004599441705 -0.013842274009153459 0 -0.0010273632852706102 -0.012453295562547201 0 -0.00064370033099394642 -0.017825557055088034 0 -0.00070244523129365903 -0.017371421581083128 0 -0.00060375029237827698 -0.016436225013715854 0 -0.0001981476506944786 -0.011906536844146082 0 -0.0010273632852706102 -0.012453295562547201 0 0.00018363459872671964 -0.01220049799793697 0 -0.00033297986686054885 -0.015060009368580868 0 -0.00054280008953005868 -0.016346078179165464 0 -0.0010824004599441705 -0.013842274009153459 0 -0.0010273632852706102 -0.012453295562547201 0 0.00018363459872671964 -0.01220049799793697 0 -0.0010824004599441705 -0.013842274009153459 0 0.00018363459872671964 -0.01220049799793697 0 -0.00060375029237827698 -0.016436225013715854 0 -0.00064370033099394642 -0.017825557055088034 0 -0.00070244523129365903 -0.017371421581083128 0 -0.00081087360105312962 -0.017770589407062998 0 -0.00089296324801799545 -0.017725480349022792 0 -0.00064370033099394642 -0.017825557055088034 0 -0.00081087360105312962 -0.017770589407062998 0 -0.0011977747965535464 -0.016217261634596875 0 -0.00060375029237827698 -0.016436225013715854 0 -0.00043509661428969376 -0.017220540432209823 0 -0.00070244523129365903 -0.017371421581083128 0 -0.00062718780218357366 -0.01714876504236533 0 -0.00060375029237827698 -0.016436225013715854 0 -0.00062718780218357366 -0.01714876504236533 0 -0.00060375029237827698 -0.016436225013715854 0 -0.00043509661428969376 -0.017220540432209823 0 -0.0006120651790505995 -0.017502232300640221 0 -0.00058599423554652125 -0.017916723493336683 0 -0.00043509661428969376 -0.017220540432209823 0 -0.00062718780218357366 -0.01714876504236533 0 -0.0006120651790505995 -0.017502232300640221 0 -0.00043509661428969376 -0.017220540432209823 0 -0.00062718780218357366 -0.01714876504236533 0 -0.0006120651790505995 -0.017502232300640221 0 -0.00070362215340179094 -0.017498557118354883 0 -0.0006120651790505995 -0.017502232300640221 0 -0.00070362215340179094 -0.017498557118354883 0 -0.00069246695453339425 -0.017734336329611008 0 -0.00070244523129365903 -0.017371421581083128 0 -0.00062718780218357366 -0.01714876504236533 0 -0.00070362215340179094 -0.017498557118354883 0 -0.0006120651790505995 -0.017502232300640221 0 -0.00069246695453339425 -0.017734336329611008 0 -0.00058599423554652125 -0.017916723493336683 0 -0.00069246695453339425 -0.017734336329611008 0 -0.00081087360105312962 -0.017770589407062998 0 -0.00070757518788662846 -0.017895629458949461 0 -0.00070244523129365903 -0.017371421581083128 0 -0.00070362215340179094 -0.017498557118354883 0 -0.00081087360105312962 -0.017770589407062998 0 -0.00070362215340179094 -0.017498557118354883 0 -0.00069246695453339425 -0.017734336329611008 0 -0.00081087360105312962 -0.017770589407062998 0 -0.0007065720970677895 -0.017830584198421349 0 -0.00081087360105312962 -0.017770589407062998 0 -0.00070757518788662846 -0.017895629458949461 0 -0.0007065720970677895 -0.017830584198421349 0 -0.00057294800610715828 -0.018058968276832191 0 -0.00070757518788662846 -0.017895629458949461 0 -0.00048888814469931258 -0.01785787408968597 0 -0.0007065720970677895 -0.017830584198421349 0 -0.00057294800610715828 -0.018058968276832191 0 -0.00057294800610715828 -0.018058968276832191 0 -0.00052034178331814701 -0.018282008984166678 0 -0.00063583660872687476 -0.018050379798830399 0 -0.00069246695453339425 -0.017734336329611008 0 -0.00063583660872687476 -0.018050379798830399 0 -0.00070757518788662846 -0.017895629458949461 0 -0.00057294800610715828 -0.018058968276832191 0 -0.00063583660872687476 -0.018050379798830399 0 -0.00070757518788662846 -0.017895629458949461 0 -0.00048888814469931258 -0.01785787408968597 0 -0.00057294800610715828 -0.018058968276832191 0 -0.00023879306447904054 -0.018362943376705288 0 -0.00057294800610715828 -0.018058968276832191 0 -0.00052034178331814701 -0.018282008984166678 0 -0.00023879306447904054 -0.018362943376705288 0 -0.00052034178331814701 -0.018282008984166678 0 -0.00023879306447904054 -0.018362943376705288 0 -0.00041308004618263586 -0.018564873935707851 0 -0.00073994254683448649 -0.018965364740017757 0 -0.0010931419430975657 -0.018097096862700814 0 0.00051408753168284075 -0.019825456303130057 0 -8.1107085299901143e-05 -0.018923851213417081 0 -0.00059756483353913536 -0.018564128283969007 0 -0.00023879306447904054 -0.018362943376705288 0 -8.1107085299901143e-05 -0.018923851213417081 0 -0.00041308004618263586 -0.018564873935707851 0 -0.00041308004618263586 -0.018564873935707851 0 -0.00059756483353913536 -0.018564128283969007 0 -0.00058401875680506572 -0.018281281664501638 0 -8.1107085299901143e-05 -0.018923851213417081 0 -0.00041308004618263586 -0.018564873935707851 0 -0.00059756483353913536 -0.018564128283969007 0 -0.00059756483353913536 -0.018564128283969007 0 -0.00058599423554652125 -0.017916723493336683 0 -0.00043509661428969376 -0.017220540432209823 0 -0.0010931419430975657 -0.018097096862700814 0 -0.0011707662586777961 -0.017242852018230823 0 -0.00069246695453339425 -0.017734336329611008 0 -0.00063583660872687476 -0.018050379798830399 0 -0.00058599423554652125 -0.017916723493336683 0 -0.00063583660872687476 -0.018050379798830399 0 -0.00058401875680506572 -0.018281281664501638 0 -0.00058599423554652125 -0.017916723493336683 0 -0.00052034178331814701 -0.018282008984166678 0 -0.00063583660872687476 -0.018050379798830399 0 -0.00058401875680506572 -0.018281281664501638 0 -0.00052034178331814701 -0.018282008984166678 0 -0.00041308004618263586 -0.018564873935707851 0 -0.00058401875680506572 -0.018281281664501638 0 -0.00059756483353913536 -0.018564128283969007 0 -0.00058401875680506572 -0.018281281664501638 0 -0.00058599423554652125 -0.017916723493336683 0 -0.0047120873364081299 -0.027333723764416853 0 -0.0044269608261312361 -0.026961218722858765 0 -0.0039793426124922066 -0.026916960450944379 0 -0.001744141704202485 -0.017657443690266304 0 -0.0017439031959204858 -0.017636099437663193 0 -0.001962069742814149 -0.017256943979884254 0 -0.0054112164362992805 -0.027707566869552575 0 -0.0047120873364081299 -0.027333723764416853 0 -0.0051434448533064347 -0.027392807350622297 0 -0.0047120873364081299 -0.027333723764416853 0 -0.0051434448533064347 -0.027392807350622297 0 -0.0049392122311271566 -0.027219737365884143 0 -0.003494513272967448 -0.022803263728186918 0 -0.0033008576938625637 -0.022518958661560451 0 -0.0018784190609211662 -0.017947197306265407 0 -0.001744141704202485 -0.017657443690266304 0 -0.0017439031959204858 -0.017636099437663193 0 -0.0047120873364081299 -0.027333723764416853 0 -0.0049392122311271566 -0.027219737365884143 0 -0.0047327092811693767 -0.02697161214976275 0 -0.0048571266815754903 -0.026720677542992784 0 -0.0051560041548039384 -0.027187958256029116 0 -0.0047327092811693767 -0.02697161214976275 0 -0.0051560041548039384 -0.027187958256029116 0 -0.0049392122311271566 -0.027219737365884143 0 -0.0047327092811693767 -0.02697161214976275 0 -0.0051434448533064347 -0.027392807350622297 0 -0.0051560041548039384 -0.027187958256029116 0 -0.0049392122311271566 -0.027219737365884143 0 -0.0052353301322010885 -0.026855338057332066 0 -0.0048571266815754903 -0.026720677542992784 0 -0.0051560041548039384 -0.027187958256029116 0 -0.0048571266815754903 -0.026720677542992784 0 -0.0047327092811693767 -0.02697161214976275 0 -0.0044197413067133921 -0.026658583870029604 0 -0.0044269608261312361 -0.026961218722858765 0 -0.0047327092811693767 -0.02697161214976275 0 -0.0044197413067133921 -0.026658583870029604 0 -0.0047120873364081299 -0.027333723764416853 0 -0.0044269608261312361 -0.026961218722858765 0 -0.0047327092811693767 -0.02697161214976275 0 -0.0044269608261312361 -0.026961218722858765 0 -0.0041710190342940951 -0.026691699635473052 0 -0.0039793426124922066 -0.026916960450944379 0 -0.00409007655734339 -0.026306144294657573 0 -0.0044197413067133921 -0.026658583870029604 0 -0.0041710190342940951 -0.026691699635473052 0 -0.0044269608261312361 -0.026961218722858765 0 -0.0044197413067133921 -0.026658583870029604 0 -0.0041710190342940951 -0.026691699635473052 0 -0.0041710190342940951 -0.026691699635473052 0 -0.0039733144441360972 -0.026589016689858913 0 -0.0039793426124922066 -0.026916960450944379 0 -0.00409007655734339 -0.026306144294657573 0 -0.0041710190342940951 -0.026691699635473052 0 -0.0039733144441360972 -0.026589016689858913 0 -0.00409007655734339 -0.026306144294657573 0 -0.0039733144441360972 -0.026589016689858913 0 -0.0036555420013969983 -0.026420876247511972 0 -0.0031851747271623657 -0.026597073051196744 0 -0.0036555420013969983 -0.026420876247511972 0 -0.0039793426124922066 -0.026916960450944379 0 -0.0039733144441360972 -0.026589016689858913 0 -0.0036555420013969983 -0.026420876247511972 0 -0.0039793426124922066 -0.026916960450944379 0 -0.0037370570344110528 -0.02332876187801278 0 -0.0028491065658473413 -0.022039296389016503 0 -0.0021319292563522206 -0.01653605509252928 0 -0.0011707662586777961 -0.017242852018230823 0 -0.0029108581230747575 -0.016793949074574016 0 -0.001962069742814149 -0.017256943979884254 0 -0.0020126558488763905 -0.017499178769980309 0 -0.0017439031959204858 -0.017636099437663193 0 -0.001962069742814149 -0.017256943979884254 0 -0.0020126558488763905 -0.017499178769980309 0 -0.0033008576938625637 -0.022518958661560451 0 -0.0028491065658473413 -0.022039296389016503 0 -0.00079311960025060433 -0.054468234433358562 0 -0.0031100370378178885 -0.052764200467757955 0 -0.0011516566681287238 -0.051572421543759746 0 5.5495256686387616e-07 -0.054992119551402735 0 -0.00079311960025060433 -0.054468234433358562 0 -0.0011516566681287238 -0.051572421543759746 0 5.5495256686387616e-07 -0.054992119551402735 0 -0.00079311960025060433 -0.054468234433358562 0 -6.0161065415653475e-07 -0.055001969514777115 0 -0.0033265056561663188 -0.052697271560951879 0 -0.0014885702251977134 -0.054052281560835636 0 -0.00079311960025060433 -0.054468234433358562 0 -0.0031100370378178885 -0.052764200467757955 0 -0.00096242672260054532 -0.055389016273207983 0 -0.0044612299636764144 -0.051966886536575808 0 -0.0031100370378178885 -0.052764200467757955 0 -0.0041445344156509599 -0.052534654557810451 0 -0.0031100370378178885 -0.052764200467757955 0 -0.0041445344156509599 -0.052534654557810451 0 -0.0036386776696701387 -0.052703564299043992 0 -0.0044612299636764144 -0.051966886536575808 0 -0.0051760575501130987 -0.052107315099424012 0 -0.0041445344156509599 -0.052534654557810451 0 -0.0044612299636764144 -0.051966886536575808 0 -0.0042298582039205874 -0.051253950674246013 0 -0.0055895483195217057 -0.051049009596421557 0 -0.0044612299636764144 -0.051966886536575808 0 -0.0042298582039205874 -0.051253950674246013 0 -0.0031100370378178885 -0.052764200467757955 0 -0.0042298582039205874 -0.051253950674246013 0 -0.0031100370378178885 -0.052764200467757955 0 -0.0030471093402092194 -0.051030664464857198 0 -0.0042298582039205874 -0.051253950674246013 0 -0.0048386403130577082 -0.049351211555154754 0 -0.0055895483195217057 -0.051049009596421557 0 -0.0042298582039205874 -0.051253950674246013 0 -0.0030471093402092194 -0.051030664464857198 0 -0.0048386403130577082 -0.049351211555154754 0 7.2188167174371874e-05 -0.050069317005921647 0 8.2565679515366115e-05 -0.051844203885821019 0 0.00010110636298014544 -0.050434572500768493 0 -0.0023998959162274407 -0.049486494826778589 0 -0.0007931095216763838 -0.052284524630695203 0 7.2188167174371874e-05 -0.050069317005921647 0 8.2565679515366115e-05 -0.051844203885821019 0 6.0050604347815718e-05 -0.051919350806693576 0 -0.0030471093402092194 -0.051030664464857198 0 -0.0048386403130577082 -0.049351211555154754 0 -0.0025651439685530058 -0.049462954974391342 0 -0.00052228068467714047 -0.052309244294438097 0 -0.0007931095216763838 -0.052284524630695203 0 7.442849404185094e-05 -0.052158812549391219 0 -1.0310157489315983e-08 -0.054996948725503897 0 5.1336494243244189e-05 -0.053058266296522716 0 -0.0007931095216763838 -0.052284524630695203 0 -0.00074363261247470283 -0.053239064001469889 0 -5.7449862217157479e-05 -0.054944955402424542 0 -2.318060377741569e-05 -0.054995716066325306 0 -1.7656238932594686e-05 -0.054986553343039438 0 8.2565679515366115e-05 -0.051844203885821019 0 7.442849404185094e-05 -0.052158812549391219 0 5.1336494243244189e-05 -0.053058266296522716 0 -0.0031100370378178885 -0.052764200467757955 0 -0.0030471093402092194 -0.051030664464857198 0 -0.0011516566681287238 -0.051572421543759746 0 -0.0030471093402092194 -0.051030664464857198 0 -0.0025651439685530058 -0.049462954974391342 0 -0.0011516566681287238 -0.051572421543759746 0 -1.2551876055457066e-07 -0.054999337907816533 0 -0.00074363261247470283 -0.053239064001469889 0 5.4641545641876859e-09 -0.055000009030567232 0 -2.318060377741569e-05 -0.054995716066325306 0 -1.9433324255823402e-08 -0.054999997913767196 0 -2.318060377741569e-05 -0.054995716066325306 0 -1.9433324255823402e-08 -0.054999997913767196 0 -1.7656238932594686e-05 -0.054986553343039438 0 -1.9433324255823402e-08 -0.054999997913767196 0 2.817763486297363e-09 -0.054999929892880585 0 -1.7656238932594686e-05 -0.054986553343039438 0 -0.0007931095216763838 -0.052284524630695203 0 1.9341462853608055e-06 -0.055000187563316878 0 -5.7449862217157479e-05 -0.054944955402424542 0 2.817763486297363e-09 -0.054999929892880585 0 -1.7656238932594686e-05 -0.054986553343039438 0 -1.0310157489315983e-08 -0.054996948725503897 0 5.1336494243244189e-05 -0.053058266296522716 0 4.0216727555446942e-08 -0.054997983329532554 0 5.6163392210659324e-07 -0.054997839405637163 0 8.6852962677272115e-05 -0.049226274060802905 0 -4.0991173468917421e-07 -0.044044021068924549 0 8.2565679515366115e-05 -0.051844203885821019 0 5.1336494243244189e-05 -0.053058266296522716 0 0.00011624264212404267 -0.051625159250429202 0 5.1336494243244189e-05 -0.053058266296522716 0 9.4522904944134887e-05 -0.052548217168415283 0 0.00011624264212404267 -0.051625159250429202 0 5.1336494243244189e-05 -0.053058266296522716 0 9.4522904944134887e-05 -0.052548217168415283 0 4.0216727555446942e-08 -0.054997983329532554 0 9.9708444279135482e-05 -0.052465616434844417 0 5.1359058575544252e-08 -0.054999079894868505 0 0.00010800574502120367 -0.052480750333565827 0 -1.5961411761301084e-07 -0.054995308396758584 0 5.6163392210659324e-07 -0.054997839405637163 0 0.00010800574502120367 -0.052480750333565827 0 5.6163392210659324e-07 -0.054997839405637163 0 8.6852962677272115e-05 -0.049226274060802905 0 0.00010800574502120367 -0.052480750333565827 0 8.6852962677272115e-05 -0.049226274060802905 0 9.7580396066664218e-05 -0.050069738580778865 0 9.7580396066664218e-05 -0.050069738580778865 0 0.00010110636298014544 -0.050434572500768493 0 -5.4540074921272233e-05 -0.049095396029891346 0 8.6852962677272115e-05 -0.049226274060802905 0 9.7580396066664218e-05 -0.050069738580778865 0 -5.4540074921272233e-05 -0.049095396029891346 0 9.4522904944134887e-05 -0.052548217168415283 0 9.7580396066664218e-05 -0.050069738580778865 0 0.00011624264212404267 -0.051625159250429202 0 9.9708444279135482e-05 -0.052465616434844417 0 8.6642859389693619e-05 -0.050513515681641162 0 8.2565679515366115e-05 -0.051844203885821019 0 0.00011624264212404267 -0.051625159250429202 0 0.00010110636298014544 -0.050434572500768493 0 7.2188167174371874e-05 -0.050069317005921647 0 0.00010110636298014544 -0.050434572500768493 0 -0.00020065415462192172 -0.048953076421842066 0 9.7580396066664218e-05 -0.050069738580778865 0 0.00011624264212404267 -0.051625159250429202 0 0.00010110636298014544 -0.050434572500768493 0 0.00010110636298014544 -0.050434572500768493 0 -0.00020065415462192172 -0.048953076421842066 0 -5.4540074921272233e-05 -0.049095396029891346 0 -0.00020065415462192172 -0.048953076421842066 0 -0.00029569318446578052 -0.048348403671516008 0 -5.4540074921272233e-05 -0.049095396029891346 0 -0.00020065415462192172 -0.048953076421842066 0 -0.00029569318446578052 -0.048348403671516008 0 -0.0009067540229868241 -0.047614179889645843 0 -0.00020065415462192172 -0.048953076421842066 0 -0.0009067540229868241 -0.047614179889645843 0 -0.00062494786995023375 -0.048623454784737855 0 -0.00022466777066452615 -0.047788824713740616 0 -0.00023418891335182359 -0.046860688066308109 0 -0.0019202016312790376 -0.046350954105534498 0 -0.00029569318446578052 -0.048348403671516008 0 -0.00022466777066452615 -0.047788824713740616 0 -0.0009067540229868241 -0.047614179889645843 0 8.6852962677272115e-05 -0.049226274060802905 0 -0.00022466777066452615 -0.047788824713740616 0 -5.4540074921272233e-05 -0.049095396029891346 0 -0.00029569318446578052 -0.048348403671516008 0 -0.00022466777066452615 -0.047788824713740616 0 -5.4540074921272233e-05 -0.049095396029891346 0 8.6852962677272115e-05 -0.049226274060802905 0 -0.00022466777066452615 -0.047788824713740616 0 -0.00023418891335182359 -0.046860688066308109 0 8.6852962677272115e-05 -0.049226274060802905 0 -0.00023418891335182359 -0.046860688066308109 0 -4.0991173468917421e-07 -0.044044021068924549 0 -0.00023418891335182359 -0.046860688066308109 0 -4.0991173468917421e-07 -0.044044021068924549 0 -7.4961148776441798e-05 -0.04385466285443898 0 -0.00015592077519787894 -0.046435441808282796 0 -0.00083012012054828278 -0.044833015326729508 0 -0.00023418891335182359 -0.046860688066308109 0 -0.0017953664140345829 -0.04567256871012236 0 -0.0019202016312790376 -0.046350954105534498 0 -4.0991173468917421e-07 -0.044044021068924549 0 -7.4961148776441798e-05 -0.04385466285443898 0 -6.6215888998471289e-05 -0.04107430031810199 0 -0.00083012012054828278 -0.044833015326729508 0 -0.0015215204538333777 -0.042884928968078662 0 -0.0017953664140345829 -0.04567256871012236 0 -0.0019202016312790376 -0.046350954105534498 0 -0.0031821029746498773 -0.044662570904020177 0 -0.0014941993977340123 -0.046015121032952286 0 -0.0021209024937031196 -0.045748969537335919 0 -0.0028511711293456349 -0.044362186206446531 0 -0.0014941993977340123 -0.046015121032952286 0 -0.0021209024937031196 -0.045748969537335919 0 -0.0015468983391867142 -0.046656408575893552 0 -0.0017070520778998935 -0.046227719426215182 0 -0.0032081000106987134 -0.044734061562690108 0 -0.00030721246688106437 -0.047532539829953716 0 -0.0017070520778998935 -0.046227719426215182 0 -0.00022466777066452615 -0.047788824713740616 0 -0.0014941993977340123 -0.046015121032952286 0 -0.0009067540229868241 -0.047614179889645843 0 -0.0014941993977340123 -0.046015121032952286 0 -0.0009067540229868241 -0.047614179889645843 0 -0.0015468983391867142 -0.046656408575893552 0 -0.0009067540229868241 -0.047614179889645843 0 -0.0015468983391867142 -0.046656408575893552 0 -0.001354223022987003 -0.047341954601562507 0 -0.0021209024937031196 -0.045748969537335919 0 -0.0015468983391867142 -0.046656408575893552 0 -0.002018999752020191 -0.046397015620815232 0 -0.0015468983391867142 -0.046656408575893552 0 -0.002018999752020191 -0.046397015620815232 0 -0.001354223022987003 -0.047341954601562507 0 -0.002018999752020191 -0.046397015620815232 0 -0.0017778116302758797 -0.047354228718207769 0 -0.001354223022987003 -0.047341954601562507 0 -0.002018999752020191 -0.046397015620815232 0 -0.0017778116302758797 -0.047354228718207769 0 -0.0025789391356543837 -0.04606263918972224 0 -0.0084006299053556287 -0.048592653062338668 0 -0.0085860124839623551 -0.049751107201882562 0 -0.0098054049255734063 -0.048362355585516555 0 -0.0084006299053556287 -0.048592653062338668 0 -0.0067240241831910156 -0.048884510397448892 0 -0.0074817491143837475 -0.049799764470091948 0 -0.0009067540229868241 -0.047614179889645843 0 -0.001354223022987003 -0.047341954601562507 0 -0.00062494786995023375 -0.048623454784737855 0 -0.0048805286879272736 -0.047842598376178477 0 -0.0036662626115162339 -0.048809856167589372 0 -0.0017778116302758797 -0.047354228718207769 0 -0.001354223022987003 -0.047341954601562507 0 -0.00062494786995023375 -0.048623454784737855 0 -0.0048386403130577082 -0.049351211555154754 0 -0.0067240241831910156 -0.048884510397448892 0 -0.0055895483195217057 -0.051049009596421557 0 7.2188167174371874e-05 -0.050069317005921647 0 -0.00020065415462192172 -0.048953076421842066 0 -0.00062494786995023375 -0.048623454784737855 0 -0.0023998959162274407 -0.049486494826778589 0 -0.0036662626115162339 -0.048809856167589372 0 -0.0067240241831910156 -0.048884510397448892 0 -0.0055895483195217057 -0.051049009596421557 0 -0.0074817491143837475 -0.049799764470091948 0 -0.0055895483195217057 -0.051049009596421557 0 -0.0071079958841734825 -0.050785595324310678 0 -0.0074817491143837475 -0.049799764470091948 0 -0.0055895483195217057 -0.051049009596421557 0 -0.0062364828836981162 -0.051504469954022636 0 -0.0051760575501130987 -0.052107315099424012 0 -0.0044612299636764144 -0.051966886536575808 0 -0.0055895483195217057 -0.051049009596421557 0 -0.0051760575501130987 -0.052107315099424012 0 -0.0058212974813235492 -0.051085043125104153 0 -0.0062411374472561044 -0.050780203890021462 0 -0.0071079958841734825 -0.050785595324310678 0 -0.0085860124839623551 -0.049751107201882562 0 -0.0082448734357343859 -0.050736261095524843 0 -0.0085860124839623551 -0.049751107201882562 0 -0.0090949264696947602 -0.050267333763622357 0 -0.0082448734357343859 -0.050736261095524843 0 -0.0084006299053556287 -0.048592653062338668 0 -0.0085860124839623551 -0.049751107201882562 0 -0.0074817491143837475 -0.049799764470091948 0 -0.0071079958841734825 -0.050785595324310678 0 -0.0085860124839623551 -0.049751107201882562 0 -0.0074817491143837475 -0.049799764470091948 0 -0.0096729704909998514 -0.049399370806433342 0 -0.010414796950889515 -0.04898865244796622 0 -0.0098054049255734063 -0.048362355585516555 0 -0.0085860124839623551 -0.049751107201882562 0 -0.0096729704909998514 -0.049399370806433342 0 -0.0098054049255734063 -0.048362355585516555 0 -0.0085860124839623551 -0.049751107201882562 0 -0.0096729704909998514 -0.049399370806433342 0 -0.0090949264696947602 -0.050267333763622357 0 -0.0096729704909998514 -0.049399370806433342 0 -0.0099361943559150585 -0.049891830964964079 0 -0.0090949264696947602 -0.050267333763622357 0 -0.003240791068785821 -0.037834516458060151 0 -0.002653867545707793 -0.038661065751325691 0 -0.0096729704909998514 -0.049399370806433342 0 -0.010414796950889515 -0.04898865244796622 0 -0.0099361943559150585 -0.049891830964964079 0 0.0037207771426236123 -0.027345264678268224 0 0.0037916134614259592 -0.027460972168207747 0 0.0043934137154399318 -0.027661986120343662 0 0.0037207771426236123 -0.027345264678268224 0 0.0038966415568160188 -0.02690060523119512 0 0.0037916134614259592 -0.027460972168207747 0 0.0038966415568160188 -0.02690060523119512 0 0.003958853967536243 -0.027324416468443736 0 0.0037916134614259592 -0.027460972168207747 0 0.003958853967536243 -0.027324416468443736 0 0.0037916134614259592 -0.027460972168207747 0 0.003742924086475437 -0.0276709348465295 0 -0.003240791068785821 -0.037834516458060151 0 -0.0047575336284922613 -0.040786908205127877 0 -0.0047575336284922613 -0.040786908205127877 0 -0.0070834059004952305 -0.048193543304371006 0 -0.010414796950889515 -0.04898865244796622 0 -0.010697544669990258 -0.048326653449352115 0 -0.0098054049255734063 -0.048362355585516555 0 -0.0045042324639715239 -0.04558506984511302 0 -0.0040223602850560465 -0.04495152955747414 0 -0.0030325429959312915 -0.04623791622926051 0 -0.0079061137533043453 -0.037550256659040784 0 -0.0067347354429898179 -0.039305103554798909 0 -0.004349100082843272 -0.036992274377417096 0 -0.0047575336284922613 -0.040786908205127877 0 0.00078614397830832313 -0.031201518080477834 0 0.003958853967536243 -0.027324416468443736 0 0.003742924086475437 -0.0276709348465295 0 0.0043645280719960371 -0.027700736268598421 0 -0.0047575336284922613 -0.040786908205127877 0 -0.005735208468424095 -0.041786372313168799 0 -0.005735208468424095 -0.041786372313168799 0 -0.0053530947904177929 -0.041986554199852213 0 -0.0045042324639715239 -0.04558506984511302 0 -0.0049792304969802368 -0.044319488278903897 0 -0.0040223602850560465 -0.04495152955747414 0 -0.0049792304969802368 -0.044319488278903897 0 -0.0040223602850560465 -0.04495152955747414 0 -0.004407230748272482 -0.043496262031376229 0 -0.0040223602850560465 -0.04495152955747414 0 -0.0034270178003499474 -0.044983111640477698 0 -0.004407230748272482 -0.043496262031376229 0 -0.0040223602850560465 -0.04495152955747414 0 -0.0030325429959312915 -0.04623791622926051 0 -0.0034270178003499474 -0.044983111640477698 0 -0.0030325429959312915 -0.04623791622926051 0 -0.0025789391356543837 -0.04606263918972224 0 -0.0034270178003499474 -0.044983111640477698 0 -0.0048805286879272736 -0.047842598376178477 0 -0.0070834059004952305 -0.048193543304371006 0 -0.0017778116302758797 -0.047354228718207769 0 -0.0030325429959312915 -0.04623791622926051 0 -0.0025789391356543837 -0.04606263918972224 0 -0.002018999752020191 -0.046397015620815232 0 -0.0025789391356543837 -0.04606263918972224 0 -0.0027415082880001369 -0.045267498016394167 0 -4.0991173468917421e-07 -0.044044021068924549 0 -6.6215888998471289e-05 -0.04107430031810199 0 -6.6902517381390445e-07 -0.035846838035428985 0 -0.0025789391356543837 -0.04606263918972224 0 -0.0027415082880001369 -0.045267498016394167 0 -0.0034270178003499474 -0.044983111640477698 0 -0.0021209024937031196 -0.045748969537335919 0 -0.002018999752020191 -0.046397015620815232 0 -0.0027415082880001369 -0.045267498016394167 0 -0.0027415082880001369 -0.045267498016394167 0 -0.0036132396186421747 -0.044250584616702456 0 -0.0034270178003499474 -0.044983111640477698 0 -0.0032081000106987134 -0.044734061562690108 0 -0.0044352193334189953 -0.043481675067221288 0 -0.0036132396186421747 -0.044250584616702456 0 -0.0028511711293456349 -0.044362186206446531 0 -0.0044551371613206709 -0.043059398164763826 0 -0.0027415082880001369 -0.045267498016394167 0 -0.0036132396186421747 -0.044250584616702456 0 -0.0028511711293456349 -0.044362186206446531 0 -0.0021209024937031196 -0.045748969537335919 0 -0.0027415082880001369 -0.045267498016394167 0 -0.0028511711293456349 -0.044362186206446531 0 -0.0019202016312790376 -0.046350954105534498 0 -0.0035183364059186389 -0.045091490685347554 0 -0.0031821029746498773 -0.044662570904020177 0 -6.6215888998471289e-05 -0.04107430031810199 0 -4.9068280157487539e-05 -0.038358244865906714 0 -6.6902517381390445e-07 -0.035846838035428985 0 -0.0035183364059186389 -0.045091490685347554 0 -0.0031821029746498773 -0.044662570904020177 0 -0.0042095107949549539 -0.043878173620020625 0 -0.0035183364059186389 -0.045091490685347554 0 -0.0042095107949549539 -0.043878173620020625 0 -0.0045238902362302073 -0.043881386039132192 0 -0.0015215204538333777 -0.042884928968078662 0 -0.002022903853255196 -0.041116761039987057 0 -6.6902517381390445e-07 -0.035846838035428985 0 -2.9815602899887741e-05 -0.035592191148857664 0 -9.1892934496147247e-05 -0.032849814816907706 0 -4.9068280157487539e-05 -0.038358244865906714 0 -6.6902517381390445e-07 -0.035846838035428985 0 -2.9815602899887741e-05 -0.035592191148857664 0 -0.002022903853255196 -0.041116761039987057 0 -0.0021288022430120948 -0.039715794264343109 0 -0.0042095107949549539 -0.043878173620020625 0 -0.0045950230175268222 -0.04340180314073621 0 -0.0045238902362302073 -0.043881386039132192 0 -0.0045950230175268222 -0.04340180314073621 0 -0.0045238902362302073 -0.043881386039132192 0 -0.0043664369526697361 -0.042615626196840319 0 -0.0044352193334189953 -0.043481675067221288 0 -0.0043460853742461952 -0.042745535202550936 0 -0.0048182589513159997 -0.042481255729509095 0 -0.0044551371613206709 -0.043059398164763826 0 -0.004407230748272482 -0.043496262031376229 0 -0.0048182589513159997 -0.042481255729509095 0 -0.0044551371613206709 -0.043059398164763826 0 -0.0043664369526697361 -0.042615626196840319 0 -0.0036132396186421747 -0.044250584616702456 0 -0.0044551371613206709 -0.043059398164763826 0 -0.004407230748272482 -0.043496262031376229 0 -0.0036132396186421747 -0.044250584616702456 0 -0.0034270178003499474 -0.044983111640477698 0 -0.004407230748272482 -0.043496262031376229 0 -0.0048182589513159997 -0.042481255729509095 0 -0.004407230748272482 -0.043496262031376229 0 -0.0052510931242088022 -0.041815608472332857 0 -0.0049792304969802368 -0.044319488278903897 0 -0.004407230748272482 -0.043496262031376229 0 -0.0052510931242088022 -0.041815608472332857 0 -0.0048182589513159997 -0.042481255729509095 0 -0.0052510931242088022 -0.041815608472332857 0 -0.004001350512174995 -0.041562009185206153 0 -0.0052510931242088022 -0.041815608472332857 0 -0.004001350512174995 -0.041562009185206153 0 -0.00391793815209345 -0.03942594254098606 0 -0.004001350512174995 -0.041562009185206153 0 -0.0024625290065150088 -0.039474396041115523 0 -0.00391793815209345 -0.03942594254098606 0 -0.004001350512174995 -0.041562009185206153 0 -0.0035393242187603834 -0.04249189124561583 0 -0.0023245338074118428 -0.042022147588123268 0 -0.004001350512174995 -0.041562009185206153 0 -0.0023245338074118428 -0.042022147588123268 0 -0.0024625290065150088 -0.039474396041115523 0 -0.0048182589513159997 -0.042481255729509095 0 -0.004001350512174995 -0.041562009185206153 0 -0.0043664369526697361 -0.042615626196840319 0 -0.004001350512174995 -0.041562009185206153 0 -0.0043664369526697361 -0.042615626196840319 0 -0.0035393242187603834 -0.04249189124561583 0 -0.0045950230175268222 -0.04340180314073621 0 -0.0043664369526697361 -0.042615626196840319 0 -0.0040580222583256964 -0.042944458491282825 0 -0.0021288022430120948 -0.039715794264343109 0 -0.0018664239230777124 -0.035952539272208095 0 -2.9815602899887741e-05 -0.035592191148857664 0 -0.00010360646688686874 -0.032707034019155014 0 -9.1892934496147247e-05 -0.032849814816907706 0 -0.0045950230175268222 -0.04340180314073621 0 -0.0037375958465089253 -0.043278940895436754 0 -0.0040580222583256964 -0.042944458491282825 0 -6.6902517381390445e-07 -0.035846838035428985 0 -9.1892934496147247e-05 -0.032849814816907706 0 1.424467287933304e-06 -0.029764634073815983 0 -0.0018664239230777124 -0.035952539272208095 0 -0.0014050377540871062 -0.035461130882238769 0 -0.0037375958465089253 -0.043278940895436754 0 -0.0040580222583256964 -0.042944458491282825 0 -0.0035393242187603834 -0.04249189124561583 0 -0.0043664369526697361 -0.042615626196840319 0 -0.0040580222583256964 -0.042944458491282825 0 -0.0035393242187603834 -0.04249189124561583 0 -0.0018664239230777124 -0.035952539272208095 0 -0.00093074255406405172 -0.036426156072833664 0 -3.3051348819552391e-05 -0.031860916014341017 0 0.00035770236946222313 -0.030318705600444171 0 0.00072914373173156555 -0.030187965751042201 0 -0.0037375958465089253 -0.043278940895436754 0 -0.0035393242187603834 -0.04249189124561583 0 -0.0023245338074118428 -0.042022147588123268 0 -0.00053603068788063099 -0.031926593707372206 0 -3.3051348819552391e-05 -0.031860916014341017 0 0.00072914373173156555 -0.030187965751042201 0 -8.2277053826144766e-05 -0.032552876991322463 0 -3.3051348819552391e-05 -0.031860916014341017 0 -9.1892934496147247e-05 -0.032849814816907706 0 -0.0018664239230777124 -0.035952539272208095 0 -0.00072633369155684533 -0.034983877888358522 0 -3.3051348819552391e-05 -0.031860916014341017 0 -9.1892934496147247e-05 -0.032849814816907706 0 1.424467287933304e-06 -0.029764634073815983 0 0.00018442294323951395 -0.027832268676614397 0 1.424467287933304e-06 -0.029764634073815983 0 0.00060976277657714896 -0.029289354007939441 0 -3.3051348819552391e-05 -0.031860916014341017 0 1.424467287933304e-06 -0.029764634073815983 0 0.00035770236946222313 -0.030318705600444171 0 1.424467287933304e-06 -0.029764634073815983 0 0.00035770236946222313 -0.030318705600444171 0 0.00060976277657714896 -0.029289354007939441 0 0.00035770236946222313 -0.030318705600444171 0 0.00060976277657714896 -0.029289354007939441 0 0.00072914373173156555 -0.030187965751042201 0 0.00018442294323951395 -0.027832268676614397 0 0.0002924740351499817 -0.029590123921372599 0 0.00060976277657714896 -0.029289354007939441 0 0.0002924740351499817 -0.029590123921372599 0 0.00060976277657714896 -0.029289354007939441 0 0.0014099420498537398 -0.031270049410378788 0 0.00060976277657714896 -0.029289354007939441 0 0.00072914373173156555 -0.030187965751042201 0 0.0014099420498537398 -0.031270049410378788 0 -0.00093074255406405172 -0.036426156072833664 0 6.7274889843049973e-05 -0.035422253855802631 0 -0.0023245338074118428 -0.042022147588123268 0 -0.0024625290065150088 -0.039474396041115523 0 -0.00090352195253535952 -0.039400730490258072 0 -0.0024625290065150088 -0.039474396041115523 0 -0.00090352195253535952 -0.039400730490258072 0 -0.0013215696850903658 -0.037133956559025474 0 -0.00056002120696745995 -0.035719601762871457 0 -0.00090352195253535952 -0.039400730490258072 0 -0.0013215696850903658 -0.037133956559025474 0 -0.00056002120696745995 -0.035719601762871457 0 -0.00095887078900909917 -0.035681775125422054 0 -0.0013215696850903658 -0.037133956559025474 0 0.004690267026761747 -0.026278387409232308 0 0.0013873393846977177 -0.032805822810128532 0 -0.00095887078900909917 -0.035681775125422054 0 -0.0013215696850903658 -0.037133956559025474 0 -0.0019387430949936422 -0.036407991908096071 0 -0.0013215696850903658 -0.037133956559025474 0 -0.0019387430949936422 -0.036407991908096071 0 -0.0026512496135454667 -0.037944846970956271 0 -0.0024625290065150088 -0.039474396041115523 0 -0.0013215696850903658 -0.037133956559025474 0 -0.0026512496135454667 -0.037944846970956271 0 -0.0024625290065150088 -0.039474396041115523 0 -0.0026512496135454667 -0.037944846970956271 0 -0.00391793815209345 -0.03942594254098606 0 -0.0026512496135454667 -0.037944846970956271 0 -0.00391793815209345 -0.03942594254098606 0 -0.004349100082843272 -0.036992274377417096 0 -0.0067347354429898179 -0.039305103554798909 0 -0.0052510931242088022 -0.041815608472332857 0 -0.00391793815209345 -0.03942594254098606 0 -0.0067347354429898179 -0.039305103554798909 0 -0.00391793815209345 -0.03942594254098606 0 -0.004349100082843272 -0.036992274377417096 0 -0.0019387430949936422 -0.036407991908096071 0 -0.0026512496135454667 -0.037944846970956271 0 -0.004349100082843272 -0.036992274377417096 0 0.0013873393846977177 -0.032805822810128532 0 0.00078614397830832313 -0.031201518080477834 0 0.005693868704090479 -0.027617692677687253 0 0.0043645280719960371 -0.027700736268598421 0 0.0046003185894740173 -0.026676749959700742 0 0.005693868704090479 -0.027617692677687253 0 0.0046003185894740173 -0.026676749959700742 0 0.0057351413617550886 -0.02622120898273618 0 0.003958853967536243 -0.027324416468443736 0 0.0043645280719960371 -0.027700736268598421 0 0.0046003185894740173 -0.026676749959700742 0 0.0038966415568160188 -0.02690060523119512 0 0.0046003185894740173 -0.026676749959700742 0 0.0043225426928470874 -0.026108853832859855 0 0.0038966415568160188 -0.02690060523119512 0 0.003958853967536243 -0.027324416468443736 0 0.0046003185894740173 -0.026676749959700742 0 0.0046003185894740173 -0.026676749959700742 0 0.0057351413617550886 -0.02622120898273618 0 0.0052817523255955789 -0.025351091077049269 0 0.0046003185894740173 -0.026676749959700742 0 0.0052817523255955789 -0.025351091077049269 0 0.0043225426928470874 -0.026108853832859855 0 0.0057351413617550886 -0.02622120898273618 0 0.0063684537223807096 -0.02444609170501745 0 0.0052817523255955789 -0.025351091077049269 0 0.0057351413617550886 -0.02622120898273618 0 0.0071064189356218879 -0.026220493110030024 0 0.0063684537223807096 -0.02444609170501745 0 0.0067098332181329129 -0.024017117484156525 0 0.0064694499085269945 -0.024325370745612244 0 0.0060822425261181914 -0.023275045963332013 0 0.0064625735203161869 -0.02213778799496156 0 0.0063684537223807096 -0.02444609170501745 0 0.0057200707518999735 -0.022277491259956178 0 0.0060822425261181914 -0.023275045963332013 0 0.0064625735203161869 -0.02213778799496156 0 0.0076836095242282599 -0.027416939121075814 0 0.005693868704090479 -0.027617692677687253 0 0.0071064189356218879 -0.026220493110030024 0 0.004690267026761747 -0.026278387409232308 0 0.0067098332181329129 -0.024017117484156525 0 0.005693868704090479 -0.027617692677687253 0 0.0057351413617550886 -0.02622120898273618 0 0.0071064189356218879 -0.026220493110030024 0 -0.0031646517447358928 -0.027946004940855966 0 -0.0014127195712522133 -0.027943379685935309 0 -0.0030997101276397715 -0.028981124444258603 0 0.0014719320913094869 -0.026079063398170933 0 0.0017572477903628131 -0.026496216939106604 0 0.0058622879785955005 -0.023757980556009695 0 0.0056928474864642526 -0.023950219603639286 0 0.0061348698448491336 -0.024144610856596378 0 -0.0046133307847411572 -0.028031538218484614 0 -0.0031646517447358928 -0.027946004940855966 0 -0.0039672727967109836 -0.028630159973753278 0 0.00061064079886988579 -0.025970581467843316 0 0.0014719320913094869 -0.026079063398170933 0 -0.0031646517447358928 -0.027946004940855966 0 -0.0030997101276397715 -0.028981124444258603 0 -0.0039672727967109836 -0.028630159973753278 0 0.0061348698448491336 -0.024144610856596378 0 0.0060586023251095978 -0.023719856295820883 0 0.0063684537223807096 -0.02444609170501745 0 0.0058622879785955005 -0.023757980556009695 0 0.0061348698448491336 -0.024144610856596378 0 0.0060586023251095978 -0.023719856295820883 0 0.0056198935369190864 -0.022823838134963199 0 0.0060822425261181914 -0.023275045963332013 0 0.0060586023251095978 -0.023719856295820883 0 0.0060822425261181914 -0.023275045963332013 0 0.0060586023251095978 -0.023719856295820883 0 0.0063684537223807096 -0.02444609170501745 0 0.0061348698448491336 -0.024144610856596378 0 0.0063684537223807096 -0.02444609170501745 0 0.0052817523255955789 -0.025351091077049269 0 0.0052817523255955789 -0.025351091077049269 0 0.0043225426928470874 -0.026108853832859855 0 0.0048088300042237429 -0.02502594587946998 0 0.0061348698448491336 -0.024144610856596378 0 0.0052817523255955789 -0.025351091077049269 0 0.0048088300042237429 -0.02502594587946998 0 0.0043225426928470874 -0.026108853832859855 0 0.0048088300042237429 -0.02502594587946998 0 0.0038312455862642395 -0.026359292078901461 0 0.0017572477903628131 -0.026496216939106604 0 0.0023449093890534046 -0.027146107620800854 0 -0.0014127195712522133 -0.027943379685935309 0 -0.00083027765629199257 -0.02931755156081187 0 0.00065196152744205515 -0.027894137191297904 0 -0.0014127195712522133 -0.027943379685935309 0 -0.0021231032679187392 -0.029687270859459457 0 -0.0030997101276397715 -0.028981124444258603 0 -0.0014127195712522133 -0.027943379685935309 0 -0.0021231032679187392 -0.029687270859459457 0 -0.00083027765629199257 -0.02931755156081187 0 -0.00083027765629199257 -0.02931755156081187 0 -0.00073631976387120862 -0.031247341337692143 0 0.00061237887404071677 -0.030008121356389614 0 -0.0021231032679187392 -0.029687270859459457 0 -0.00083027765629199257 -0.02931755156081187 0 -0.00073631976387120862 -0.031247341337692143 0 -0.0021231032679187392 -0.029687270859459457 0 -0.00073631976387120862 -0.031247341337692143 0 -0.002369989449218931 -0.031263637029985705 0 -0.0021231032679187392 -0.029687270859459457 0 -0.0031546925767915656 -0.030116909667128492 0 -0.002369989449218931 -0.031263637029985705 0 -0.0021231032679187392 -0.029687270859459457 0 -0.0031546925767915656 -0.030116909667128492 0 -0.0030997101276397715 -0.028981124444258603 0 -0.0030997101276397715 -0.028981124444258603 0 -0.0039672727967109836 -0.028630159973753278 0 -0.0041828864084581001 -0.029524681531335965 0 -0.0045459975338276032 -0.028729022306126725 0 -0.0039672727967109836 -0.028630159973753278 0 -0.0041828864084581001 -0.029524681531335965 0 -0.0031546925767915656 -0.030116909667128492 0 -0.0041828864084581001 -0.029524681531335965 0 -0.0039357503457785005 -0.031170654131704365 0 -0.0031546925767915656 -0.030116909667128492 0 -0.0030997101276397715 -0.028981124444258603 0 -0.0041828864084581001 -0.029524681531335965 0 -0.004786705520383459 -0.030999338405560194 0 -0.0048010635235017701 -0.030298793818600962 0 -0.0039357503457785005 -0.031170654131704365 0 -0.0048010635235017701 -0.030298793818600962 0 -0.0041828864084581001 -0.029524681531335965 0 -0.0039357503457785005 -0.031170654131704365 0 -0.0031546925767915656 -0.030116909667128492 0 -0.0039357503457785005 -0.031170654131704365 0 -0.002369989449218931 -0.031263637029985705 0 -0.0039357503457785005 -0.031170654131704365 0 -0.002369989449218931 -0.031263637029985705 0 -0.0030962624357542164 -0.033021078085605442 0 -0.0052074942729623715 -0.032177662238820903 0 -0.0039895438045640863 -0.031113017745538488 0 -0.0056077926758953591 -0.033136066211065227 0 -0.0039357503457785005 -0.031170654131704365 0 -0.0030962624357542164 -0.033021078085605442 0 -0.0056077926758953591 -0.033136066211065227 0 -0.0030962624357542164 -0.033021078085605442 0 -0.0036146736359372205 -0.034781590425647151 0 -0.0056077926758953591 -0.033136066211065227 0 -0.0053467838529896146 -0.034864947117478146 0 -0.0036146736359372205 -0.034781590425647151 0 -0.0030962624357542164 -0.033021078085605442 0 -0.0036146736359372205 -0.034781590425647151 0 -0.0019489761641413145 -0.034786343602921474 0 -0.0036146736359372205 -0.034781590425647151 0 -0.0019489761641413145 -0.034786343602921474 0 -0.00256219055606167 -0.036932858084076349 0 -0.0036146736359372205 -0.034781590425647151 0 -0.0042921712597877582 -0.036275406252477993 0 -0.00256219055606167 -0.036932858084076349 0 -0.0053467838529896146 -0.034864947117478146 0 -0.0036146736359372205 -0.034781590425647151 0 -0.0042921712597877582 -0.036275406252477993 0 -0.0053467838529896146 -0.034864947117478146 0 -0.0042921712597877582 -0.036275406252477993 0 -0.0058005575405723313 -0.036487428168697406 0 -0.00072479433668976858 -0.035688886272473061 0 -0.0019489761641413145 -0.034786343602921474 0 -0.00256219055606167 -0.036932858084076349 0 -0.0030962624357542164 -0.033021078085605442 0 -0.0019489761641413145 -0.034786343602921474 0 -0.0013897359211965036 -0.032955260225816796 0 -0.0019489761641413145 -0.034786343602921474 0 -0.0005227968938289314 -0.034306428398795955 0 -0.0013897359211965036 -0.032955260225816796 0 -0.00072479433668976858 -0.035688886272473061 0 -0.0005227968938289314 -0.034306428398795955 0 0.00076331367888926897 -0.034770174982762456 0 -0.00072479433668976858 -0.035688886272473061 0 -0.0019489761641413145 -0.034786343602921474 0 -0.0005227968938289314 -0.034306428398795955 0 -0.0005227968938289314 -0.034306428398795955 0 -0.0013897359211965036 -0.032955260225816796 0 0.00014472071234506749 -0.033188983767608378 0 -0.002369989449218931 -0.031263637029985705 0 -0.0030962624357542164 -0.033021078085605442 0 -0.0013897359211965036 -0.032955260225816796 0 -0.00073631976387120862 -0.031247341337692143 0 -0.002369989449218931 -0.031263637029985705 0 -0.0013897359211965036 -0.032955260225816796 0 -0.00073631976387120862 -0.031247341337692143 0 -0.0013897359211965036 -0.032955260225816796 0 0.00014472071234506749 -0.033188983767608378 0 -0.00073631976387120862 -0.031247341337692143 0 0.001229902722831269 -0.032000899494588786 0 0.00014472071234506749 -0.033188983767608378 0 0.001229902722831269 -0.032000899494588786 0 0.0013886669103818918 -0.033454551566408995 0 0.00014472071234506749 -0.033188983767608378 0 0.001229902722831269 -0.032000899494588786 0 0.0023521832564240919 -0.033233077976425121 0 0.0028490540176511333 -0.031842578636722949 0 0.001229902722831269 -0.032000899494588786 0 0.0013886669103818918 -0.033454551566408995 0 0.0023521832564240919 -0.033233077976425121 0 0.0013886669103818918 -0.033454551566408995 0 0.0021122627778424265 -0.033885213837365889 0 0.0023521832564240919 -0.033233077976425121 0 0.0013886669103818918 -0.033454551566408995 0 0.00076331367888926897 -0.034770174982762456 0 0.0021122627778424265 -0.033885213837365889 0 0.0013886669103818918 -0.033454551566408995 0 0.00014472071234506749 -0.033188983767608378 0 0.00076331367888926897 -0.034770174982762456 0 -0.0005227968938289314 -0.034306428398795955 0 0.00014472071234506749 -0.033188983767608378 0 0.00076331367888926897 -0.034770174982762456 0 -0.0044356028383847586 -0.044231378266846144 0 -0.0042662047870430063 -0.04485495425433781 0 -0.0040392805565699335 -0.04392453762355375 0 -0.0017423486713757292 -0.039456030452990717 0 -0.0014960414480067181 -0.038988741467694071 0 -0.0044356028383847586 -0.044231378266846144 0 -0.0044738512684114355 -0.044447032290588162 0 -0.0042662047870430063 -0.04485495425433781 0 -0.0027277892156769047 -0.039797107586579276 0 -0.0017423486713757292 -0.039456030452990717 0 -0.0046498509747791581 -0.043962078877287696 0 -0.0044356028383847586 -0.044231378266846144 0 -0.0044738512684114355 -0.044447032290588162 0 -0.00334245648454472 -0.045679861976328902 0 -0.0042662047870430063 -0.04485495425433781 0 -0.0033941357301949895 -0.044728260849682462 0 -0.00334245648454472 -0.045679861976328902 0 -0.0042662047870430063 -0.04485495425433781 0 -0.0043242634352314707 -0.045972879465159676 0 -0.0038426430796416268 -0.044381554290473434 0 -0.0034592544899344126 -0.043989957004874201 0 -0.0040392805565699335 -0.04392453762355375 0 -0.0042662047870430063 -0.04485495425433781 0 -0.0038426430796416268 -0.044381554290473434 0 -0.0033941357301949895 -0.044728260849682462 0 -0.0042662047870430063 -0.04485495425433781 0 -0.0038426430796416268 -0.044381554290473434 0 -0.0040392805565699335 -0.04392453762355375 0 -0.0038426430796416268 -0.044381554290473434 0 -0.0033941357301949895 -0.044728260849682462 0 -0.0034592544899344126 -0.043989957004874201 0 -0.0033941357301949895 -0.044728260849682462 0 -0.0034592544899344126 -0.043989957004874201 0 -0.0024962514257114055 -0.044148269187936004 0 -0.0034592544899344126 -0.043989957004874201 0 -0.0040392805565699335 -0.04392453762355375 0 -0.0031186041165530698 -0.043038626771508222 0 -0.0034592544899344126 -0.043989957004874201 0 -0.0031186041165530698 -0.043038626771508222 0 -0.0024962514257114055 -0.044148269187936004 0 -0.0014960414480067181 -0.038988741467694071 0 0.002309369333308929 -0.038636669934163086 0 0.0021122627778424265 -0.033885213837365889 0 0.0023521832564240919 -0.033233077976425121 0 0.0021976761441942099 -0.033763644044077723 0 0.0023521832564240919 -0.033233077976425121 0 0.0041245527815244485 -0.032509108276247096 0 0.0053395415684827701 -0.033684769019713429 0 0.0029395832794389103 -0.032211178284922683 0 0.002309369333308929 -0.038636669934163086 0 0.0023521832564240919 -0.033233077976425121 0 0.0041245527815244485 -0.032509108276247096 0 0.0028490540176511333 -0.031842578636722949 0 0.0041245527815244485 -0.032509108276247096 0 0.0053395415684827701 -0.033684769019713429 0 0.0053149432153121361 -0.032389719145869043 0 0.0053395415684827701 -0.033684769019713429 0 0.0053149432153121361 -0.032389719145869043 0 0.0064465066959033214 -0.032866709757439556 0 0.0053149432153121361 -0.032389719145869043 0 0.0046029769495537221 -0.031540126016674476 0 0.0060241144435108987 -0.031758839378220112 0 0.0041245527815244485 -0.032509108276247096 0 0.0053149432153121361 -0.032389719145869043 0 0.0046029769495537221 -0.031540126016674476 0 0.0046029769495537221 -0.031540126016674476 0 0.0053581176763687491 -0.030525666011332473 0 0.0060241144435108987 -0.031758839378220112 0 0.0053581176763687491 -0.030525666011332473 0 0.005804362318453298 -0.029478379171582105 0 0.0066271059496262087 -0.030929577598697838 0 0.0046029769495537221 -0.031540126016674476 0 0.0053581176763687491 -0.030525666011332473 0 0.0040454453950654369 -0.030418560933265316 0 0.0053581176763687491 -0.030525666011332473 0 0.0040454453950654369 -0.030418560933265316 0 0.0049598542539337634 -0.02954984214512581 0 0.0040454453950654369 -0.030418560933265316 0 0.0049598542539337634 -0.02954984214512581 0 0.0036755804053270552 -0.029316040206235919 0 0.0040454453950654369 -0.030418560933265316 0 0.002510598139892491 -0.030512592547368822 0 0.0036755804053270552 -0.029316040206235919 0 0.0046029769495537221 -0.031540126016674476 0 0.0040454453950654369 -0.030418560933265316 0 0.0028490540176511333 -0.031842578636722949 0 0.0041245527815244485 -0.032509108276247096 0 0.0046029769495537221 -0.031540126016674476 0 0.0028490540176511333 -0.031842578636722949 0 0.0040454453950654369 -0.030418560933265316 0 0.0028490540176511333 -0.031842578636722949 0 0.002510598139892491 -0.030512592547368822 0 0.001229902722831269 -0.032000899494588786 0 0.00061237887404071677 -0.030008121356389614 0 0.002510598139892491 -0.030512592547368822 0 0.001229902722831269 -0.032000899494588786 0 0.0028490540176511333 -0.031842578636722949 0 0.002510598139892491 -0.030512592547368822 0 -0.00073631976387120862 -0.031247341337692143 0 0.001229902722831269 -0.032000899494588786 0 0.00061237887404071677 -0.030008121356389614 0 -0.00083027765629199257 -0.02931755156081187 0 0.00061237887404071677 -0.030008121356389614 0 0.00065196152744205515 -0.027894137191297904 0 0.00061237887404071677 -0.030008121356389614 0 0.002510598139892491 -0.030512592547368822 0 0.0021766552998173983 -0.02910290707416345 0 0.002510598139892491 -0.030512592547368822 0 0.0021766552998173983 -0.02910290707416345 0 0.0036755804053270552 -0.029316040206235919 0 0.0021766552998173983 -0.02910290707416345 0 0.0036755804053270552 -0.029316040206235919 0 0.0035299786707490366 -0.027834753581346908 0 0.0023449093890534046 -0.027146107620800854 0 0.0035054652663058117 -0.027682931945745927 0 0.0021766552998173983 -0.02910290707416345 0 0.00065196152744205515 -0.027894137191297904 0 0.0035299786707490366 -0.027834753581346908 0 0.00061237887404071677 -0.030008121356389614 0 0.0021766552998173983 -0.02910290707416345 0 0.00065196152744205515 -0.027894137191297904 0 0.0038966415568160188 -0.02690060523119512 0 0.0043225426928470874 -0.026108853832859855 0 0.0038312455862642395 -0.026359292078901461 0 0.0037207771426236123 -0.027345264678268224 0 0.0038966415568160188 -0.02690060523119512 0 0.0038312455862642395 -0.026359292078901461 0 0.0037207771426236123 -0.027345264678268224 0 0.0038312455862642395 -0.026359292078901461 0 0.0035299786707490366 -0.027834753581346908 0 0.0037207771426236123 -0.027345264678268224 0 0.0043934137154399318 -0.027661986120343662 0 0.0035299786707490366 -0.027834753581346908 0 0.0043934137154399318 -0.027661986120343662 0 0.0035299786707490366 -0.027834753581346908 0 0.0044950597271271138 -0.028513519514720306 0 0.0043934137154399318 -0.027661986120343662 0 0.0056039429051772532 -0.028968341259281594 0 0.0044950597271271138 -0.028513519514720306 0 -0.0099361943559150585 -0.049891830964964079 0 -0.0090949264696947602 -0.050267333763622357 0 -0.0092213450013301536 -0.050919457675542082 0 -0.002653867545707793 -0.038661065751325691 0 -0.0029120156552591109 -0.041481848239222047 0 0.0053581176763687491 -0.030525666011332473 0 0.005804362318453298 -0.029478379171582105 0 0.0049598542539337634 -0.02954984214512581 0 -0.0029120156552591109 -0.041481848239222047 0 0.0074887045333183119 -0.02987732012207725 0 0.0056039429051772532 -0.028968341259281594 0 0.0049598542539337634 -0.02954984214512581 0 0.0044950597271271138 -0.028513519514720306 0 0.0049598542539337634 -0.02954984214512581 0 0.0036755804053270552 -0.029316040206235919 0 0.0044950597271271138 -0.028513519514720306 0 0.0036755804053270552 -0.029316040206235919 0 0.0035299786707490366 -0.027834753581346908 0 0.0044950597271271138 -0.028513519514720306 0 -0.0065084337126701357 -0.052268489103703554 0 -0.0073159434549675802 -0.052024519387324074 0 -0.0067212829894302229 -0.052714926976710166 0 -0.0065084337126701357 -0.052268489103703554 0 -0.0073159434549675802 -0.052024519387324074 0 -0.0070747554783197331 -0.051558847204720711 0 -0.008313015060928873 -0.05148900756504609 0 -0.0073159434549675802 -0.052024519387324074 0 -0.0076379877914705754 -0.052571420681122361 0 -0.008313015060928873 -0.05148900756504609 0 -0.0073159434549675802 -0.052024519387324074 0 -0.0070747554783197331 -0.051558847204720711 0 -0.0029120156552591109 -0.041481848239222047 0 -0.0092323286431078792 -0.052852954108689711 0 -0.0090949264696947602 -0.050267333763622357 0 -0.0092213450013301536 -0.050919457675542082 0 -0.0082448734357343859 -0.050736261095524843 0 -0.0062411374472561044 -0.050780203890021462 0 -0.0092323286431078792 -0.052852954108689711 0 -0.0065084337126701357 -0.052268489103703554 0 -0.0070747554783197331 -0.051558847204720711 0 -0.0059908998940249574 -0.052093650828772951 0 -0.0062364828836981162 -0.051504469954022636 0 -0.0070747554783197331 -0.051558847204720711 0 -0.0059908998940249574 -0.052093650828772951 0 -0.0062364828836981162 -0.051504469954022636 0 -0.0059908998940249574 -0.052093650828772951 0 -0.0051760575501130987 -0.052107315099424012 0 -0.0059908998940249574 -0.052093650828772951 0 -0.0051760575501130987 -0.052107315099424012 0 -0.0051890923291112489 -0.052493636022444369 0 -0.0059908998940249574 -0.052093650828772951 0 -0.0051890923291112489 -0.052493636022444369 0 -0.005902576585362182 -0.052476428994251749 0 -0.0051890923291112489 -0.052493636022444369 0 -0.0055045810863386538 -0.052811375614292312 0 -0.0043465263196254718 -0.052930161788291491 0 -0.0051890923291112489 -0.052493636022444369 0 -0.0055045810863386538 -0.052811375614292312 0 -0.005902576585362182 -0.052476428994251749 0 -0.0065084337126701357 -0.052268489103703554 0 -0.0059908998940249574 -0.052093650828772951 0 -0.005902576585362182 -0.052476428994251749 0 -0.0055045810863386538 -0.052811375614292312 0 -0.005902576585362182 -0.052476428994251749 0 -0.0060529038500558643 -0.052766394338968348 0 -0.0065084337126701357 -0.052268489103703554 0 -0.005902576585362182 -0.052476428994251749 0 -0.0060529038500558643 -0.052766394338968348 0 -0.0065084337126701357 -0.052268489103703554 0 -0.0060529038500558643 -0.052766394338968348 0 -0.0067212829894302229 -0.052714926976710166 0 -0.0039298476545317701 -0.052425241292290939 0 -0.004467938328361119 -0.051366492239620823 0 -0.0060529038500558643 -0.052766394338968348 0 -0.0056091213146368781 -0.052991305559218958 0 -0.0061620275276584504 -0.053225148334356688 0 -0.0060529038500558643 -0.052766394338968348 0 -0.0061620275276584504 -0.053225148334356688 0 -0.0067212829894302229 -0.052714926976710166 0 -0.00089672825124475857 -0.054116271108214042 0 -0.00081147418557732918 -0.054203374613859712 0 -0.00072808664164373648 -0.054159770745133694 0 -0.0055045810863386538 -0.052811375614292312 0 -0.0055391825950444522 -0.053312897253383507 0 -0.0043465263196254718 -0.052930161788291491 0 -0.0050640005790336187 -0.05304642725280069 0 -0.0039298476545317701 -0.052425241292290939 0 -0.0055045810863386538 -0.052811375614292312 0 -0.0060529038500558643 -0.052766394338968348 0 -0.0056091213146368781 -0.052991305559218958 0 -0.0039298476545317701 -0.052425241292290939 0 -0.0022345435524642647 -0.050451719485607768 0 -0.00089672825124475857 -0.054116271108214042 0 -0.00085702879338244472 -0.054243220707506333 0 -0.00081147418557732918 -0.054203374613859712 0 -0.00085702879338244472 -0.054243220707506333 0 -0.00081147418557732918 -0.054203374613859712 0 -0.0007592526226830209 -0.054312692506215961 0 -0.00089446991723898383 -0.048283209485507537 0 0.0020445151364396319 -0.04635832248683458 0 -0.00097860946229406834 -0.044916684728518855 0 -0.0035414430426065377 -0.046231402142117448 0 -0.00089446991723898383 -0.048283209485507537 0 -0.00097860946229406834 -0.044916684728518855 0 -0.0038426357593500694 -0.050184009961220417 0 -0.0035414430426065377 -0.046231402142117448 0 -0.00089446991723898383 -0.048283209485507537 0 -0.0061620275276584504 -0.053225148334356688 0 -0.0068519460747471722 -0.053601994987892879 0 -0.0067212829894302229 -0.052714926976710166 0 -0.004467938328361119 -0.051366492239620823 0 0.00011171672219588118 -0.041984014732717345 0 -0.0073159434549675802 -0.052024519387324074 0 -0.0067212829894302229 -0.052714926976710166 0 -0.0076379877914705754 -0.052571420681122361 0 -0.0068519460747471722 -0.053601994987892879 0 -0.0067212829894302229 -0.052714926976710166 0 -0.0076379877914705754 -0.052571420681122361 0 -0.0029120156552591109 -0.041481848239222047 0 -0.00030828445939225051 -0.041831303860153768 0 0.0053581176763687491 -0.030525666011332473 0 0.0066271059496262087 -0.030929577598697838 0 0.0060241144435108987 -0.031758839378220112 0 0.0073674079506035328 -0.032265936352378649 0 0.0060241144435108987 -0.031758839378220112 0 0.0064465066959033214 -0.032866709757439556 0 0.00011171672219588118 -0.041984014732717345 0 -0.00030828445939225051 -0.041831303860153768 0 0.0073674079506035328 -0.032265936352378649 0 0.0066271059496262087 -0.030929577598697838 0 0.0060241144435108987 -0.031758839378220112 0 0.0053149432153121361 -0.032389719145869043 0 0.0060241144435108987 -0.031758839378220112 0 0.0064465066959033214 -0.032866709757439556 0 0.0070386572098904221 -0.043044334851654563 0 0.0045612549810092251 -0.044659370241768394 0 0.0022884223479846606 -0.042726702264963931 0 0.002309369333308929 -0.038636669934163086 0 0.00039011025393572715 -0.043164080789198707 0 0.00011171672219588118 -0.041984014732717345 0 0.0065733099738116627 -0.038023983424392623 0 0.002309369333308929 -0.038636669934163086 0 0.0065733099738116627 -0.038023983424392623 0 0.0022884223479846606 -0.042726702264963931 0 0.00047086450968279845 -0.043829690304962886 0 -0.001326773777855468 -0.04265674963164081 0 0.0020445151364396319 -0.04635832248683458 0 0.0022884223479846606 -0.042726702264963931 0 0.00047086450968279845 -0.043829690304962886 0 0.0020445151364396319 -0.04635832248683458 0 0.0045612549810092251 -0.044659370241768394 0 0.0022884223479846606 -0.042726702264963931 0 0.0020445151364396319 -0.04635832248683458 0 0.00047086450968279845 -0.043829690304962886 0 -0.00097860946229406834 -0.044916684728518855 0 -0.001511864494241172 -0.043040202622409394 0 -0.0024962514257114055 -0.044148269187936004 0 -0.00087425895161682109 -0.044606267510811259 0 -0.0031186041165530698 -0.043038626771508222 0 -0.001511864494241172 -0.043040202622409394 0 -0.0024962514257114055 -0.044148269187936004 0 -0.0033941357301949895 -0.044728260849682462 0 -0.0024962514257114055 -0.044148269187936004 0 -0.0020565759204834722 -0.045762752883874061 0 -0.00087425895161682109 -0.044606267510811259 0 -0.0020565759204834722 -0.045762752883874061 0 -0.00057732480215811634 -0.046589822561821974 0 -0.0024962514257114055 -0.044148269187936004 0 -0.00087425895161682109 -0.044606267510811259 0 -0.0020565759204834722 -0.045762752883874061 0 -0.0020565759204834722 -0.045762752883874061 0 -0.00057732480215811634 -0.046589822561821974 0 -0.0010530995308437065 -0.04804106903856134 0 -0.00334245648454472 -0.045679861976328902 0 -0.0020565759204834722 -0.045762752883874061 0 -0.0025362481110871049 -0.047526753414288123 0 -0.00334245648454472 -0.045679861976328902 0 -0.0033941357301949895 -0.044728260849682462 0 -0.0020565759204834722 -0.045762752883874061 0 0.0011461112269686756 -0.049504474333604005 0 0.00058155087773073327 -0.0485836653029659 0 0.00059576577624906009 -0.049158700034096711 0 0.00092214209443279615 -0.046639298733279815 0 0.00060409331472580108 -0.049173143272658093 0 -0.00057732480215811634 -0.046589822561821974 0 0.00059576577624906009 -0.049158700034096711 0 -0.0010530995308437065 -0.04804106903856134 0 -0.00057732480215811634 -0.046589822561821974 0 0.0011010333030515081 -0.04548349943389892 0 0.00059576577624906009 -0.049158700034096711 0 -0.00087425895161682109 -0.044606267510811259 0 -0.00057732480215811634 -0.046589822561821974 0 0.0011010333030515081 -0.04548349943389892 0 -0.00087425895161682109 -0.044606267510811259 0 0.0011010333030515081 -0.04548349943389892 0 0.0007979219920044888 -0.043095558849171101 0 0.0011461112269686756 -0.049504474333604005 0 0.00058155087773073327 -0.0485836653029659 0 0.0016569017591967522 -0.048223327983427933 0 0.00058155087773073327 -0.0485836653029659 0 0.0011864396061394052 -0.047793751643508901 0 0.0016569017591967522 -0.048223327983427933 0 0.0011864396061394052 -0.047793751643508901 0 0.00067730468878711241 -0.047043479432566079 0 0.0017239125010644289 -0.047325402967236238 0 6.2858633965384719e-05 -0.046936720364615624 0 0.00067057564892984397 -0.05089199682222921 0 0.00058155087773073327 -0.0485836653029659 0 0.0011864396061394052 -0.047793751643508901 0 0.00067730468878711241 -0.047043479432566079 0 0.00092214209443279615 -0.046639298733279815 0 6.2858633965384719e-05 -0.046936720364615624 0 0.0011010333030515081 -0.04548349943389892 0 0.0011144422720680486 -0.043124214531676162 0 0.0007979219920044888 -0.043095558849171101 0 6.2858633965384719e-05 -0.046936720364615624 0 -0.0010567006884972035 -0.044552395734107471 0 0.0022884223479846606 -0.042726702264963931 0 -0.0025898869476433696 -0.042409284674902334 0 -0.001326773777855468 -0.04265674963164081 0 -0.001511864494241172 -0.043040202622409394 0 -0.00087425895161682109 -0.044606267510811259 0 0.0007979219920044888 -0.043095558849171101 0 0.00039011025393572715 -0.043164080789198707 0 -0.0010567006884972035 -0.044552395734107471 0 -0.0010567006884972035 -0.044552395734107471 0 -0.001792792684391988 -0.043770877122475925 0 -0.0035414430426065377 -0.046231402142117448 0 -0.0025922515800916547 -0.042400458544851076 0 -0.00097860946229406834 -0.044916684728518855 0 0.00047086450968279845 -0.043829690304962886 0 -0.001326773777855468 -0.04265674963164081 0 -0.00097860946229406834 -0.044916684728518855 0 -0.0025922515800916547 -0.042400458544851076 0 -0.001326773777855468 -0.04265674963164081 0 -0.00097860946229406834 -0.044916684728518855 0 -0.0035414430426065377 -0.046231402142117448 0 -0.003229106952153869 -0.042357039551809056 0 -0.0025922515800916547 -0.042400458544851076 0 -0.00085702879338244472 -0.054243220707506333 0 -0.00083689223273448912 -0.054330065416601965 0 -0.0007592526226830209 -0.054312692506215961 0 -0.00083689223273448912 -0.054330065416601965 0 -0.0007592526226830209 -0.054312692506215961 0 -0.00072598954684875282 -0.054390831829643264 0 -0.0022345435524642647 -0.050451719485607768 0 6.2858633965384719e-05 -0.046936720364615624 0 -0.0007592526226830209 -0.054312692506215961 0 -0.00064222094299026041 -0.054337111749878202 0 -0.00072098898391952961 -0.054255321531357745 0 -0.0007592526226830209 -0.054312692506215961 0 -0.00065872692352880822 -0.054374475874739918 0 -0.00064222094299026041 -0.054337111749878202 0 -0.0007592526226830209 -0.054312692506215961 0 -0.00065872692352880822 -0.054374475874739918 0 -0.00072598954684875282 -0.054390831829643264 0 -0.00064222094299026041 -0.054337111749878202 0 -0.00059757720989144273 -0.054374002490569319 0 -0.00051419756002804866 -0.054387655553269451 0 -0.00067994839579722701 -0.054890283728829377 0 -0.0004934019513293576 -0.054304257919303392 0 -0.00065872692352880822 -0.054374475874739918 0 -0.00064222094299026041 -0.054337111749878202 0 -0.00059757720989144273 -0.054374002490569319 0 0.00034101713412760311 -0.052787825536450998 0 0.00021077305032919197 -0.055211020126765736 0 -0.00059055695658465361 -0.054772510595860337 0 -0.0006567534171060726 -0.055060300869859476 0 -0.00036341842023660133 -0.05482034983504392 0 -0.00067994839579722701 -0.054890283728829377 0 0.00034101713412760311 -0.052787825536450998 0 -0.00065872692352880822 -0.054374475874739918 0 -0.00059757720989144273 -0.054374002490569319 0 -0.00062210797639665298 -0.05441985452602105 0 0.00034101713412760311 -0.052787825536450998 0 0.00067057564892984397 -0.05089199682222921 0 0.0027257102795564887 -0.04754876200692764 0 0.0017239125010644289 -0.047325402967236238 0 0.0016569017591967522 -0.048223327983427933 0 -0.00065872692352880822 -0.054374475874739918 0 -0.00062210797639665298 -0.05441985452602105 0 -0.00072598954684875282 -0.054390831829643264 0 0.0011864396061394052 -0.047793751643508901 0 0.0017239125010644289 -0.047325402967236238 0 0.0016569017591967522 -0.048223327983427933 0 0.0027257102795564887 -0.04754876200692764 0 0.0016569017591967522 -0.048223327983427933 0 0.0024221187391698182 -0.048850938535555645 0 0.00034101713412760311 -0.052787825536450998 0 0.0023210051271394683 -0.051272371311977753 0 0.0012887414089108702 -0.055556119375922926 0 0.0010109657145347102 -0.054761598132973065 0 0.00053410360641943763 -0.055312212890464139 0 0.0012887414089108702 -0.055556119375922926 0 0.0010109657145347102 -0.054761598132973065 0 0.0018252382947655586 -0.054311666340544865 0 0.0010109657145347102 -0.054761598132973065 0 0.0018252382947655586 -0.054311666340544865 0 0.0013746484498523852 -0.053218580866346156 0 0.0010109657145347102 -0.054761598132973065 0 0.00087404504638516096 -0.053684116453981322 0 0.0013746484498523852 -0.053218580866346156 0 0.0011461112269686756 -0.049504474333604005 0 0.0024221187391698182 -0.048850938535555645 0 0.0018403276482321207 -0.051651805149694016 0 0.0023210051271394683 -0.051272371311977753 0 0.0017987673063852047 -0.051867154435383242 0 0.0018252382947655586 -0.054311666340544865 0 0.0018403276482321207 -0.051651805149694016 0 0.0013746484498523852 -0.053218580866346156 0 0.0011461112269686756 -0.049504474333604005 0 0.0016569017591967522 -0.048223327983427933 0 0.0024221187391698182 -0.048850938535555645 0 7.8719987834286913e-08 -0.055000516749806549 0 0.00031460484602489929 -0.054775250554384168 0 0.00023726610288977122 -0.054525035163886779 0 0.00031460484602489929 -0.054775250554384168 0 0.00087404504638516096 -0.053684116453981322 0 0.00023726610288977122 -0.054525035163886779 0 0.0010109657145347102 -0.054761598132973065 0 0.00031460484602489929 -0.054775250554384168 0 0.00087404504638516096 -0.053684116453981322 0 0.0010109657145347102 -0.054761598132973065 0 0.00031460484602489929 -0.054775250554384168 0 0.00053410360641943763 -0.055312212890464139 0 0.00031460484602489929 -0.054775250554384168 0 1.3653656123735524e-05 -0.055079570372158437 0 0.00053410360641943763 -0.055312212890464139 0 7.8719987834286913e-08 -0.055000516749806549 0 0.00031460484602489929 -0.054775250554384168 0 1.3653656123735524e-05 -0.055079570372158437 0 7.8719987834286913e-08 -0.055000516749806549 0 1.3653656123735524e-05 -0.055079570372158437 0 7.4541171587074794e-08 -0.054999890665748209 0 1.3653656123735524e-05 -0.055079570372158437 0 -0.00013400209448742421 -0.054958828931213267 0 7.4541171587074794e-08 -0.054999890665748209 0 -0.00013400209448742421 -0.054958828931213267 0 7.4541171587074794e-08 -0.054999890665748209 0 3.656315443336238e-06 -0.054950760129899939 0 -0.00013400209448742421 -0.054958828931213267 0 -0.00030472666329008839 -0.055126880210050716 0 -0.00036341842023660133 -0.05482034983504392 0 1.3653656123735524e-05 -0.055079570372158437 0 -0.00013400209448742421 -0.054958828931213267 0 -0.00030472666329008839 -0.055126880210050716 0 -0.0006567534171060726 -0.055060300869859476 0 -0.00030472666329008839 -0.055126880210050716 0 -0.00036341842023660133 -0.05482034983504392 0 -8.7538391764025979e-06 -0.055115135327981096 0 0.00021077305032919197 -0.055211020126765736 0 -0.00059055695658465361 -0.054772510595860337 0 -0.00036341842023660133 -0.05482034983504392 0 -0.00051419756002804866 -0.054387655553269451 0 -0.00036341842023660133 -0.05482034983504392 0 -0.00024171783385607774 -0.054660761265204305 0 -0.00051419756002804866 -0.054387655553269451 0 -0.00013400209448742421 -0.054958828931213267 0 -0.00036341842023660133 -0.05482034983504392 0 -0.00024171783385607774 -0.054660761265204305 0 7.4541171587074794e-08 -0.054999890665748209 0 3.656315443336238e-06 -0.054950760129899939 0 -3.744578747877479e-08 -0.055000036773273031 0 -0.00024171783385607774 -0.054660761265204305 0 3.656315443336238e-06 -0.054950760129899939 0 -0.00011233147409655247 -0.054339105271895199 0 6.1117071740103569e-06 -0.054931903129593347 0 -9.3556510296233421e-05 -0.054661667119033322 0 -0.00013400209448742421 -0.054958828931213267 0 -0.00024171783385607774 -0.054660761265204305 0 3.656315443336238e-06 -0.054950760129899939 0 3.656315443336238e-06 -0.054950760129899939 0 -3.744578747877479e-08 -0.055000036773273031 0 -1.2982552893285966e-05 -0.055021329070523109 0 -3.744578747877479e-08 -0.055000036773273031 0 -1.2982552893285966e-05 -0.055021329070523109 0 -6.6738034993799739e-05 -0.055049477283737464 0 -9.3556510296233421e-05 -0.054661667119033322 0 -0.0002048552342509953 -0.054672876750582383 0 -1.2982552893285966e-05 -0.055021329070523109 0 -6.6738034993799739e-05 -0.055049477283737464 0 -0.00023901055448850199 -0.055128191854634891 0 -6.6738034993799739e-05 -0.055049477283737464 0 -0.00023901055448850199 -0.055128191854634891 0 -2.4227816550589814e-07 -0.054999946595284226 0 -3.744578747877479e-08 -0.055000036773273031 0 -6.6738034993799739e-05 -0.055049477283737464 0 -2.4227816550589814e-07 -0.054999946595284226 0 -0.00011233147409655247 -0.054339105271895199 0 -0.00029902504622947984 -0.054011363698637044 0 -0.00038306091792083907 -0.054202844863231438 0 -0.00029902504622947984 -0.054011363698637044 0 -0.00038306091792083907 -0.054202844863231438 0 -0.00048406416599256326 -0.053986945508038738 0 -0.00038306091792083907 -0.054202844863231438 0 -0.00031266540220909112 -0.054400126150445031 0 -0.00051419756002804866 -0.054387655553269451 0 -0.00011233147409655247 -0.054339105271895199 0 -0.00038306091792083907 -0.054202844863231438 0 -0.00031266540220909112 -0.054400126150445031 0 -0.00024171783385607774 -0.054660761265204305 0 -0.00011233147409655247 -0.054339105271895199 0 -0.00031266540220909112 -0.054400126150445031 0 -0.00024171783385607774 -0.054660761265204305 0 -0.00031266540220909112 -0.054400126150445031 0 -0.00051419756002804866 -0.054387655553269451 0 -0.00051419756002804866 -0.054387655553269451 0 -0.00063053301432591455 -0.054259021989088503 0 -0.00057192919585263369 -0.054143325913461257 0 -0.00038306091792083907 -0.054202844863231438 0 -0.00051419756002804866 -0.054387655553269451 0 -0.00057192919585263369 -0.054143325913461257 0 -0.00064222094299026041 -0.054337111749878202 0 -0.00051419756002804866 -0.054387655553269451 0 -0.00063053301432591455 -0.054259021989088503 0 -0.00081147418557732918 -0.054203374613859712 0 -0.0007592526226830209 -0.054312692506215961 0 -0.00072098898391952961 -0.054255321531357745 0 -0.00064222094299026041 -0.054337111749878202 0 -0.00063053301432591455 -0.054259021989088503 0 -0.00072098898391952961 -0.054255321531357745 0 -0.00063053301432591455 -0.054259021989088503 0 -0.00072098898391952961 -0.054255321531357745 0 -0.00072808664164373648 -0.054159770745133694 0 -0.00081147418557732918 -0.054203374613859712 0 -0.00072098898391952961 -0.054255321531357745 0 -0.00072808664164373648 -0.054159770745133694 0 -0.00072808664164373648 -0.054159770745133694 0 -0.00057192919585263369 -0.054143325913461257 0 -0.00069900438624009202 -0.053958903467057839 0 -0.0039298476545317701 -0.052425241292290939 0 -0.0024983229517142945 -0.053500318811070049 0 -0.00089672825124475857 -0.054116271108214042 0 -0.00072808664164373648 -0.054159770745133694 0 -0.00069900438624009202 -0.053958903467057839 0 -0.00063053301432591455 -0.054259021989088503 0 -0.00072808664164373648 -0.054159770745133694 0 -0.00057192919585263369 -0.054143325913461257 0 -0.00057192919585263369 -0.054143325913461257 0 -0.00048406416599256326 -0.053986945508038738 0 -0.00069900438624009202 -0.053958903467057839 0 -0.00038306091792083907 -0.054202844863231438 0 -0.00057192919585263369 -0.054143325913461257 0 -0.00048406416599256326 -0.053986945508038738 0 -0.0024983229517142945 -0.053500318811070049 0 -0.0014885702251977134 -0.054052281560835636 0 -0.00048406416599256326 -0.053986945508038738 0 -0.00069900438624009202 -0.053958903467057839 0 -0.00041254943935243509 -0.053755408891905526 0 -0.0051760575501130987 -0.052107315099424012 0 -0.0051890923291112489 -0.052493636022444369 0 -0.0041445344156509599 -0.052534654557810451 0 -0.0051890923291112489 -0.052493636022444369 0 -0.0043465263196254718 -0.052930161788291491 0 -0.0041445344156509599 -0.052534654557810451 0 -0.0043465263196254718 -0.052930161788291491 0 -0.0041445344156509599 -0.052534654557810451 0 -0.0036386776696701387 -0.052703564299043992 0 -0.0031100370378178885 -0.052764200467757955 0 -0.00096242672260054532 -0.055389016273207983 0 -0.0011284135186051924 -0.055495712659961886 0 -0.00079311960025060433 -0.054468234433358562 0 -0.00096242672260054532 -0.055389016273207983 0 -0.00047010833924812336 -0.055073778467663412 0 -0.0014944329827072148 -0.054110775785855686 0 -0.0014885702251977134 -0.054052281560835636 0 -0.00096242672260054532 -0.055389016273207983 0 -0.00059417104737799411 -0.055241243364853185 0 -0.00047010833924812336 -0.055073778467663412 0 -0.00096242672260054532 -0.055389016273207983 0 -0.0008953116070405221 -0.055337456027267154 0 -0.00059417104737799411 -0.055241243364853185 0 -0.00079311960025060433 -0.054468234433358562 0 -0.00047010833924812336 -0.055073778467663412 0 -6.0161065415653475e-07 -0.055001969514777115 0 -0.00047010833924812336 -0.055073778467663412 0 -6.0161065415653475e-07 -0.055001969514777115 0 -0.00028289809287575441 -0.055145252330622244 0 -0.00059417104737799411 -0.055241243364853185 0 -0.00047010833924812336 -0.055073778467663412 0 -0.00028289809287575441 -0.055145252330622244 0 -0.00023901055448850199 -0.055128191854634891 0 -0.00059417104737799411 -0.055241243364853185 0 -0.00028289809287575441 -0.055145252330622244 0 -6.0161065415653475e-07 -0.055001969514777115 0 -0.00028289809287575441 -0.055145252330622244 0 -2.4227816550589814e-07 -0.054999946595284226 0 -0.00023901055448850199 -0.055128191854634891 0 -0.00028289809287575441 -0.055145252330622244 0 -2.4227816550589814e-07 -0.054999946595284226 0 -0.00023901055448850199 -0.055128191854634891 0 -0.0008953116070405221 -0.055337456027267154 0 -0.00059417104737799411 -0.055241243364853185 0 -0.00029902504622947984 -0.054011363698637044 0 -0.00048406416599256326 -0.053986945508038738 0 -0.00041254943935243509 -0.053755408891905526 0 -0.0002048552342509953 -0.054672876750582383 0 -0.0014885702251977134 -0.054052281560835636 0 3.5772841978050705e-05 -0.05472442898067427 0 2.5850710484059668e-05 -0.054721335485302107 0 2.7135849816082508e-05 -0.054664572777446289 0 3.5772841978050705e-05 -0.05472442898067427 0 -2.3697508501457254e-05 -0.054655646643823295 0 2.7135849816082508e-05 -0.054664572777446289 0 -0.00020688624749331223 -0.054248680695494968 0 2.3721821582115416e-06 -0.054891590962420411 0 8.4073780289611102e-05 -0.055043465027614376 0 9.3548602244210508e-05 -0.055046733974567413 0 3.2011128057516694e-05 -0.055022584610855935 0 -6.5826060387596795e-05 -0.054367735516259418 0 -0.00020688624749331223 -0.054248680695494968 0 3.2011128057516694e-05 -0.055022584610855935 0 1.3312895180334347e-07 -0.055000181470262616 0 -4.4685681534404973e-08 -0.054999963536193297 0 3.2011128057516694e-05 -0.055022584610855935 0 1.3312895180334347e-07 -0.055000181470262616 0 3.672724330953325e-05 -0.055019331158320028 0 8.4073780289611102e-05 -0.055043465027614376 0 3.2011128057516694e-05 -0.055022584610855935 0 3.672724330953325e-05 -0.055019331158320028 0 1.3312895180334347e-07 -0.055000181470262616 0 3.3242267939149584e-05 -0.054996208139601169 0 -2.7592389868463619e-07 -0.054999513311859295 0 3.3242267939149584e-05 -0.054996208139601169 0 0.00014216602918763388 -0.05490686030853377 0 -2.7592389868463619e-07 -0.054999513311859295 0 8.4073780289611102e-05 -0.055043465027614376 0 3.3242267939149584e-05 -0.054996208139601169 0 0.00014216602918763388 -0.05490686030853377 0 8.4073780289611102e-05 -0.055043465027614376 0 3.672724330953325e-05 -0.055019331158320028 0 3.3242267939149584e-05 -0.054996208139601169 0 1.3312895180334347e-07 -0.055000181470262616 0 3.672724330953325e-05 -0.055019331158320028 0 3.3242267939149584e-05 -0.054996208139601169 0 8.4073780289611102e-05 -0.055043465027614376 0 0.00012985056036612637 -0.055055530039941104 0 0.00014216602918763388 -0.05490686030853377 0 0.00012985056036612637 -0.055055530039941104 0 0.00043351226936591395 -0.054868840793503681 0 0.00014216602918763388 -0.05490686030853377 0 -0.00078400883368826945 -0.053099831647122224 0 -0.0002564316661059993 -0.053092953421801606 0 -0.00025812274317018393 -0.05253201197961458 0 -0.00020688624749331223 -0.054248680695494968 0 7.5120647789800316e-05 -0.053674317703252566 0 0.00016203563138773806 -0.05265779378450975 0 -0.0002564316661059993 -0.053092953421801606 0 -0.00025812274317018393 -0.05253201197961458 0 0.00016203563138773806 -0.05265779378450975 0 0.0002763391260064311 -0.053088835252756782 0 -0.0002564316661059993 -0.053092953421801606 0 -8.4662009202303162e-06 -0.050943467073943413 0 -0.00014232144149875891 -0.052360966419325493 0 0.00012355023701962761 -0.05093432089147077 0 -0.00014232144149875891 -0.052360966419325493 0 -0.00012356707913100762 -0.052973938585651484 0 0.00012355023701962761 -0.05093432089147077 0 -0.00012356707913100762 -0.052973938585651484 0 0.00024769264305204091 -0.052199227215838993 0 4.4265344431920082e-05 -0.0515330065981221 0 -0.00045716374122559079 -0.054767475157582693 0 -0.00029348217369786964 -0.054664177914127643 0 -0.00039555821606038205 -0.054504416960799253 0 -0.00011859519767484961 -0.052764593603917782 0 -5.9559918551472796e-05 -0.051487752646705 0 -0.00045716374122559079 -0.054767475157582693 0 -0.00029348217369786964 -0.054664177914127643 0 -0.00013193580334175975 -0.054762495588276942 0 0.00015359608425460921 -0.052451887766849933 0 -0.00028212607400697297 -0.053487515604101858 0 0.00015359608425460921 -0.052451887766849933 0 -0.0002760505285509083 -0.053985161476564576 0 -0.00029348217369786964 -0.054664177914127643 0 -0.00014451447062084128 -0.054580838898687478 0 -0.00039555821606038205 -0.054504416960799253 0 -0.00020688624749331223 -0.054248680695494968 0 -0.0002760505285509083 -0.053985161476564576 0 3.5772841978050705e-05 -0.05472442898067427 0 -0.00013193580334175975 -0.054762495588276942 0 -2.3697508501457254e-05 -0.054655646643823295 0 -0.00029348217369786964 -0.054664177914127643 0 -0.00013193580334175975 -0.054762495588276942 0 -0.00014451447062084128 -0.054580838898687478 0 -0.00013193580334175975 -0.054762495588276942 0 -0.00014451447062084128 -0.054580838898687478 0 -2.3697508501457254e-05 -0.054655646643823295 0 -0.00014451447062084128 -0.054580838898687478 0 -2.3697508501457254e-05 -0.054655646643823295 0 -2.055437902527546e-05 -0.05448483746712305 0 -0.00014451447062084128 -0.054580838898687478 0 -2.055437902527546e-05 -0.05448483746712305 0 -0.00010060877473642013 -0.054336441316857262 0 -2.055437902527546e-05 -0.05448483746712305 0 -4.2624030297264328e-05 -0.054316177052555328 0 -1.4925487638086063e-05 -0.054578474402995146 0 -2.055437902527546e-05 -0.05448483746712305 0 -0.00010060877473642013 -0.054336441316857262 0 -4.2624030297264328e-05 -0.054316177052555328 0 -0.00028212607400697297 -0.053487515604101858 0 -0.00018785950823390355 -0.053720634874411456 0 -0.00014232144149875891 -0.052360966419325493 0 -0.00012356707913100762 -0.052973938585651484 0 -0.00015404222107222057 -0.05384464859497403 0 -0.00010060877473642013 -0.054336441316857262 0 -0.00039555821606038205 -0.054504416960799253 0 -0.00015404222107222057 -0.05384464859497403 0 -0.00012356707913100762 -0.052973938585651484 0 0.00028309212888759632 -0.052813412079340719 0 0.00024769264305204091 -0.052199227215838993 0 -0.00014451447062084128 -0.054580838898687478 0 -0.00010060877473642013 -0.054336441316857262 0 -0.00039555821606038205 -0.054504416960799253 0 -0.00012356707913100762 -0.052973938585651484 0 0.00025921223164939025 -0.053315294107783621 0 0.00028309212888759632 -0.052813412079340719 0 0.00025921223164939025 -0.053315294107783621 0 -0.00015404222107222057 -0.05384464859497403 0 0.00058283070238849578 -0.053594245166865812 0 -0.00012356707913100762 -0.052973938585651484 0 0.00025921223164939025 -0.053315294107783621 0 -0.00015404222107222057 -0.05384464859497403 0 -4.2624030297264328e-05 -0.054316177052555328 0 -7.830582975961802e-05 -0.054405595835672567 0 -1.4925487638086063e-05 -0.054578474402995146 0 -0.00015404222107222057 -0.05384464859497403 0 -4.2624030297264328e-05 -0.054316177052555328 0 -7.830582975961802e-05 -0.054405595835672567 0 -0.00010060877473642013 -0.054336441316857262 0 -0.00015404222107222057 -0.05384464859497403 0 -4.2624030297264328e-05 -0.054316177052555328 0 -1.4925487638086063e-05 -0.054578474402995146 0 -1.2510983556356137e-05 -0.054811757090664867 0 -6.3214587654914796e-05 -0.054733825468613981 0 -7.830582975961802e-05 -0.054405595835672567 0 -1.4925487638086063e-05 -0.054578474402995146 0 -6.3214587654914796e-05 -0.054733825468613981 0 -1.4925487638086063e-05 -0.054578474402995146 0 1.5347590883229306e-05 -0.054775528258324033 0 -1.2510983556356137e-05 -0.054811757090664867 0 -1.4925487638086063e-05 -0.054578474402995146 0 2.7135849816082508e-05 -0.054664572777446289 0 1.5347590883229306e-05 -0.054775528258324033 0 -2.055437902527546e-05 -0.05448483746712305 0 -1.4925487638086063e-05 -0.054578474402995146 0 2.7135849816082508e-05 -0.054664572777446289 0 -2.3697508501457254e-05 -0.054655646643823295 0 -2.055437902527546e-05 -0.05448483746712305 0 2.7135849816082508e-05 -0.054664572777446289 0 2.3721821582115416e-06 -0.054891590962420411 0 4.6101513910158797e-08 -0.054999887291739963 0 2.5850710484059668e-05 -0.054721335485302107 0 2.7135849816082508e-05 -0.054664572777446289 0 1.5347590883229306e-05 -0.054775528258324033 0 2.5850710484059668e-05 -0.054721335485302107 0 -6.152144328753402e-08 -0.054999234536417169 0 1.5347590883229306e-05 -0.054775528258324033 0 -6.152144328753402e-08 -0.054999234536417169 0 1.5347590883229306e-05 -0.054775528258324033 0 -1.2510983556356137e-05 -0.054811757090664867 0 -6.152144328753402e-08 -0.054999234536417169 0 -3.9081864082077997e-09 -0.05499971996920365 0 -1.2510983556356137e-05 -0.054811757090664867 0 -3.9081864082077997e-09 -0.05499971996920365 0 -1.2510983556356137e-05 -0.054811757090664867 0 -6.3214587654914796e-05 -0.054733825468613981 0 -3.9081864082077997e-09 -0.05499971996920365 0 -6.3214587654914796e-05 -0.054733825468613981 0 -1.1349442933180964e-07 -0.054999765555652863 0 -6.3214587654914796e-05 -0.054733825468613981 0 -2.0527159493773683e-05 -0.054895327238453265 0 1.2327263640532474e-06 -0.054597121055023054 0 -6.3214587654914796e-05 -0.054733825468613981 0 -1.1349442933180964e-07 -0.054999765555652863 0 -2.0527159493773683e-05 -0.054895327238453265 0 -1.1349442933180964e-07 -0.054999765555652863 0 -2.0527159493773683e-05 -0.054895327238453265 0 5.3610236671078155e-08 -0.055000040522266883 0 0.00086455349662114471 -0.052848833810622865 0 0.00023726610288977122 -0.054525035163886779 0 -1.0714721500126089e-07 -0.054995753191572107 0 0.00047020259576061377 -0.05391188995977559 0 1.9431914629809928e-07 -0.054999514884480537 0 0.00086455349662114471 -0.052848833810622865 0 0.00087404504638516096 -0.053684116453981322 0 0.00023726610288977122 -0.054525035163886779 0 7.8719987834286913e-08 -0.055000516749806549 0 0.00023726610288977122 -0.054525035163886779 0 -1.0714721500126089e-07 -0.054995753191572107 0 0.0018403276482321207 -0.051651805149694016 0 0.0013746484498523852 -0.053218580866346156 0 0.0015664630937898265 -0.052379992048952988 0 0.00087404504638516096 -0.053684116453981322 0 0.0013746484498523852 -0.053218580866346156 0 0.0015664630937898265 -0.052379992048952988 0 0.00086455349662114471 -0.052848833810622865 0 0.00087404504638516096 -0.053684116453981322 0 0.0015664630937898265 -0.052379992048952988 0 0.0018403276482321207 -0.051651805149694016 0 0.0015664630937898265 -0.052379992048952988 0 0.0013307468827523559 -0.052009639837111807 0 0.0015664630937898265 -0.052379992048952988 0 0.0013307468827523559 -0.052009639837111807 0 0.0011397028793623672 -0.05267556150194138 0 0.0018403276482321207 -0.051651805149694016 0 0.0013307468827523559 -0.052009639837111807 0 0.00098985169369418926 -0.050797416852158883 0 0.0015664630937898265 -0.052379992048952988 0 0.0011397028793623672 -0.05267556150194138 0 0.0014976470343326417 -0.052746378873768013 0 0.00086455349662114471 -0.052848833810622865 0 0.0015664630937898265 -0.052379992048952988 0 0.0014976470343326417 -0.052746378873768013 0 0.00047020259576061377 -0.05391188995977559 0 0.0006943105364094588 -0.053677625608182851 0 -7.830582975961802e-05 -0.054405595835672567 0 -6.3214587654914796e-05 -0.054733825468613981 0 1.2327263640532474e-06 -0.054597121055023054 0 -0.00015404222107222057 -0.05384464859497403 0 -7.830582975961802e-05 -0.054405595835672567 0 1.2327263640532474e-06 -0.054597121055023054 0 -0.00015404222107222057 -0.05384464859497403 0 1.2327263640532474e-06 -0.054597121055023054 0 0.00058283070238849578 -0.053594245166865812 0 0.0011397028793623672 -0.05267556150194138 0 0.0014976470343326417 -0.052746378873768013 0 0.00058283070238849578 -0.053594245166865812 0 0.0006943105364094588 -0.053677625608182851 0 0.0005908567827430923 -0.053630169401862486 0 0.0011397028793623672 -0.05267556150194138 0 0.00058506068278596631 -0.053166452043376562 0 0.00058283070238849578 -0.053594245166865812 0 0.00058506068278596631 -0.053166452043376562 0 0.00063844122421665968 -0.053428141192278414 0 0.00058283070238849578 -0.053594245166865812 0 0.00058506068278596631 -0.053166452043376562 0 0.00063844122421665968 -0.053428141192278414 0 0.0003789693692405362 -0.053071820167126874 0 0.00058506068278596631 -0.053166452043376562 0 0.0003789693692405362 -0.053071820167126874 0 0.00038420682234706414 -0.052445284450652802 0 -0.00041992639623225978 -0.051393052059280367 0 0.00039660912368375938 -0.050206185368677533 0 -0.00055771528883506315 -0.050289866640813412 0 -0.00017653793677816212 -0.052494802734938055 0 0.0004990127582934022 -0.051259685304804403 0 0.0011397028793623672 -0.05267556150194138 0 0.00058506068278596631 -0.053166452043376562 0 0.00038420682234706414 -0.052445284450652802 0 0.0013307468827523559 -0.052009639837111807 0 0.00038420682234706414 -0.052445284450652802 0 0.00098985169369418926 -0.050797416852158883 0 0.0013307468827523559 -0.052009639837111807 0 0.0011397028793623672 -0.05267556150194138 0 0.00038420682234706414 -0.052445284450652802 0 0.00039660912368375938 -0.050206185368677533 0 0.00044786486400354879 -0.04999706574048695 0 0.00098985169369418926 -0.050797416852158883 0 0.0004990127582934022 -0.051259685304804403 0 0.0009511156159777355 -0.050766781113555301 0 0.00039660912368375938 -0.050206185368677533 0 -0.00036108078585413741 -0.049533944156808153 0 -0.00055771528883506315 -0.050289866640813412 0 0.00039660912368375938 -0.050206185368677533 0 -0.00036108078585413741 -0.049533944156808153 0 0.00044786486400354879 -0.04999706574048695 0 -0.00036108078585413741 -0.049533944156808153 0 0.00059576577624906009 -0.049158700034096711 0 -0.0010530995308437065 -0.04804106903856134 0 -0.00036108078585413741 -0.049533944156808153 0 0.00044786486400354879 -0.04999706574048695 0 0.00059576577624906009 -0.049158700034096711 0 0.0011461112269686756 -0.049504474333604005 0 0.00059576577624906009 -0.049158700034096711 0 0.00098985169369418926 -0.050797416852158883 0 0.0011461112269686756 -0.049504474333604005 0 0.0018403276482321207 -0.051651805149694016 0 0.00098985169369418926 -0.050797416852158883 0 0.00044786486400354879 -0.04999706574048695 0 0.00059576577624906009 -0.049158700034096711 0 0.00098985169369418926 -0.050797416852158883 0 -0.0020565759204834722 -0.045762752883874061 0 -0.0025362481110871049 -0.047526753414288123 0 -0.0010530995308437065 -0.04804106903856134 0 -0.0025362481110871049 -0.047526753414288123 0 -0.0010530995308437065 -0.04804106903856134 0 -0.0015078135601748568 -0.049430585095552954 0 -0.00036108078585413741 -0.049533944156808153 0 -0.0010530995308437065 -0.04804106903856134 0 -0.0015078135601748568 -0.049430585095552954 0 -0.00036108078585413741 -0.049533944156808153 0 -0.0015078135601748568 -0.049430585095552954 0 -0.00055771528883506315 -0.050289866640813412 0 -0.0025362481110871049 -0.047526753414288123 0 -0.0015078135601748568 -0.049430585095552954 0 -0.0027410252967862581 -0.050058541324489787 0 -0.0025362481110871049 -0.047526753414288123 0 -0.0027410252967862581 -0.050058541324489787 0 -0.0042230255243613807 -0.049253881976054542 0 -0.0027410252967862581 -0.050058541324489787 0 -0.0019727469474115689 -0.051216837029886345 0 -0.0038818895559557453 -0.051322292231005907 0 -0.0015078135601748568 -0.049430585095552954 0 -0.0027410252967862581 -0.050058541324489787 0 -0.0019727469474115689 -0.051216837029886345 0 -0.0015078135601748568 -0.049430585095552954 0 -0.0019727469474115689 -0.051216837029886345 0 -0.00055771528883506315 -0.050289866640813412 0 -0.00041992639623225978 -0.051393052059280367 0 -0.0019727469474115689 -0.051216837029886345 0 -0.00055771528883506315 -0.050289866640813412 0 -0.00041992639623225978 -0.051393052059280367 0 -0.0019727469474115689 -0.051216837029886345 0 -0.0014758236608417271 -0.052851832447289936 0 -0.00017653793677816212 -0.052494802734938055 0 -0.00044069790500464901 -0.051432090143920375 0 0.00063844122421665968 -0.053428141192278414 0 0.0003789693692405362 -0.053071820167126874 0 0.00017917036272620544 -0.053483200667989804 0 -0.0019727469474115689 -0.051216837029886345 0 -0.0026213316515907702 -0.052298661789078799 0 -0.0014758236608417271 -0.052851832447289936 0 -0.0019727469474115689 -0.051216837029886345 0 -0.0026213316515907702 -0.052298661789078799 0 -0.0038818895559557453 -0.051322292231005907 0 -0.0026213316515907702 -0.052298661789078799 0 -0.002843140020478376 -0.053061517234216725 0 -0.0014758236608417271 -0.052851832447289936 0 -0.0015373589915469873 -0.047369089502781195 0 -0.0015024819540754033 -0.047553131102551383 0 -0.0013133326458562994 -0.047242287875065972 0 -0.0015024819540754033 -0.047553131102551383 0 -0.0012478951535904816 -0.047209109021666334 0 -0.0013133326458562994 -0.047242287875065972 0 -0.0026213316515907702 -0.052298661789078799 0 -0.002843140020478376 -0.053061517234216725 0 -0.003662202440158011 -0.053061847468308866 0 -0.0015120768761252043 -0.047211035676097156 0 -0.0015373589915469873 -0.047369089502781195 0 -0.0013133326458562994 -0.047242287875065972 0 0.00094362687464362612 -0.049857094748283169 0 -0.00044069790500464901 -0.051432090143920375 0 -0.0015120768761252043 -0.047211035676097156 0 -0.0015373589915469873 -0.047369089502781195 0 -0.0016865526428327666 -0.047181504646059282 0 -0.0020893036044219281 -0.048769666698079049 0 -0.00044069790500464901 -0.051432090143920375 0 -0.0020893036044219281 -0.048769666698079049 0 -0.0012528055627728709 -0.047686504050901503 0 -0.0014973970250036705 -0.047260237178293529 0 -0.0012478951535904816 -0.047209109021666334 0 -0.0013133326458562994 -0.047242287875065972 0 0.0028269906260962614 -0.052254451494228207 0 0.0015560751289723598 -0.052278894833163052 0 0.002592103612968502 -0.051050989091692617 0 0.0028269906260962614 -0.052254451494228207 0 0.0015560751289723598 -0.052278894833163052 0 0.0016481548223339602 -0.053519312458768932 0 -0.0015373589915469873 -0.047369089502781195 0 -0.0015024819540754033 -0.047553131102551383 0 -0.0017342365521710809 -0.047718184044103419 0 0.0015560751289723598 -0.052278894833163052 0 0.0011309109941260974 -0.053020871840858796 0 0.00080764510574648054 -0.052829704424148041 0 0.0010074963382026019 -0.053323354927955154 0 -0.00044069790500464901 -0.051432090143920375 0 0.00063844122421665968 -0.053428141192278414 0 0.0011309109941260974 -0.053020871840858796 0 0.0016481548223339602 -0.053519312458768932 0 0.0015560751289723598 -0.052278894833163052 0 0.0011309109941260974 -0.053020871840858796 0 0.0016481548223339602 -0.053519312458768932 0 0.00063844122421665968 -0.053428141192278414 0 0.0011309109941260974 -0.053020871840858796 0 0.00080764510574648054 -0.052829704424148041 0 0.00063844122421665968 -0.053428141192278414 0 0.0005502782018379916 -0.053137686533776672 0 0.00080764510574648054 -0.052829704424148041 0 0.00063844122421665968 -0.053428141192278414 0 0.00058283070238849578 -0.053594245166865812 0 0.0005502782018379916 -0.053137686533776672 0 0.00025921223164939025 -0.053315294107783621 0 0.00058283070238849578 -0.053594245166865812 0 0.0005502782018379916 -0.053137686533776672 0 0.00025921223164939025 -0.053315294107783621 0 0.0005502782018379916 -0.053137686533776672 0 0.00028309212888759632 -0.052813412079340719 0 0.0005502782018379916 -0.053137686533776672 0 0.00028309212888759632 -0.052813412079340719 0 0.00052599966550912077 -0.052406036508038795 0 0.00028309212888759632 -0.052813412079340719 0 0.00052599966550912077 -0.052406036508038795 0 0.00024769264305204091 -0.052199227215838993 0 0.0015560751289723598 -0.052278894833163052 0 0.00080764510574648054 -0.052829704424148041 0 0.00093397053985844723 -0.051898345835819447 0 0.0005502782018379916 -0.053137686533776672 0 0.00052599966550912077 -0.052406036508038795 0 0.00080764510574648054 -0.052829704424148041 0 0.00052599966550912077 -0.052406036508038795 0 0.00080764510574648054 -0.052829704424148041 0 0.00093397053985844723 -0.051898345835819447 0 0.00093397053985844723 -0.051898345835819447 0 0.0007759044853580824 -0.051293865711020639 0 0.0015411698521369196 -0.05051307643718702 0 0.00052599966550912077 -0.052406036508038795 0 0.00093397053985844723 -0.051898345835819447 0 0.0007759044853580824 -0.051293865711020639 0 0.00054628556404058375 -0.050560510721994321 0 -5.9559918551472796e-05 -0.051487752646705 0 0.00052599966550912077 -0.052406036508038795 0 0.0007759044853580824 -0.051293865711020639 0 0.00024769264305204091 -0.052199227215838993 0 0.0007759044853580824 -0.051293865711020639 0 0.00024769264305204091 -0.052199227215838993 0 4.4265344431920082e-05 -0.0515330065981221 0 0.00015359608425460921 -0.052451887766849933 0 -5.9559918551472796e-05 -0.051487752646705 0 0.00055082566457077429 -0.052078707249265048 0 0.00056213482978097618 -0.05207853083060212 0 0.00063398686879166579 -0.051982192164174559 0 0.00015359608425460921 -0.052451887766849933 0 0.00061068054659032612 -0.052204023991563361 0 -5.9559918551472796e-05 -0.051487752646705 0 0.00035290061230932245 -0.050292878156492388 0 0.00025295870138515456 -0.049901363915906799 0 -0.00062737730007792348 -0.049861817982843608 0 -1.6398680622456498e-05 -0.048749880487799782 0 0.00055082566457077429 -0.052078707249265048 0 0.00063398686879166579 -0.051982192164174559 0 0.00062798779118597274 -0.051961639921130183 0 0.00016203563138773806 -0.05265779378450975 0 0.0002763391260064311 -0.053088835252756782 0 0.00053111653958626747 -0.052412841360161999 0 0.00025295870138515456 -0.049901363915906799 0 0.00064924277158484914 -0.049010407784587678 0 -1.6398680622456498e-05 -0.048749880487799782 0 0.00025295870138515456 -0.049901363915906799 0 0.00064924277158484914 -0.049010407784587678 0 0.0015411698521369196 -0.05051307643718702 0 0.00064924277158484914 -0.049010407784587678 0 0.0015411698521369196 -0.05051307643718702 0 0.0012533466919073008 -0.048324452354324518 0 0.0019128843253199701 -0.048310437380091907 0 0.0011936186435288481 -0.048150429936399945 0 0.002979149427025578 -0.049538306668579564 0 0.0015411698521369196 -0.05051307643718702 0 0.0012533466919073008 -0.048324452354324518 0 0.002979149427025578 -0.049538306668579564 0 0.002592103612968502 -0.051050989091692617 0 0.0015411698521369196 -0.05051307643718702 0 0.0015560751289723598 -0.052278894833163052 0 0.00093397053985844723 -0.051898345835819447 0 0.0015411698521369196 -0.05051307643718702 0 0.0015560751289723598 -0.052278894833163052 0 0.002592103612968502 -0.051050989091692617 0 0.0015411698521369196 -0.05051307643718702 0 0.00054628556404058375 -0.050560510721994321 0 0.001560526342872967 -0.050542857243379299 0 -0.0023006113425503775 -0.047793220385675593 0 -0.0020785698145474197 -0.048308886710340962 0 -0.0030854425372587534 -0.047795799024510137 0 -0.00015406364972038466 -0.048054382699768992 0 -0.0028850238397313405 -0.045723708023061353 0 -0.00071550725588445121 -0.045926947168034096 0 -0.0016925734426746467 -0.046004315123375203 0 -0.0021295931210798267 -0.044108287232238447 0 -0.00041238427006961561 -0.045519741931856171 0 -0.00071550725588445121 -0.045926947168034096 0 -0.0021295931210798267 -0.044108287232238447 0 0.00094362687464362612 -0.049857094748283169 0 -0.00015406364972038466 -0.048054382699768992 0 0.002979149427025578 -0.049538306668579564 0 0.002592103612968502 -0.051050989091692617 0 0.0042448476360852959 -0.050443772850934848 0 -0.0015024819540754033 -0.047553131102551383 0 -0.0020785698145474197 -0.048308886710340962 0 -0.0017342365521710809 -0.047718184044103419 0 0.0028269906260962614 -0.052254451494228207 0 0.002592103612968502 -0.051050989091692617 0 0.0042448476360852959 -0.050443772850934848 0 -0.0023006113425503775 -0.047793220385675593 0 -0.0020785698145474197 -0.048308886710340962 0 -0.0017342365521710809 -0.047718184044103419 0 -0.00049824158234490772 -0.045672346465128383 0 -0.00071550725588445121 -0.045926947168034096 0 -0.00025423442977530675 -0.046799606160281122 0 0.00043965468122587106 -0.046802095393884593 0 -0.00025423442977530675 -0.046799606160281122 0 0.00024696239071494693 -0.047936565291510282 0 -0.00015406364972038466 -0.048054382699768992 0 0.00010270292741780197 -0.046953812617602404 0 0.0019128843253199701 -0.048310437380091907 0 -0.00015406364972038466 -0.048054382699768992 0 0.00043965468122587106 -0.046802095393884593 0 -0.00049824158234490772 -0.045672346465128383 0 -0.00025423442977530675 -0.046799606160281122 0 -0.00071550725588445121 -0.045926947168034096 0 -0.00025423442977530675 -0.046799606160281122 0 -0.00089732983330133363 -0.046455762315141022 0 -0.00025423442977530675 -0.046799606160281122 0 -0.00089732983330133363 -0.046455762315141022 0 -0.00098837364593334052 -0.047071595598150946 0 -0.00089732983330133363 -0.046455762315141022 0 -0.0016925734426746467 -0.046004315123375203 0 -0.00098837364593334052 -0.047071595598150946 0 -0.0016925734426746467 -0.046004315123375203 0 -0.0021996252355301811 -0.046897474384284606 0 -0.00098837364593334052 -0.047071595598150946 0 -0.00071550725588445121 -0.045926947168034096 0 -0.00089732983330133363 -0.046455762315141022 0 -0.0016925734426746467 -0.046004315123375203 0 -0.0031989780329660469 -0.045412351377778638 0 -0.0032927456089173811 -0.046747578289529572 0 -0.0021996252355301811 -0.046897474384284606 0 -0.0016925734426746467 -0.046004315123375203 0 -0.0031989780329660469 -0.045412351377778638 0 -0.0021996252355301811 -0.046897474384284606 0 -0.0031989780329660469 -0.045412351377778638 0 -0.0048734245145652909 -0.046396532917562863 0 -0.0032927456089173811 -0.046747578289529572 0 -0.0031989780329660469 -0.045412351377778638 0 -0.0049173719284245519 -0.044874313375323611 0 -0.0048734245145652909 -0.046396532917562863 0 -0.0031989780329660469 -0.045412351377778638 0 -0.0039181456138522846 -0.042887011285524433 0 -0.0049173719284245519 -0.044874313375323611 0 -0.0016925734426746467 -0.046004315123375203 0 -0.0031989780329660469 -0.045412351377778638 0 -0.0021295931210798267 -0.044108287232238447 0 -0.0031989780329660469 -0.045412351377778638 0 -0.0021295931210798267 -0.044108287232238447 0 -0.0039181456138522846 -0.042887011285524433 0 -0.0030854425372587534 -0.047795799024510137 0 -0.0035141931605497828 -0.047142464917981644 0 -0.0029224484218408416 -0.047244999391197404 0 -0.0035141931605497828 -0.047142464917981644 0 -0.0043509513694409098 -0.046837298826263259 0 -0.0033173640009012419 -0.046976358116973191 0 -0.0028850238397313405 -0.045723708023061353 0 -0.0040012083527593036 -0.045104440101281278 0 -0.0030854425372587534 -0.047795799024510137 0 -0.0035141931605497828 -0.047142464917981644 0 -0.0041729072414371602 -0.04709118534263055 0 -0.0033173640009012419 -0.046976358116973191 0 -0.0029294893392242068 -0.046998692846225362 0 -0.0029224484218408416 -0.047244999391197404 0 -0.0035141931605497828 -0.047142464917981644 0 -0.0033173640009012419 -0.046976358116973191 0 -0.0029224484218408416 -0.047244999391197404 0 -0.0035141931605497828 -0.047142464917981644 0 -0.0041729072414371602 -0.04709118534263055 0 -0.0043509513694409098 -0.046837298826263259 0 -0.0040907472788867406 -0.046433844087851589 0 -0.0043509513694409098 -0.046837298826263259 0 -0.0032585939198891164 -0.046615869778487563 0 -0.0040907472788867406 -0.046433844087851589 0 -0.0043509513694409098 -0.046837298826263259 0 -0.0051978447362835099 -0.04637679336902012 0 -0.0040907472788867406 -0.046433844087851589 0 -0.0032585939198891164 -0.046615869778487563 0 -0.0031475756099146684 -0.046419104429282536 0 -0.0043420229465620424 -0.046862842912211551 0 -0.0030483394878805495 -0.046561744287383799 0 -0.0043509513694409098 -0.046837298826263259 0 -0.0033173640009012419 -0.046976358116973191 0 -0.0030188576549669121 -0.046726370433471665 0 -0.0042704793734605739 -0.045080425483375229 0 -0.0041470810950612544 -0.04481560252359211 0 -0.0033173640009012419 -0.046976358116973191 0 -0.0030188576549669121 -0.046726370433471665 0 -0.0029294893392242068 -0.046998692846225362 0 -0.0030188576549669121 -0.046726370433471665 0 -0.0026049587539596535 -0.04700672305549379 0 -0.0017896666240667814 -0.046521098974322092 0 -0.0032585939198891164 -0.046615869778487563 0 -0.0031475756099146684 -0.046419104429282536 0 -0.0022759314540104335 -0.046415124652706648 0 -0.0030483394878805495 -0.046561744287383799 0 -0.0024484632515370088 -0.047230879594861823 0 -0.004647194026814145 -0.043631317273486625 0 -0.0049764887419842746 -0.043655975873161716 0 -0.0048047234023102332 -0.043785864991745846 0 -0.0041470810950612544 -0.04481560252359211 0 -0.0024484632515370088 -0.047230879594861823 0 -0.0030188576549669121 -0.046726370433471665 0 -0.0026049587539596535 -0.04700672305549379 0 -0.0029294893392242068 -0.046998692846225362 0 -0.0026049587539596535 -0.04700672305549379 0 -0.0029224484218408416 -0.047244999391197404 0 -0.0025449947224555256 -0.047410980942671765 0 -0.0023006113425503775 -0.047793220385675593 0 -0.0030854425372587534 -0.047795799024510137 0 -0.0025449947224555256 -0.047410980942671765 0 -0.0026049587539596535 -0.04700672305549379 0 -0.0029294893392242068 -0.046998692846225362 0 -0.0029224484218408416 -0.047244999391197404 0 -0.0026049587539596535 -0.04700672305549379 0 -0.0023096442927927501 -0.047161779319664907 0 -0.0025449947224555256 -0.047410980942671765 0 -0.0023096442927927501 -0.047161779319664907 0 -0.0025449947224555256 -0.047410980942671765 0 -0.0020929922506555628 -0.047473000008164609 0 -0.0023006113425503775 -0.047793220385675593 0 -0.0025449947224555256 -0.047410980942671765 0 -0.0020929922506555628 -0.047473000008164609 0 -0.0030854425372587534 -0.047795799024510137 0 -0.0029224484218408416 -0.047244999391197404 0 -0.0025449947224555256 -0.047410980942671765 0 -0.0015817313972103589 -0.047526814055269123 0 -0.0024484632515370088 -0.047230879594861823 0 -0.0017342365521710809 -0.047718184044103419 0 -0.0020929922506555628 -0.047473000008164609 0 -0.0017896666240667814 -0.046521098974322092 0 -0.0023006113425503775 -0.047793220385675593 0 -0.0017342365521710809 -0.047718184044103419 0 -0.0020929922506555628 -0.047473000008164609 0 -0.0026049587539596535 -0.04700672305549379 0 -0.0023096442927927501 -0.047161779319664907 0 -0.0017896666240667814 -0.046521098974322092 0 -0.0023096442927927501 -0.047161779319664907 0 -0.0020929922506555628 -0.047473000008164609 0 -0.0017896666240667814 -0.046521098974322092 0 -0.0015373589915469873 -0.047369089502781195 0 -0.0017342365521710809 -0.047718184044103419 0 -0.0016865526428327666 -0.047181504646059282 0 -0.0020893036044219281 -0.048769666698079049 0 -0.0024484632515370088 -0.047230879594861823 0 -0.0026213316515907702 -0.052298661789078799 0 -0.003662202440158011 -0.053061847468308866 0 -0.0038818895559557453 -0.051322292231005907 0 -0.0024484632515370088 -0.047230879594861823 0 -0.0045354303729939933 -0.047848252490631904 0 -0.0049764887419842746 -0.043655975873161716 0 -0.0048047234023102332 -0.043785864991745846 0 -0.0050039411878522238 -0.043980764365018722 0 -0.0048047234023102332 -0.043785864991745846 0 -0.0045834171119110865 -0.043945699600416867 0 -0.0050039411878522238 -0.043980764365018722 0 -0.004647194026814145 -0.043631317273486625 0 -0.0048047234023102332 -0.043785864991745846 0 -0.0045834171119110865 -0.043945699600416867 0 -0.0045834171119110865 -0.043945699600416867 0 -0.0050039411878522238 -0.043980764365018722 0 -0.0049558897767773809 -0.044585777829723304 0 -0.0045354303729939933 -0.047848252490631904 0 -0.0045290225151470949 -0.046835974852670763 0 -0.0027410252967862581 -0.050058541324489787 0 -0.0038818895559557453 -0.051322292231005907 0 -0.0042230255243613807 -0.049253881976054542 0 -0.0045834171119110865 -0.043945699600416867 0 -0.0044131105841960462 -0.044977075209316451 0 -0.0044764444050369714 -0.044411521976705171 0 -0.0045834171119110865 -0.043945699600416867 0 -0.0049558897767773809 -0.044585777829723304 0 -0.0044131105841960462 -0.044977075209316451 0 -0.0044738512684114355 -0.044447032290588162 0 -0.0042662047870430063 -0.04485495425433781 0 -0.0044131105841960462 -0.044977075209316451 0 -0.0042662047870430063 -0.04485495425433781 0 -0.0044131105841960462 -0.044977075209316451 0 -0.0043242634352314707 -0.045972879465159676 0 -0.0045290225151470949 -0.046835974852670763 0 -0.004415088230784207 -0.04605748359287061 0 -0.0025362481110871049 -0.047526753414288123 0 -0.0042230255243613807 -0.049253881976054542 0 -0.0043242634352314707 -0.045972879465159676 0 -0.0049558897767773809 -0.044585777829723304 0 -0.0044131105841960462 -0.044977075209316451 0 -0.0043242634352314707 -0.045972879465159676 0 -0.00334245648454472 -0.045679861976328902 0 -0.0025362481110871049 -0.047526753414288123 0 -0.0043242634352314707 -0.045972879465159676 0 -0.0046498509747791581 -0.043962078877287696 0 -0.0044738512684114355 -0.044447032290588162 0 -0.0046068982306467282 -0.043972107217125217 0 -0.0044738512684114355 -0.044447032290588162 0 -0.0044131105841960462 -0.044977075209316451 0 -0.0044764444050369714 -0.044411521976705171 0 -0.0044738512684114355 -0.044447032290588162 0 -0.0044764444050369714 -0.044411521976705171 0 -0.0046068982306467282 -0.043972107217125217 0 -0.0045834171119110865 -0.043945699600416867 0 -0.0044764444050369714 -0.044411521976705171 0 -0.0045409044414835573 -0.043902790746267892 0 -0.0046068982306467282 -0.043972107217125217 0 -0.0045409044414835573 -0.043902790746267892 0 -0.0046961224456566015 -0.043492378120684266 0 -0.0044764444050369714 -0.044411521976705171 0 -0.0046068982306467282 -0.043972107217125217 0 -0.0045409044414835573 -0.043902790746267892 0 -0.0045409044414835573 -0.043902790746267892 0 -0.0045685233817827891 -0.043647879505354037 0 -0.0046961224456566015 -0.043492378120684266 0 -0.0045685233817827891 -0.043647879505354037 0 -0.0047243953562100477 -0.043270215448522172 0 -0.0046961224456566015 -0.043492378120684266 0 -0.0045834171119110865 -0.043945699600416867 0 -0.0045409044414835573 -0.043902790746267892 0 -0.0045685233817827891 -0.043647879505354037 0 -0.004647194026814145 -0.043631317273486625 0 -0.0045834171119110865 -0.043945699600416867 0 -0.0045685233817827891 -0.043647879505354037 0 -0.0045767980593666713 -0.043543344807959808 0 -0.004647194026814145 -0.043631317273486625 0 -0.0045685233817827891 -0.043647879505354037 0 -0.0045767980593666713 -0.043543344807959808 0 -0.0045685233817827891 -0.043647879505354037 0 -0.0047243953562100477 -0.043270215448522172 0 -0.0047243953562100477 -0.043270215448522172 0 -0.0050608313177696014 -0.042869333302182497 0 -0.0048092645677784195 -0.043335323656714754 0 -0.0045767980593666713 -0.043543344807959808 0 -0.0047243953562100477 -0.043270215448522172 0 -0.0048092645677784195 -0.043335323656714754 0 -0.0047243953562100477 -0.043270215448522172 0 -0.0050608313177696014 -0.042869333302182497 0 -0.0049421242746211392 -0.042823335335015832 0 -0.0050608313177696014 -0.042869333302182497 0 -0.0049421242746211392 -0.042823335335015832 0 -0.0053297501849763522 -0.042501674705203503 0 -0.0047243953562100477 -0.043270215448522172 0 -0.0049421242746211392 -0.042823335335015832 0 -0.0046961224456566015 -0.043492378120684266 0 -0.0049421242746211392 -0.042823335335015832 0 -0.0046961224456566015 -0.043492378120684266 0 -0.0047894498058684955 -0.043479902383043653 0 -0.0046068982306467282 -0.043972107217125217 0 -0.0046961224456566015 -0.043492378120684266 0 -0.0047894498058684955 -0.043479902383043653 0 -0.0049421242746211392 -0.042823335335015832 0 -0.0047894498058684955 -0.043479902383043653 0 -0.0049132076222457794 -0.042963303473604067 0 -0.0047894498058684955 -0.043479902383043653 0 -0.0047697432024050058 -0.043496832375595124 0 -0.0049132076222457794 -0.042963303473604067 0 -0.0027277892156769047 -0.039797107586579276 0 -0.0036139052037672064 -0.040605159468826015 0 -0.0046498509747791581 -0.043962078877287696 0 -0.0047894498058684955 -0.043479902383043653 0 -0.0047697432024050058 -0.043496832375595124 0 -0.0046498509747791581 -0.043962078877287696 0 -0.0046068982306467282 -0.043972107217125217 0 -0.0047894498058684955 -0.043479902383043653 0 -0.0042921712597877582 -0.036275406252477993 0 -0.00256219055606167 -0.036932858084076349 0 -0.0045619070052984653 -0.038201353822400898 0 -0.0053280724288458509 -0.037829900272522157 0 -0.0062276625943508074 -0.033179909731528394 0 -0.0042921712597877582 -0.036275406252477993 0 -0.0045619070052984653 -0.038201353822400898 0 -0.0058005575405723313 -0.036487428168697406 0 -0.0036139052037672064 -0.040605159468826015 0 -0.0053280724288458509 -0.037829900272522157 0 -0.0047697432024050058 -0.043496832375595124 0 -0.0049132076222457794 -0.042963303473604067 0 -0.0042624730171554673 -0.043022709448669157 0 -0.0049132076222457794 -0.042963303473604067 0 -0.0042624730171554673 -0.043022709448669157 0 -0.0051163262172028157 -0.042087124505202883 0 -0.0064077335532121225 -0.039741815809495838 0 -0.0066372505297115827 -0.041030187065671436 0 -0.0051163262172028157 -0.042087124505202883 0 -0.0053280724288458509 -0.037829900272522157 0 -0.0047257392302639672 -0.043163029679603671 0 -0.0066372505297115827 -0.041030187065671436 0 -0.0051163262172028157 -0.042087124505202883 0 -0.0060059084472304427 -0.041874583348339656 0 -0.0066372505297115827 -0.041030187065671436 0 -0.0060059084472304427 -0.041874583348339656 0 -0.0074612756741679687 -0.041010390136311782 0 -0.0049421242746211392 -0.042823335335015832 0 -0.0049132076222457794 -0.042963303473604067 0 -0.0051163262172028157 -0.042087124505202883 0 -0.0049421242746211392 -0.042823335335015832 0 -0.0051163262172028157 -0.042087124505202883 0 -0.0053297501849763522 -0.042501674705203503 0 -0.0053297501849763522 -0.042501674705203503 0 -0.006178793794581053 -0.042427673421395987 0 -0.0057101958900473999 -0.042748219277872694 0 -0.0051163262172028157 -0.042087124505202883 0 -0.0053297501849763522 -0.042501674705203503 0 -0.0060059084472304427 -0.041874583348339656 0 -0.0050608313177696014 -0.042869333302182497 0 -0.0053297501849763522 -0.042501674705203503 0 -0.0057101958900473999 -0.042748219277872694 0 -0.0053297501849763522 -0.042501674705203503 0 -0.0060059084472304427 -0.041874583348339656 0 -0.006178793794581053 -0.042427673421395987 0 -0.0060059084472304427 -0.041874583348339656 0 -0.006178793794581053 -0.042427673421395987 0 -0.0074612756741679687 -0.041010390136311782 0 -0.006178793794581053 -0.042427673421395987 0 -0.0060209237496254096 -0.042677869419510572 0 -0.0065640462744532843 -0.042600719166134435 0 -0.006178793794581053 -0.042427673421395987 0 -0.0060209237496254096 -0.042677869419510572 0 -0.0057101958900473999 -0.042748219277872694 0 -0.0060280878801346255 -0.042605632810915221 0 -0.0059114782284405611 -0.042758701738582205 0 -0.0059636045669969866 -0.04241917871801857 0 -0.0060209237496254096 -0.042677869419510572 0 -0.0060280878801346255 -0.042605632810915221 0 -0.0059114782284405611 -0.042758701738582205 0 -0.0059114782284405611 -0.042758701738582205 0 -0.0057101958900473999 -0.042748219277872694 0 -0.0057561124210058412 -0.042782456914742251 0 -0.0060209237496254096 -0.042677869419510572 0 -0.0059114782284405611 -0.042758701738582205 0 -0.0057101958900473999 -0.042748219277872694 0 -0.0050608313177696014 -0.042869333302182497 0 -0.0057101958900473999 -0.042748219277872694 0 -0.0046120887528975276 -0.043258328594535135 0 -0.0057101958900473999 -0.042748219277872694 0 -0.0054218523844060422 -0.042334650741074627 0 -0.0057561124210058412 -0.042782456914742251 0 -0.0055938074534120094 -0.042460105749054178 0 -0.0050689580648414119 -0.043937722451029712 0 -0.0050691227051566784 -0.043035780839882645 0 -0.0050689580648414119 -0.043937722451029712 0 -0.0042704793734605739 -0.045080425483375229 0 -0.0050689580648414119 -0.043937722451029712 0 -0.0040012083527593036 -0.045104440101281278 0 -0.0050689580648414119 -0.043937722451029712 0 -0.0041729072414371602 -0.04709118534263055 0 -0.0043509513694409098 -0.046837298826263259 0 -0.0051978447362835099 -0.04637679336902012 0 -0.0039181456138522846 -0.042887011285524433 0 -0.0057090418258201187 -0.043198179048169812 0 -0.0049173719284245519 -0.044874313375323611 0 -0.0039181456138522846 -0.042887011285524433 0 -0.0054218523844060422 -0.042334650741074627 0 -0.0057090418258201187 -0.043198179048169812 0 -0.0054218523844060422 -0.042334650741074627 0 -0.0057561124210058412 -0.042782456914742251 0 -0.0057090418258201187 -0.043198179048169812 0 -0.0059114782284405611 -0.042758701738582205 0 -0.0057561124210058412 -0.042782456914742251 0 -0.0057090418258201187 -0.043198179048169812 0 -0.0059114782284405611 -0.042758701738582205 0 -0.0057090418258201187 -0.043198179048169812 0 -0.0060493415877928966 -0.042616194673788639 0 -0.0057291731733299751 -0.043161604671211086 0 -0.0061585701216421845 -0.043888364931861559 0 -0.0057090418258201187 -0.043198179048169812 0 -0.0061582223289899183 -0.04507366155987709 0 -0.0049173719284245519 -0.044874313375323611 0 -0.0049173719284245519 -0.044874313375323611 0 -0.0056530608080369617 -0.046016628157617236 0 -0.0048734245145652909 -0.046396532917562863 0 -0.0061582223289899183 -0.04507366155987709 0 -0.0049173719284245519 -0.044874313375323611 0 -0.0056530608080369617 -0.046016628157617236 0 -0.0061585701216421845 -0.043888364931861559 0 -0.0051201994662173345 -0.04393857509109507 0 -0.0061582223289899183 -0.04507366155987709 0 -0.0056530608080369617 -0.046016628157617236 0 -0.0062623364753071637 -0.04630066177858598 0 -0.0060493415877928966 -0.042616194673788639 0 -0.0060049265268244702 -0.042231827491641886 0 -0.006166873221336383 -0.042129715912364266 0 -0.0060493415877928966 -0.042616194673788639 0 -0.0059637240942790239 -0.042397467714368246 0 -0.0060049265268244702 -0.042231827491641886 0 -0.0059637240942790239 -0.042397467714368246 0 -0.00592912760733508 -0.042125330577165304 0 -0.0058999188987969436 -0.042180403629300534 0 -0.0059637240942790239 -0.042397467714368246 0 -0.0059636045669969866 -0.04241917871801857 0 -0.0058999188987969436 -0.042180403629300534 0 -0.0059637240942790239 -0.042397467714368246 0 -0.0060049265268244702 -0.042231827491641886 0 -0.00592912760733508 -0.042125330577165304 0 -0.00592912760733508 -0.042125330577165304 0 -0.0058999188987969436 -0.042180403629300534 0 -0.005858349075603001 -0.041993466073889846 0 -0.0059114782284405611 -0.042758701738582205 0 -0.0059637240942790239 -0.042397467714368246 0 -0.0059636045669969866 -0.04241917871801857 0 -0.0059114782284405611 -0.042758701738582205 0 -0.0060493415877928966 -0.042616194673788639 0 -0.0059637240942790239 -0.042397467714368246 0 -0.0060345195714915072 -0.041571063321957223 0 -0.0058344220609528432 -0.041701815213831893 0 -0.0059564336117059729 -0.04201074745010968 0 -0.0042278984406373399 -0.037258768524988925 0 -0.0051201994662173345 -0.04393857509109507 0 -0.0042278984406373399 -0.037258768524988925 0 -0.0051686992090681123 -0.039716700475473189 0 -0.0051686992090681123 -0.039716700475473189 0 -0.0057813939303122137 -0.042016815112175164 0 -0.0059274950499585933 -0.041510489620130944 0 -0.0059585067081006603 -0.041584401147720738 0 -0.0058519032151329838 -0.041831176747876675 0 -0.0043887886634459521 -0.034559519979091131 0 -0.0041934693904776077 -0.034586563635839444 0 -0.0042244789155817981 -0.034677745630838835 0 -0.0035716565759512302 -0.031396968377932641 0 -0.0051686992090681123 -0.039716700475473189 0 -0.0051686992090681123 -0.039716700475473189 0 -0.0061616480489258604 -0.042591908303203363 0 -0.0059405572830833874 -0.041863531388667712 0 -0.0059114086966914232 -0.041949599903882771 0 -0.0058519032151329838 -0.041831176747876675 0 -0.0059405572830833874 -0.041863531388667712 0 -0.0059564336117059729 -0.04201074745010968 0 -0.0059114086966914232 -0.041949599903882771 0 -0.00592912760733508 -0.042125330577165304 0 -0.0059114086966914232 -0.041949599903882771 0 -0.005858349075603001 -0.041993466073889846 0 -0.0060049265268244702 -0.042231827491641886 0 -0.00592912760733508 -0.042125330577165304 0 -0.0059564336117059729 -0.04201074745010968 0 -0.00592912760733508 -0.042125330577165304 0 -0.0059564336117059729 -0.04201074745010968 0 -0.0059114086966914232 -0.041949599903882771 0 -0.0060049265268244702 -0.042231827491641886 0 -0.0059564336117059729 -0.04201074745010968 0 -0.0060569351079852512 -0.042058567502204568 0 -0.0060345195714915072 -0.041571063321957223 0 -0.0059564336117059729 -0.04201074745010968 0 -0.0060569351079852512 -0.042058567502204568 0 -0.0060345195714915072 -0.041571063321957223 0 -0.0060569351079852512 -0.042058567502204568 0 -0.006166873221336383 -0.042129715912364266 0 -0.0060049265268244702 -0.042231827491641886 0 -0.0060569351079852512 -0.042058567502204568 0 -0.006166873221336383 -0.042129715912364266 0 -0.0051201994662173345 -0.04393857509109507 0 -0.0051609128678207078 -0.044533123645728381 0 -0.0056530608080369617 -0.046016628157617236 0 -0.0062623364753071637 -0.04630066177858598 0 -0.0053351617593384634 -0.047075518094329555 0 -0.0056530608080369617 -0.046016628157617236 0 -0.0048734245145652909 -0.046396532917562863 0 -0.0053351617593384634 -0.047075518094329555 0 -0.0048402686267174358 -0.046869058495086345 0 -0.0053351617593384634 -0.047075518094329555 0 -0.004719295281842918 -0.047102566122129902 0 -0.0048734245145652909 -0.046396532917562863 0 -0.0048402686267174358 -0.046869058495086345 0 -0.0053351617593384634 -0.047075518094329555 0 -0.0025771606807530579 -0.039566104053924543 0 -0.0035274247129472398 -0.042158989449408581 0 -0.0050160438468162009 -0.039971018288958514 0 -0.0034153315505545735 -0.029733920706311187 0 -0.0033483142495323898 -0.029585271491992825 0 -0.0030381078665280073 -0.029914068300486266 0 -0.0025771606807530579 -0.039566104053924543 0 -0.0050160438468162009 -0.039971018288958514 0 -0.0046065376137557198 -0.038254912614344203 0 -0.0053351617593384634 -0.047075518094329555 0 -0.0048506233880757721 -0.047336372936197531 0 -0.004719295281842918 -0.047102566122129902 0 -0.0051609128678207078 -0.044533123645728381 0 -0.0038586059299114688 -0.036812096685342119 0 -0.0037357289877624177 -0.032118072745934124 0 -0.0038586059299114688 -0.036812096685342119 0 -0.0050160438468162009 -0.039971018288958514 0 -0.0046065376137557198 -0.038254912614344203 0 -0.0064680382930982702 -0.037798486764280229 0 -0.003215359387994431 -0.029754488979440028 0 -0.0034776823408072498 -0.029622033102821726 0 -0.0034598243360926357 -0.029520674635477265 0 -0.0034153315505545735 -0.029733920706311187 0 -0.0034598243360926357 -0.029520674635477265 0 -0.0034216723171296296 -0.0295689919484136 0 -0.0037357289877624177 -0.032118072745934124 0 -0.0035792579089480754 -0.029075031258497468 0 -0.0034373837797664641 -0.029486655385277359 0 -0.0034598243360926357 -0.029520674635477265 0 -0.0034216723171296296 -0.0295689919484136 0 -0.0034373837797664641 -0.029486655385277359 0 -0.0034598243360926357 -0.029520674635477265 0 -0.0034462470827887949 -0.02943244477226702 0 -0.0034153315505545735 -0.029733920706311187 0 -0.0033483142495323898 -0.029585271491992825 0 -0.0034216723171296296 -0.0295689919484136 0 -0.0033483142495323898 -0.029585271491992825 0 -0.0034216723171296296 -0.0295689919484136 0 -0.003384208713862229 -0.029500691351463017 0 -0.0034373837797664641 -0.029486655385277359 0 -0.0034216723171296296 -0.0295689919484136 0 -0.003384208713862229 -0.029500691351463017 0 -0.0033483142495323898 -0.029585271491992825 0 -0.003384208713862229 -0.029500691351463017 0 -0.0032910500203843164 -0.029536939590619718 0 -0.0032910500203843164 -0.029536939590619718 0 -0.003152180080257091 -0.029528038979549798 0 -0.0032249941211379865 -0.029661985107534108 0 -0.0032910500203843164 -0.029536939590619718 0 -0.003152180080257091 -0.029528038979549798 0 -0.003329219620163634 -0.029423515473620696 0 -0.003152180080257091 -0.029528038979549798 0 -0.0032249941211379865 -0.029661985107534108 0 -0.0030920945889086511 -0.029665218170703129 0 -0.0032249941211379865 -0.029661985107534108 0 -0.0031507367898667626 -0.029742141730760507 0 -0.0030920945889086511 -0.029665218170703129 0 -0.0033483142495323898 -0.029585271491992825 0 -0.0032910500203843164 -0.029536939590619718 0 -0.0032249941211379865 -0.029661985107534108 0 -0.0042278984406373399 -0.037258768524988925 0 -0.0037357289877624177 -0.032118072745934124 0 -0.0030857476160486507 -0.030056554311810941 0 -0.0034153315505545735 -0.029733920706311187 0 -0.0030381078665280073 -0.029914068300486266 0 -0.0033369407109141184 -0.029320222544713774 0 -0.0034505870778615442 -0.030980486331892276 0 -0.0033483142495323898 -0.029585271491992825 0 -0.0032249941211379865 -0.029661985107534108 0 -0.0031533294729709296 -0.029867197581192675 0 -0.0031507367898667626 -0.029742141730760507 0 -0.0031239303756408592 -0.029810434959297551 0 -0.0030920945889086511 -0.029665218170703129 0 -0.0032249941211379865 -0.029661985107534108 0 -0.0031507367898667626 -0.029742141730760507 0 -0.0031533294729709296 -0.029867197581192675 0 -0.0031507367898667626 -0.029742141730760507 0 -0.0031239303756408592 -0.029810434959297551 0 -0.0031533294729709296 -0.029867197581192675 0 -0.0043887886634459521 -0.034559519979091131 0 -0.0041934693904776077 -0.034586563635839444 0 -0.0043422013807222293 -0.034430414918191446 0 -0.0032648234116111957 -0.030431421336643425 0 -0.0034505870778615442 -0.030980486331892276 0 -0.0042278984406373399 -0.037258768524988925 0 -0.0034505870778615442 -0.030980486331892276 0 -0.0013286939728266339 -0.02423949293829632 0 -0.0014039491109877334 -0.024977447476316174 0 -0.001725700949999878 -0.024463990850626342 0 -0.0030081765589562597 -0.030000545480853007 0 -0.0031239303756408592 -0.029810434959297551 0 -0.0028733638510684309 -0.029664079787200433 0 -0.0035716565759512302 -0.031396968377932641 0 -0.0018177693019589109 -0.026414943050515442 0 -0.0035716565759512302 -0.031396968377932641 0 -0.0034505870778615442 -0.030980486331892276 0 -0.0030081765589562597 -0.030000545480853007 0 -0.0031239303756408592 -0.029810434959297551 0 -0.0031468419901262328 -0.029871593922866136 0 -0.0031239303756408592 -0.029810434959297551 0 -0.0028733638510684309 -0.029664079787200433 0 -0.0030920945889086511 -0.029665218170703129 0 -0.003152180080257091 -0.029528038979549798 0 -0.0028733638510684309 -0.029664079787200433 0 -0.0030661001335709976 -0.029327089469467636 0 -0.003152180080257091 -0.029528038979549798 0 -0.0028733638510684309 -0.029664079787200433 0 -0.0030920945889086511 -0.029665218170703129 0 -0.0028733638510684309 -0.029664079787200433 0 -0.0030661001335709976 -0.029327089469467636 0 -0.002645040402341016 -0.029322044011408855 0 -0.003152180080257091 -0.029528038979549798 0 -0.0030661001335709976 -0.029327089469467636 0 -0.003329219620163634 -0.029423515473620696 0 -0.0030661001335709976 -0.029327089469467636 0 -0.003329219620163634 -0.029423515473620696 0 -0.0033932030239491647 -0.029244235657578308 0 -0.0030661001335709976 -0.029327089469467636 0 -0.0032816219422377719 -0.029034912586522653 0 -0.0033932030239491647 -0.029244235657578308 0 -0.0032816219422377719 -0.029034912586522653 0 -0.0034834552967989551 -0.029131503025204862 0 -0.0033932030239491647 -0.029244235657578308 0 -0.0030661001335709976 -0.029327089469467636 0 -0.0032816219422377719 -0.029034912586522653 0 -0.0029549823551453529 -0.028805436394484046 0 -0.0030661001335709976 -0.029327089469467636 0 -0.0029549823551453529 -0.028805436394484046 0 -0.002645040402341016 -0.029322044011408855 0 -0.0029549823551453529 -0.028805436394484046 0 -0.003357571380897097 -0.028854812825829513 0 -0.0029579322365619934 -0.028204387618373673 0 -0.0032816219422377719 -0.029034912586522653 0 -0.0029549823551453529 -0.028805436394484046 0 -0.003357571380897097 -0.028854812825829513 0 -0.003357571380897097 -0.028854812825829513 0 -0.0036516465930178069 -0.029064591508564826 0 -0.0034834552967989551 -0.029131503025204862 0 -0.0032816219422377719 -0.029034912586522653 0 -0.003357571380897097 -0.028854812825829513 0 -0.0034834552967989551 -0.029131503025204862 0 -0.003357571380897097 -0.028854812825829513 0 -0.0036516465930178069 -0.029064591508564826 0 -0.0029579322365619934 -0.028204387618373673 0 -0.0036516465930178069 -0.029064591508564826 0 -0.0029579322365619934 -0.028204387618373673 0 -0.0035352046199802699 -0.028933585557863153 0 -0.0034249180785081712 -0.029541753951768657 0 -0.0033395513575580713 -0.029728502874864674 0 -0.0034975616732777458 -0.029638932873932395 0 -0.0035003242973927905 -0.029332405209963698 0 -0.0034249180785081712 -0.029541753951768657 0 -0.0034975616732777458 -0.029638932873932395 0 -0.0035003242973927905 -0.029332405209963698 0 -0.0034249180785081712 -0.029541753951768657 0 -0.0033985667941468112 -0.029453793308794014 0 -0.0036516465930178069 -0.029064591508564826 0 -0.0035003242973927905 -0.029332405209963698 0 -0.0034834552967989551 -0.029131503025204862 0 -0.0036516465930178069 -0.029064591508564826 0 -0.0035003242973927905 -0.029332405209963698 0 -0.0034975616732777458 -0.029638932873932395 0 -0.0035003242973927905 -0.029332405209963698 0 -0.0034834552967989551 -0.029131503025204862 0 -0.0034539651779936301 -0.029338020281449606 0 -0.0035003242973927905 -0.029332405209963698 0 -0.0034539651779936301 -0.029338020281449606 0 -0.0033985667941468112 -0.029453793308794014 0 -0.0034539651779936301 -0.029338020281449606 0 -0.0033851449542071626 -0.029419156027668262 0 -0.0033985667941468112 -0.029453793308794014 0 -0.0034539651779936301 -0.029338020281449606 0 -0.0034392557818969174 -0.02938954026822635 0 -0.0034528104617925766 -0.029305367171208466 0 -0.0034539651779936301 -0.029338020281449606 0 -0.0034392557818969174 -0.02938954026822635 0 -0.0033851449542071626 -0.029419156027668262 0 -0.0034834552967989551 -0.029131503025204862 0 -0.0034539651779936301 -0.029338020281449606 0 -0.0034528104617925766 -0.029305367171208466 0 -0.0034834552967989551 -0.029131503025204862 0 -0.0034528104617925766 -0.029305367171208466 0 -0.0033932030239491647 -0.029244235657578308 0 -0.0034528104617925766 -0.029305367171208466 0 -0.0033932030239491647 -0.029244235657578308 0 -0.0034361837029623426 -0.029414440522129649 0 -0.003329219620163634 -0.029423515473620696 0 -0.0033932030239491647 -0.029244235657578308 0 -0.0034361837029623426 -0.029414440522129649 0 -0.003384208713862229 -0.029500691351463017 0 -0.003329219620163634 -0.029423515473620696 0 -0.0034361837029623426 -0.029414440522129649 0 -0.0034373837797664641 -0.029486655385277359 0 -0.003384208713862229 -0.029500691351463017 0 -0.0034361837029623426 -0.029414440522129649 0 -0.003384208713862229 -0.029500691351463017 0 -0.0032910500203843164 -0.029536939590619718 0 -0.003329219620163634 -0.029423515473620696 0 -0.0034392557818969174 -0.02938954026822635 0 -0.0034361837029623426 -0.029414440522129649 0 -0.0034462470827887949 -0.02943244477226702 0 -0.0034392557818969174 -0.02938954026822635 0 -0.0034528104617925766 -0.029305367171208466 0 -0.0034361837029623426 -0.029414440522129649 0 -0.0034373837797664641 -0.029486655385277359 0 -0.0034361837029623426 -0.029414440522129649 0 -0.0034462470827887949 -0.02943244477226702 0 -0.0034392557818969174 -0.02938954026822635 0 -0.0034296874663020541 -0.029388973164811021 0 -0.0033464724413014382 -0.029447053333001301 0 -0.0034296874663020541 -0.029388973164811021 0 -0.0031551924066174665 -0.029514644566496055 0 -0.0033464724413014382 -0.029447053333001301 0 -0.0034392557818969174 -0.02938954026822635 0 -0.0034462470827887949 -0.02943244477226702 0 -0.0034296874663020541 -0.029388973164811021 0 -0.0022620297433540038 -0.03053427141352905 0 -0.0029793019337650941 -0.030332324240749439 0 -0.0031551924066174665 -0.029514644566496055 0 -0.0029793019337650941 -0.030332324240749439 0 -0.0034347167706064385 -0.029637427108319656 0 -0.003166132419390285 -0.031291923406299604 0 -0.0015611139716843094 -0.032175774094827816 0 -0.0029218991202045125 -0.04044507468243979 0 -0.00310705044140785 -0.029102877677999028 0 -0.0029580771578278839 -0.029858177102572117 0 -0.0022620297433540038 -0.03053427141352905 0 -0.0029793019337650941 -0.030332324240749439 0 -0.0026819436245251482 -0.030865559630299157 0 -0.0029793019337650941 -0.030332324240749439 0 -0.0031551924066174665 -0.029514644566496055 0 -0.0034347167706064385 -0.029637427108319656 0 -0.0031551924066174665 -0.029514644566496055 0 -0.0032207861376388623 -0.029532124200805157 0 -0.0034347167706064385 -0.029637427108319656 0 -0.0031551924066174665 -0.029514644566496055 0 -0.0032207861376388623 -0.029532124200805157 0 -0.0032681846613774961 -0.029495725945396178 0 -0.0031551924066174665 -0.029514644566496055 0 -0.0033464724413014382 -0.029447053333001301 0 -0.0032681846613774961 -0.029495725945396178 0 -0.0034392557818969174 -0.02938954026822635 0 -0.0033464724413014382 -0.029447053333001301 0 -0.0033851449542071626 -0.029419156027668262 0 -0.0033464724413014382 -0.029447053333001301 0 -0.0033851449542071626 -0.029419156027668262 0 -0.0032681846613774961 -0.029495725945396178 0 -0.0033985667941468112 -0.029453793308794014 0 -0.0032681846613774961 -0.029495725945396178 0 -0.0032875628682243084 -0.029598564802707797 0 -0.0033851449542071626 -0.029419156027668262 0 -0.0033985667941468112 -0.029453793308794014 0 -0.0032681846613774961 -0.029495725945396178 0 -0.0032012362065243429 -0.029550284852182564 0 -0.0032875628682243084 -0.029598564802707797 0 -0.0031169173571755091 -0.029689653734427151 0 -0.0032681846613774961 -0.029495725945396178 0 -0.0032012362065243429 -0.029550284852182564 0 -0.0032875628682243084 -0.029598564802707797 0 -0.0032207861376388623 -0.029532124200805157 0 -0.0032012362065243429 -0.029550284852182564 0 -0.0031226293099661292 -0.029564677468888495 0 -0.0032207861376388623 -0.029532124200805157 0 -0.0032681846613774961 -0.029495725945396178 0 -0.0032012362065243429 -0.029550284852182564 0 -0.0032012362065243429 -0.029550284852182564 0 -0.0031169173571755091 -0.029689653734427151 0 -0.0031226293099661292 -0.029564677468888495 0 -0.0032125383402256224 -0.029804086875393633 0 -0.0032875628682243084 -0.029598564802707797 0 -0.0031169173571755091 -0.029689653734427151 0 -0.0032125383402256224 -0.029804086875393633 0 -0.0030542788076150834 -0.02991434563836045 0 -0.0031169173571755091 -0.029689653734427151 0 -0.0034249180785081712 -0.029541753951768657 0 -0.0033985667941468112 -0.029453793308794014 0 -0.0032875628682243084 -0.029598564802707797 0 -0.0032125383402256224 -0.029804086875393633 0 -0.0033395513575580713 -0.029728502874864674 0 -0.0032875628682243084 -0.029598564802707797 0 -0.0034249180785081712 -0.029541753951768657 0 -0.0033395513575580713 -0.029728502874864674 0 -0.0032875628682243084 -0.029598564802707797 0 -0.0025430111809526257 -0.031951199827254584 0 -0.0031040358363003395 -0.030619635953547143 0 -0.0027167994127466509 -0.030328666983290228 0 -0.0021252169275680268 -0.031505573840241316 0 -0.002662549654192257 -0.030287102326255096 0 -0.0031040358363003395 -0.030619635953547143 0 -0.0031875677301007777 -0.032631124047033853 0 -0.0041432166838393149 -0.032649968491040876 0 -0.0025430111809526257 -0.031951199827254584 0 -0.0031040358363003395 -0.030619635953547143 0 -0.0031875677301007777 -0.032631124047033853 0 -0.0025430111809526257 -0.031951199827254584 0 -0.0012656517579526388 -0.032970118088559916 0 -0.0027167994127466509 -0.030328666983290228 0 -0.0029519367375498615 -0.029918611668847586 0 -0.0029504447686143644 -0.029546881629078162 0 -0.0027167994127466509 -0.030328666983290228 0 -0.0029519367375498615 -0.029918611668847586 0 -0.0030542788076150834 -0.02991434563836045 0 -0.0028721442993555565 -0.030119060760758699 0 -0.0029519367375498615 -0.029918611668847586 0 -0.0030542788076150834 -0.02991434563836045 0 -0.0031169173571755091 -0.029689653734427151 0 -0.0029519367375498615 -0.029918611668847586 0 -0.0031169173571755091 -0.029689653734427151 0 -0.0029504447686143644 -0.029546881629078162 0 -0.0012656517579526388 -0.032970118088559916 0 -0.0019061511615139394 -0.03468888981899803 0 -0.0013061643959528624 -0.035550893128945639 0 -0.0031169173571755091 -0.029689653734427151 0 -0.0029504447686143644 -0.029546881629078162 0 -0.0031226293099661292 -0.029564677468888495 0 -0.0032207861376388623 -0.029532124200805157 0 -0.0029504447686143644 -0.029546881629078162 0 -0.0031226293099661292 -0.029564677468888495 0 -0.0012656517579526388 -0.032970118088559916 0 -0.0026247076747254517 -0.03347422071583539 0 -0.0019061511615139394 -0.03468888981899803 0 -0.0026247076747254517 -0.03347422071583539 0 -0.0026060107968910863 -0.034739199910513177 0 -0.0019061511615139394 -0.03468888981899803 0 -0.0025430111809526257 -0.031951199827254584 0 -0.0012656517579526388 -0.032970118088559916 0 -0.0026247076747254517 -0.03347422071583539 0 -0.0031875677301007777 -0.032631124047033853 0 -0.0035459224390930015 -0.034459385973182793 0 -0.0041432166838393149 -0.032649968491040876 0 -0.0025430111809526257 -0.031951199827254584 0 -0.0026247076747254517 -0.03347422071583539 0 -0.0031875677301007777 -0.032631124047033853 0 -0.0026247076747254517 -0.03347422071583539 0 -0.0031875677301007777 -0.032631124047033853 0 -0.0035459224390930015 -0.034459385973182793 0 -0.0024166626162617486 -0.034017608639142063 0 -0.0028267805962413238 -0.036215283465454863 0 -0.0026247076747254517 -0.03347422071583539 0 -0.0038227946797097117 -0.034671923716866393 0 -0.0026060107968910863 -0.034739199910513177 0 -0.0028267805962413238 -0.036215283465454863 0 -0.0026432541928981192 -0.03823765858150284 0 -0.0038227946797097117 -0.034671923716866393 0 -0.0026060107968910863 -0.034739199910513177 0 -0.0020647065117282266 -0.036128981614906172 0 -0.0038227946797097117 -0.034671923716866393 0 -0.0023982702646791758 -0.036673868733836774 0 -0.0023922882373313198 -0.038496052573515314 0 -0.0030582487855855323 -0.037169663033423103 0 -0.0029018432238659014 -0.037981583910310805 0 -0.003115105466390245 -0.037722625467647916 0 -0.0019061511615139394 -0.03468888981899803 0 -0.0020647065117282266 -0.036128981614906172 0 -0.0013061643959528624 -0.035550893128945639 0 -0.0026060107968910863 -0.034739199910513177 0 -0.0019061511615139394 -0.03468888981899803 0 -0.0020647065117282266 -0.036128981614906172 0 -0.0038227946797097117 -0.034671923716866393 0 -0.0020647065117282266 -0.036128981614906172 0 -0.0023982702646791758 -0.036673868733836774 0 -0.0032207861376388623 -0.029532124200805157 0 -0.0029504447686143644 -0.029546881629078162 0 -0.0034347167706064385 -0.029637427108319656 0 -0.0012656517579526388 -0.032970118088559916 0 -0.0013061643959528624 -0.035550893128945639 0 7.0699143604809083e-05 -0.036568641596199047 0 -0.0021252169275680268 -0.031505573840241316 0 -0.0015611139716843094 -0.032175774094827816 0 -0.0013061643959528624 -0.035550893128945639 0 7.0699143604809083e-05 -0.036568641596199047 0 -0.0013687478894938846 -0.037382209894124323 0 -0.0020647065117282266 -0.036128981614906172 0 -0.0013061643959528624 -0.035550893128945639 0 -0.0013687478894938846 -0.037382209894124323 0 7.0699143604809083e-05 -0.036568641596199047 0 -0.001164342675122715 -0.039338775167864388 0 0.0012241779087961439 -0.039908268190901715 0 7.0699143604809083e-05 -0.036568641596199047 0 -0.0013687478894938846 -0.037382209894124323 0 -0.001164342675122715 -0.039338775167864388 0 -0.0013687478894938846 -0.037382209894124323 0 -0.0023922882373313198 -0.038496052573515314 0 -0.001164342675122715 -0.039338775167864388 0 -0.0030582487855855323 -0.037169663033423103 0 -0.0029018432238659014 -0.037981583910310805 0 -0.0023922882373313198 -0.038496052573515314 0 -0.0029018432238659014 -0.037981583910310805 0 -0.0029564740572922896 -0.038355598551414481 0 -0.0031534500394652418 -0.038084059858329432 0 -0.0013687478894938846 -0.037382209894124323 0 -0.0023982702646791758 -0.036673868733836774 0 -0.0023922882373313198 -0.038496052573515314 0 -0.0020647065117282266 -0.036128981614906172 0 -0.0013687478894938846 -0.037382209894124323 0 -0.0023982702646791758 -0.036673868733836774 0 -0.0029018432238659014 -0.037981583910310805 0 -0.0023922882373313198 -0.038496052573515314 0 -0.0029564740572922896 -0.038355598551414481 0 -0.0023922882373313198 -0.038496052573515314 0 -0.0029564740572922896 -0.038355598551414481 0 -0.0030589396931802871 -0.038768088918758284 0 -0.0018884772017292511 -0.046588779833133698 0 -0.0023094967994414899 -0.046366201982905829 0 -7.9316407721373764e-05 -0.049742769391868835 0 -0.00014081235108614058 -0.049750367758676799 0 -6.0417362877215616e-05 -0.04967407374752885 0 -8.2010735302779313e-05 -0.049532159408285044 0 -5.2135697541890895e-05 -0.049226927524395593 0 -0.0011661927799969049 -0.049324711097307898 0 -0.0023094967994414899 -0.046366201982905829 0 -0.0024858437251811935 -0.04341397860852237 0 -0.00014081235108614058 -0.049750367758676799 0 -8.2010735302779313e-05 -0.049532159408285044 0 -6.0417362877215616e-05 -0.04967407374752885 0 -0.00014081235108614058 -0.049750367758676799 0 -8.2010735302779313e-05 -0.049532159408285044 0 -0.0011661927799969049 -0.049324711097307898 0 -0.0023094967994414899 -0.046366201982905829 0 -0.002443097884624326 -0.04868847505986891 0 -0.0023922882373313198 -0.038496052573515314 0 -0.0030589396931802871 -0.038768088918758284 0 -0.001164342675122715 -0.039338775167864388 0 -0.00023833446738317709 -0.04884360201563831 0 -0.0011661927799969049 -0.049324711097307898 0 -0.00082076421702880148 -0.048559366491914967 0 -5.2135697541890895e-05 -0.049226927524395593 0 -0.00023833446738317709 -0.04884360201563831 0 -0.0011661927799969049 -0.049324711097307898 0 -0.0011661927799969049 -0.049324711097307898 0 -0.00082076421702880148 -0.048559366491914967 0 -0.0016009198769295736 -0.048434663592303709 0 -0.0024858437251811935 -0.04341397860852237 0 -0.0029218991202045125 -0.04044507468243979 0 -0.0040508834712909949 -0.047196138742829213 0 -0.0039635486796677994 -0.047477431175929292 0 -0.004224657274285339 -0.047264943670051671 0 -0.0039635486796677994 -0.047477431175929292 0 -0.0043311995616548693 -0.047396466330107453 0 -0.004224657274285339 -0.047264943670051671 0 -0.0035769066328103336 -0.047541198051359292 0 -0.0040508834712909949 -0.047196138742829213 0 -0.0039635486796677994 -0.047477431175929292 0 -0.0029793019337650941 -0.030332324240749439 0 -0.0026819436245251482 -0.030865559630299157 0 -0.003166132419390285 -0.031291923406299604 0 -0.0029218991202045125 -0.04044507468243979 0 -0.002632791117683182 -0.046792870487285504 0 -0.0043311995616548693 -0.047396466330107453 0 -0.004224657274285339 -0.047264943670051671 0 -0.0044014719543101159 -0.047263083800794956 0 -0.0034776823408072498 -0.029622033102821726 0 -0.0034598243360926357 -0.029520674635477265 0 -0.0034296874663020541 -0.029388973164811021 0 -0.0038586059299114688 -0.036812096685342119 0 -0.0029218991202045125 -0.04044507468243979 0 -0.0048506233880757721 -0.047336372936197531 0 -0.0043348120504153702 -0.047382733740363836 0 -0.0044014719543101159 -0.047263083800794956 0 -0.0038586059299114688 -0.036812096685342119 0 -0.00310705044140785 -0.029102877677999028 0 -0.001436061064631824 -0.031807676167826981 0 -0.0026819436245251482 -0.030865559630299157 0 -0.003166132419390285 -0.031291923406299604 0 -0.001436061064631824 -0.031807676167826981 0 -0.0022620297433540038 -0.03053427141352905 0 -0.0026819436245251482 -0.030865559630299157 0 -0.0034598243360926357 -0.029520674635477265 0 -0.0034462470827887949 -0.02943244477226702 0 -0.0034296874663020541 -0.029388973164811021 0 -0.004719295281842918 -0.047102566122129902 0 -0.0044014719543101159 -0.047263083800794956 0 -0.0044766904592544697 -0.046894586874865613 0 -0.0048506233880757721 -0.047336372936197531 0 -0.004719295281842918 -0.047102566122129902 0 -0.0044014719543101159 -0.047263083800794956 0 -0.002443097884624326 -0.04868847505986891 0 -0.0037613896998011948 -0.047468241828391877 0 -0.0040508834712909949 -0.047196138742829213 0 -0.004224657274285339 -0.047264943670051671 0 -0.0044766904592544697 -0.046894586874865613 0 -0.004224657274285339 -0.047264943670051671 0 -0.0044014719543101159 -0.047263083800794956 0 -0.0044766904592544697 -0.046894586874865613 0 -0.0011661927799969049 -0.049324711097307898 0 -0.002919753919979728 -0.048316584607848725 0 -0.0016009198769295736 -0.048434663592303709 0 -0.002919753919979728 -0.048316584607848725 0 -0.0013714371692888378 -0.047619866894972794 0 -0.0016009198769295736 -0.048434663592303709 0 -0.0048402686267174358 -0.046869058495086345 0 -0.004719295281842918 -0.047102566122129902 0 -0.0044766904592544697 -0.046894586874865613 0 -0.0048734245145652909 -0.046396532917562863 0 -0.0048402686267174358 -0.046869058495086345 0 -0.0044766904592544697 -0.046894586874865613 0 -0.0048734245145652909 -0.046396532917562863 0 -0.002919753919979728 -0.048316584607848725 0 -0.0032927456089173811 -0.046747578289529572 0 -0.0047982190916757896 -0.046506532205079144 0 -0.0037613896998011948 -0.047468241828391877 0 -0.002919753919979728 -0.048316584607848725 0 -0.0021996252355301811 -0.046897474384284606 0 -0.0013714371692888378 -0.047619866894972794 0 -0.002919753919979728 -0.048316584607848725 0 -0.0032927456089173811 -0.046747578289529572 0 -0.0021996252355301811 -0.046897474384284606 0 -0.0021996252355301811 -0.046897474384284606 0 -0.0013714371692888378 -0.047619866894972794 0 -0.00098837364593334052 -0.047071595598150946 0 -0.0013714371692888378 -0.047619866894972794 0 -0.00098837364593334052 -0.047071595598150946 0 -0.0006201551417998652 -0.047975639296840705 0 -0.00025423442977530675 -0.046799606160281122 0 -0.00098837364593334052 -0.047071595598150946 0 -0.00040524567704810637 -0.047456465730216738 0 -0.00025423442977530675 -0.046799606160281122 0 -0.00040524567704810637 -0.047456465730216738 0 0.00024696239071494693 -0.047936565291510282 0 -0.00040524567704810637 -0.047456465730216738 0 -0.0006201551417998652 -0.047975639296840705 0 0.00024696239071494693 -0.047936565291510282 0 -0.00098837364593334052 -0.047071595598150946 0 -0.00040524567704810637 -0.047456465730216738 0 -0.0006201551417998652 -0.047975639296840705 0 -0.0006201551417998652 -0.047975639296840705 0 -0.00019329595645367246 -0.048423477958441555 0 -0.00082076421702880148 -0.048559366491914967 0 -0.0006201551417998652 -0.047975639296840705 0 -0.00019329595645367246 -0.048423477958441555 0 0.00024696239071494693 -0.047936565291510282 0 -0.00023833446738317709 -0.04884360201563831 0 -0.00019329595645367246 -0.048423477958441555 0 0.00032449164127902884 -0.048561631877901058 0 -0.00023833446738317709 -0.04884360201563831 0 -0.00019329595645367246 -0.048423477958441555 0 -0.00082076421702880148 -0.048559366491914967 0 -0.0013714371692888378 -0.047619866894972794 0 -0.00082076421702880148 -0.048559366491914967 0 -0.0016009198769295736 -0.048434663592303709 0 -0.0013714371692888378 -0.047619866894972794 0 -0.0006201551417998652 -0.047975639296840705 0 -0.00082076421702880148 -0.048559366491914967 0 0.00069385272877898248 -0.048618792001038524 0 0.00080153647569706739 -0.048413060958022183 0 0.00074975971830633468 -0.048422888608202971 0 0.00079117695590412418 -0.048366302538233173 0 0.00069385272877898248 -0.048618792001038524 0 0.00080153647569706739 -0.048413060958022183 0 0.00079117695590412418 -0.048366302538233173 0 0.00032449164127902884 -0.048561631877901058 0 0.00024696239071494693 -0.047936565291510282 0 0.00079117695590412418 -0.048366302538233173 0 0.00069385272877898248 -0.048618792001038524 0 0.00032449164127902884 -0.048561631877901058 0 -0.00019329595645367246 -0.048423477958441555 0 0.00032449164127902884 -0.048561631877901058 0 0.00024696239071494693 -0.047936565291510282 0 0.00079117695590412418 -0.048366302538233173 0 0.00024696239071494693 -0.047936565291510282 0 0.0012533466919073008 -0.048324452354324518 0 0.00043965468122587106 -0.046802095393884593 0 0.00024696239071494693 -0.047936565291510282 0 0.0012533466919073008 -0.048324452354324518 0 0.00064924277158484914 -0.049010407784587678 0 0.0012533466919073008 -0.048324452354324518 0 0.00080153647569706739 -0.048413060958022183 0 0.00079117695590412418 -0.048366302538233173 0 0.0012533466919073008 -0.048324452354324518 0 0.00080153647569706739 -0.048413060958022183 0 0.00080153647569706739 -0.048413060958022183 0 -1.6398680622456498e-05 -0.048749880487799782 0 0.00074975971830633468 -0.048422888608202971 0 0.00035290061230932245 -0.050292878156492388 0 0.00069014514642631495 -0.050218236463219032 0 0.00064924277158484914 -0.049010407784587678 0 0.00080153647569706739 -0.048413060958022183 0 -1.6398680622456498e-05 -0.048749880487799782 0 0.00063398686879166579 -0.051982192164174559 0 0.00062798779118597274 -0.051961639921130183 0 0.00073431447556842407 -0.051849274887396317 0 0.00016203563138773806 -0.05265779378450975 0 0.00053111653958626747 -0.052412841360161999 0 0.00027775889024299029 -0.05197014754266488 0 0.00061068054659032612 -0.052204023991563361 0 0.00071327078849073788 -0.051792945822891928 0 0.00053111653958626747 -0.052412841360161999 0 0.00072796994473746054 -0.051772682411121762 0 0.00027775889024299029 -0.05197014754266488 0 0.00062798779118597274 -0.051961639921130183 0 0.00073431447556842407 -0.051849274887396317 0 0.00072796994473746054 -0.051772682411121762 0 0.00069014514642631495 -0.050218236463219032 0 0.00092497684363885473 -0.05016170788485954 0 0.00069385272877898248 -0.048618792001038524 0 0.00074975971830633468 -0.048422888608202971 0 0.00083757780929215602 -0.049053697428293651 0 0.00073431447556842407 -0.051849274887396317 0 0.00072796994473746054 -0.051772682411121762 0 0.00088949572466585306 -0.051558161292128778 0 0.00072796994473746054 -0.051772682411121762 0 0.00088949572466585306 -0.051558161292128778 0 0.00073145002125964002 -0.051544433348747448 0 0.0010410651706854656 -0.053070204537989364 0 0.00052015731427048685 -0.053214593697678739 0 0.00072796994473746054 -0.051772682411121762 0 0.00073145002125964002 -0.051544433348747448 0 0.00027775889024299029 -0.05197014754266488 0 0.0011461817447181301 -0.054129119625161461 0 0.00068133731038668311 -0.054180875710818137 0 0.0007798156272451085 -0.054523229385555719 0 0.0011461817447181301 -0.054129119625161461 0 0.00079316602661027875 -0.05380593016567365 0 0.0010383588081935267 -0.053696791816626586 0 0.0011461817447181301 -0.054129119625161461 0 0.00079316602661027875 -0.05380593016567365 0 0.00068133731038668311 -0.054180875710818137 0 0.0010410651706854656 -0.053070204537989364 0 0.00036143050637863037 -0.05101261277156606 0 0.00088949572466585306 -0.051558161292128778 0 0.00073145002125964002 -0.051544433348747448 0 0.00102430704723333 -0.051258086710372588 0 0.00092497684363885473 -0.05016170788485954 0 0.00036143050637863037 -0.05101261277156606 0 0.00083757780929215602 -0.049053697428293651 0 0.00050798500123266856 -0.049122395651148031 0 0.00060978214321323707 -0.049555224892518158 0 0.00069385272877898248 -0.048618792001038524 0 0.00083757780929215602 -0.049053697428293651 0 0.00050798500123266856 -0.049122395651148031 0 0.00069385272877898248 -0.048618792001038524 0 0.00050798500123266856 -0.049122395651148031 0 0.00027784245444513304 -0.048905341489682258 0 -5.2135697541890895e-05 -0.049226927524395593 0 0.00050798500123266856 -0.049122395651148031 0 0.00027784245444513304 -0.048905341489682258 0 -0.00023833446738317709 -0.04884360201563831 0 0.00032449164127902884 -0.048561631877901058 0 0.00027784245444513304 -0.048905341489682258 0 0.00069385272877898248 -0.048618792001038524 0 0.00032449164127902884 -0.048561631877901058 0 0.00027784245444513304 -0.048905341489682258 0 -5.2135697541890895e-05 -0.049226927524395593 0 -0.00023833446738317709 -0.04884360201563831 0 0.00027784245444513304 -0.048905341489682258 0 0.00050798500123266856 -0.049122395651148031 0 0.00014212568333756389 -0.049462142637931944 0 0.00018817221848782398 -0.049705522146157873 0 0.00085302165697784672 -0.050157088523019554 0 -0.00090348824276014763 -0.047643548938763956 0 -8.2010735302779313e-05 -0.049532159408285044 0 -5.2135697541890895e-05 -0.049226927524395593 0 0.00014212568333756389 -0.049462142637931944 0 0.00050798500123266856 -0.049122395651148031 0 0.00018817221848782398 -0.049705522146157873 0 0.00035274477275019147 -0.050207935205455974 0 -5.2135697541890895e-05 -0.049226927524395593 0 0.00050798500123266856 -0.049122395651148031 0 0.00014212568333756389 -0.049462142637931944 0 0.00014212568333756389 -0.049462142637931944 0 5.0466678859834755e-05 -0.049666536585429126 0 0.00018817221848782398 -0.049705522146157873 0 -8.2010735302779313e-05 -0.049532159408285044 0 0.00014212568333756389 -0.049462142637931944 0 5.0466678859834755e-05 -0.049666536585429126 0 -8.2010735302779313e-05 -0.049532159408285044 0 5.0466678859834755e-05 -0.049666536585429126 0 -6.0417362877215616e-05 -0.04967407374752885 0 -7.9316407721373764e-05 -0.049742769391868835 0 5.0466678859834755e-05 -0.049666536585429126 0 -6.0417362877215616e-05 -0.04967407374752885 0 -7.9316407721373764e-05 -0.049742769391868835 0 5.0466678859834755e-05 -0.049666536585429126 0 8.7165023938160908e-06 -0.049799895788884621 0 8.7165023938160908e-06 -0.049799895788884621 0 0.00018817221848782398 -0.049705522146157873 0 0.00012041082789959244 -0.049977874669564173 0 -7.9316407721373764e-05 -0.049742769391868835 0 -0.00012601963514115362 -0.049735083198783996 0 8.7165023938160908e-06 -0.049799895788884621 0 -0.0023094967994414899 -0.046366201982905829 0 -0.0015578470923138619 -0.045824241619002559 0 -0.00012601963514115362 -0.049735083198783996 0 8.7165023938160908e-06 -0.049799895788884621 0 8.155302566640296e-05 -0.049880176333902716 0 -0.0029564740572922896 -0.038355598551414481 0 -0.0030589396931802871 -0.038768088918758284 0 -0.0033848273309458332 -0.038274064671895709 0 -0.00010157159803740421 -0.048441168900696094 0 -0.0015578470923138619 -0.045824241619002559 0 5.0466678859834755e-05 -0.049666536585429126 0 8.7165023938160908e-06 -0.049799895788884621 0 0.00018817221848782398 -0.049705522146157873 0 0.00018817221848782398 -0.049705522146157873 0 0.00035274477275019147 -0.050207935205455974 0 0.00012041082789959244 -0.049977874669564173 0 -0.00090348824276014763 -0.047643548938763956 0 -0.0015578470923138619 -0.045824241619002559 0 -0.0011373522794955889 -0.04667054991700384 0 -0.0020020209106214795 -0.045879668757417932 0 -0.0013314142084906999 -0.046870188606089262 0 -0.0033636647674964958 -0.037949450096614247 0 -0.0033848273309458332 -0.038274064671895709 0 -0.0036321653943349476 -0.03788698991373609 0 -0.0015578470923138619 -0.045824241619002559 0 -0.0014779989497348818 -0.044100422904035735 0 -0.00090348824276014763 -0.047643548938763956 0 -0.0014779989497348818 -0.044100422904035735 0 -0.0029564740572922896 -0.038355598551414481 0 -0.0031534500394652418 -0.038084059858329432 0 -0.0033848273309458332 -0.038274064671895709 0 -0.0029018432238659014 -0.037981583910310805 0 -0.0031534500394652418 -0.038084059858329432 0 -0.003115105466390245 -0.037722625467647916 0 -0.0033636647674964958 -0.037949450096614247 0 -0.0031534500394652418 -0.038084059858329432 0 -0.003115105466390245 -0.037722625467647916 0 -0.0033636647674964958 -0.037949450096614247 0 -0.0031534500394652418 -0.038084059858329432 0 -0.0033848273309458332 -0.038274064671895709 0 0.00050798500123266856 -0.049122395651148031 0 0.00044449176228631289 -0.049714403339210463 0 0.00060978214321323707 -0.049555224892518158 0 0.000245476826523074 -0.048808093536783885 0 -0.00081577077071464277 -0.049923800097147066 0 -0.00015338130108234145 -0.048440856897338784 0 0.0015391572989196338 -0.053674105289089391 0 0.0014526051301327111 -0.053506056731873843 0 0.0016483367647475574 -0.0534158940060529 0 -0.00090348824276014763 -0.047643548938763956 0 0.00036143050637863037 -0.05101261277156606 0 0.00036143050637863037 -0.05101261277156606 0 -0.00081748102514018041 -0.048320883164308957 0 0.0015391572989196338 -0.053674105289089391 0 0.0014526051301327111 -0.053506056731873843 0 0.0012772632067785325 -0.053588366613691374 0 -0.00075119019185792971 -0.050064408787789547 0 -0.00027019046450933417 -0.050520962787468156 0 -6.3247690936849672e-05 -0.050098671474130323 0 0.0014526051301327111 -0.053506056731873843 0 0.0016102167588662778 -0.053382200644165108 0 0.0011290102684310308 -0.053394499498610741 0 -0.0013988475997387438 -0.044928664659043438 0 -0.002448297738780018 -0.044245866487282938 0 -0.0022112577434489698 -0.043080691517322946 0 -0.0020826415591990687 -0.04278743842118933 0 -0.0027298843239546237 -0.042304427658661908 0 -0.0018798764772047323 -0.046424893398847998 0 -0.0020556207522093796 -0.046512338350411721 0 -0.0013929020048878736 -0.047528457688177601 0 -0.0004839609225431034 -0.048309025343170491 0 -0.00085750719491378886 -0.048608735424726136 0 -0.0004839609225431034 -0.048309025343170491 0 0.00063413904730711648 -0.052345961536212092 0 -0.0018798764772047323 -0.046424893398847998 0 -0.0013929020048878736 -0.047528457688177601 0 -0.0010572911387892968 -0.047195751449377446 0 0.0014526051301327111 -0.053506056731873843 0 0.0016102167588662778 -0.053382200644165108 0 0.0016483367647475574 -0.0534158940060529 0 -0.00065505427280747558 -0.047516219270041286 0 -0.0016166230727677016 -0.046631323163112123 0 -0.0020059757840788536 -0.047487702048162168 0 -0.0004839609225431034 -0.048309025343170491 0 -0.0010891831197714309 -0.046527879944900666 0 -0.00081748102514018041 -0.048320883164308957 0 -0.0010891831197714309 -0.046527879944900666 0 -0.0005104871221273202 -0.045967766451182356 0 -0.00074145057091510366 -0.046474396516433633 0 -0.0011006699439821395 -0.045941401793615999 0 -0.0004839609225431034 -0.048309025343170491 0 -0.00081748102514018041 -0.048320883164308957 0 -0.0018798764772047323 -0.046424893398847998 0 -0.0020129239012416041 -0.046420803071464171 0 -0.0020556207522093796 -0.046512338350411721 0 -0.0033636647674964958 -0.037949450096614247 0 -0.003115105466390245 -0.037722625467647916 0 -0.003513769055705108 -0.037755562689547384 0 -0.0032568447557105506 -0.039941570192211506 0 -0.0021998111506753436 -0.041943641217368974 0 -0.0030582487855855323 -0.037169663033423103 0 -0.003115105466390245 -0.037722625467647916 0 -0.0035137488360297651 -0.037730945460476402 0 -0.0033636647674964958 -0.037949450096614247 0 -0.003513769055705108 -0.037755562689547384 0 -0.0036321653943349476 -0.03788698991373609 0 -0.0018261585529470864 -0.044528390142373794 0 -0.0024633758191151059 -0.044026763201249132 0 -0.0015827251575642276 -0.042081428823939421 0 -0.0029834258709227983 -0.04124244356797991 0 -0.0037570856348085302 -0.041230169936845987 0 -0.0035496496187174885 -0.039094458311071487 0 -0.0021998111506753436 -0.041943641217368974 0 -0.0014779989497348818 -0.044100422904035735 0 -0.0020071556586423477 -0.04295849085200746 0 -0.0020124888849176485 -0.042966778865819524 0 -0.0020139616754254784 -0.042960227146904638 0 -0.0021998111506753436 -0.041943641217368974 0 -0.001786679510349347 -0.043985930784328074 0 -0.00090348824276014763 -0.047643548938763956 0 -0.00081748102514018041 -0.048320883164308957 0 -0.0014637136926546534 -0.045089628864535616 0 -0.0005104871221273202 -0.045967766451182356 0 -0.0011006699439821395 -0.045941401793615999 0 -0.0014637136926546534 -0.045089628864535616 0 -0.0011006699439821395 -0.045941401793615999 0 -0.0019574618097300458 -0.045598973472927025 0 -0.0011006699439821395 -0.045941401793615999 0 -0.0019574618097300458 -0.045598973472927025 0 -0.001732807760608733 -0.046451453126186155 0 -0.0014779989497348818 -0.044100422904035735 0 -0.001786679510349347 -0.043985930784328074 0 -0.00074145057091510366 -0.046474396516433633 0 -0.0011006699439821395 -0.045941401793615999 0 -0.001732807760608733 -0.046451453126186155 0 -0.0010891831197714309 -0.046527879944900666 0 -0.001786679510349347 -0.043985930784328074 0 -0.001786679510349347 -0.043985930784328074 0 -0.0013988475997387438 -0.044928664659043438 0 -0.00041649011586861087 -0.045156635943251616 0 -0.0014835808588388782 -0.045132689376715711 0 -0.00068969237451289118 -0.045757283673205411 0 -0.0010891831197714309 -0.046527879944900666 0 -0.0013988475997387438 -0.044928664659043438 0 -0.001786679510349347 -0.043985930784328074 0 -0.0022318130658143848 -0.041402038459878783 0 -0.0013988475997387438 -0.044928664659043438 0 -0.0022318130658143848 -0.041402038459878783 0 -0.0028267805962413238 -0.036215283465454863 0 -0.0021998111506753436 -0.041943641217368974 0 -0.0005383604380522583 -0.038682216353013464 0 -0.0029834258709227983 -0.04124244356797991 0 -0.0035496496187174885 -0.039094458311071487 0 -0.0022318130658143848 -0.041402038459878783 0 -0.0024304499362856869 -0.033990281014510404 0 -0.0031016520460459907 -0.040901560017083567 0 -0.001327599072303961 -0.036984350526174943 0 -0.0027472281923235837 -0.037359770678901352 0 -0.0028267805962413238 -0.036215283465454863 0 -0.0024304499362856869 -0.033990281014510404 0 -0.0005383604380522583 -0.038682216353013464 0 -0.0035496496187174885 -0.039094458311071487 0 -0.0017489665531322388 -0.035091661599183893 0 -0.0022318130658143848 -0.041402038459878783 0 -0.0024728097308040864 -0.040406980133836597 0 -0.002029440775828735 -0.042162089644811017 0 -0.0027298843239546237 -0.042304427658661908 0 -0.0026128454743206803 -0.041665499677071186 0 -0.0020826415591990687 -0.04278743842118933 0 -0.002029440775828735 -0.042162089644811017 0 -0.0027298843239546237 -0.042304427658661908 0 -0.0026128454743206803 -0.041665499677071186 0 -0.0019775943879534854 -0.041532330280729793 0 -0.002797739489961224 -0.041012985109872641 0 -0.0026850446282353163 -0.030262230849423113 0 -0.0024304499362856869 -0.033990281014510404 0 -0.0024343684795812429 -0.03042343175842881 0 -0.002438689529275243 -0.030556279244029018 0 -0.0024526773915103705 -0.030460357440627993 0 -0.002029440775828735 -0.042162089644811017 0 -0.0026128454743206803 -0.041665499677071186 0 -0.0019775943879534854 -0.041532330280729793 0 -0.0024304499362856869 -0.033990281014510404 0 -0.0025643458352073429 -0.03364406126020314 0 -0.001327599072303961 -0.036984350526174943 0 -0.0027472281923235837 -0.037359770678901352 0 -0.0023881136279662366 -0.033820389023704066 0 -0.0024728097308040864 -0.040406980133836597 0 -0.0025643458352073429 -0.03364406126020314 0 -0.00017840085677948297 -0.051088061881789909 0 0.00037340922584469142 -0.054126716403644935 0 -0.00053263610301029893 -0.052272791452758649 0 0.00036879686082607233 -0.052491584904441127 0 0.0006223379388789629 -0.053352611761126177 0 -0.0001570883257922519 -0.053542454099538221 0 -0.00011530118042826647 -0.053821401204443411 0 0.00027988252022167337 -0.054020267165993265 0 -0.0001570883257922519 -0.053542454099538221 0 -0.00011530118042826647 -0.053821401204443411 0 -0.00035620343790853 -0.053788787291169697 0 -0.0027298843239546237 -0.042304427658661908 0 -0.0026128454743206803 -0.041665499677071186 0 -0.0032305951738809584 -0.041577160310393609 0 -0.002448297738780018 -0.044245866487282938 0 -0.0010621404891804909 -0.048486534447289287 0 -0.0013929020048878736 -0.047528457688177601 0 -0.00020653810572633787 -0.047994897543438282 0 -0.00070229086809065616 -0.048582149620908711 0 -0.00017840085677948297 -0.051088061881789909 0 -0.0010621404891804909 -0.048486534447289287 0 -0.00017840085677948297 -0.051088061881789909 0 -0.00085750719491378886 -0.048608735424726136 0 -0.0013929020048878736 -0.047528457688177601 0 -0.00020653810572633787 -0.047994897543438282 0 -0.0010572911387892968 -0.047195751449377446 0 0.00020811604043243171 -0.050973071574210993 0 -0.00027019046450933417 -0.050520962787468156 0 0.00041639996147428514 -0.05072742293223665 0 -0.00053263610301029893 -0.052272791452758649 0 -0.00015266900089006222 -0.051816426133139595 0 0.00036879686082607233 -0.052491584904441127 0 -0.00017840085677948297 -0.051088061881789909 0 -1.8939360982959856e-05 -0.051974572507452105 0 -1.8939360982959856e-05 -0.051974572507452105 0 0.00029219828653060016 -0.052997007858940806 0 0.00033851733072958124 -0.052328909741389991 0 0.00033678882366401799 -0.052666747270157091 0 6.7969657742981892e-05 -0.052664352104731506 0 0.00033851733072958124 -0.052328909741389991 0 0.00033678882366401799 -0.052666747270157091 0 0.00060614216845890736 -0.052669889152009867 0 0.00064978710068169419 -0.053052248501459613 0 0.00063413904730711648 -0.052345961536212092 0 -1.8939360982959856e-05 -0.051974572507452105 0 0.00063413904730711648 -0.052345961536212092 0 -0.00027019046450933417 -0.050520962787468156 0 0.00041639996147428514 -0.05072742293223665 0 -6.3247690936849672e-05 -0.050098671474130323 0 0.0011461817447181301 -0.054129119625161461 0 0.0012772632067785325 -0.053588366613691374 0 0.0010383588081935267 -0.053696791816626586 0 0.0011461817447181301 -0.054129119625161461 0 0.0015391572989196338 -0.053674105289089391 0 0.0012772632067785325 -0.053588366613691374 0 0.0014526051301327111 -0.053506056731873843 0 0.0011290102684310308 -0.053394499498610741 0 0.0012772632067785325 -0.053588366613691374 0 0.00063413904730711648 -0.052345961536212092 0 0.0014010450181273109 -0.053592592244518081 0 0.0011658757568506252 -0.053458090970521996 0 0.0012772632067785325 -0.053588366613691374 0 0.0010383588081935267 -0.053696791816626586 0 0.00087038303985389814 -0.053462216994578267 0 0.00079316602661027875 -0.05380593016567365 0 0.0010383588081935267 -0.053696791816626586 0 0.00087038303985389814 -0.053462216994578267 0 0.0011658757568506252 -0.053458090970521996 0 0.0010383588081935267 -0.053696791816626586 0 0.00087038303985389814 -0.053462216994578267 0 0.00079316602661027875 -0.05380593016567365 0 0.00064933865851517832 -0.05359866175023318 0 0.00077428237814310521 -0.053760670645262423 0 0.00024008310633912315 -0.053816583022628331 0 0.00064933865851517832 -0.05359866175023318 0 0.00020274088226378923 -0.053632729629643286 0 0.00050079643827129292 -0.053502480608389621 0 0.00079316602661027875 -0.05380593016567365 0 0.00032060422738535208 -0.053701385775489364 0 0.00054615891187933673 -0.053951767799357057 0 0.00079316602661027875 -0.05380593016567365 0 0.00064933865851517832 -0.05359866175023318 0 0.00020274088226378923 -0.053632729629643286 0 0.00033346169040654065 -0.053830278804529272 0 0.00022401069246954372 -0.053975735473149648 0 0.00036931267976146912 -0.054115928243265873 0 0.00024008310633912315 -0.053816583022628331 0 0.00037761971970355553 -0.054073782826872925 0 0.00030311170765461677 -0.053243946832129373 0 0.00020142072074793671 -0.053238142877912856 0 0.00024079804886324474 -0.053340711928364627 0 0.00021971625178315504 -0.053665448105975247 0 0.00026864993978736672 -0.053223410327535775 0 0.00018616217930368325 -0.05344844022759096 0 0.00050079643827129292 -0.053502480608389621 0 0.00054056421231743305 -0.053454037331126761 0 0.00024008310633912315 -0.053816583022628331 0 0.00021971625178315504 -0.053665448105975247 0 0.00020274088226378923 -0.053632729629643286 0 0.00018616217930368325 -0.05344844022759096 0 0.00050079643827129292 -0.053502480608389621 0 -1.8939360982959856e-05 -0.051974572507452105 0 0.00026864993978736672 -0.053223410327535775 0 0.00087038303985389814 -0.053462216994578267 0 0.00064933865851517832 -0.05359866175023318 0 0.0005412930759403266 -0.05345514305649423 0 0.00064978710068169419 -0.053052248501459613 0 0.00026864993978736672 -0.053223410327535775 0 0.00064933865851517832 -0.05359866175023318 0 0.00050079643827129292 -0.053502480608389621 0 0.0005412930759403266 -0.05345514305649423 0 0.00028311571401561379 -0.053252658596359505 0 0.00026864993978736672 -0.053223410327535775 0 9.9869543879633512e-05 -0.053351346574296507 0 0.00020142072074793671 -0.053238142877912856 0 0.00018111383578930612 -0.053357663538202378 0 0.00020142072074793671 -0.053238142877912856 0 0.00018111383578930612 -0.053357663538202378 0 0.00024079804886324474 -0.053340711928364627 0 9.9869543879633512e-05 -0.053351346574296507 0 0.00018111383578930612 -0.053357663538202378 0 0.00015705770982345693 -0.053431516761925021 0 0.00018111383578930612 -0.053357663538202378 0 0.00024079804886324474 -0.053340711928364627 0 0.000235647982555348 -0.05341844969600601 0 0.00030311170765461677 -0.053243946832129373 0 0.00024079804886324474 -0.053340711928364627 0 0.00031988855989840444 -0.053420173080669882 0 0.00021971625178315504 -0.053665448105975247 0 0.00020265912078439472 -0.054258325658938455 0 0.00024079804886324474 -0.053340711928364627 0 0.000235647982555348 -0.05341844969600601 0 0.00031988855989840444 -0.053420173080669882 0 0.00014461008029114788 -0.055091594844854617 0 0.00013134248099733043 -0.055100496920449882 0 0.00011658049800313805 -0.054959330461717519 0 0.00030643246962329352 -0.054295398014148968 0 0.00037310722265426494 -0.053681749986945859 0 0.00017283961740291177 -0.054589201914307203 0 0.00013082810945292916 -0.055106571240854947 0 0.00030643246962329352 -0.054295398014148968 0 0.00030506165422905014 -0.054569620188395333 0 0.000235647982555348 -0.05341844969600601 0 0.00031268118925277668 -0.053444980351318734 0 0.00021572572864206154 -0.053510273127144993 0 0.000235647982555348 -0.05341844969600601 0 0.00031988855989840444 -0.053420173080669882 0 0.00031268118925277668 -0.053444980351318734 0 0.00020265912078439472 -0.054258325658938455 0 0.00017283961740291177 -0.054589201914307203 0 0.00020265912078439472 -0.054258325658938455 0 0.00030643246962329352 -0.054295398014148968 0 0.0001860610651789767 -0.054346671847438313 0 0.00014248201552487179 -0.054496764719947612 0 0.00019679372286066199 -0.054459012058129003 0 0.00030643246962329352 -0.054295398014148968 0 0.00017283961740291177 -0.054589201914307203 0 0.000235647982555348 -0.05341844969600601 0 0.00015705770982345693 -0.053431516761925021 0 0.00021572572864206154 -0.053510273127144993 0 0.00036879686082607233 -0.052491584904441127 0 0.0006223379388789629 -0.053352611761126177 0 0.0008895162851288046 -0.053168612345698474 0 0.00029219828653060016 -0.052997007858940806 0 0.00037310722265426494 -0.053681749986945859 0 0.00018111383578930612 -0.053357663538202378 0 0.000235647982555348 -0.05341844969600601 0 0.00015705770982345693 -0.053431516761925021 0 1.2006511032117083e-08 -0.054999998372158097 0 4.1622856920979551e-05 -0.054989412026522425 0 2.961186353635725e-05 -0.055015666947035732 0 0.00014003023238080511 -0.054881099789679116 0 0.00013862921434162407 -0.054865032967828541 0 5.7564796994591098e-05 -0.054925738779902235 0 8.9395829895328111e-05 -0.055007436331830015 0 4.1622856920979551e-05 -0.054989412026522425 0 2.961186353635725e-05 -0.055015666947035732 0 8.9395829895328111e-05 -0.055007436331830015 0 7.5666252521268602e-05 -0.054981814348661229 0 0.00011658049800313805 -0.054959330461717519 0 8.9395829895328111e-05 -0.055007436331830015 0 4.1622856920979551e-05 -0.054989412026522425 0 7.5666252521268602e-05 -0.054981814348661229 0 0.00017283961740291177 -0.054589201914307203 0 1.705612890931356e-05 -0.055002121562032408 0 0.00014003023238080511 -0.054881099789679116 0 5.7564796994591098e-05 -0.054925738779902235 0 5.9610436522307274e-05 -0.054979635435679013 0 0.00014003023238080511 -0.054881099789679116 0 5.9610436522307274e-05 -0.054979635435679013 0 9.467666967312312e-05 -0.05502034969752758 0 0.00020265912078439472 -0.054258325658938455 0 0.00010832806743840935 -0.05452574869165687 0 5.7564796994591098e-05 -0.054925738779902235 0 1.482896704006109e-09 -0.054999899496663833 0 2.5557466604097556e-05 -0.054990028589600393 0 1.705612890931356e-05 -0.055002121562032408 0 5.6259632609688827e-08 -0.054999959829679992 0 5.7564796994591098e-05 -0.054925738779902235 0 2.5557466604097556e-05 -0.054990028589600393 0 5.9610436522307274e-05 -0.054979635435679013 0 1.2006511032117083e-08 -0.054999998372158097 0 2.961186353635725e-05 -0.055015666947035732 0 1.4417328580881692e-08 -0.055000044599862727 0 2.5557466604097556e-05 -0.054990028589600393 0 1.5309663807382673e-09 -0.055000083936307724 0 2.2419303478246561e-05 -0.055016362586335764 0 1.482896704006109e-09 -0.054999899496663833 0 2.5557466604097556e-05 -0.054990028589600393 0 1.5309663807382673e-09 -0.055000083936307724 0 4.1579801972737604e-05 -0.054863135547278563 0 0.00010832806743840935 -0.05452574869165687 0 2.5557466604097556e-05 -0.054990028589600393 0 2.2419303478246561e-05 -0.055016362586335764 0 5.9610436522307274e-05 -0.054979635435679013 0 4.1579801972737604e-05 -0.054863135547278563 0 0.00014562599041500327 -0.054407474695764318 0 8.7883671121349822e-10 -0.054999992044487335 0 6.5046795841593784e-07 -0.054997989482632896 0 6.4378079450210311e-07 -0.054998091011976426 0 5.3508280085924638e-08 -0.054999855763388915 0 4.1579801972737604e-05 -0.054863135547278563 0 6.9473311855952958e-05 -0.05463259209924233 0 0.00012022387836920555 -0.054645500766614397 0 0.00012513864671265872 -0.054628986930765025 0 0.00018305989866478076 -0.05411742218109214 0 0.00019430272299003322 -0.054232307571736478 0 0.00022659213934625403 -0.054119707301871635 0 2.2419303478246561e-05 -0.055016362586335764 0 5.9610436522307274e-05 -0.054979635435679013 0 9.467666967312312e-05 -0.05502034969752758 0 0.00014562599041500327 -0.054407474695764318 0 0.00010832806743840935 -0.05452574869165687 0 0.00014190234863578383 -0.054076103035072445 0 0.00015715224291341082 -0.054072328513530984 0 0.00015528977662944949 -0.054078398471476205 0 0.00014104068668012606 -0.054064962908505709 0 0.00014190234863578383 -0.054076103035072445 0 0.00015715224291341082 -0.054072328513530984 0 0.00021971625178315504 -0.053665448105975247 0 0.00010832806743840935 -0.05452574869165687 0 0.00015609007711323697 -0.053772796388701381 0 0.00022401069246954372 -0.053975735473149648 0 4.7631030386464515e-05 -0.05412407651600764 0 0.00014562599041500327 -0.054407474695764318 0 1.8209075872201342e-05 -0.054559102226330751 0 0.00033346169040654065 -0.053830278804529272 0 0.00015609007711323697 -0.053772796388701381 0 0.00022401069246954372 -0.053975735473149648 0 0.00024008310633912315 -0.053816583022628331 0 0.00014562599041500327 -0.054407474695764318 0 2.7797962608836417e-06 -0.054994204357230674 0 6.4378079450210311e-07 -0.054998091011976426 0 1.1042711644220005e-06 -0.054997749403910216 0 8.7883671121349822e-10 -0.054999992044487335 0 6.4378079450210311e-07 -0.054998091011976426 0 1.0063370812320006e-09 -0.054999995308189997 0 6.5046795841593784e-07 -0.054997989482632896 0 2.7797962608836417e-06 -0.054994204357230674 0 6.4378079450210311e-07 -0.054998091011976426 0 6.4378079450210311e-07 -0.054998091011976426 0 1.0063370812320006e-09 -0.054999995308189997 0 1.1042711644220005e-06 -0.054997749403910216 0 1.0063370812320006e-09 -0.054999995308189997 0 1.1042711644220005e-06 -0.054997749403910216 0 1.7286624647585634e-10 -0.054999997542281076 0 1.8209075872201342e-05 -0.054559102226330751 0 -8.2884381163426069e-06 -0.05477136191408831 0 1.1042711644220005e-06 -0.054997749403910216 0 1.7286624647585634e-10 -0.054999997542281076 0 2.5403345074056909e-07 -0.054999351858396307 0 4.7631030386464515e-05 -0.05412407651600764 0 0.00033207092508150094 -0.054477432745747879 0 -3.1999114574373612e-05 -0.054553957775527205 0 4.7631030386464515e-05 -0.05412407651600764 0 0.00036931267976146912 -0.054115928243265873 0 0.00033207092508150094 -0.054477432745747879 0 0.00022401069246954372 -0.053975735473149648 0 4.7631030386464515e-05 -0.05412407651600764 0 0.00036931267976146912 -0.054115928243265873 0 0.00032060422738535208 -0.053701385775489364 0 0.00036931267976146912 -0.054115928243265873 0 0.00054615891187933673 -0.053951767799357057 0 0.00079316602661027875 -0.05380593016567365 0 0.00054615891187933673 -0.053951767799357057 0 0.00068133731038668311 -0.054180875710818137 0 0.00036931267976146912 -0.054115928243265873 0 0.00054615891187933673 -0.053951767799357057 0 0.00068133731038668311 -0.054180875710818137 0 0.00068133731038668311 -0.054180875710818137 0 0.00033207092508150094 -0.054477432745747879 0 0.0007798156272451085 -0.054523229385555719 0 0.00036931267976146912 -0.054115928243265873 0 0.00068133731038668311 -0.054180875710818137 0 0.00033207092508150094 -0.054477432745747879 0 0.00033207092508150094 -0.054477432745747879 0 0.0007798156272451085 -0.054523229385555719 0 0.00043351226936591395 -0.054868840793503681 0 0.00052015731427048685 -0.053214593697678739 0 7.5120647789800316e-05 -0.053674317703252566 0 0.00016203563138773806 -0.05265779378450975 0 0.00027775889024299029 -0.05197014754266488 0 -0.00025812274317018393 -0.05253201197961458 0 0.00033207092508150094 -0.054477432745747879 0 0.00043351226936591395 -0.054868840793503681 0 0.00014216602918763388 -0.05490686030853377 0 0.00014216602918763388 -0.05490686030853377 0 -2.7592389868463619e-07 -0.054999513311859295 0 -3.1999114574373612e-05 -0.054553957775527205 0 -2.0163071444199165e-10 -0.054999999898116041 0 1.7286624647585634e-10 -0.054999997542281076 0 2.5403345074056909e-07 -0.054999351858396307 0 -1.2269101541707039e-08 -0.054999924282355221 0 -8.2884381163426069e-06 -0.05477136191408831 0 0.00033207092508150094 -0.054477432745747879 0 0.00014216602918763388 -0.05490686030853377 0 -3.1999114574373612e-05 -0.054553957775527205 0 -4.2776484964001857e-05 -0.016723010139097903 0 -0.00080676061613137585 -0.01743759625083878 0 -0.00096851691672671515 -0.016203398714247596 0 -0.00054917451141881489 -0.017221498085472593 0 -0.00052358958981839549 -0.020337606580654855 0 -4.2776484964001857e-05 -0.016723010139097903 0 -0.00014105957327315802 -0.016732025042550551 0 -0.0003508291207062237 -0.017117887466782174 0 -4.2776484964001857e-05 -0.016723010139097903 0 -0.00014105957327315802 -0.016732025042550551 0 0.00012538814654509042 -0.017270138680451415 0 -0.00014105957327315802 -0.016732025042550551 0 0.00012538814654509042 -0.017270138680451415 0 -0.00043477566321807723 -0.01605317731750569 0 -0.00014105957327315802 -0.016732025042550551 0 -0.0003508291207062237 -0.017117887466782174 0 -0.00043477566321807723 -0.01605317731750569 0 0.0017446422437496143 -0.014533473045687754 0 -0.00043477566321807723 -0.01605317731750569 0 0.00054750012339586191 -0.013256275196915305 0 0.00068693906374432429 -0.016019533542873776 0 -0.00027787164806535394 -0.016120940506699065 0 -4.2776484964001857e-05 -0.016723010139097903 0 0.00012538814654509042 -0.017270138680451415 0 -0.00080676061613137585 -0.01743759625083878 0 0.00012538814654509042 -0.017270138680451415 0 -0.00080676061613137585 -0.01743759625083878 0 -0.00075011448332733732 -0.018940609534816598 0 0.00068693906374432429 -0.016019533542873776 0 0.001745975514801537 -0.015725130353850907 0 -0.00080676061613137585 -0.01743759625083878 0 -0.0020851743456216168 -0.018767749222192268 0 -0.00075011448332733732 -0.018940609534816598 0 -0.00080676061613137585 -0.01743759625083878 0 -0.0020450184868797813 -0.016923398516530158 0 -0.0020851743456216168 -0.018767749222192268 0 -0.0033604289789545064 -0.017886351911461221 0 -0.0020450184868797813 -0.016923398516530158 0 -0.0020851743456216168 -0.018767749222192268 0 -0.0024260246057458451 -0.024914582713770009 0 -0.0016805562991126679 -0.021463641343916765 0 -0.0019127948968707003 -0.026435414171617117 0 -0.0015465102542794387 -0.026127587018198638 0 -0.0014540066785039985 -0.025725407048398333 0 -0.0024260246057458451 -0.024914582713770009 0 -0.001547988266544635 -0.026580357209684019 0 -0.0026698052393999 -0.02633357519802006 0 -0.0014540066785039985 -0.025725407048398333 0 -0.0022026180873511566 -0.02570855575833169 0 -0.0024488143456455288 -0.027506511927503585 0 -0.0026698052393999 -0.02633357519802006 0 -0.0014540066785039985 -0.025725407048398333 0 -0.00080676061613137585 -0.01743759625083878 0 -0.0020450184868797813 -0.016923398516530158 0 -0.00096851691672671515 -0.016203398714247596 0 -0.0016805562991126679 -0.021463641343916765 0 -0.00052358958981839549 -0.020337606580654855 0 -0.0015465102542794387 -0.026127587018198638 0 -0.001020799269041485 -0.025825588512440111 0 -0.0014540066785039985 -0.025725407048398333 0 -0.00098001334277885094 -0.019929050310818971 0 -0.0010117864266412338 -0.020197941053340496 0 -0.00051389452681697685 -0.019991987275744465 0 -0.0010117864266412338 -0.020197941053340496 0 -0.00051389452681697685 -0.019991987275744465 0 -0.00098390920643721459 -0.021014737258390724 0 -0.001020799269041485 -0.025825588512440111 0 -0.0014540066785039985 -0.025725407048398333 0 -0.0017416957894746496 -0.025558198100004034 0 -0.00052358958981839549 -0.020337606580654855 0 -0.0013150781247326629 -0.02266215700227962 0 -0.00051389452681697685 -0.019991987275744465 0 -0.00098390920643721459 -0.021014737258390724 0 0.00020450553309791342 -0.020328738058335322 0 -0.0026698052393999 -0.02633357519802006 0 -0.0022026180873511566 -0.02570855575833169 0 -0.0027150025520708276 -0.02514712396244001 0 -0.0022026180873511566 -0.02570855575833169 0 -0.0017416957894746496 -0.025558198100004034 0 -0.0027150025520708276 -0.02514712396244001 0 -0.0014540066785039985 -0.025725407048398333 0 -0.0022026180873511566 -0.02570855575833169 0 -0.0017416957894746496 -0.025558198100004034 0 -0.0013150781247326629 -0.02266215700227962 0 0.00026761497360809139 -0.024327342832136379 0 -0.001120484128335838 -0.020313184795556671 0 0.00026761497360809139 -0.024327342832136379 0 -0.00098390920643721459 -0.021014737258390724 0 -0.0014911716255938694 -0.022632513962024314 0 -0.0016047355254340979 -0.022573209334787028 0 -0.0010117864266412338 -0.020197941053340496 0 -0.00098390920643721459 -0.021014737258390724 0 -0.0010079638830527583 -0.020019146307421916 0 -0.00098390920643721459 -0.021014737258390724 0 -0.0010079638830527583 -0.020019146307421916 0 -0.00095000484428986258 -0.020053410785412045 0 -0.0010079638830527583 -0.020019146307421916 0 -0.00058983022619446817 -0.018976943204556049 0 -0.00095000484428986258 -0.020053410785412045 0 -0.0010079638830527583 -0.020019146307421916 0 -0.00099137730506024626 -0.020114350084018753 0 -0.00058983022619446817 -0.018976943204556049 0 -0.0010117864266412338 -0.020197941053340496 0 -0.0010079638830527583 -0.020019146307421916 0 -0.00099137730506024626 -0.020114350084018753 0 -0.00018553139255799486 -0.018774092968721432 0 -0.00065509000851979218 -0.01909963716412403 0 -4.2776484964001857e-05 -0.016723010139097903 0 0.0002935253238254814 -0.017730542783932352 0 -0.0003508291207062237 -0.017117887466782174 0 -4.2776484964001857e-05 -0.016723010139097903 0 0.00084309779339832426 -0.017080740692022974 0 0.0002935253238254814 -0.017730542783932352 0 -0.00052358958981839549 -0.020337606580654855 0 -0.00018553139255799486 -0.018774092968721432 0 -0.00098001334277885094 -0.019929050310818971 0 -0.0010117864266412338 -0.020197941053340496 0 -0.00099137730506024626 -0.020114350084018753 0 0.0002935253238254814 -0.017730542783932352 0 -0.0003508291207062237 -0.017117887466782174 0 -0.00058983022619446817 -0.018976943204556049 0 -0.0003508291207062237 -0.017117887466782174 0 -0.00058983022619446817 -0.018976943204556049 0 -0.0010125047472776001 -0.017665830475373474 0 -0.00058983022619446817 -0.018976943204556049 0 -0.0010997021074512423 -0.018690288026616392 0 -0.0010125047472776001 -0.017665830475373474 0 -0.00058983022619446817 -0.018976943204556049 0 -0.00096881631495607202 -0.019397457568502741 0 -0.00095000484428986258 -0.020053410785412045 0 -0.00058983022619446817 -0.018976943204556049 0 -0.0010997021074512423 -0.018690288026616392 0 -0.00096881631495607202 -0.019397457568502741 0 -0.0010997021074512423 -0.018690288026616392 0 -0.0016809747351867947 -0.018128022532718207 0 -0.001360575966540442 -0.019251722101116069 0 -0.0010997021074512423 -0.018690288026616392 0 -0.0016809747351867947 -0.018128022532718207 0 -0.0010125047472776001 -0.017665830475373474 0 -0.0016809747351867947 -0.018128022532718207 0 -0.0021960581437530523 -0.017496604494307021 0 -0.001622731445050776 -0.01700137740013374 0 -0.0016809747351867947 -0.018128022532718207 0 -0.0021960581437530523 -0.017496604494307021 0 -0.0022855045739775893 -0.018150167468210195 0 -0.001622731445050776 -0.01700137740013374 0 -0.0024690839942957893 -0.01661320564710653 0 -0.0018241716238410948 -0.015644631868009157 0 -0.0021960581437530523 -0.017496604494307021 0 -0.001622731445050776 -0.01700137740013374 0 -0.0024690839942957893 -0.01661320564710653 0 -0.0016809747351867947 -0.018128022532718207 0 -0.001622731445050776 -0.01700137740013374 0 -0.0010125047472776001 -0.017665830475373474 0 -0.0003508291207062237 -0.017117887466782174 0 -0.0010125047472776001 -0.017665830475373474 0 -0.00043477566321807723 -0.01605317731750569 0 -0.001622731445050776 -0.01700137740013374 0 -0.0010125047472776001 -0.017665830475373474 0 -0.00043477566321807723 -0.01605317731750569 0 -0.003603580727293641 -0.016914670553700169 0 -0.002900618596481139 -0.017480262163340549 0 -0.003288869752989376 -0.016203844400655632 0 -0.0040322717371401315 -0.015814933013768677 0 -0.003603580727293641 -0.016914670553700169 0 -0.003288869752989376 -0.016203844400655632 0 -0.0021960581437530523 -0.017496604494307021 0 -0.002900618596481139 -0.017480262163340549 0 -0.0024690839942957893 -0.01661320564710653 0 -0.002900618596481139 -0.017480262163340549 0 -0.0024690839942957893 -0.01661320564710653 0 -0.003288869752989376 -0.016203844400655632 0 -0.0021960581437530523 -0.017496604494307021 0 -0.002900618596481139 -0.017480262163340549 0 -0.0022855045739775893 -0.018150167468210195 0 -0.0024690839942957893 -0.01661320564710653 0 -0.003288869752989376 -0.016203844400655632 0 -0.0029443139660067642 -0.015130549026365956 0 -0.0037235633858814922 -0.015088692167033331 0 -0.003288869752989376 -0.016203844400655632 0 -0.0029443139660067642 -0.015130549026365956 0 -0.0040322717371401315 -0.015814933013768677 0 -0.0037235633858814922 -0.015088692167033331 0 -0.003288869752989376 -0.016203844400655632 0 -0.0037235633858814922 -0.015088692167033331 0 -0.0038437690066773235 -0.013674216011000375 0 -0.0029443139660067642 -0.015130549026365956 0 -0.0029443139660067642 -0.015130549026365956 0 -0.0022198104787494685 -0.014056915561143741 0 -0.0018241716238410948 -0.015644631868009157 0 -0.0024690839942957893 -0.01661320564710653 0 -0.0029443139660067642 -0.015130549026365956 0 -0.0018241716238410948 -0.015644631868009157 0 -0.0038437690066773235 -0.013674216011000375 0 -0.0029443139660067642 -0.015130549026365956 0 -0.0022198104787494685 -0.014056915561143741 0 -0.0038437690066773235 -0.013674216011000375 0 -0.0022198104787494685 -0.014056915561143741 0 -0.0028105620372439431 -0.012742860363743348 0 -0.00043477566321807723 -0.01605317731750569 0 -0.0018241716238410948 -0.015644631868009157 0 -0.0010470524275543983 -0.013909826785154475 0 -0.001622731445050776 -0.01700137740013374 0 -0.00043477566321807723 -0.01605317731750569 0 -0.0018241716238410948 -0.015644631868009157 0 -0.0022198104787494685 -0.014056915561143741 0 -0.0018241716238410948 -0.015644631868009157 0 -0.0010470524275543983 -0.013909826785154475 0 -0.00043477566321807723 -0.01605317731750569 0 -0.0010470524275543983 -0.013909826785154475 0 0.00054750012339586191 -0.013256275196915305 0 -0.0010470524275543983 -0.013909826785154475 0 0.00054750012339586191 -0.013256275196915305 0 -0.00033178954662988088 -0.012165648948639807 0 -0.0022198104787494685 -0.014056915561143741 0 -0.0010470524275543983 -0.013909826785154475 0 -0.0016907466805098073 -0.012552937090098894 0 -0.0010470524275543983 -0.013909826785154475 0 -0.00033178954662988088 -0.012165648948639807 0 -0.0016907466805098073 -0.012552937090098894 0 -0.00033178954662988088 -0.012165648948639807 0 -0.0016907466805098073 -0.012552937090098894 0 -0.0011475312383031463 -0.011149012411174369 0 -0.00033178954662988088 -0.012165648948639807 0 8.975406699678168e-05 -0.010814520543539369 0 -0.0011475312383031463 -0.011149012411174369 0 -0.00033178954662988088 -0.012165648948639807 0 8.975406699678168e-05 -0.010814520543539369 0 0.0010109174874036481 -0.011778557525768642 0 0.00054750012339586191 -0.013256275196915305 0 -0.00033178954662988088 -0.012165648948639807 0 0.0010109174874036481 -0.011778557525768642 0 -0.0038437690066773235 -0.013674216011000375 0 -0.0036257464722169682 -0.011822417041498771 0 -0.0028105620372439431 -0.012742860363743348 0 -0.0022198104787494685 -0.014056915561143741 0 -0.0028105620372439431 -0.012742860363743348 0 -0.0016907466805098073 -0.012552937090098894 0 -0.0016907466805098073 -0.012552937090098894 0 -0.0024560447417031283 -0.011300080205253235 0 -0.0011475312383031463 -0.011149012411174369 0 -0.0028105620372439431 -0.012742860363743348 0 -0.0016907466805098073 -0.012552937090098894 0 -0.0024560447417031283 -0.011300080205253235 0 -0.0036257464722169682 -0.011822417041498771 0 -0.0028105620372439431 -0.012742860363743348 0 -0.0024560447417031283 -0.011300080205253235 0 -0.0036257464722169682 -0.011822417041498771 0 -0.0024560447417031283 -0.011300080205253235 0 -0.0032681993807424747 -0.010088628931354836 0 -0.0024560447417031283 -0.011300080205253235 0 -0.0032681993807424747 -0.010088628931354836 0 -0.0020165039743034706 -0.0098808241581949154 0 -0.0020165039743034706 -0.0098808241581949154 0 -0.0011475312383031463 -0.011149012411174369 0 -0.00086382073916503165 -0.01003674711265347 0 -0.0024560447417031283 -0.011300080205253235 0 -0.0020165039743034706 -0.0098808241581949154 0 -0.0011475312383031463 -0.011149012411174369 0 -0.0030366874396359259 -0.0083767834113120648 0 -0.0013882496445642705 -0.0084195159495921833 0 -0.0020165039743034706 -0.0098808241581949154 0 -0.0013882496445642705 -0.0084195159495921833 0 -0.0020165039743034706 -0.0098808241581949154 0 -0.00086382073916503165 -0.01003674711265347 0 -0.0030366874396359259 -0.0083767834113120648 0 -0.0032681993807424747 -0.010088628931354836 0 -0.0020165039743034706 -0.0098808241581949154 0 8.975406699678168e-05 -0.010814520543539369 0 0.0013268024699188371 -0.010250846935604106 0 0.0010109174874036481 -0.011778557525768642 0 8.975406699678168e-05 -0.010814520543539369 0 -0.0011475312383031463 -0.011149012411174369 0 -0.00086382073916503165 -0.01003674711265347 0 -0.0013882496445642705 -0.0084195159495921833 0 -0.00086382073916503165 -0.01003674711265347 0 0.00017314436487444443 -0.0094252543756565658 0 8.975406699678168e-05 -0.010814520543539369 0 -0.00086382073916503165 -0.01003674711265347 0 0.00017314436487444443 -0.0094252543756565658 0 0.0017693371432362253 -0.0086215782481559745 0 0.00017314436487444443 -0.0094252543756565658 0 0.0013268024699188371 -0.010250846935604106 0 8.975406699678168e-05 -0.010814520543539369 0 0.00017314436487444443 -0.0094252543756565658 0 0.0013268024699188371 -0.010250846935604106 0 0.0017693371432362253 -0.0086215782481559745 0 0.0024887094650773551 -0.0096983973470794582 0 0.0013268024699188371 -0.010250846935604106 0 -0.00076207843771671272 -0.017003751893267353 0 -0.00021882755136119907 -0.017298483454866821 0 0.0024887094650773551 -0.0096983973470794582 0 0.0022880115917750157 -0.011212088035458133 0 0.0035035302230757674 -0.010962289950119738 0 0.0022880115917750157 -0.011212088035458133 0 0.0034075612131484198 -0.012117112455153688 0 0.0035035302230757674 -0.010962289950119738 0 0.0024887094650773551 -0.0096983973470794582 0 0.0022880115917750157 -0.011212088035458133 0 0.0013268024699188371 -0.010250846935604106 0 0.0022880115917750157 -0.011212088035458133 0 0.0013268024699188371 -0.010250846935604106 0 0.0010109174874036481 -0.011778557525768642 0 0.0022880115917750157 -0.011212088035458133 0 0.0010109174874036481 -0.011778557525768642 0 0.0019691673572747865 -0.012938228317793911 0 0.0022880115917750157 -0.011212088035458133 0 0.0019691673572747865 -0.012938228317793911 0 0.0034075612131484198 -0.012117112455153688 0 0.0017446422437496143 -0.014533473045687754 0 0.0019691673572747865 -0.012938228317793911 0 0.0031875840312880557 -0.013280752126374683 0 0.0019691673572747865 -0.012938228317793911 0 0.0031875840312880557 -0.013280752126374683 0 0.0034075612131484198 -0.012117112455153688 0 0.00054750012339586191 -0.013256275196915305 0 0.0010109174874036481 -0.011778557525768642 0 0.0019691673572747865 -0.012938228317793911 0 0.0017446422437496143 -0.014533473045687754 0 0.00054750012339586191 -0.013256275196915305 0 0.0019691673572747865 -0.012938228317793911 0 -0.0031963805489998941 -0.020150877143942116 0 -0.0020851743456216168 -0.018767749222192268 0 -0.0025792632862965958 -0.020795299532257627 0 -0.0033604289789545064 -0.017886351911461221 0 -0.0031963805489998941 -0.020150877143942116 0 -0.0020851743456216168 -0.018767749222192268 0 0.001745975514801537 -0.015725130353850907 0 -0.0017036121103461009 -0.018452387397186288 0 -0.0020851743456216168 -0.018767749222192268 0 -0.00075011448332733732 -0.018940609534816598 0 -0.0025792632862965958 -0.020795299532257627 0 0.0031875840312880557 -0.013280752126374683 0 0.0034075612131484198 -0.012117112455153688 0 0.0045098001311007566 -0.012292298571739524 0 -0.0017036121103461009 -0.018452387397186288 0 -0.00021882755136119907 -0.017298483454866821 0 0.0034075612131484198 -0.012117112455153688 0 0.0045098001311007566 -0.012292298571739524 0 0.0035035302230757674 -0.010962289950119738 0 -0.0046639236977267145 -0.02306162838492137 0 -0.004831502346831427 -0.023609918124789103 0 -0.0053714823177895797 -0.023410772100955619 0 -0.0031963805489998941 -0.020150877143942116 0 -0.0024364012858441009 -0.02112513411874219 0 -0.0051409036901543135 -0.02052369677325256 0 -0.0021564022674085892 -0.019790084374618214 0 -0.0017036121103461009 -0.018452387397186288 0 -0.0046639236977267145 -0.02306162838492137 0 -0.004831502346831427 -0.023609918124789103 0 -0.0042562837400287185 -0.023695608128320902 0 -0.004831502346831427 -0.023609918124789103 0 -0.004868844539817529 -0.024215033189484956 0 -0.0051801335047524464 -0.024043672891787073 0 -0.004831502346831427 -0.023609918124789103 0 -0.0042562837400287185 -0.023695608128320902 0 -0.0044507360748277389 -0.024178196158773091 0 -0.0039922497932149961 -0.024352413902016729 0 -0.0042562837400287185 -0.023695608128320902 0 -0.0044507360748277389 -0.024178196158773091 0 -0.0045446206476277076 -0.024698234116727179 0 -0.0039922497932149961 -0.024352413902016729 0 -0.0044507360748277389 -0.024178196158773091 0 -0.0052463925892360045 -0.024703943970924715 0 -0.0045446206476277076 -0.024698234116727179 0 -0.004868844539817529 -0.024215033189484956 0 -0.004831502346831427 -0.023609918124789103 0 -0.0044507360748277389 -0.024178196158773091 0 -0.004868844539817529 -0.024215033189484956 0 -0.0045446206476277076 -0.024698234116727179 0 -0.0044507360748277389 -0.024178196158773091 0 -0.004868844539817529 -0.024215033189484956 0 -0.0052463925892360045 -0.024703943970924715 0 -0.004868844539817529 -0.024215033189484956 0 -0.0051801335047524464 -0.024043672891787073 0 -0.0052463925892360045 -0.024703943970924715 0 -0.0057288729889216688 -0.024290606870360609 0 -0.0051801335047524464 -0.024043672891787073 0 -0.0057288729889216688 -0.024290606870360609 0 -0.0051801335047524464 -0.024043672891787073 0 -0.0053714823177895797 -0.023410772100955619 0 -0.004831502346831427 -0.023609918124789103 0 -0.0051801335047524464 -0.024043672891787073 0 -0.0053714823177895797 -0.023410772100955619 0 -0.0057288729889216688 -0.024290606870360609 0 -0.0053714823177895797 -0.023410772100955619 0 -0.0063289150996694412 -0.023469674651897799 0 -0.0044614639736259487 -0.030020237625229422 0 -0.0051275747443849011 -0.030151772976026853 0 -0.0049773222885507581 -0.02966134950635279 0 -0.0057288729889216688 -0.024290606870360609 0 -0.0063289150996694412 -0.023469674651897799 0 -0.0065644851556048408 -0.024640227754107555 0 -0.0053915286555546015 -0.026751619779777649 0 -0.0059800777481034033 -0.027666621842945081 0 -0.0056523630449688035 -0.025208663767388784 0 -0.0057288729889216688 -0.024290606870360609 0 -0.0065644851556048408 -0.024640227754107555 0 -0.0054306090961144197 -0.03080156167546003 0 -0.0061387535457001641 -0.030736949108203491 0 -0.0056128325479350418 -0.030057938379300816 0 -0.0061387535457001641 -0.030736949108203491 0 -0.006135689488642391 -0.030057114346696622 0 -0.0056128325479350418 -0.030057938379300816 0 -0.0061387535457001641 -0.030736949108203491 0 -0.006135689488642391 -0.030057114346696622 0 -0.0064042661347638793 -0.030420051087133537 0 -0.006135689488642391 -0.030057114346696622 0 -0.0056128325479350418 -0.030057938379300816 0 -0.005880156110456859 -0.029368840891004687 0 -0.0054306090961144197 -0.03080156167546003 0 -0.0051275747443849011 -0.030151772976026853 0 -0.0056128325479350418 -0.030057938379300816 0 -0.0044614639736259487 -0.030020237625229422 0 -0.0054306090961144197 -0.03080156167546003 0 -0.0051275747443849011 -0.030151772976026853 0 -0.0051275747443849011 -0.030151772976026853 0 -0.0056128325479350418 -0.030057938379300816 0 -0.0049773222885507581 -0.02966134950635279 0 -0.0049773222885507581 -0.02966134950635279 0 -0.0053837803305142222 -0.029433019970610014 0 -0.00482797127532264 -0.029179306538154284 0 -0.0056128325479350418 -0.030057938379300816 0 -0.0049773222885507581 -0.02966134950635279 0 -0.0053837803305142222 -0.029433019970610014 0 -0.0053837803305142222 -0.029433019970610014 0 -0.005880156110456859 -0.029368840891004687 0 -0.0052083197833299594 -0.028881816067048229 0 -0.0053837803305142222 -0.029433019970610014 0 -0.00482797127532264 -0.029179306538154284 0 -0.0052083197833299594 -0.028881816067048229 0 -0.00482797127532264 -0.029179306538154284 0 -0.0052083197833299594 -0.028881816067048229 0 -0.0047012292527770965 -0.028767635643361267 0 -0.0056128325479350418 -0.030057938379300816 0 -0.0053837803305142222 -0.029433019970610014 0 -0.005880156110456859 -0.029368840891004687 0 -0.0057592489312989856 -0.028601323086389997 0 -0.0053355690468663694 -0.02823667777526518 0 -0.0059384822238060797 -0.027507456692259437 0 -0.0057592489312989856 -0.028601323086389997 0 -0.0064415986723266204 -0.028760879054690634 0 -0.0059384822238060797 -0.027507456692259437 0 -0.0068605599373558149 -0.029875482315354258 0 -0.0037685686084032522 -0.031875005046152365 0 -0.005880156110456859 -0.029368840891004687 0 -0.0057592489312989856 -0.028601323086389997 0 -0.0064415986723266204 -0.028760879054690634 0 -0.005880156110456859 -0.029368840891004687 0 -0.0057592489312989856 -0.028601323086389997 0 -0.0052083197833299594 -0.028881816067048229 0 -0.0052083197833299594 -0.028881816067048229 0 -0.0048728146833533804 -0.028344746778678653 0 -0.0047012292527770965 -0.028767635643361267 0 -0.0057592489312989856 -0.028601323086389997 0 -0.0052083197833299594 -0.028881816067048229 0 -0.0053355690468663694 -0.02823667777526518 0 -0.0052083197833299594 -0.028881816067048229 0 -0.0053355690468663694 -0.02823667777526518 0 -0.0048728146833533804 -0.028344746778678653 0 -0.0053355690468663694 -0.02823667777526518 0 -0.0048728146833533804 -0.028344746778678653 0 -0.0050815602867398061 -0.027840928198988122 0 -0.0048728146833533804 -0.028344746778678653 0 -0.0042977392715507117 -0.028448914895939103 0 -0.0046160518888214005 -0.027879308943670796 0 -0.0042977392715507117 -0.028448914895939103 0 -0.0040253610178440629 -0.027952241322431869 0 -0.0046160518888214005 -0.027879308943670796 0 -0.0042977392715507117 -0.028448914895939103 0 -0.0047012292527770965 -0.028767635643361267 0 -0.0044410324748830783 -0.028964935443039724 0 -0.0048728146833533804 -0.028344746778678653 0 -0.0042977392715507117 -0.028448914895939103 0 -0.0047012292527770965 -0.028767635643361267 0 -0.0042977392715507117 -0.028448914895939103 0 -0.004057364179167776 -0.028867741940242882 0 -0.0036486741287884194 -0.028456697485700601 0 -0.0042977392715507117 -0.028448914895939103 0 -0.004057364179167776 -0.028867741940242882 0 -0.0044410324748830783 -0.028964935443039724 0 -0.0042977392715507117 -0.028448914895939103 0 -0.0036486741287884194 -0.028456697485700601 0 -0.0040253610178440629 -0.027952241322431869 0 -0.0024260246057458451 -0.024914582713770009 0 -0.0042240129445328531 -0.02428849388834893 0 -0.0033604289789545064 -0.017886351911461221 0 -0.0031963805489998941 -0.020150877143942116 0 -0.0051409036901543135 -0.02052369677325256 0 -0.0024697585027707285 -0.027346917603839262 0 -0.0036486741287884194 -0.028456697485700601 0 -0.0034401889211443789 -0.028876659264389003 0 -0.0024260246057458451 -0.024914582713770009 0 -0.0038616989603549533 -0.029063063050367294 0 -0.004057364179167776 -0.028867741940242882 0 -0.0036486741287884194 -0.028456697485700601 0 -0.0034401889211443789 -0.028876659264389003 0 -0.0024364012858441009 -0.02112513411874219 0 -0.0053714823177895797 -0.023410772100955619 0 -0.0051409036901543135 -0.02052369677325256 0 -0.0017036121103461009 -0.018452387397186288 0 -0.0062916061477793555 -0.024660931482953882 0 -0.0053714823177895797 -0.023410772100955619 0 -0.0063289150996694412 -0.023469674651897799 0 -0.0051409036901543135 -0.02052369677325256 0 -0.0053915286555546015 -0.026751619779777649 0 -0.0042240129445328531 -0.02428849388834893 0 -0.0044614639736259487 -0.030020237625229422 0 -0.0034401889211443789 -0.028876659264389003 0 -0.0043771435936232695 -0.029267600144653686 0 -0.0044614639736259487 -0.030020237625229422 0 -0.0049773222885507581 -0.02966134950635279 0 -0.0043771435936232695 -0.029267600144653686 0 -0.0049773222885507581 -0.02966134950635279 0 -0.00482797127532264 -0.029179306538154284 0 -0.0043771435936232695 -0.029267600144653686 0 -0.00482797127532264 -0.029179306538154284 0 -0.0043771435936232695 -0.029267600144653686 0 -0.0044410324748830783 -0.028964935443039724 0 -0.00482797127532264 -0.029179306538154284 0 -0.0047012292527770965 -0.028767635643361267 0 -0.0044410324748830783 -0.028964935443039724 0 -0.004057364179167776 -0.028867741940242882 0 -0.0034401889211443789 -0.028876659264389003 0 -0.0043771435936232695 -0.029267600144653686 0 -0.004057364179167776 -0.028867741940242882 0 -0.0043771435936232695 -0.029267600144653686 0 -0.0044410324748830783 -0.028964935443039724 0 -0.0053280724288458509 -0.037829900272522157 0 -0.0070006395315420225 -0.035778131296621288 0 -0.0059928532417821119 -0.031198663731688468 0 -0.0062499195228388196 -0.031148036213930291 0 -0.0062275882614619346 -0.030856024665750686 0 -0.0059928532417821119 -0.031198663731688468 0 -0.0062499195228388196 -0.031148036213930291 0 -0.0063112371146318768 -0.031355672665727273 0 -0.0062499195228388196 -0.031148036213930291 0 -0.0064623364460253373 -0.03121823430446265 0 -0.0063112371146318768 -0.031355672665727273 0 -0.0062499195228388196 -0.031148036213930291 0 -0.0062275882614619346 -0.030856024665750686 0 -0.0064209809576399974 -0.031041486192408624 0 -0.0064512559442011239 -0.030769156131033485 0 -0.0062275882614619346 -0.030856024665750686 0 -0.0065392960340032464 -0.030869054314166994 0 -0.0062275882614619346 -0.030856024665750686 0 -0.0065392960340032464 -0.030869054314166994 0 -0.0064209809576399974 -0.031041486192408624 0 -0.0066176011893932171 -0.030769668048112389 0 -0.0064512559442011239 -0.030769156131033485 0 -0.0065392960340032464 -0.030869054314166994 0 -0.0065392960340032464 -0.030869054314166994 0 -0.0065514706410986128 -0.031013200753859917 0 -0.0064209809576399974 -0.031041486192408624 0 -0.0065514706410986128 -0.031013200753859917 0 -0.0064209809576399974 -0.031041486192408624 0 -0.0064623364460253373 -0.03121823430446265 0 -0.0062499195228388196 -0.031148036213930291 0 -0.0064209809576399974 -0.031041486192408624 0 -0.0064623364460253373 -0.03121823430446265 0 -0.0065514706410986128 -0.031013200753859917 0 -0.0064623364460253373 -0.03121823430446265 0 -0.0066335354541514095 -0.031197641348577089 0 -0.0066335354541514095 -0.031197641348577089 0 -0.0066966078959062297 -0.030830332287124926 0 -0.0068750064273298212 -0.031295061107537346 0 -0.0067181236439000994 -0.030758461076244942 0 -0.0067716179370217334 -0.030616960058580642 0 -0.0065514706410986128 -0.031013200753859917 0 -0.0066335354541514095 -0.031197641348577089 0 -0.0066966078959062297 -0.030830332287124926 0 -0.0066966078959062297 -0.030830332287124926 0 -0.006597041378510058 -0.030827077978053063 0 -0.0067460427474606635 -0.029897692722695782 0 -0.0065392960340032464 -0.030869054314166994 0 -0.0065514706410986128 -0.031013200753859917 0 -0.0066966078959062297 -0.030830332287124926 0 -0.0062960830001558572 -0.030743425940655791 0 -0.0065757094034263183 -0.030890668498404345 0 -0.0066176011893932171 -0.030769668048112389 0 -0.0066966078959062297 -0.030830332287124926 0 -0.006597041378510058 -0.030827077978053063 0 -0.0066176011893932171 -0.030769668048112389 0 -0.0065392960340032464 -0.030869054314166994 0 -0.0066966078959062297 -0.030830332287124926 0 -0.0064213500302136121 -0.030992874896804783 0 -0.0062762409087274949 -0.03108466319165 0 -0.006597041378510058 -0.030827077978053063 0 -0.0064022519329554892 -0.030998235048444473 0 -0.0061387535457001641 -0.030736949108203491 0 -0.0064124085601883806 -0.030844439081417641 0 -0.006597041378510058 -0.030827077978053063 0 -0.0064124085601883806 -0.030844439081417641 0 -0.0064042661347638793 -0.030420051087133537 0 -0.0064213500302136121 -0.030992874896804783 0 -0.006597041378510058 -0.030827077978053063 0 -0.0064124085601883806 -0.030844439081417641 0 -0.0061387535457001641 -0.030736949108203491 0 -0.0064124085601883806 -0.030844439081417641 0 -0.0064042661347638793 -0.030420051087133537 0 -0.006597041378510058 -0.030827077978053063 0 -0.0064042661347638793 -0.030420051087133537 0 -0.0067460427474606635 -0.029897692722695782 0 -0.006135689488642391 -0.030057114346696622 0 -0.0064042661347638793 -0.030420051087133537 0 -0.0067460427474606635 -0.029897692722695782 0 -0.0067716179370217334 -0.030616960058580642 0 -0.0068605599373558149 -0.029875482315354258 0 -0.006135689488642391 -0.030057114346696622 0 -0.005880156110456859 -0.029368840891004687 0 -0.0067460427474606635 -0.029897692722695782 0 -0.005880156110456859 -0.029368840891004687 0 -0.0067460427474606635 -0.029897692722695782 0 -0.0064415986723266204 -0.028760879054690634 0 -0.0068750064273298212 -0.031295061107537346 0 -0.00681418789641917 -0.031499219081622266 0 -0.0069191278124310683 -0.031578069426686457 0 -0.0069191278124310683 -0.031578069426686457 0 -0.006860349741321525 -0.031639628194355132 0 -0.0069060023406780809 -0.031685922795120024 0 -0.00681418789641917 -0.031499219081622266 0 -0.0069191278124310683 -0.031578069426686457 0 -0.006860349741321525 -0.031639628194355132 0 -0.0037520522380980318 -0.037353512479463412 0 -0.0060208889296343819 -0.037333482726647549 0 -0.0063002311373530221 -0.039573699673979258 0 -0.0054230682574828784 -0.0346965054959378 0 -0.0064546756134540037 -0.035549737287318368 0 -0.00681418789641917 -0.031499219081622266 0 -0.006860349741321525 -0.031639628194355132 0 -0.0066195448957941322 -0.031537498041040203 0 -0.0066335354541514095 -0.031197641348577089 0 -0.0068750064273298212 -0.031295061107537346 0 -0.0066195448957941322 -0.031537498041040203 0 -0.0068750064273298212 -0.031295061107537346 0 -0.00681418789641917 -0.031499219081622266 0 -0.0066195448957941322 -0.031537498041040203 0 -0.0063002311373530221 -0.039573699673979258 0 -0.0074220435943426286 -0.039422535635918708 0 -0.0076955193751389716 -0.040782331764869617 0 -0.0064623364460253373 -0.03121823430446265 0 -0.0066335354541514095 -0.031197641348577089 0 -0.0066195448957941322 -0.031537498041040203 0 -0.0064623364460253373 -0.03121823430446265 0 -0.0066195448957941322 -0.031537498041040203 0 -0.0063112371146318768 -0.031355672665727273 0 -0.0064546756134540037 -0.035549737287318368 0 -0.0070006395315420225 -0.035778131296621288 0 -0.0060208889296343819 -0.037333482726647549 0 -0.0063002311373530221 -0.039573699673979258 0 -0.0074220435943426286 -0.039422535635918708 0 -0.0060208889296343819 -0.037333482726647549 0 -0.0074220435943426286 -0.039422535635918708 0 -0.0087466988791545693 -0.036900193124888667 0 -0.006178793794581053 -0.042427673421395987 0 -0.0074612756741679687 -0.041010390136311782 0 -0.0065640462744532843 -0.042600719166134435 0 -0.0075058771638510787 -0.040751182897946339 0 -0.0074689319000530302 -0.039446143355556684 0 -0.0074220435943426286 -0.039422535635918708 0 -0.0074612756741679687 -0.041010390136311782 0 -0.0087466988791545693 -0.036900193124888667 0 -0.0066372505297115827 -0.041030187065671436 0 -0.0074612756741679687 -0.041010390136311782 0 -0.0076955193751389716 -0.040782331764869617 0 -0.0074220435943426286 -0.039422535635918708 0 -0.0074612756741679687 -0.041010390136311782 0 -0.0076955193751389716 -0.040782331764869617 0 -0.0064077335532121225 -0.039741815809495838 0 -0.0066372505297115827 -0.041030187065671436 0 -0.0076955193751389716 -0.040782331764869617 0 -0.0060280878801346255 -0.042605632810915221 0 -0.0065640462744532843 -0.042600719166134435 0 -0.0059882406000797556 -0.042401449705186389 0 -0.0060209237496254096 -0.042677869419510572 0 -0.0060280878801346255 -0.042605632810915221 0 -0.0065640462744532843 -0.042600719166134435 0 -0.0060208889296343819 -0.037333482726647549 0 -0.0087466988791545693 -0.036900193124888667 0 -0.0062508029906411695 -0.034572525546625911 0 -0.0074689319000530302 -0.039446143355556684 0 -0.0073377272972958455 -0.038042884381408099 0 -0.0065640462744532843 -0.042600719166134435 0 -0.0057985803184992636 -0.042301361505842169 0 -0.0059882406000797556 -0.042401449705186389 0 -0.0087466988791545693 -0.036900193124888667 0 -0.0082644130647591182 -0.032546216236299781 0 -0.0062508029906411695 -0.034572525546625911 0 -0.0082644130647591182 -0.032546216236299781 0 -0.0058841863949713052 -0.032211068027767964 0 -0.0062508029906411695 -0.034572525546625911 0 -0.0058841863949713052 -0.032211068027767964 0 -0.0045398434950999801 -0.03318346301270142 0 -0.0045712417199964802 -0.031024641289327557 0 -0.0062508029906411695 -0.034572525546625911 0 -0.0047242491821940062 -0.035341554120653276 0 -0.0045398434950999801 -0.03318346301270142 0 -0.0058841863949713052 -0.032211068027767964 0 -0.0062508029906411695 -0.034572525546625911 0 -0.0045398434950999801 -0.03318346301270142 0 -0.0060208889296343819 -0.037333482726647549 0 -0.0062508029906411695 -0.034572525546625911 0 -0.0047242491821940062 -0.035341554120653276 0 -0.0037520522380980318 -0.037353512479463412 0 -0.0060208889296343819 -0.037333482726647549 0 -0.0047242491821940062 -0.035341554120653276 0 -0.0037520522380980318 -0.037353512479463412 0 -0.0030175040036193946 -0.034122173612409372 0 -0.00087442291245343694 -0.034934556468853441 0 -0.0037520522380980318 -0.037353512479463412 0 -0.0047242491821940062 -0.035341554120653276 0 -0.0030175040036193946 -0.034122173612409372 0 -0.0054230682574828784 -0.0346965054959378 0 -0.0037685686084032522 -0.031875005046152365 0 -0.0030175040036193946 -0.034122173612409372 0 -0.0045398434950999801 -0.03318346301270142 0 -0.003321875610715553 -0.031643337550901464 0 -0.0047242491821940062 -0.035341554120653276 0 -0.0030175040036193946 -0.034122173612409372 0 -0.0045398434950999801 -0.03318346301270142 0 -0.0045398434950999801 -0.03318346301270142 0 -0.003321875610715553 -0.031643337550901464 0 -0.0045712417199964802 -0.031024641289327557 0 -0.0030175040036193946 -0.034122173612409372 0 -0.003321875610715553 -0.031643337550901464 0 -0.001670288580781647 -0.032091044632777364 0 -0.003321875610715553 -0.031643337550901464 0 -0.0045712417199964802 -0.031024641289327557 0 -0.0031909596029100207 -0.029689177820112943 0 -0.003321875610715553 -0.031643337550901464 0 -0.0031909596029100207 -0.029689177820112943 0 -0.0023352688611071328 -0.03073529705791414 0 -0.0045712417199964802 -0.031024641289327557 0 -0.0045044298310500724 -0.029299306269179176 0 -0.0031909596029100207 -0.029689177820112943 0 -0.0031909596029100207 -0.029689177820112943 0 -0.0032321060565440756 -0.027235027216860764 0 -0.0017825997760693695 -0.029230389064375951 0 -0.0045044298310500724 -0.029299306269179176 0 -0.0031909596029100207 -0.029689177820112943 0 -0.0032321060565440756 -0.027235027216860764 0 -0.0032321060565440756 -0.027235027216860764 0 -0.0053049936078416928 -0.026926506038182054 0 -0.0038587780174836601 -0.025819382536052562 0 -0.0032321060565440756 -0.027235027216860764 0 -0.0049886822654775188 -0.028182589933803067 0 -0.0053049936078416928 -0.026926506038182054 0 -0.0045044298310500724 -0.029299306269179176 0 -0.0032321060565440756 -0.027235027216860764 0 -0.0049886822654775188 -0.028182589933803067 0 -0.0049886822654775188 -0.028182589933803067 0 -0.0064943110924695242 -0.028486410123728528 0 -0.0054559680572675269 -0.029104375993876205 0 -0.0026942183984892537 -0.023313490150875828 0 -0.0025349301236912698 -0.023598446224896551 0 -0.0029329483501144087 -0.023604898646568239 0 -0.0053049936078416928 -0.026926506038182054 0 -0.006866030511642399 -0.02806495563035008 0 -0.0050551828805151435 -0.025388477773369965 0 -0.0049886822654775188 -0.028182589933803067 0 -0.0053049936078416928 -0.026926506038182054 0 -0.0064943110924695242 -0.028486410123728528 0 -0.0045096801457632273 -0.032005414859018665 0 -0.0036573046776078627 -0.023549918205787515 0 -0.0053049936078416928 -0.026926506038182054 0 -0.006866030511642399 -0.02806495563035008 0 -0.0064943110924695242 -0.028486410123728528 0 -0.0045096801457632273 -0.032005414859018665 0 -0.0053108014831648627 -0.031121012194646989 0 -0.0082644130647591182 -0.032546216236299781 0 -0.0069268724869480849 -0.028148394359959753 0 -0.0064943110924695242 -0.028486410123728528 0 -0.0082644130647591182 -0.032546216236299781 0 -0.0064943110924695242 -0.028486410123728528 0 -0.0058973232950411221 -0.030413646160952192 0 -0.0064943110924695242 -0.028486410123728528 0 -0.0054559680572675269 -0.029104375993876205 0 -0.0058973232950411221 -0.030413646160952192 0 -0.0045044298310500724 -0.029299306269179176 0 -0.0054559680572675269 -0.029104375993876205 0 -0.0058973232950411221 -0.030413646160952192 0 -0.0045044298310500724 -0.029299306269179176 0 -0.0049886822654775188 -0.028182589933803067 0 -0.0054559680572675269 -0.029104375993876205 0 -0.0058841863949713052 -0.032211068027767964 0 -0.0045712417199964802 -0.031024641289327557 0 -0.0058973232950411221 -0.030413646160952192 0 -0.0045712417199964802 -0.031024641289327557 0 -0.0045044298310500724 -0.029299306269179176 0 -0.0058973232950411221 -0.030413646160952192 0 -0.0082644130647591182 -0.032546216236299781 0 -0.0058841863949713052 -0.032211068027767964 0 -0.0058973232950411221 -0.030413646160952192 0 -0.0057985803184992636 -0.042301361505842169 0 -0.0057528720860439532 -0.04200814790152755 0 -0.0058766389415649718 -0.042186203141379559 0 -0.0057985803184992636 -0.042301361505842169 0 -0.0055527963219049502 -0.041826464141563088 0 -0.0057528720860439532 -0.04200814790152755 0 -0.0073377272972958455 -0.038042884381408099 0 -0.0045096801457632273 -0.032005414859018665 0 -0.0055527963219049502 -0.041826464141563088 0 -0.0057528720860439532 -0.04200814790152755 0 -0.0058033596691264488 -0.041920228725126081 0 -0.0045096801457632273 -0.032005414859018665 0 -0.0037845115341841695 -0.033168352715256165 0 -0.0057528720860439532 -0.04200814790152755 0 -0.0058269561989134529 -0.042036740096313752 0 -0.0058033596691264488 -0.041920228725126081 0 -0.0057528720860439532 -0.04200814790152755 0 -0.0058269561989134529 -0.042036740096313752 0 -0.0058766389415649718 -0.042186203141379559 0 -0.0058269561989134529 -0.042036740096313752 0 -0.0058999188987969436 -0.042180403629300534 0 -0.005858349075603001 -0.041993466073889846 0 -0.0058269561989134529 -0.042036740096313752 0 -0.0058999188987969436 -0.042180403629300534 0 -0.0058766389415649718 -0.042186203141379559 0 -0.0059636045669969866 -0.04241917871801857 0 -0.0058999188987969436 -0.042180403629300534 0 -0.0058766389415649718 -0.042186203141379559 0 -0.0057985803184992636 -0.042301361505842169 0 -0.0058766389415649718 -0.042186203141379559 0 -0.0059882406000797556 -0.042401449705186389 0 -0.0059636045669969866 -0.04241917871801857 0 -0.0058766389415649718 -0.042186203141379559 0 -0.0059882406000797556 -0.042401449705186389 0 -0.0060280878801346255 -0.042605632810915221 0 -0.0059636045669969866 -0.04241917871801857 0 -0.0059882406000797556 -0.042401449705186389 0 -0.0037346049993972389 -0.026661152301719344 0 -0.0043268731392582015 -0.027136435708553324 0 -0.0049566472341293416 -0.026727694552733581 0 -0.0037346049993972389 -0.026661152301719344 0 -0.0049566472341293416 -0.026727694552733581 0 -0.003863141407066091 -0.025917624433199119 0 0.0011982667832788115 -0.032142778353215759 0 0.0017916208774435419 -0.030295905634460035 0 0.0040109308038223266 -0.030403428980320581 0 -0.0017889718219101047 -0.029309743094887451 0 0.0001555179444647811 -0.02829662597108697 0 -0.0026698052393999 -0.02633357519802006 0 -0.0037346049993972389 -0.026661152301719344 0 -0.0035724324732425488 -0.02738919852854442 0 -0.0026698052393999 -0.02633357519802006 0 -0.0037346049993972389 -0.026661152301719344 0 -0.003863141407066091 -0.025917624433199119 0 -0.0024488143456455288 -0.027506511927503585 0 -0.0026698052393999 -0.02633357519802006 0 -0.0035724324732425488 -0.02738919852854442 0 -0.0036486741287884194 -0.028456697485700601 0 -0.0035724324732425488 -0.02738919852854442 0 -0.0040253610178440629 -0.027952241322431869 0 -0.0024488143456455288 -0.027506511927503585 0 -0.0036486741287884194 -0.028456697485700601 0 -0.0035724324732425488 -0.02738919852854442 0 -0.0035724324732425488 -0.02738919852854442 0 -0.0040253610178440629 -0.027952241322431869 0 -0.0042060463456717193 -0.027601284417183104 0 -0.0037346049993972389 -0.026661152301719344 0 -0.0035724324732425488 -0.02738919852854442 0 -0.0043268731392582015 -0.027136435708553324 0 -0.0035724324732425488 -0.02738919852854442 0 -0.0042060463456717193 -0.027601284417183104 0 -0.0043268731392582015 -0.027136435708553324 0 -0.0042060463456717193 -0.027601284417183104 0 -0.0043268731392582015 -0.027136435708553324 0 -0.0049130076393138454 -0.027364569233021586 0 -0.0042060463456717193 -0.027601284417183104 0 -0.0046160518888214005 -0.027879308943670796 0 -0.0049130076393138454 -0.027364569233021586 0 -0.0040253610178440629 -0.027952241322431869 0 -0.0042060463456717193 -0.027601284417183104 0 -0.0046160518888214005 -0.027879308943670796 0 -0.0037685686084032522 -0.031875005046152365 0 -0.0017889718219101047 -0.029309743094887451 0 -0.0048728146833533804 -0.028344746778678653 0 -0.0046160518888214005 -0.027879308943670796 0 -0.0050815602867398061 -0.027840928198988122 0 -0.0049130076393138454 -0.027364569233021586 0 -0.0059384822238060797 -0.027507456692259437 0 -0.0049566472341293416 -0.026727694552733581 0 -0.0046160518888214005 -0.027879308943670796 0 -0.0050815602867398061 -0.027840928198988122 0 -0.0049130076393138454 -0.027364569233021586 0 -0.0050815602867398061 -0.027840928198988122 0 -0.0049130076393138454 -0.027364569233021586 0 -0.0059384822238060797 -0.027507456692259437 0 -0.0053355690468663694 -0.02823667777526518 0 -0.0050815602867398061 -0.027840928198988122 0 -0.0059384822238060797 -0.027507456692259437 0 -0.0043268731392582015 -0.027136435708553324 0 -0.0049130076393138454 -0.027364569233021586 0 -0.0049566472341293416 -0.026727694552733581 0 -0.0030175040036193946 -0.034122173612409372 0 -0.00087442291245343694 -0.034934556468853441 0 -0.001670288580781647 -0.032091044632777364 0 -0.0037685686084032522 -0.031875005046152365 0 0.00024491261378918242 -0.031642279335590329 0 -0.00087442291245343694 -0.034934556468853441 0 -0.001670288580781647 -0.032091044632777364 0 0.00038886184291852025 -0.03174342305481255 0 -0.001670288580781647 -0.032091044632777364 0 0.00038886184291852025 -0.03174342305481255 0 -0.00099797816474595999 -0.030716324838912203 0 -0.001670288580781647 -0.032091044632777364 0 -0.0023352688611071328 -0.03073529705791414 0 -0.00099797816474595999 -0.030716324838912203 0 -0.003321875610715553 -0.031643337550901464 0 -0.001670288580781647 -0.032091044632777364 0 -0.0023352688611071328 -0.03073529705791414 0 -0.0015465430812927148 -0.033821676360573448 0 0.0011982667832788115 -0.032142778353215759 0 2.7156063555759389e-05 -0.031113859303127312 0 0.0011982667832788115 -0.032142778353215759 0 2.7156063555759389e-05 -0.031113859303127312 0 0.0017916208774435419 -0.030295905634460035 0 2.7156063555759389e-05 -0.031113859303127312 0 0.0017916208774435419 -0.030295905634460035 0 0.0015629357067970129 -0.028407435189681241 0 0.00024491261378918242 -0.031642279335590329 0 0.0014884989022097858 -0.028682698302056647 0 0.00038886184291852025 -0.03174342305481255 0 -0.00036040025647344511 -0.029530471104630866 0 0.0015629357067970129 -0.028407435189681241 0 0.00038886184291852025 -0.03174342305481255 0 -0.00036040025647344511 -0.029530471104630866 0 -0.00099797816474595999 -0.030716324838912203 0 -0.00036040025647344511 -0.029530471104630866 0 0.0015629357067970129 -0.028407435189681241 0 -0.0011094050777524292 -0.027622308898557768 0 -0.0031909596029100207 -0.029689177820112943 0 -0.0023352688611071328 -0.03073529705791414 0 -0.0017825997760693695 -0.029230389064375951 0 -0.0023352688611071328 -0.03073529705791414 0 -0.00099797816474595999 -0.030716324838912203 0 -0.0017825997760693695 -0.029230389064375951 0 -0.00036040025647344511 -0.029530471104630866 0 -0.00099797816474595999 -0.030716324838912203 0 -0.0017825997760693695 -0.029230389064375951 0 -0.00036040025647344511 -0.029530471104630866 0 -0.0017825997760693695 -0.029230389064375951 0 -0.0011094050777524292 -0.027622308898557768 0 -0.0032321060565440756 -0.027235027216860764 0 -0.0011094050777524292 -0.027622308898557768 0 -0.001116031652030975 -0.024994633240773997 0 -0.0032321060565440756 -0.027235027216860764 0 -0.001116031652030975 -0.024994633240773997 0 -0.0026887223667854542 -0.024676007515744679 0 -0.0032321060565440756 -0.027235027216860764 0 -0.0017825997760693695 -0.029230389064375951 0 -0.0011094050777524292 -0.027622308898557768 0 0.0015629357067970129 -0.028407435189681241 0 -0.001116031652030975 -0.024994633240773997 0 0.003422688690223366 -0.027058211266369862 0 -0.0012388177943293346 -0.024742972240894674 0 0.0013080842819707258 -0.025329634740598243 0 0.0015629357067970129 -0.028407435189681241 0 -0.0011094050777524292 -0.027622308898557768 0 -0.001116031652030975 -0.024994633240773997 0 -0.0016415418030315022 -0.023004817201821334 0 -0.0016047355254340979 -0.022573209334787028 0 -0.0016610389467767773 -0.023548493420354377 0 -0.001116031652030975 -0.024994633240773997 0 -0.0016415418030315022 -0.023004817201821334 0 -0.0016610389467767773 -0.023548493420354377 0 0.0017916208774435419 -0.030295905634460035 0 0.0015629357067970129 -0.028407435189681241 0 0.0034100172447631178 -0.02891984008210309 0 0.0015629357067970129 -0.028407435189681241 0 0.003422688690223366 -0.027058211266369862 0 0.0034100172447631178 -0.02891984008210309 0 0.0017916208774435419 -0.030295905634460035 0 0.0034100172447631178 -0.02891984008210309 0 0.0040109308038223266 -0.030403428980320581 0 -0.0026698052393999 -0.02633357519802006 0 -0.003863141407066091 -0.025917624433199119 0 -0.0027150025520708276 -0.02514712396244001 0 0.003422688690223366 -0.027058211266369862 0 0.0034100172447631178 -0.02891984008210309 0 0.0067228170366633762 -0.028631036699778893 0 0.0001555179444647811 -0.02829662597108697 0 0.00026761497360809139 -0.024327342832136379 0 0.0034100172447631178 -0.02891984008210309 0 0.0040109308038223266 -0.030403428980320581 0 0.0067228170366633762 -0.028631036699778893 0 0.0013080842819707258 -0.025329634740598243 0 0.00026761497360809139 -0.024327342832136379 0 -0.0016415418030315022 -0.023004817201821334 0 -0.0014911716255938694 -0.022632513962024314 0 -0.0016047355254340979 -0.022573209334787028 0 -0.0016047355254340979 -0.022573209334787028 0 -0.0015850814656121965 -0.022472403709013294 0 -0.0016610389467767773 -0.023548493420354377 0 -0.0015850814656121965 -0.022472403709013294 0 -0.0021307403457504902 -0.023356068703768357 0 -0.0018217521360053114 -0.022366141927510089 0 -0.0015850814656121965 -0.022472403709013294 0 -0.0021307403457504902 -0.023356068703768357 0 -0.0016610389467767773 -0.023548493420354377 0 -0.0021307403457504902 -0.023356068703768357 0 -0.0016610389467767773 -0.023548493420354377 0 -0.0019787089150327514 -0.023961444005201657 0 -0.001116031652030975 -0.024994633240773997 0 -0.0016610389467767773 -0.023548493420354377 0 -0.0019787089150327514 -0.023961444005201657 0 -0.001116031652030975 -0.024994633240773997 0 -0.0026887223667854542 -0.024676007515744679 0 -0.0019787089150327514 -0.023961444005201657 0 -0.0026887223667854542 -0.024676007515744679 0 -0.0028221617051356626 -0.024015585352709989 0 -0.0019787089150327514 -0.023961444005201657 0 -0.0028221617051356626 -0.024015585352709989 0 -0.0019787089150327514 -0.023961444005201657 0 -0.002787226715311441 -0.023923413381462338 0 -0.0021307403457504902 -0.023356068703768357 0 -0.0019787089150327514 -0.023961444005201657 0 -0.002787226715311441 -0.023923413381462338 0 -0.0022426334145833966 -0.023421631305976798 0 -0.0030466307634580345 -0.023429979869429945 0 -0.0034148012941282303 -0.022883240953627038 0 -0.003330818525771283 -0.022701118931460554 0 -0.0024514495164848094 -0.022473918357962249 0 -0.0021307403457504902 -0.023356068703768357 0 -0.0034148012941282303 -0.022883240953627038 0 -0.0024514495164848094 -0.022473918357962249 0 -0.0028221617051356626 -0.024015585352709989 0 -0.002787226715311441 -0.023923413381462338 0 -0.0031643785361540073 -0.024250927637059209 0 -0.0030466307634580345 -0.023429979869429945 0 -0.0034207404551150678 -0.024012885720744229 0 -0.0034148012941282303 -0.022883240953627038 0 -0.0035187721312683034 -0.023080961745841094 0 -0.0037423053237376279 -0.023043902643461203 0 -0.0034148012941282303 -0.022883240953627038 0 -0.003330818525771283 -0.022701118931460554 0 -0.0037423053237376279 -0.023043902643461203 0 -0.0024514495164848094 -0.022473918357962249 0 -0.0022588784459993036 -0.02203830712462139 0 -0.0016306526703948549 -0.021776207340986512 0 -0.0024514495164848094 -0.022473918357962249 0 -0.0018217521360053114 -0.022366141927510089 0 -0.0016306526703948549 -0.021776207340986512 0 -0.0021307403457504902 -0.023356068703768357 0 -0.0024514495164848094 -0.022473918357962249 0 -0.0018217521360053114 -0.022366141927510089 0 -0.0018670055030783896 -0.024115647219672711 0 -0.0020821399857114562 -0.023688890947790746 0 -0.0022043567721284369 -0.023968655408702015 0 -0.0013286939728266339 -0.02423949293829632 0 -0.0018670055030783896 -0.024115647219672711 0 -0.001725700949999878 -0.024463990850626342 0 -0.0013286939728266339 -0.02423949293829632 0 -0.0018670055030783896 -0.024115647219672711 0 -0.0020821399857114562 -0.023688890947790746 0 -0.0059274950499585933 -0.041510489620130944 0 -0.0058519032151329838 -0.041831176747876675 0 -0.0058033596691264488 -0.041920228725126081 0 -0.0035716565759512302 -0.031396968377932641 0 -0.0037845115341841695 -0.033168352715256165 0 -0.0018670055030783896 -0.024115647219672711 0 -0.0021511482955731869 -0.024327176505230558 0 -0.001725700949999878 -0.024463990850626342 0 -0.0018670055030783896 -0.024115647219672711 0 -0.0022043567721284369 -0.023968655408702015 0 -0.0021511482955731869 -0.024327176505230558 0 -0.0059114086966914232 -0.041949599903882771 0 -0.0058519032151329838 -0.041831176747876675 0 -0.005858349075603001 -0.041993466073889846 0 -0.0058519032151329838 -0.041831176747876675 0 -0.005858349075603001 -0.041993466073889846 0 -0.0058033596691264488 -0.041920228725126081 0 -0.0058269561989134529 -0.042036740096313752 0 -0.005858349075603001 -0.041993466073889846 0 -0.0058033596691264488 -0.041920228725126081 0 -0.0020821399857114562 -0.023688890947790746 0 -0.002413098465869957 -0.023790254859872611 0 -0.0022043567721284369 -0.023968655408702015 0 -0.0026942183984892537 -0.023313490150875828 0 -0.0020821399857114562 -0.023688890947790746 0 -0.0025349301236912698 -0.023598446224896551 0 -0.0020821399857114562 -0.023688890947790746 0 -0.0025349301236912698 -0.023598446224896551 0 -0.002413098465869957 -0.023790254859872611 0 -0.0025349301236912698 -0.023598446224896551 0 -0.002413098465869957 -0.023790254859872611 0 -0.0027107506092682739 -0.02375314663432386 0 -0.002413098465869957 -0.023790254859872611 0 -0.0025645734299368549 -0.02400838254927171 0 -0.0027107506092682739 -0.02375314663432386 0 -0.0025645734299368549 -0.02400838254927171 0 -0.0028048019382365336 -0.024377807604017171 0 -0.0021511482955731869 -0.024327176505230558 0 -0.002413098465869957 -0.023790254859872611 0 -0.0025645734299368549 -0.02400838254927171 0 -0.0022043567721284369 -0.023968655408702015 0 -0.0025645734299368549 -0.02400838254927171 0 -0.0022043567721284369 -0.023968655408702015 0 -0.0021511482955731869 -0.024327176505230558 0 -0.0025645734299368549 -0.02400838254927171 0 -0.0033731655016576234 -0.024000157118632882 0 -0.0028048019382365336 -0.024377807604017171 0 -0.0025645734299368549 -0.02400838254927171 0 -0.0027107506092682739 -0.02375314663432386 0 -0.0033731655016576234 -0.024000157118632882 0 -0.0027107506092682739 -0.02375314663432386 0 -0.0029329483501144087 -0.023604898646568239 0 -0.0033731655016576234 -0.024000157118632882 0 -0.0036573046776078627 -0.023549918205787515 0 -0.0036819426983834965 -0.024452099543385699 0 -0.0025349301236912698 -0.023598446224896551 0 -0.0027107506092682739 -0.02375314663432386 0 -0.0029329483501144087 -0.023604898646568239 0 -0.0053049936078416928 -0.026926506038182054 0 -0.0050551828805151435 -0.025388477773369965 0 -0.0038587780174836601 -0.025819382536052562 0 -0.0050551828805151435 -0.025388477773369965 0 -0.0038587780174836601 -0.025819382536052562 0 -0.0033731655016576234 -0.024000157118632882 0 -0.0032321060565440756 -0.027235027216860764 0 -0.0026887223667854542 -0.024676007515744679 0 -0.0038587780174836601 -0.025819382536052562 0 -0.0026887223667854542 -0.024676007515744679 0 -0.0038587780174836601 -0.025819382536052562 0 -0.0033731655016576234 -0.024000157118632882 0 -0.0026887223667854542 -0.024676007515744679 0 -0.0028221617051356626 -0.024015585352709989 0 -0.0033731655016576234 -0.024000157118632882 0 -0.0028221617051356626 -0.024015585352709989 0 -0.0033731655016576234 -0.024000157118632882 0 -0.0031643785361540073 -0.024250927637059209 0 -0.0031643785361540073 -0.024250927637059209 0 -0.0033958154658613425 -0.024881249517822609 0 -0.0029671232716800698 -0.024793355722764594 0 -0.002787226715311441 -0.023923413381462338 0 -0.0031643785361540073 -0.024250927637059209 0 -0.0033958154658613425 -0.024881249517822609 0 -0.0029671232716800698 -0.024793355722764594 0 -0.0028048019382365336 -0.024377807604017171 0 -0.0023234161556199427 -0.025103472781346982 0 -0.0031643785361540073 -0.024250927637059209 0 -0.0029671232716800698 -0.024793355722764594 0 -0.0028048019382365336 -0.024377807604017171 0 -0.0033731655016576234 -0.024000157118632882 0 -0.0031643785361540073 -0.024250927637059209 0 -0.0028048019382365336 -0.024377807604017171 0 -0.0021511482955731869 -0.024327176505230558 0 -0.0023234161556199427 -0.025103472781346982 0 -0.0018747181516606511 -0.024718897113317935 0 -0.0028048019382365336 -0.024377807604017171 0 -0.0021511482955731869 -0.024327176505230558 0 -0.0023234161556199427 -0.025103472781346982 0 -0.0014039491109877334 -0.024977447476316174 0 -0.0023234161556199427 -0.025103472781346982 0 -0.0018747181516606511 -0.024718897113317935 0 -0.0014039491109877334 -0.024977447476316174 0 -0.0023234161556199427 -0.025103472781346982 0 -0.001465374678004222 -0.026188121201396915 0 -0.0014039491109877334 -0.024977447476316174 0 -0.0018747181516606511 -0.024718897113317935 0 -0.001725700949999878 -0.024463990850626342 0 -0.0021511482955731869 -0.024327176505230558 0 -0.0018747181516606511 -0.024718897113317935 0 -0.001725700949999878 -0.024463990850626342 0 -0.0021493815201229735 -0.027976352421991174 0 -0.0021679123962338744 -0.028219410301070263 0 -0.0029549823551453529 -0.028805436394484046 0 -0.002645040402341016 -0.029322044011408855 0 -0.0022075625949804028 -0.028354883157562464 0 -0.001465374678004222 -0.026188121201396915 0 -0.0023489871159619795 -0.026812271666343486 0 -0.0022075625949804028 -0.028354883157562464 0 -0.0018177693019589109 -0.026414943050515442 0 -0.0021493815201229735 -0.027976352421991174 0 -0.0023234161556199427 -0.025103472781346982 0 -0.001465374678004222 -0.026188121201396915 0 -0.0023489871159619795 -0.026812271666343486 0 -0.0023234161556199427 -0.025103472781346982 0 -0.0023489871159619795 -0.026812271666343486 0 -0.0031540167113755417 -0.026313488316026784 0 -0.0030794113773151255 -0.025221496218296831 0 -0.0024488910112875203 -0.027046446766876824 0 -0.0030478522619772743 -0.02405906822081055 0 -0.0029030537740614665 -0.025427679257037188 0 -0.0024922449155880596 -0.025782072424167139 0 -0.0023489871159619795 -0.026812271666343486 0 -0.0031540167113755417 -0.026313488316026784 0 -0.002200957756124089 -0.028334066524637071 0 -0.0023489871159619795 -0.026812271666343486 0 -0.002200957756124089 -0.028334066524637071 0 -0.0022075625949804028 -0.028354883157562464 0 -0.0030478522619772743 -0.02405906822081055 0 -0.0032069940698446144 -0.025229590212318645 0 -0.0029030537740614665 -0.025427679257037188 0 -0.0030478522619772743 -0.02405906822081055 0 -0.0035682708784624813 -0.024605963829661581 0 -0.0032069940698446144 -0.025229590212318645 0 -0.0034207404551150678 -0.024012885720744229 0 -0.0030794113773151255 -0.025221496218296831 0 -0.0033958154658613425 -0.024881249517822609 0 -0.0029671232716800698 -0.024793355722764594 0 -0.0031540167113755417 -0.026313488316026784 0 -0.0029671232716800698 -0.024793355722764594 0 -0.0023234161556199427 -0.025103472781346982 0 -0.0031540167113755417 -0.026313488316026784 0 -0.0035187721312683034 -0.023080961745841094 0 -0.0030478522619772743 -0.02405906822081055 0 -0.0037279795930648188 -0.023727793657553228 0 -0.0035682708784624813 -0.024605963829661581 0 -0.0037279795930648188 -0.023727793657553228 0 -0.004007368883988058 -0.024269353803830395 0 -0.0030478522619772743 -0.02405906822081055 0 -0.0035682708784624813 -0.024605963829661581 0 -0.0037279795930648188 -0.023727793657553228 0 -0.0035682708784624813 -0.024605963829661581 0 -0.0037369861222957628 -0.024961785518698477 0 -0.004007368883988058 -0.024269353803830395 0 -0.0035682708784624813 -0.024605963829661581 0 -0.0034775998610742896 -0.025324729416482724 0 -0.0037369861222957628 -0.024961785518698477 0 -0.0034775998610742896 -0.025324729416482724 0 -0.0037369861222957628 -0.024961785518698477 0 -0.003659546752257054 -0.025553213615636998 0 -0.0037369861222957628 -0.024961785518698477 0 -0.003659546752257054 -0.025553213615636998 0 -0.0039712212804595519 -0.025304244757225688 0 -0.0037617513711495428 -0.025882402653664757 0 -0.003659546752257054 -0.025553213615636998 0 -0.0039712212804595519 -0.025304244757225688 0 -0.0037617513711495428 -0.025882402653664757 0 -0.0039369728388478501 -0.025823789868863172 0 -0.0039712212804595519 -0.025304244757225688 0 -0.0037617513711495428 -0.025882402653664757 0 -0.0036197289958898198 -0.026319632223488716 0 -0.0038392938142683113 -0.026209075464340877 0 -0.0037617513711495428 -0.025882402653664757 0 -0.0039369728388478501 -0.025823789868863172 0 -0.0038392938142683113 -0.026209075464340877 0 -0.0036197289958898198 -0.026319632223488716 0 -0.0035781755200129423 -0.025990236548190594 0 -0.0034180270855763708 -0.026326018647425398 0 -0.0037617513711495428 -0.025882402653664757 0 -0.0036197289958898198 -0.026319632223488716 0 -0.0035781755200129423 -0.025990236548190594 0 -0.0037617513711495428 -0.025882402653664757 0 -0.0035781755200129423 -0.025990236548190594 0 -0.003659546752257054 -0.025553213615636998 0 -0.0034775998610742896 -0.025324729416482724 0 -0.003659546752257054 -0.025553213615636998 0 -0.0034488112711448349 -0.025866195622531261 0 -0.0035781755200129423 -0.025990236548190594 0 -0.003659546752257054 -0.025553213615636998 0 -0.0034488112711448349 -0.025866195622531261 0 -0.0034775998610742896 -0.025324729416482724 0 -0.0034488112711448349 -0.025866195622531261 0 -0.0032681375727296011 -0.025826602979357408 0 -0.0033203984442955964 -0.02613636559139746 0 -0.0034488112711448349 -0.025866195622531261 0 -0.0032681375727296011 -0.025826602979357408 0 -0.0033203984442955964 -0.02613636559139746 0 -0.0034488112711448349 -0.025866195622531261 0 -0.0034180270855763708 -0.026326018647425398 0 -0.0034180270855763708 -0.026326018647425398 0 -0.0032610134059930934 -0.026833313788947877 0 -0.0034621012923053817 -0.026667232278304306 0 -0.0035781755200129423 -0.025990236548190594 0 -0.0034488112711448349 -0.025866195622531261 0 -0.0034180270855763708 -0.026326018647425398 0 -0.0033203984442955964 -0.02613636559139746 0 -0.0034180270855763708 -0.026326018647425398 0 -0.0032539976322598901 -0.026466363595288981 0 -0.0036197289958898198 -0.026319632223488716 0 -0.0034180270855763708 -0.026326018647425398 0 -0.0034621012923053817 -0.026667232278304306 0 -0.0031339503605373226 -0.026704571401024845 0 -0.0031107552113848005 -0.027087082740243514 0 -0.0032610134059930934 -0.026833313788947877 0 -0.0032539976322598901 -0.026466363595288981 0 -0.0031339503605373226 -0.026704571401024845 0 -0.0032610134059930934 -0.026833313788947877 0 -0.0034180270855763708 -0.026326018647425398 0 -0.0032539976322598901 -0.026466363595288981 0 -0.0032610134059930934 -0.026833313788947877 0 -0.0032539976322598901 -0.026466363595288981 0 -0.00316835728744612 -0.02630987161811553 0 -0.0031339503605373226 -0.026704571401024845 0 -0.00316835728744612 -0.02630987161811553 0 -0.0032681375727296011 -0.025826602979357408 0 -0.0029946649539139138 -0.02611702904241971 0 -0.0033203984442955964 -0.02613636559139746 0 -0.0032539976322598901 -0.026466363595288981 0 -0.00316835728744612 -0.02630987161811553 0 -0.0033203984442955964 -0.02613636559139746 0 -0.00316835728744612 -0.02630987161811553 0 -0.0032681375727296011 -0.025826602979357408 0 -0.0032681375727296011 -0.025826602979357408 0 -0.0032069940698446144 -0.025229590212318645 0 -0.0029946649539139138 -0.02611702904241971 0 -0.0034775998610742896 -0.025324729416482724 0 -0.0032681375727296011 -0.025826602979357408 0 -0.0032069940698446144 -0.025229590212318645 0 -0.0035682708784624813 -0.024605963829661581 0 -0.0034775998610742896 -0.025324729416482724 0 -0.0032069940698446144 -0.025229590212318645 0 -0.0032069940698446144 -0.025229590212318645 0 -0.0029030537740614665 -0.025427679257037188 0 -0.0029946649539139138 -0.02611702904241971 0 -0.0029030537740614665 -0.025427679257037188 0 -0.0024922449155880596 -0.025782072424167139 0 -0.0028169517766184287 -0.025949921027113396 0 -0.0024922449155880596 -0.025782072424167139 0 -0.0028195322423171494 -0.026428213456237058 0 -0.0028095260100723957 -0.027118572039383143 0 -0.0024922449155880596 -0.025782072424167139 0 -0.0028195322423171494 -0.026428213456237058 0 -0.0028169517766184287 -0.025949921027113396 0 -0.0028195322423171494 -0.026428213456237058 0 -0.0029946649539139138 -0.02611702904241971 0 -0.0029372268991958643 -0.026541216746502495 0 -0.0028195322423171494 -0.026428213456237058 0 -0.0028169517766184287 -0.025949921027113396 0 -0.0029946649539139138 -0.02611702904241971 0 -0.0029030537740614665 -0.025427679257037188 0 -0.0028169517766184287 -0.025949921027113396 0 -0.0029946649539139138 -0.02611702904241971 0 -0.00316835728744612 -0.02630987161811553 0 -0.0029946649539139138 -0.02611702904241971 0 -0.0030305970988313479 -0.026607832400821249 0 -0.0029946649539139138 -0.02611702904241971 0 -0.0029372268991958643 -0.026541216746502495 0 -0.0030305970988313479 -0.026607832400821249 0 -0.00316835728744612 -0.02630987161811553 0 -0.0030305970988313479 -0.026607832400821249 0 -0.0031339503605373226 -0.026704571401024845 0 -0.0030305970988313479 -0.026607832400821249 0 -0.0031339503605373226 -0.026704571401024845 0 -0.0030166442966218206 -0.027025293423556557 0 -0.0031339503605373226 -0.026704571401024845 0 -0.0030166442966218206 -0.027025293423556557 0 -0.0031107552113848005 -0.027087082740243514 0 -0.0030166442966218206 -0.027025293423556557 0 -0.0029930533204679814 -0.027511222469366926 0 -0.0031107552113848005 -0.027087082740243514 0 -0.0030166442966218206 -0.027025293423556557 0 -0.0029109545809941685 -0.026998689133448606 0 -0.0029930533204679814 -0.027511222469366926 0 -0.0028195322423171494 -0.026428213456237058 0 -0.0029109545809941685 -0.026998689133448606 0 -0.0028095260100723957 -0.027118572039383143 0 -0.0030305970988313479 -0.026607832400821249 0 -0.0030166442966218206 -0.027025293423556557 0 -0.0029109545809941685 -0.026998689133448606 0 -0.0028195322423171494 -0.026428213456237058 0 -0.0029372268991958643 -0.026541216746502495 0 -0.0029109545809941685 -0.026998689133448606 0 -0.0029372268991958643 -0.026541216746502495 0 -0.0030305970988313479 -0.026607832400821249 0 -0.0029109545809941685 -0.026998689133448606 0 -0.0029109545809941685 -0.026998689133448606 0 -0.0029349452197239161 -0.027818486207491559 0 -0.0029930533204679814 -0.027511222469366926 0 -0.0029109545809941685 -0.026998689133448606 0 -0.0028095260100723957 -0.027118572039383143 0 -0.0029349452197239161 -0.027818486207491559 0 -0.0029579322365619934 -0.028204387618373673 0 -0.0028095260100723957 -0.027118572039383143 0 -0.0029349452197239161 -0.027818486207491559 0 -0.0029579322365619934 -0.028204387618373673 0 -0.0024922449155880596 -0.025782072424167139 0 -0.0028095260100723957 -0.027118572039383143 0 -0.0029549823551453529 -0.028805436394484046 0 -0.0029579322365619934 -0.028204387618373673 0 -0.0022075625949804028 -0.028354883157562464 0 -0.0029579322365619934 -0.028204387618373673 0 -0.002200957756124089 -0.028334066524637071 0 -0.0022075625949804028 -0.028354883157562464 0 -0.0028663792050118578 -0.027974768949864184 0 -0.0024488910112875203 -0.027046446766876824 0 -0.0037072149064955209 -0.022559765078452577 0 -0.0041454442089974937 -0.023401158690064757 0 -0.0043171895559293676 -0.023237889497381457 0 -0.0042529415489819299 -0.023395976066199468 0 -0.0037072149064955209 -0.022559765078452577 0 -0.0043171895559293676 -0.023237889497381457 0 -0.0032574190997460657 -0.022484088178069274 0 -0.0036329098580641477 -0.022491583162843217 0 -0.0023948047983503285 -0.021316130598406091 0 -0.0022588784459993036 -0.02203830712462139 0 -0.0037072149064955209 -0.022559765078452577 0 -0.0023948047983503285 -0.021316130598406091 0 -0.0022588784459993036 -0.02203830712462139 0 -0.0019181598370024476 -0.021435671445592767 0 -0.0024514495164848094 -0.022473918357962249 0 -0.0022588784459993036 -0.02203830712462139 0 -0.0037072149064955209 -0.022559765078452577 0 -0.003330818525771283 -0.022701118931460554 0 -0.0024514495164848094 -0.022473918357962249 0 -0.0037072149064955209 -0.022559765078452577 0 -0.003330818525771283 -0.022701118931460554 0 -0.0037072149064955209 -0.022559765078452577 0 -0.0037423053237376279 -0.023043902643461203 0 -0.0035187721312683034 -0.023080961745841094 0 -0.0037423053237376279 -0.023043902643461203 0 -0.0037279795930648188 -0.023727793657553228 0 -0.0037279795930648188 -0.023727793657553228 0 -0.0041454442089974937 -0.023401158690064757 0 -0.004007368883988058 -0.024269353803830395 0 -0.0037423053237376279 -0.023043902643461203 0 -0.0037279795930648188 -0.023727793657553228 0 -0.0041454442089974937 -0.023401158690064757 0 -0.0037072149064955209 -0.022559765078452577 0 -0.0037423053237376279 -0.023043902643461203 0 -0.0041454442089974937 -0.023401158690064757 0 -0.0041454442089974937 -0.023401158690064757 0 -0.0043652123673581173 -0.023807079063199975 0 -0.004007368883988058 -0.024269353803830395 0 -0.0041454442089974937 -0.023401158690064757 0 -0.0043652123673581173 -0.023807079063199975 0 -0.0048605482633415987 -0.023514659433602418 0 -0.0041454442089974937 -0.023401158690064757 0 -0.0048605482633415987 -0.023514659433602418 0 -0.0043171895559293676 -0.023237889497381457 0 -0.0043652123673581173 -0.023807079063199975 0 -0.004007368883988058 -0.024269353803830395 0 -0.0042610944341527476 -0.024770814652300396 0 -0.0037369861222957628 -0.024961785518698477 0 -0.004007368883988058 -0.024269353803830395 0 -0.0039712212804595519 -0.025304244757225688 0 -0.004007368883988058 -0.024269353803830395 0 -0.0039712212804595519 -0.025304244757225688 0 -0.0042610944341527476 -0.024770814652300396 0 -0.0039712212804595519 -0.025304244757225688 0 -0.0042610944341527476 -0.024770814652300396 0 -0.0043152762877366373 -0.025428579571489435 0 -0.0042610944341527476 -0.024770814652300396 0 -0.0043152762877366373 -0.025428579571489435 0 -0.0048612259567297634 -0.025313421930635394 0 -0.0043152762877366373 -0.025428579571489435 0 -0.0048612259567297634 -0.025313421930635394 0 -0.0044552943518383278 -0.025892855925828358 0 -0.0043152762877366373 -0.025428579571489435 0 -0.004169226292100159 -0.025902171247866611 0 -0.0044552943518383278 -0.025892855925828358 0 -0.0039712212804595519 -0.025304244757225688 0 -0.0043152762877366373 -0.025428579571489435 0 -0.004169226292100159 -0.025902171247866611 0 -0.0039369728388478501 -0.025823789868863172 0 -0.0039712212804595519 -0.025304244757225688 0 -0.004169226292100159 -0.025902171247866611 0 -0.0043652123673581173 -0.023807079063199975 0 -0.0048605482633415987 -0.023514659433602418 0 -0.0048612259567297634 -0.025313421930635394 0 -0.0043652123673581173 -0.023807079063199975 0 -0.0042610944341527476 -0.024770814652300396 0 -0.0048612259567297634 -0.025313421930635394 0 -0.0048605482633415987 -0.023514659433602418 0 -0.0054717031178670049 -0.022703769170507225 0 -0.00487607328034949 -0.02246718783232984 0 -0.0050343547750299669 -0.023583117859995825 0 -0.0048881085290180051 -0.024381105568398977 0 -0.0045803606623800522 -0.021945028778910847 0 -0.006391420409681282 -0.02090672696797484 0 -0.0048605482633415987 -0.023514659433602418 0 -0.0046356805400128449 -0.021892357610020813 0 -0.00487607328034949 -0.02246718783232984 0 -0.0048605482633415987 -0.023514659433602418 0 -0.0043171895559293676 -0.023237889497381457 0 -0.0043477703147830615 -0.022913425863725398 0 -0.0048605482633415987 -0.023514659433602418 0 -0.0043477703147830615 -0.022913425863725398 0 -0.0046356805400128449 -0.021892357610020813 0 -0.0042529415489819299 -0.023395976066199468 0 -0.0043171895559293676 -0.023237889497381457 0 -0.0043477703147830615 -0.022913425863725398 0 -0.0042529415489819299 -0.023395976066199468 0 -0.0043477703147830615 -0.022913425863725398 0 -0.0034532264979048803 -0.022800332306865775 0 -0.0043477703147830615 -0.022913425863725398 0 -0.0033168934964550117 -0.022053339508879305 0 -0.0034532264979048803 -0.022800332306865775 0 -0.0043477703147830615 -0.022913425863725398 0 -0.0046356805400128449 -0.021892357610020813 0 -0.0033168934964550117 -0.022053339508879305 0 -0.0046356805400128449 -0.021892357610020813 0 -0.0033168934964550117 -0.022053339508879305 0 -0.0038997532091481204 -0.020255098469763672 0 -0.0033168934964550117 -0.022053339508879305 0 -0.0025172783285342484 -0.021307465678315152 0 -0.0038997532091481204 -0.020255098469763672 0 -0.0025172783285342484 -0.021307465678315152 0 -0.002064818119356944 -0.020428437930251547 0 -0.0038997532091481204 -0.020255098469763672 0 -0.0033168934964550117 -0.022053339508879305 0 -0.0023343462094559341 -0.021877230279085821 0 -0.0026882969718778358 -0.022421183865829853 0 -0.0033168934964550117 -0.022053339508879305 0 -0.0023343462094559341 -0.021877230279085821 0 -0.0025172783285342484 -0.021307465678315152 0 -0.0023343462094559341 -0.021877230279085821 0 -0.0025172783285342484 -0.021307465678315152 0 -0.0018916204699262011 -0.021427252566556386 0 -0.0025172783285342484 -0.021307465678315152 0 -0.0018916204699262011 -0.021427252566556386 0 -0.002064818119356944 -0.020428437930251547 0 -0.0056474295886769967 -0.015722403895514547 0 -0.0047956715870995301 -0.016366763186976031 0 -0.004749834715117451 -0.016153079371561657 0 -0.0053622006594896349 -0.015573045998382141 0 -0.0056474295886769967 -0.015722403895514547 0 -0.004749834715117451 -0.016153079371561657 0 -0.0075097724564991601 -0.014132845859339261 0 -0.0038845872805053998 -0.017037066447712138 0 -0.0043009823534128624 -0.018113658343513323 0 -0.0032495042107313801 -0.018468571271925128 0 -0.0018916204699262011 -0.021427252566556386 0 -0.00061972108718976566 -0.022237482634672286 0 -0.002064818119356944 -0.020428437930251547 0 -0.0051225199539743724 -0.01584810842590792 0 -0.0049938169577406974 -0.01615366455370703 0 -0.0047956715870995301 -0.016366763186976031 0 -0.0018916204699262011 -0.021427252566556386 0 -0.0017106871158287674 -0.021952686638360936 0 -0.00061972108718976566 -0.022237482634672286 0 -0.0023343462094559341 -0.021877230279085821 0 -0.0018916204699262011 -0.021427252566556386 0 -0.0017106871158287674 -0.021952686638360936 0 -0.0023343462094559341 -0.021877230279085821 0 -0.0017106871158287674 -0.021952686638360936 0 -0.0019987584722618705 -0.022448872766382244 0 -0.0019987584722618705 -0.022448872766382244 0 -0.00061972108718976566 -0.022237482634672286 0 -0.0021835313332924334 -0.023076404309423208 0 -0.0017106871158287674 -0.021952686638360936 0 -0.0019987584722618705 -0.022448872766382244 0 -0.00061972108718976566 -0.022237482634672286 0 -0.0022908808279552598 -0.020916115509267013 0 -0.0025016308665863516 -0.01989555355715451 0 -0.0037309075847661547 -0.019442622200241722 0 -0.0025385415418614251 -0.018793572553146502 0 -0.004152893649813685 -0.018124563027118727 0 -0.0043009823534128624 -0.018113658343513323 0 -0.0022908808279552598 -0.020916115509267013 0 -0.0042529415489819299 -0.023395976066199468 0 -0.0022860522258308113 -0.023068213334209324 0 -0.0024628132264845476 -0.022976333362652607 0 -0.0042529415489819299 -0.023395976066199468 0 -0.0034532264979048803 -0.022800332306865775 0 -0.0024628132264845476 -0.022976333362652607 0 -0.0032574190997460657 -0.022484088178069274 0 -0.0022908808279552598 -0.020916115509267013 0 -0.0022908808279552598 -0.020916115509267013 0 -0.0022193754760241793 -0.021042168561458702 0 -0.0033168934964550117 -0.022053339508879305 0 -0.0034532264979048803 -0.022800332306865775 0 -0.0026882969718778358 -0.022421183865829853 0 -0.0034532264979048803 -0.022800332306865775 0 -0.0026882969718778358 -0.022421183865829853 0 -0.0024628132264845476 -0.022976333362652607 0 -0.0023343462094559341 -0.021877230279085821 0 -0.0019987584722618705 -0.022448872766382244 0 -0.0026882969718778358 -0.022421183865829853 0 -0.0019987584722618705 -0.022448872766382244 0 -0.0021835313332924334 -0.023076404309423208 0 -0.0024628132264845476 -0.022976333362652607 0 -0.0019987584722618705 -0.022448872766382244 0 -0.0026882969718778358 -0.022421183865829853 0 -0.0024628132264845476 -0.022976333362652607 0 -0.013450091153223313 -0.0096965934219589763 0 -0.012843555416694255 -0.009659288252791479 0 -0.012511908363894268 -0.0090764437830923271 0 -0.013354115442405471 -0.0099119847603321952 0 -0.013308005624014962 -0.010156958917389753 0 -0.013892178684208351 -0.0099831717245359303 0 -0.013039643112639551 -0.0098933681391383879 0 -0.012978043622475217 -0.010215069543476877 0 -0.012680033674679472 -0.010152199530589269 0 -0.013039643112639551 -0.0098933681391383879 0 -0.013308005624014962 -0.010156958917389753 0 -0.012978043622475217 -0.010215069543476877 0 -0.013039643112639551 -0.0098933681391383879 0 -0.013354115442405471 -0.0099119847603321952 0 -0.013308005624014962 -0.010156958917389753 0 -0.013039643112639551 -0.0098933681391383879 0 -0.013450091153223313 -0.0096965934219589763 0 -0.012843555416694255 -0.009659288252791479 0 -0.011772326348739265 -0.011535677650400231 0 -0.012563103939425285 -0.010339383056713452 0 -0.013039643112639551 -0.0098933681391383879 0 -0.013450091153223313 -0.0096965934219589763 0 -0.013354115442405471 -0.0099119847603321952 0 -0.011772326348739265 -0.011535677650400231 0 -0.0075097724564991601 -0.014132845859339261 0 -0.013437745131794784 -0.0097430249406654304 0 -0.013354115442405471 -0.0099119847603321952 0 -0.013892178684208351 -0.0099831717245359303 0 -0.0053254132815428101 -0.015976601529133109 0 -0.0051225199539743724 -0.01584810842590792 0 -0.0051352305653499233 -0.016067278898116263 0 -0.0051225199539743724 -0.01584810842590792 0 -0.0051352305653499233 -0.016067278898116263 0 -0.0049938169577406974 -0.01615366455370703 0 -0.0043009823534128624 -0.018113658343513323 0 -0.0075097724564991601 -0.014132845859339261 0 -0.0075526714430377631 -0.015468603114079596 0 -0.0079433377168968526 -0.014169785312672148 0 -0.0092160884941628451 -0.0142146741731627 0 -0.0069356715544956603 -0.015139432278744137 0 -0.0075526714430377631 -0.015468603114079596 0 -0.0079433377168968526 -0.014169785312672148 0 -0.0037309075847661547 -0.019442622200241722 0 -0.004751210370822526 -0.018451233223461351 0 -0.004152893649813685 -0.018124563027118727 0 -0.0043009823534128624 -0.018113658343513323 0 -0.0068431615986107135 -0.015833157931965332 0 -0.013308005624014962 -0.010156958917389753 0 -0.013892178684208351 -0.0099831717245359303 0 -0.013194623254943598 -0.010808707643852488 0 -0.0075097724564991601 -0.014132845859339261 0 -0.011839219980775315 -0.012137421288570949 0 -0.013194623254943598 -0.010808707643852488 0 -0.012978043622475217 -0.010215069543476877 0 -0.012791840989599779 -0.010413744760269883 0 -0.013308005624014962 -0.010156958917389753 0 -0.013194623254943598 -0.010808707643852488 0 -0.012978043622475217 -0.010215069543476877 0 -0.0092160884941628451 -0.0142146741731627 0 -0.0088797742490909267 -0.013308879100465928 0 -0.010272632007898807 -0.01284278096652095 0 -0.0079433377168968526 -0.014169785312672148 0 -0.0092160884941628451 -0.0142146741731627 0 -0.0088797742490909267 -0.013308879100465928 0 -0.0017786222346994128 -0.021393978123549762 0 -0.001725533879184575 -0.021238880717403284 0 -0.0019944978718513815 -0.021258000839259755 0 -0.0068431615986107135 -0.015833157931965332 0 -0.0053990541350319391 -0.017386399884796296 0 -0.0053990541350319391 -0.017386399884796296 0 -0.0025016308665863516 -0.01989555355715451 0 -0.004751210370822526 -0.018451233223461351 0 -0.0057701683821957941 -0.017467914417875659 0 -0.004152893649813685 -0.018124563027118727 0 -0.0015292346342229708 -0.021340905039783638 0 -0.0015598457852502041 -0.021259463944449893 0 -0.0015335792106758884 -0.021406335258150604 0 -0.0017786222346994128 -0.021393978123549762 0 -0.0015292346342229708 -0.021340905039783638 0 -0.0015598457852502041 -0.021259463944449893 0 -0.0015598457852502041 -0.021259463944449893 0 -0.0015335792106758884 -0.021406335258150604 0 -0.0014193397095950504 -0.021172307640341916 0 -0.0015598457852502041 -0.021259463944449893 0 -0.0014193397095950504 -0.021172307640341916 0 -0.0016650567350678254 -0.020893049747596017 0 -0.0017786222346994128 -0.021393978123549762 0 -0.0015598457852502041 -0.021259463944449893 0 -0.001725533879184575 -0.021238880717403284 0 -0.0015598457852502041 -0.021259463944449893 0 -0.001725533879184575 -0.021238880717403284 0 -0.0016650567350678254 -0.020893049747596017 0 -0.001725533879184575 -0.021238880717403284 0 -0.0020009888299057587 -0.021143000375962541 0 -0.0016650567350678254 -0.020893049747596017 0 -0.0020009888299057587 -0.021143000375962541 0 -0.0016650567350678254 -0.020893049747596017 0 -0.0021815847379640777 -0.02101723166535862 0 -0.001725533879184575 -0.021238880717403284 0 -0.0020009888299057587 -0.021143000375962541 0 -0.0019944978718513815 -0.021258000839259755 0 -0.0017561661632752585 -0.021090095884372721 0 -0.0019181598370024476 -0.021435671445592767 0 -0.0016539960013318108 -0.021406418111492066 0 -0.0023948047983503285 -0.021316130598406091 0 -0.0017561661632752585 -0.021090095884372721 0 -0.0019181598370024476 -0.021435671445592767 0 -0.0019181598370024476 -0.021435671445592767 0 -0.0016539960013318108 -0.021406418111492066 0 -0.0017548997762901772 -0.02162601612867434 0 -0.0015292346342229708 -0.021340905039783638 0 -0.0016539960013318108 -0.021406418111492066 0 -0.0015335792106758884 -0.021406335258150604 0 -0.0017561661632752585 -0.021090095884372721 0 -0.0015292346342229708 -0.021340905039783638 0 -0.0016539960013318108 -0.021406418111492066 0 -0.0015335792106758884 -0.021406335258150604 0 -0.0017548997762901772 -0.02162601612867434 0 -0.0016306526703948549 -0.021776207340986512 0 -0.0016539960013318108 -0.021406418111492066 0 -0.0015335792106758884 -0.021406335258150604 0 -0.0017548997762901772 -0.02162601612867434 0 -0.0022588784459993036 -0.02203830712462139 0 -0.0019181598370024476 -0.021435671445592767 0 -0.0017548997762901772 -0.02162601612867434 0 -0.0022588784459993036 -0.02203830712462139 0 -0.0017548997762901772 -0.02162601612867434 0 -0.0016306526703948549 -0.021776207340986512 0 -0.0018217521360053114 -0.022366141927510089 0 -0.0016306526703948549 -0.021776207340986512 0 -0.0013614644129138094 -0.021647022866831619 0 -0.0016306526703948549 -0.021776207340986512 0 -0.0013633357969751033 -0.021323238203118211 0 -0.0013614644129138094 -0.021647022866831619 0 -0.0016306526703948549 -0.021776207340986512 0 -0.0013633357969751033 -0.021323238203118211 0 -0.0014193397095950504 -0.021172307640341916 0 -0.0015335792106758884 -0.021406335258150604 0 -0.0016306526703948549 -0.021776207340986512 0 -0.0014193397095950504 -0.021172307640341916 0 -0.0014193397095950504 -0.021172307640341916 0 -0.0016650567350678254 -0.020893049747596017 0 -0.0015054310217998421 -0.02072984438836906 0 -0.0016650567350678254 -0.020893049747596017 0 -0.0015054310217998421 -0.02072984438836906 0 -0.0016974918115705158 -0.020635582824626558 0 -0.0015054310217998421 -0.02072984438836906 0 -0.0016042306414510946 -0.020424609845354193 0 -0.0016974918115705158 -0.020635582824626558 0 -0.0015054310217998421 -0.02072984438836906 0 -0.0014298016294314168 -0.020394805925917778 0 -0.0016042306414510946 -0.020424609845354193 0 -0.0015054310217998421 -0.02072984438836906 0 -0.0014298016294314168 -0.020394805925917778 0 -0.0012933434839941084 -0.020792116326241533 0 -0.0014193397095950504 -0.021172307640341916 0 -0.0015054310217998421 -0.02072984438836906 0 -0.0012933434839941084 -0.020792116326241533 0 -0.0013633357969751033 -0.021323238203118211 0 -0.0014193397095950504 -0.021172307640341916 0 -0.0012933434839941084 -0.020792116326241533 0 -0.0013633357969751033 -0.021323238203118211 0 -0.0012933434839941084 -0.020792116326241533 0 -0.0011126295446796811 -0.020690240065596728 0 -0.0012933434839941084 -0.020792116326241533 0 -0.0011126295446796811 -0.020690240065596728 0 -0.0012433112039885229 -0.020340707839979759 0 -0.0011126295446796811 -0.020690240065596728 0 -0.0012433112039885229 -0.020340707839979759 0 -0.0011197716163998484 -0.019889888618438108 0 -0.0014298016294314168 -0.020394805925917778 0 -0.0012433112039885229 -0.020340707839979759 0 -0.0014015402804056704 -0.019920712166817504 0 -0.0014298016294314168 -0.020394805925917778 0 -0.0012933434839941084 -0.020792116326241533 0 -0.0012433112039885229 -0.020340707839979759 0 -0.0012433112039885229 -0.020340707839979759 0 -0.0011197716163998484 -0.019889888618438108 0 -0.0014015402804056704 -0.019920712166817504 0 -0.0011197716163998484 -0.019889888618438108 0 -0.001360575966540442 -0.019251722101116069 0 -0.0014015402804056704 -0.019920712166817504 0 -0.0011197716163998484 -0.019889888618438108 0 -0.00096881631495607202 -0.019397457568502741 0 -0.00095000484428986258 -0.020053410785412045 0 -0.0011197716163998484 -0.019889888618438108 0 -0.00096881631495607202 -0.019397457568502741 0 -0.001360575966540442 -0.019251722101116069 0 -0.0011126295446796811 -0.020690240065596728 0 -0.0011197716163998484 -0.019889888618438108 0 -0.00095000484428986258 -0.020053410785412045 0 -0.00098390920643721459 -0.021014737258390724 0 -0.0011126295446796811 -0.020690240065596728 0 -0.00095000484428986258 -0.020053410785412045 0 -0.00098390920643721459 -0.021014737258390724 0 -0.0011126295446796811 -0.020690240065596728 0 -0.0013614644129138094 -0.021647022866831619 0 -0.00098390920643721459 -0.021014737258390724 0 -0.0015850814656121965 -0.022472403709013294 0 -0.0013614644129138094 -0.021647022866831619 0 -0.00098390920643721459 -0.021014737258390724 0 -0.0016047355254340979 -0.022573209334787028 0 -0.0015850814656121965 -0.022472403709013294 0 -0.0015850814656121965 -0.022472403709013294 0 -0.0018217521360053114 -0.022366141927510089 0 -0.0013614644129138094 -0.021647022866831619 0 -0.0013633357969751033 -0.021323238203118211 0 -0.0011126295446796811 -0.020690240065596728 0 -0.0013614644129138094 -0.021647022866831619 0 -0.0024021247348972423 -0.018783758509424448 0 -0.0028590651005136383 -0.019012353752732768 0 -0.0031565862827173403 -0.018120430097223691 0 -0.0024021247348972423 -0.018783758509424448 0 -0.0023740604063962789 -0.019298200068879352 0 -0.0028590651005136383 -0.019012353752732768 0 -0.0028590651005136383 -0.019012353752732768 0 -0.003501097428975637 -0.01850156476922879 0 -0.0031565862827173403 -0.018120430097223691 0 -0.003501097428975637 -0.01850156476922879 0 -0.0036691186523284194 -0.017985909273981856 0 -0.0031565862827173403 -0.018120430097223691 0 -0.0039286662006792197 -0.017341672359358573 0 -0.003603580727293641 -0.016914670553700169 0 -0.0031565862827173403 -0.018120430097223691 0 -0.0039286662006792197 -0.017341672359358573 0 -0.0036691186523284194 -0.017985909273981856 0 -0.0031565862827173403 -0.018120430097223691 0 -0.003603580727293641 -0.016914670553700169 0 -0.002900618596481139 -0.017480262163340549 0 -0.0031565862827173403 -0.018120430097223691 0 -0.002900618596481139 -0.017480262163340549 0 -0.0031565862827173403 -0.018120430097223691 0 -0.0026825887382077767 -0.018137536678844633 0 -0.002900618596481139 -0.017480262163340549 0 -0.0026825887382077767 -0.018137536678844633 0 -0.0022855045739775893 -0.018150167468210195 0 -0.0024021247348972423 -0.018783758509424448 0 -0.0031565862827173403 -0.018120430097223691 0 -0.0026825887382077767 -0.018137536678844633 0 -0.0024021247348972423 -0.018783758509424448 0 -0.0026825887382077767 -0.018137536678844633 0 -0.0022855045739775893 -0.018150167468210195 0 -0.0016809747351867947 -0.018128022532718207 0 -0.0022855045739775893 -0.018150167468210195 0 -0.0018970373083581646 -0.018909578429711454 0 -0.0024021247348972423 -0.018783758509424448 0 -0.0022855045739775893 -0.018150167468210195 0 -0.0018970373083581646 -0.018909578429711454 0 -0.0016809747351867947 -0.018128022532718207 0 -0.0018970373083581646 -0.018909578429711454 0 -0.001360575966540442 -0.019251722101116069 0 -0.0010997021074512423 -0.018690288026616392 0 -0.00096881631495607202 -0.019397457568502741 0 -0.001360575966540442 -0.019251722101116069 0 -0.0018970373083581646 -0.018909578429711454 0 -0.001360575966540442 -0.019251722101116069 0 -0.001703453647438264 -0.019567440557107237 0 -0.001360575966540442 -0.019251722101116069 0 -0.0014015402804056704 -0.019920712166817504 0 -0.001703453647438264 -0.019567440557107237 0 -0.001703453647438264 -0.019567440557107237 0 -0.002010428271906394 -0.019707563874276704 0 -0.00164010594152205 -0.020063085882844531 0 -0.0014015402804056704 -0.019920712166817504 0 -0.001703453647438264 -0.019567440557107237 0 -0.00164010594152205 -0.020063085882844531 0 -0.0014298016294314168 -0.020394805925917778 0 -0.0014015402804056704 -0.019920712166817504 0 -0.00164010594152205 -0.020063085882844531 0 -0.0024021247348972423 -0.018783758509424448 0 -0.0018970373083581646 -0.018909578429711454 0 -0.0020347031125365349 -0.019274980000375492 0 -0.0018970373083581646 -0.018909578429711454 0 -0.001703453647438264 -0.019567440557107237 0 -0.0020347031125365349 -0.019274980000375492 0 -0.001703453647438264 -0.019567440557107237 0 -0.0020347031125365349 -0.019274980000375492 0 -0.002010428271906394 -0.019707563874276704 0 -0.0024021247348972423 -0.018783758509424448 0 -0.0023740604063962789 -0.019298200068879352 0 -0.0020347031125365349 -0.019274980000375492 0 -0.0023740604063962789 -0.019298200068879352 0 -0.0020347031125365349 -0.019274980000375492 0 -0.002010428271906394 -0.019707563874276704 0 -0.0023740604063962789 -0.019298200068879352 0 -0.002010428271906394 -0.019707563874276704 0 -0.0024630937159766707 -0.019698346399473758 0 -0.002010428271906394 -0.019707563874276704 0 -0.0021126770078397335 -0.020033272127372728 0 -0.0018133833596182833 -0.020257648335112736 0 -0.002010428271906394 -0.019707563874276704 0 -0.0021126770078397335 -0.020033272127372728 0 -0.0024630937159766707 -0.019698346399473758 0 -0.0021126770078397335 -0.020033272127372728 0 -0.0023240363218078493 -0.020088815660820158 0 -0.0024630937159766707 -0.019698346399473758 0 -0.0014298016294314168 -0.020394805925917778 0 -0.00164010594152205 -0.020063085882844531 0 -0.0016042306414510946 -0.020424609845354193 0 -0.002010428271906394 -0.019707563874276704 0 -0.00164010594152205 -0.020063085882844531 0 -0.0018133833596182833 -0.020257648335112736 0 -0.00164010594152205 -0.020063085882844531 0 -0.0018133833596182833 -0.020257648335112736 0 -0.0016042306414510946 -0.020424609845354193 0 -0.0018133833596182833 -0.020257648335112736 0 -0.0016974918115705158 -0.020635582824626558 0 -0.0020794416346336963 -0.02039006361182736 0 -0.0016974918115705158 -0.020635582824626558 0 -0.0020794416346336963 -0.02039006361182736 0 -0.0018084919787889463 -0.020732625356749503 0 -0.0016650567350678254 -0.020893049747596017 0 -0.0016974918115705158 -0.020635582824626558 0 -0.0018084919787889463 -0.020732625356749503 0 -0.0018133833596182833 -0.020257648335112736 0 -0.0016042306414510946 -0.020424609845354193 0 -0.0016974918115705158 -0.020635582824626558 0 -0.0020794416346336963 -0.02039006361182736 0 -0.0026779977833177758 -0.020234725139090491 0 -0.002293130145443517 -0.020784948409286477 0 -0.0023240363218078493 -0.020088815660820158 0 -0.0020794416346336963 -0.02039006361182736 0 -0.0026779977833177758 -0.020234725139090491 0 -0.0021126770078397335 -0.020033272127372728 0 -0.0023240363218078493 -0.020088815660820158 0 -0.0020794416346336963 -0.02039006361182736 0 -0.0021126770078397335 -0.020033272127372728 0 -0.0018133833596182833 -0.020257648335112736 0 -0.0020794416346336963 -0.02039006361182736 0 -0.0026779977833177758 -0.020234725139090491 0 -0.0033622499111458995 -0.020201797521594813 0 -0.002293130145443517 -0.020784948409286477 0 -0.0026779977833177758 -0.020234725139090491 0 -0.0024630937159766707 -0.019698346399473758 0 -0.002970850825471705 -0.019616969377821685 0 -0.0026779977833177758 -0.020234725139090491 0 -0.002970850825471705 -0.019616969377821685 0 -0.0030710283487200445 -0.019920194778760107 0 -0.0023240363218078493 -0.020088815660820158 0 -0.0026779977833177758 -0.020234725139090491 0 -0.0024630937159766707 -0.019698346399473758 0 -0.0028590651005136383 -0.019012353752732768 0 -0.0024630937159766707 -0.019698346399473758 0 -0.002970850825471705 -0.019616969377821685 0 -0.0023740604063962789 -0.019298200068879352 0 -0.0028590651005136383 -0.019012353752732768 0 -0.0024630937159766707 -0.019698346399473758 0 -0.0038938680223800691 -0.018740940251698764 0 -0.003501097428975637 -0.01850156476922879 0 -0.0034098521484327545 -0.019123795518995273 0 -0.0028590651005136383 -0.019012353752732768 0 -0.002970850825471705 -0.019616969377821685 0 -0.0034098521484327545 -0.019123795518995273 0 -0.0028590651005136383 -0.019012353752732768 0 -0.003501097428975637 -0.01850156476922879 0 -0.0034098521484327545 -0.019123795518995273 0 -0.002970850825471705 -0.019616969377821685 0 -0.0034098521484327545 -0.019123795518995273 0 -0.0033065525997141858 -0.019636302497644732 0 -0.0037637552171732348 -0.019311690977194467 0 -0.0034098521484327545 -0.019123795518995273 0 -0.0033065525997141858 -0.019636302497644732 0 -0.0037637552171732348 -0.019311690977194467 0 -0.0038938680223800691 -0.018740940251698764 0 -0.0034098521484327545 -0.019123795518995273 0 -0.0037637552171732348 -0.019311690977194467 0 -0.0033065525997141858 -0.019636302497644732 0 -0.0033622499111458995 -0.020201797521594813 0 -0.0026779977833177758 -0.020234725139090491 0 -0.0030710283487200445 -0.019920194778760107 0 -0.0033622499111458995 -0.020201797521594813 0 -0.0033065525997141858 -0.019636302497644732 0 -0.0030710283487200445 -0.019920194778760107 0 -0.0033622499111458995 -0.020201797521594813 0 -0.002970850825471705 -0.019616969377821685 0 -0.0033065525997141858 -0.019636302497644732 0 -0.0030710283487200445 -0.019920194778760107 0 -0.011337360052093541 -0.012060930893763262 0 -0.011296477321436899 -0.012996763579052257 0 -0.012481766594913029 -0.01231169313229734 0 -0.0097806126068622507 -0.013920187267053259 0 -0.009504048397826011 -0.013781970271114517 0 -0.0093098340645446209 -0.014321971674437153 0 -0.010521323499011461 -0.013482156546738103 0 -0.010555354516166491 -0.012758241214524796 0 -0.011137025592548623 -0.011881347000396777 0 -0.010555354516166491 -0.012758241214524796 0 -0.0087415826186106327 -0.013207064211130787 0 -0.009797710875222394 -0.013362309318052001 0 -0.009882856246297856 -0.01301649043018855 0 -0.0062845450543159778 -0.017041724427891845 0 -0.005952891261411266 -0.017304821454837097 0 -0.009504048397826011 -0.013781970271114517 0 -0.0093098340645446209 -0.014321971674437153 0 -0.0084287099334694002 -0.014186832969253495 0 -0.010555354516166491 -0.012758241214524796 0 -0.005952891261411266 -0.017304821454837097 0 -0.011235385809339396 -0.01153813796314042 0 -0.011444524207335521 -0.010862626318050178 0 -0.011992533651513575 -0.010883325882694726 0 -0.011444524207335521 -0.010862626318050178 0 -0.011992533651513575 -0.010883325882694726 0 -0.0117162570788709 -0.010378227317092077 0 -0.010555354516166491 -0.012758241214524796 0 -0.010790418918432401 -0.011613363894979762 0 -0.0087415826186106327 -0.013207064211130787 0 -0.009882856246297856 -0.01301649043018855 0 -0.0097057913899126803 -0.012458454086604303 0 -0.011235385809339396 -0.01153813796314042 0 -0.011444524207335521 -0.010862626318050178 0 -0.010950141426491698 -0.011057383714523999 0 -0.011444524207335521 -0.010862626318050178 0 -0.010950141426491698 -0.011057383714523999 0 -0.011191107861812922 -0.010411869500177308 0 -0.010698261832928605 -0.01154277868585935 0 -0.011235385809339396 -0.01153813796314042 0 -0.010950141426491698 -0.011057383714523999 0 -0.0018738681444248563 -0.020858365929550923 0 -0.0017735953231144083 -0.020743389492251466 0 -0.0016650567350678254 -0.020893049747596017 0 -0.0021815847379640777 -0.02101723166535862 0 -0.0025556404347015877 -0.020790445765893305 0 -0.0020009888299057587 -0.021143000375962541 0 -0.0019944978718513815 -0.021258000839259755 0 -0.0025220239189749829 -0.021318697738730265 0 -0.0020009888299057587 -0.021143000375962541 0 -0.0021815847379640777 -0.02101723166535862 0 -0.0025220239189749829 -0.021318697738730265 0 -0.0021815847379640777 -0.02101723166535862 0 -0.0025556404347015877 -0.020790445765893305 0 -0.0025220239189749829 -0.021318697738730265 0 -0.0020794416346336963 -0.02039006361182736 0 -0.0018084919787889463 -0.020732625356749503 0 -0.002293130145443517 -0.020784948409286477 0 -0.010272632007898807 -0.01284278096652095 0 -0.009797710875222394 -0.013362309318052001 0 -0.009882856246297856 -0.01301649043018855 0 -0.0025556404347015877 -0.020790445765893305 0 -0.0025220239189749829 -0.021318697738730265 0 -0.0034965890202844074 -0.020926479977417888 0 -0.0064656172307615365 -0.017055474510332281 0 -0.005952891261411266 -0.017304821454837097 0 -0.0017735953231144083 -0.020743389492251466 0 -0.005952891261411266 -0.017304821454837097 0 -0.010790418918432401 -0.011613363894979762 0 -0.012367983169682892 -0.010668046520742226 0 -0.010272632007898807 -0.01284278096652095 0 -0.009882856246297856 -0.01301649043018855 0 -0.010476434807861182 -0.012914495364394459 0 -0.0097057913899126803 -0.012458454086604303 0 -0.010476434807861182 -0.012914495364394459 0 -0.012401274765796859 -0.01059062300099973 0 -0.009882856246297856 -0.01301649043018855 0 -0.0097057913899126803 -0.012458454086604303 0 -0.010476434807861182 -0.012914495364394459 0 -0.0092160884941628451 -0.0142146741731627 0 -0.010272632007898807 -0.01284278096652095 0 -0.010476434807861182 -0.012914495364394459 0 -0.0017786222346994128 -0.021393978123549762 0 -0.0019944978718513815 -0.021258000839259755 0 -0.0025220239189749829 -0.021318697738730265 0 -0.0053990541350319391 -0.017386399884796296 0 -0.0064656172307615365 -0.017055474510332281 0 -0.011839219980775315 -0.012137421288570949 0 -0.010237196613865667 -0.01309038572872076 0 -0.013194623254943598 -0.010808707643852488 0 -0.010476434807861182 -0.012914495364394459 0 -0.012401274765796859 -0.01059062300099973 0 -0.012680033674679472 -0.010152199530589269 0 -0.012401274765796859 -0.01059062300099973 0 -0.012377532984932669 -0.010313626720960008 0 -0.012680033674679472 -0.010152199530589269 0 -0.012791840989599779 -0.010413744760269883 0 -0.012401274765796859 -0.01059062300099973 0 -0.012978043622475217 -0.010215069543476877 0 -0.012680033674679472 -0.010152199530589269 0 -0.012791840989599779 -0.010413744760269883 0 -0.013194623254943598 -0.010808707643852488 0 -0.012791840989599779 -0.010413744760269883 0 -0.012401274765796859 -0.01059062300099973 0 -0.012401274765796859 -0.01059062300099973 0 -0.012377532984932669 -0.010313626720960008 0 -0.012148014850859142 -0.01051677775874529 0 -0.012377532984932669 -0.010313626720960008 0 -0.012148014850859142 -0.01051677775874529 0 -0.012351970806532728 -0.0099224924177928938 0 -0.011992533651513575 -0.010883325882694726 0 -0.012401274765796859 -0.01059062300099973 0 -0.012148014850859142 -0.01051677775874529 0 -0.011992533651513575 -0.010883325882694726 0 -0.012148014850859142 -0.01051677775874529 0 -0.0117162570788709 -0.010378227317092077 0 -0.012148014850859142 -0.01051677775874529 0 -0.011962367342626292 -0.0099378698887002334 0 -0.0117162570788709 -0.010378227317092077 0 -0.012148014850859142 -0.01051677775874529 0 -0.011962367342626292 -0.0099378698887002334 0 -0.012351970806532728 -0.0099224924177928938 0 -0.011962367342626292 -0.0099378698887002334 0 -0.012351970806532728 -0.0099224924177928938 0 -0.012021055890323892 -0.0091875050900108151 0 -0.012351970806532728 -0.0099224924177928938 0 -0.012843555416694255 -0.009659288252791479 0 -0.012511908363894268 -0.0090764437830923271 0 -0.012680033674679472 -0.010152199530589269 0 -0.012377532984932669 -0.010313626720960008 0 -0.012351970806532728 -0.0099224924177928938 0 -0.012680033674679472 -0.010152199530589269 0 -0.012351970806532728 -0.0099224924177928938 0 -0.012843555416694255 -0.009659288252791479 0 -0.013039643112639551 -0.0098933681391383879 0 -0.012680033674679472 -0.010152199530589269 0 -0.012843555416694255 -0.009659288252791479 0 -0.010607661434006484 -0.010606605672127642 0 -0.010950141426491698 -0.011057383714523999 0 -0.011191107861812922 -0.010411869500177308 0 -0.010607661434006484 -0.010606605672127642 0 -0.011191107861812922 -0.010411869500177308 0 -0.010874689177751874 -0.009815119770721633 0 -0.011191107861812922 -0.010411869500177308 0 -0.0117162570788709 -0.010378227317092077 0 -0.011416827423954926 -0.0094970029988803335 0 -0.011444524207335521 -0.010862626318050178 0 -0.011191107861812922 -0.010411869500177308 0 -0.0117162570788709 -0.010378227317092077 0 -0.011962367342626292 -0.0099378698887002334 0 -0.0117162570788709 -0.010378227317092077 0 -0.011416827423954926 -0.0094970029988803335 0 -0.011962367342626292 -0.0099378698887002334 0 -0.011416827423954926 -0.0094970029988803335 0 -0.012021055890323892 -0.0091875050900108151 0 -0.011191107861812922 -0.010411869500177308 0 -0.011416827423954926 -0.0094970029988803335 0 -0.010874689177751874 -0.009815119770721633 0 -0.011416827423954926 -0.0094970029988803335 0 -0.010874689177751874 -0.009815119770721633 0 -0.010732340895801537 -0.0090587247887960534 0 -0.011416827423954926 -0.0094970029988803335 0 -0.01104861779778292 -0.0083293749133790812 0 -0.010732340895801537 -0.0090587247887960534 0 -0.011416827423954926 -0.0094970029988803335 0 -0.011639917140376224 -0.0084594823420287759 0 -0.01104861779778292 -0.0083293749133790812 0 -0.011416827423954926 -0.0094970029988803335 0 -0.011639917140376224 -0.0084594823420287759 0 -0.012021055890323892 -0.0091875050900108151 0 -0.011639917140376224 -0.0084594823420287759 0 -0.01104861779778292 -0.0083293749133790812 0 -0.011420940753860099 -0.0074911214490729567 0 -0.011639917140376224 -0.0084594823420287759 0 -0.012413321117642154 -0.0084581043589657384 0 -0.011420940753860099 -0.0074911214490729567 0 -0.012511908363894268 -0.0090764437830923271 0 -0.012413321117642154 -0.0084581043589657384 0 -0.012805322319624848 -0.0090250932868003852 0 -0.012351970806532728 -0.0099224924177928938 0 -0.012511908363894268 -0.0090764437830923271 0 -0.012021055890323892 -0.0091875050900108151 0 -0.012511908363894268 -0.0090764437830923271 0 -0.012021055890323892 -0.0091875050900108151 0 -0.012413321117642154 -0.0084581043589657384 0 -0.011639917140376224 -0.0084594823420287759 0 -0.012021055890323892 -0.0091875050900108151 0 -0.012413321117642154 -0.0084581043589657384 0 -0.012413321117642154 -0.0084581043589657384 0 -0.012322661240770402 -0.0073960507128857612 0 -0.012887492695248755 -0.0082086631695317547 0 -0.011532986022786245 -0.0070501775519185199 0 -0.012176779231475846 -0.0072636021883670512 0 -0.012413321117642154 -0.0084581043589657384 0 -0.012322661240770402 -0.0073960507128857612 0 -0.011420940753860099 -0.0074911214490729567 0 -0.010937011015318276 -0.0066493666563635654 0 -0.011383432123773541 -0.0065193732417600488 0 -0.011075039890670598 -0.0066855580570773987 0 -0.011532986022786245 -0.0070501775519185199 0 -0.011405529591519008 -0.0065836388242436379 0 -0.010937011015318276 -0.0066493666563635654 0 -0.011075039890670598 -0.0066855580570773987 0 -0.010748979854431219 -0.0068258533487599313 0 -0.010937011015318276 -0.0066493666563635654 0 -0.010748979854431219 -0.0068258533487599313 0 -0.010556617114827603 -0.0070039313198884462 0 -0.01104861779778292 -0.0083293749133790812 0 -0.011420940753860099 -0.0074911214490729567 0 -0.010632503447042068 -0.0072609323162152444 0 -0.011420940753860099 -0.0074911214490729567 0 -0.01098343923070727 -0.0067172393693179832 0 -0.010632503447042068 -0.0072609323162152444 0 -0.012322661240770402 -0.0073960507128857612 0 -0.011420940753860099 -0.0074911214490729567 0 -0.011383432123773541 -0.0065193732417600488 0 -0.011420940753860099 -0.0074911214490729567 0 -0.011383432123773541 -0.0065193732417600488 0 -0.01098343923070727 -0.0067172393693179832 0 -0.011383432123773541 -0.0065193732417600488 0 -0.01098343923070727 -0.0067172393693179832 0 -0.010956330363154184 -0.0061859616846831724 0 -0.011383432123773541 -0.0065193732417600488 0 -0.010956330363154184 -0.0061859616846831724 0 -0.01120507387634021 -0.0058984444904924722 0 -0.010956330363154184 -0.0061859616846831724 0 -0.01120507387634021 -0.0058984444904924722 0 -0.010539280806498033 -0.0056287045970757109 0 -0.01120507387634021 -0.0058984444904924722 0 -0.011252309861010406 -0.0049360984168507977 0 -0.010841693841425285 -0.0048795022057690684 0 -0.01120507387634021 -0.0058984444904924722 0 -0.011252309861010406 -0.0049360984168507977 0 -0.011992046455146607 -0.0053271616885925055 0 -0.011230961556626368 -0.0060058368086274606 0 -0.011747625588042612 -0.0063175006013712872 0 -0.01120507387634021 -0.0058984444904924722 0 -0.012297189899370474 -0.0060385608384700426 0 -0.011992046455146607 -0.0053271616885925055 0 -0.011383432123773541 -0.0065193732417600488 0 -0.01120507387634021 -0.0058984444904924722 0 -0.011219269965576923 -0.0066356790139776604 0 -0.011383432123773541 -0.0065193732417600488 0 -0.011075039890670598 -0.0066855580570773987 0 -0.011219269965576923 -0.0066356790139776604 0 -0.011075039890670598 -0.0066855580570773987 0 -0.010968870248492456 -0.0068000031332413041 0 -0.011219269965576923 -0.0066356790139776604 0 -0.011075039890670598 -0.0066855580570773987 0 -0.010748979854431219 -0.0068258533487599313 0 -0.010968870248492456 -0.0068000031332413041 0 -0.010748979854431219 -0.0068258533487599313 0 -0.010968870248492456 -0.0068000031332413041 0 -0.010769143483724283 -0.0069005214081362771 0 -0.010968870248492456 -0.0068000031332413041 0 -0.010896958647485216 -0.0070377032897294715 0 -0.010769143483724283 -0.0069005214081362771 0 -0.012232837207774351 -0.0066481008563265363 0 -0.011747625588042612 -0.0063175006013712872 0 -0.010968870248492456 -0.0068000031332413041 0 -0.010896958647485216 -0.0070377032897294715 0 -0.011219269965576923 -0.0066356790139776604 0 -0.013589353681733666 -0.0062930364223232164 0 -0.012297189899370474 -0.0060385608384700426 0 -0.012823391505999796 -0.0057380813642238949 0 -0.012297189899370474 -0.0060385608384700426 0 -0.012823391505999796 -0.0057380813642238949 0 -0.011992046455146607 -0.0053271616885925055 0 -0.012823391505999796 -0.0057380813642238949 0 -0.012671877481966 -0.0052418627031273687 0 -0.011992046455146607 -0.0053271616885925055 0 -0.012823391505999796 -0.0057380813642238949 0 -0.012671877481966 -0.0052418627031273687 0 -0.01325234797871775 -0.0056979004096537385 0 -0.012671877481966 -0.0052418627031273687 0 -0.012201909025709411 -0.0047224309371990099 0 -0.011992046455146607 -0.0053271616885925055 0 -0.01325234797871775 -0.0056979004096537385 0 -0.013717890012487823 -0.004695416291298651 0 -0.013476075134119331 -0.0066251087226975721 0 -0.013589353681733666 -0.0062930364223232164 0 -0.01325234797871775 -0.0056979004096537385 0 -0.013476075134119331 -0.0066251087226975721 0 -0.013589353681733666 -0.0062930364223232164 0 -0.012823391505999796 -0.0057380813642238949 0 -0.01325234797871775 -0.0056979004096537385 0 -0.012671877481966 -0.0052418627031273687 0 -0.01325234797871775 -0.0056979004096537385 0 -0.013086971106750594 -0.0049699155367602015 0 -0.013086971106750594 -0.0049699155367602015 0 -0.013717890012487823 -0.004695416291298651 0 -0.012836680196979353 -0.0043619226174037009 0 -0.01325234797871775 -0.0056979004096537385 0 -0.013086971106750594 -0.0049699155367602015 0 -0.013717890012487823 -0.004695416291298651 0 -0.012671877481966 -0.0052418627031273687 0 -0.012836680196979353 -0.0043619226174037009 0 -0.012201909025709411 -0.0047224309371990099 0 -0.012836680196979353 -0.0043619226174037009 0 -0.012201909025709411 -0.0047224309371990099 0 -0.0120662058587291 -0.0039775551947165899 0 -0.012671877481966 -0.0052418627031273687 0 -0.013086971106750594 -0.0049699155367602015 0 -0.012836680196979353 -0.0043619226174037009 0 -0.012201909025709411 -0.0047224309371990099 0 -0.011560880439587997 -0.004650967531294019 0 -0.0120662058587291 -0.0039775551947165899 0 -0.014183392122242539 0.0038971278160853337 0 -0.014491657516895112 0.0024612052342404241 0 -0.011560880439587997 -0.004650967531294019 0 -0.011075501027525603 -0.0042939504907510166 0 -0.0120662058587291 -0.0039775551947165899 0 -0.015642404158302221 0.0081944474323377026 0 -0.016429786019698689 0.0088611011939398205 0 -0.015470781079051844 0.0083862173301093457 0 -0.014183392122242539 0.0038971278160853337 0 -0.017282851283343302 0.0086074687183551515 0 -0.011075501027525603 -0.0042939504907510166 0 -0.011077881437139515 -0.0044349932799653191 0 -0.010959642770249184 -0.0044420790278665969 0 -0.011075501027525603 -0.0042939504907510166 0 -0.011077881437139515 -0.0044349932799653191 0 -0.011227220374977715 -0.0045654740403232169 0 -0.011077881437139515 -0.0044349932799653191 0 -0.011071850966095555 -0.0045919291043717975 0 -0.010959642770249184 -0.0044420790278665969 0 -0.011077881437139515 -0.0044349932799653191 0 -0.011227220374977715 -0.0045654740403232169 0 -0.011071850966095555 -0.0045919291043717975 0 -0.011560880439587997 -0.004650967531294019 0 -0.011075501027525603 -0.0042939504907510166 0 -0.011227220374977715 -0.0045654740403232169 0 -0.011560880439587997 -0.004650967531294019 0 -0.011227220374977715 -0.0045654740403232169 0 -0.011252309861010406 -0.0049360984168507977 0 -0.011071850966095555 -0.0045919291043717975 0 -0.011252309861010406 -0.0049360984168507977 0 -0.010898835898724535 -0.0046217876991655402 0 -0.011227220374977715 -0.0045654740403232169 0 -0.011071850966095555 -0.0045919291043717975 0 -0.011252309861010406 -0.0049360984168507977 0 -0.011252309861010406 -0.0049360984168507977 0 -0.010898835898724535 -0.0046217876991655402 0 -0.010841693841425285 -0.0048795022057690684 0 -0.011560880439587997 -0.004650967531294019 0 -0.011252309861010406 -0.0049360984168507977 0 -0.011992046455146607 -0.0053271616885925055 0 -0.012201909025709411 -0.0047224309371990099 0 -0.011560880439587997 -0.004650967531294019 0 -0.011992046455146607 -0.0053271616885925055 0 -0.009350412869402568 -0.0079403724679742039 0 -0.0089352210921956454 -0.0070689455573834962 0 -0.0068363249188001761 -0.0080180619148886509 0 -0.009350412869402568 -0.0079403724679742039 0 -0.0076455786511304396 -0.010213208108666147 0 -0.0068363249188001761 -0.0080180619148886509 0 -0.009350412869402568 -0.0079403724679742039 0 -0.0076455786511304396 -0.010213208108666147 0 -0.0099662702488081279 -0.010335660861119689 0 -0.0076455786511304396 -0.010213208108666147 0 -0.0099662702488081279 -0.010335660861119689 0 -0.0092697706593219634 -0.012683641536890956 0 -0.009350412869402568 -0.0079403724679742039 0 -0.0099662702488081279 -0.010335660861119689 0 -0.011580193534275611 -0.0087047207127458077 0 -0.0099662702488081279 -0.010335660861119689 0 -0.011412949456315259 -0.010484046631255975 0 -0.011580193534275611 -0.0087047207127458077 0 -0.011412949456315259 -0.010484046631255975 0 -0.012484855195778547 -0.010107763958976931 0 -0.011580193534275611 -0.0087047207127458077 0 -0.012484855195778547 -0.010107763958976931 0 -0.011580193534275611 -0.0087047207127458077 0 -0.013364073292879378 -0.007714647494099381 0 -0.013256959245650823 -0.0065846950863659168 0 -0.013174397470752578 -0.0072721003714868448 0 -0.013793377477803303 -0.0059223346331525976 0 -0.013174397470752578 -0.0072721003714868448 0 -0.013364073292879378 -0.007714647494099381 0 -0.013793377477803303 -0.0059223346331525976 0 -0.012879964595101373 -0.0072720164123758228 0 -0.013174397470752578 -0.0072721003714868448 0 -0.013476075134119331 -0.0066251087226975721 0 -0.012484855195778547 -0.010107763958976931 0 -0.013364073292879378 -0.007714647494099381 0 -0.014019105011716116 -0.011747138991510532 0 -0.013408500604206858 -0.0075092410809144841 0 -0.014053591332824373 -0.0093968594383674019 0 -0.012879964595101373 -0.0072720164123758228 0 -0.013256959245650823 -0.0065846950863659168 0 -0.013174397470752578 -0.0072721003714868448 0 -0.013589353681733666 -0.0062930364223232164 0 -0.013476075134119331 -0.0066251087226975721 0 -0.012840950014392115 -0.0066610878725716725 0 -0.013131285826300713 -0.0067366704447729157 0 -0.013422432876011827 -0.0061933690115167197 0 -0.013174397470752578 -0.0072721003714868448 0 -0.013364073292879378 -0.007714647494099381 0 -0.013476075134119331 -0.0066251087226975721 0 -0.013364073292879378 -0.007714647494099381 0 -0.013476075134119331 -0.0066251087226975721 0 -0.012840950014392115 -0.0066610878725716725 0 -0.0095185716758343867 -0.0078176567847136978 0 -0.011586458097899108 -0.0070732894066253315 0 -0.009350412869402568 -0.0079403724679742039 0 -0.010484166065591737 -0.0073963909264487338 0 -0.010252900697918153 -0.0070220757685848451 0 -0.009350412869402568 -0.0079403724679742039 0 -0.011580193534275611 -0.0087047207127458077 0 -0.012840950014392115 -0.0066610878725716725 0 -0.011580193534275611 -0.0087047207127458077 0 -0.013364073292879378 -0.007714647494099381 0 -0.012840950014392115 -0.0066610878725716725 0 -0.010484166065591737 -0.0073963909264487338 0 -0.010252900697918153 -0.0070220757685848451 0 -0.010634904230610198 -0.0070467877047319114 0 -0.010252900697918153 -0.0070220757685848451 0 -0.010634904230610198 -0.0070467877047319114 0 -0.010530944187589566 -0.0068556562015245539 0 -0.010252900697918153 -0.0070220757685848451 0 -0.0098911769958775712 -0.0064021344053120377 0 -0.0097649553415925065 -0.0067968876519943107 0 -0.010634904230610198 -0.0070467877047319114 0 -0.010769143483724283 -0.0069005214081362771 0 -0.010530944187589566 -0.0068556562015245539 0 -0.012232837207774351 -0.0066481008563265363 0 -0.011586458097899108 -0.0070732894066253315 0 -0.010896958647485216 -0.0070377032897294715 0 -0.010484166065591737 -0.0073963909264487338 0 -0.010634904230610198 -0.0070467877047319114 0 -0.010896958647485216 -0.0070377032897294715 0 -0.010634904230610198 -0.0070467877047319114 0 -0.010769143483724283 -0.0069005214081362771 0 -0.010748979854431219 -0.0068258533487599313 0 -0.010530944187589566 -0.0068556562015245539 0 -0.010538086471339712 -0.0070166348818549006 0 -0.010748979854431219 -0.0068258533487599313 0 -0.010769143483724283 -0.0069005214081362771 0 -0.010530944187589566 -0.0068556562015245539 0 -0.010530944187589566 -0.0068556562015245539 0 -0.010592711788155721 -0.0069780794767455474 0 -0.010538086471339712 -0.0070166348818549006 0 -0.010252900697918153 -0.0070220757685848451 0 -0.010530944187589566 -0.0068556562015245539 0 -0.0098911769958775712 -0.0064021344053120377 0 -0.010421299826943998 -0.006794964475816556 0 -0.010399199691189378 -0.0068064260758221818 0 -0.010592711788155721 -0.0069780794767455474 0 -0.010753020718942328 -0.0070875472478096075 0 -0.010563435938282642 -0.0071304704018915529 0 -0.0098911769958775712 -0.0064021344053120377 0 -0.0094623915301272118 -0.0065335212017937809 0 -0.0092703062950855487 -0.0061529845046850067 0 -0.010399199691189378 -0.0068064260758221818 0 -0.0070213265103569993 -0.010770718489169093 0 -0.0098911769958775712 -0.0064021344053120377 0 -0.0094623915301272118 -0.0065335212017937809 0 -0.0097649553415925065 -0.0067968876519943107 0 -0.009350412869402568 -0.0079403724679742039 0 -0.0089352210921956454 -0.0070689455573834962 0 -0.0097649553415925065 -0.0067968876519943107 0 -0.009350412869402568 -0.0079403724679742039 0 -0.010252900697918153 -0.0070220757685848451 0 -0.0097649553415925065 -0.0067968876519943107 0 -0.0094623915301272118 -0.0065335212017937809 0 -0.0097649553415925065 -0.0067968876519943107 0 -0.0089210047821329554 -0.0068297556178630956 0 -0.01022748869489391 -0.0065606904714008594 0 -0.0068781646656141662 -0.0080695525519953355 0 -0.0089352210921956454 -0.0070689455573834962 0 -0.0097649553415925065 -0.0067968876519943107 0 -0.0079335914837929938 -0.0063701779133025164 0 -0.0068781646656141662 -0.0080695525519953355 0 -0.0073056400783467444 -0.0071801410889262614 0 -0.0089352210921956454 -0.0070689455573834962 0 -0.0079335914837929938 -0.0063701779133025164 0 -0.0068363249188001761 -0.0080180619148886509 0 -0.0045060019165153479 -0.012534197767340407 0 -0.0038103352347171379 -0.013895864077200358 0 -0.0051753719853736635 -0.013531028285101464 0 -0.0068781646656141662 -0.0080695525519953355 0 -0.0070213265103569993 -0.010770718489169093 0 -0.0094623915301272118 -0.0065335212017937809 0 -0.0089210047821329554 -0.0068297556178630956 0 -0.0092703062950855487 -0.0061529845046850067 0 -0.0047989041095279992 -0.015052515828829422 0 -0.0049454966734149026 -0.015587598670592773 0 -0.0046808799698415688 -0.015573190548487189 0 -0.0047989041095279992 -0.015052515828829422 0 -0.0049454966734149026 -0.015587598670592773 0 -0.0054498757909153478 -0.015165960837274712 0 -0.0038103352347171379 -0.013895864077200358 0 -0.0052917239033193038 -0.014617701002124575 0 -0.0051753719853736635 -0.013531028285101464 0 -0.0070213265103569993 -0.010770718489169093 0 -0.0051120655573756186 -0.015104476774697423 0 -0.010753020718942328 -0.0070875472478096075 0 -0.010609336266511518 -0.0073882721373767102 0 -0.010563435938282642 -0.0071304704018915529 0 -0.0070213265103569993 -0.010770718489169093 0 -0.0076033521232362362 -0.011558257892721862 0 -0.010609336266511518 -0.0073882721373767102 0 -0.010563435938282642 -0.0071304704018915529 0 -0.010507891456049669 -0.0072397781456663042 0 -0.0046808799698415688 -0.015573190548487189 0 -0.0047893083893690248 -0.015977412502013521 0 -0.0048298459647120049 -0.016114083724904867 0 -0.0076033521232362362 -0.011558257892721862 0 -0.0089227105767850697 -0.011682734761581652 0 -0.010609336266511518 -0.0073882721373767102 0 -0.010507891456049669 -0.0072397781456663042 0 -0.01044697985939186 -0.0076357208489476686 0 -0.0046808799698415688 -0.015573190548487189 0 -0.0047761324937981549 -0.016036406680693262 0 -0.0048298459647120049 -0.016114083724904867 0 -0.0049454966734149026 -0.015587598670592773 0 -0.0046808799698415688 -0.015573190548487189 0 -0.0047761324937981549 -0.016036406680693262 0 -0.0047761324937981549 -0.016036406680693262 0 -0.0047633956306018235 -0.016594928885665883 0 -0.0051693309878518903 -0.01613079642603743 0 -0.0049454966734149026 -0.015587598670592773 0 -0.0054498757909153478 -0.015165960837274712 0 -0.0051693309878518903 -0.01613079642603743 0 -0.0049454966734149026 -0.015587598670592773 0 -0.0047761324937981549 -0.016036406680693262 0 -0.0051693309878518903 -0.01613079642603743 0 -0.010748979854431219 -0.0068258533487599313 0 -0.010538086471339712 -0.0070166348818549006 0 -0.010556617114827603 -0.0070039313198884462 0 -0.010538086471339712 -0.0070166348818549006 0 -0.010507891456049669 -0.0072397781456663042 0 -0.010556617114827603 -0.0070039313198884462 0 -0.010592711788155721 -0.0069780794767455474 0 -0.010538086471339712 -0.0070166348818549006 0 -0.010563435938282642 -0.0071304704018915529 0 -0.010538086471339712 -0.0070166348818549006 0 -0.010563435938282642 -0.0071304704018915529 0 -0.010507891456049669 -0.0072397781456663042 0 -0.012887492695248755 -0.0082086631695317547 0 -0.012927968408653583 -0.0087097348888792048 0 -0.013083530591110781 -0.0088888884004704374 0 -0.010507891456049669 -0.0072397781456663042 0 -0.010556617114827603 -0.0070039313198884462 0 -0.01044697985939186 -0.0076357208489476686 0 -0.012176779231475846 -0.0072636021883670512 0 -0.0089227105767850697 -0.011682734761581652 0 -0.012413321117642154 -0.0084581043589657384 0 -0.012887492695248755 -0.0082086631695317547 0 -0.012927968408653583 -0.0087097348888792048 0 -0.012927968408653583 -0.0087097348888792048 0 -0.012995737828892562 -0.0090796873903492871 0 -0.012805322319624848 -0.0090250932868003852 0 -0.012413321117642154 -0.0084581043589657384 0 -0.012927968408653583 -0.0087097348888792048 0 -0.012805322319624848 -0.0090250932868003852 0 -0.0089227105767850697 -0.011682734761581652 0 -0.0087854815411859011 -0.013029934313679268 0 -0.0049212881493652218 -0.016062418563065336 0 -0.0051300487060537744 -0.016139772733529352 0 -0.0049271890983246048 -0.016205380656283852 0 -0.012927968408653583 -0.0087097348888792048 0 -0.013083530591110781 -0.0088888884004704374 0 -0.012995737828892562 -0.0090796873903492871 0 -0.011772326348739265 -0.011535677650400231 0 -0.0087854815411859011 -0.013029934313679268 0 -0.0053254132815428101 -0.015976601529133109 0 -0.0051352305653499233 -0.016067278898116263 0 -0.0051300487060537744 -0.016139772733529352 0 -0.0051300487060537744 -0.016139772733529352 0 -0.0049271890983246048 -0.016205380656283852 0 -0.0049940510628872581 -0.016216966743319763 0 -0.0051352305653499233 -0.016067278898116263 0 -0.0049940510628872581 -0.016216966743319763 0 -0.0049938169577406974 -0.01615366455370703 0 -0.0051352305653499233 -0.016067278898116263 0 -0.0051300487060537744 -0.016139772733529352 0 -0.0049940510628872581 -0.016216966743319763 0 -0.011772326348739265 -0.011535677650400231 0 -0.012897719789698345 -0.0086628090754642534 0 -0.012911311417025215 -0.0093018238741143303 0 -0.012995737828892562 -0.0090796873903492871 0 -0.012805322319624848 -0.0090250932868003852 0 -0.012911311417025215 -0.0093018238741143303 0 -0.012511908363894268 -0.0090764437830923271 0 -0.012805322319624848 -0.0090250932868003852 0 -0.0047633956306018235 -0.016594928885665883 0 -0.0046680593873825076 -0.017409439388624836 0 -0.0051693309878518903 -0.01613079642603743 0 -0.0047633956306018235 -0.016594928885665883 0 -0.0048145831160404523 -0.016339670363512613 0 -0.0048058603325068072 -0.01651237653243957 0 -0.0047633956306018235 -0.016594928885665883 0 -0.0048058603325068072 -0.01651237653243957 0 -0.004752342712152852 -0.016801070062750122 0 -0.0047633956306018235 -0.016594928885665883 0 -0.004752342712152852 -0.016801070062750122 0 -0.0046680593873825076 -0.017409439388624836 0 -0.0047761324937981549 -0.016036406680693262 0 -0.0048298459647120049 -0.016114083724904867 0 -0.0048145831160404523 -0.016339670363512613 0 -0.0047761324937981549 -0.016036406680693262 0 -0.0047633956306018235 -0.016594928885665883 0 -0.0048145831160404523 -0.016339670363512613 0 -0.0049212881493652218 -0.016062418563065336 0 -0.0048298459647120049 -0.016114083724904867 0 -0.0049271890983246048 -0.016205380656283852 0 -0.0048298459647120049 -0.016114083724904867 0 -0.0049271890983246048 -0.016205380656283852 0 -0.0048145831160404523 -0.016339670363512613 0 -0.0089227105767850697 -0.011682734761581652 0 -0.0075214960540406044 -0.012214807976171476 0 -0.0049271890983246048 -0.016205380656283852 0 -0.0048145831160404523 -0.016339670363512613 0 -0.0048850137489702015 -0.016347755781407711 0 -0.0048145831160404523 -0.016339670363512613 0 -0.0048058603325068072 -0.01651237653243957 0 -0.0048850137489702015 -0.016347755781407711 0 -0.0049113679226117993 -0.016311186167494884 0 -0.0048455723970743528 -0.016442068328079987 0 -0.0047956715870995301 -0.016366763186976031 0 -0.0048058603325068072 -0.01651237653243957 0 -0.0048850137489702015 -0.016347755781407711 0 -0.0048455723970743528 -0.016442068328079987 0 -0.0048850137489702015 -0.016347755781407711 0 -0.0049113679226117993 -0.016311186167494884 0 -0.0048455723970743528 -0.016442068328079987 0 -0.0049271890983246048 -0.016205380656283852 0 -0.0048850137489702015 -0.016347755781407711 0 -0.0049940510628872581 -0.016216966743319763 0 -0.0048850137489702015 -0.016347755781407711 0 -0.0049113679226117993 -0.016311186167494884 0 -0.0049940510628872581 -0.016216966743319763 0 -0.0049113679226117993 -0.016311186167494884 0 -0.0049940510628872581 -0.016216966743319763 0 -0.0049938169577406974 -0.01615366455370703 0 -0.0049113679226117993 -0.016311186167494884 0 -0.0049938169577406974 -0.01615366455370703 0 -0.0047956715870995301 -0.016366763186976031 0 -0.0047956715870995301 -0.016366763186976031 0 -0.004749834715117451 -0.016153079371561657 0 -0.004752342712152852 -0.016801070062750122 0 -0.0032495042107313801 -0.018468571271925128 0 -0.0046916963213207534 -0.017308015617711919 0 -0.004749834715117451 -0.016153079371561657 0 -0.004752342712152852 -0.016801070062750122 0 -0.0046680593873825076 -0.017409439388624836 0 -0.002064818119356944 -0.020428437930251547 0 -0.0038997532091481204 -0.020255098469763672 0 -0.0046680593873825076 -0.017409439388624836 0 -0.0048455723970743528 -0.016442068328079987 0 -0.0047956715870995301 -0.016366763186976031 0 -0.004752342712152852 -0.016801070062750122 0 -0.0048058603325068072 -0.01651237653243957 0 -0.0048455723970743528 -0.016442068328079987 0 -0.004752342712152852 -0.016801070062750122 0 -0.0046356805400128449 -0.021892357610020813 0 -0.0038997532091481204 -0.020255098469763672 0 -0.0062722059747793608 -0.018236939850139713 0 -0.0038997532091481204 -0.020255098469763672 0 -0.0046680593873825076 -0.017409439388624836 0 -0.0062722059747793608 -0.018236939850139713 0 -0.0046680593873825076 -0.017409439388624836 0 -0.0062200089807924281 -0.0165981755756829 0 -0.0051693309878518903 -0.01613079642603743 0 -0.0046680593873825076 -0.017409439388624836 0 -0.0062200089807924281 -0.0165981755756829 0 -0.0062722059747793608 -0.018236939850139713 0 -0.0062200089807924281 -0.0165981755756829 0 -0.0062722059747793608 -0.018236939850139713 0 -0.0074743688590680393 -0.017012342537680351 0 -0.0062722059747793608 -0.018236939850139713 0 -0.0077506829588388686 -0.018109720551834275 0 -0.0074743688590680393 -0.017012342537680351 0 -0.0062722059747793608 -0.018236939850139713 0 -0.0075487223284690218 -0.019799883638574413 0 -0.0077506829588388686 -0.018109720551834275 0 -0.0046356805400128449 -0.021892357610020813 0 -0.0062722059747793608 -0.018236939850139713 0 -0.0075487223284690218 -0.019799883638574413 0 -0.006391420409681282 -0.02090672696797484 0 -0.0066432068104629255 -0.022093248088536147 0 -0.0075487223284690218 -0.019799883638574413 0 -0.0082778553234547376 -0.018475527209087732 0 -0.0091469066431613816 -0.018500693228511493 0 -0.0054717031178670049 -0.022703769170507225 0 -0.00487607328034949 -0.02246718783232984 0 -0.0059171421532947261 -0.021966258580088646 0 -0.0048881085290180051 -0.024381105568398977 0 -0.0066432068104629255 -0.022093248088536147 0 -0.0082778553234547376 -0.018475527209087732 0 -0.0091469066431613816 -0.018500693228511493 0 -0.0086282303881059109 -0.017618606240966447 0 -0.0075487223284690218 -0.019799883638574413 0 -0.0082778553234547376 -0.018475527209087732 0 -0.0077506829588388686 -0.018109720551834275 0 -0.0041346547953234726 -0.026392791125638731 0 -0.0040012074241524845 -0.026189726820396012 0 -0.003940183177426765 -0.026536750410163536 0 -0.0041346547953234726 -0.026392791125638731 0 -0.0040012074241524845 -0.026189726820396012 0 -0.004169226292100159 -0.025902171247866611 0 -0.0039369728388478501 -0.025823789868863172 0 -0.0040012074241524845 -0.026189726820396012 0 -0.004169226292100159 -0.025902171247866611 0 -0.0041346547953234726 -0.026392791125638731 0 -0.004169226292100159 -0.025902171247866611 0 -0.0043453035412382626 -0.026375490352258394 0 -0.0048612259567297634 -0.025313421930635394 0 -0.0044552943518383278 -0.025892855925828358 0 -0.0046267922715238219 -0.026547977790487311 0 -0.0044552943518383278 -0.025892855925828358 0 -0.0046267922715238219 -0.026547977790487311 0 -0.0043453035412382626 -0.026375490352258394 0 -0.004169226292100159 -0.025902171247866611 0 -0.0044552943518383278 -0.025892855925828358 0 -0.0043453035412382626 -0.026375490352258394 0 -0.006062230699827067 -0.022624860429943088 0 -0.006759055102793528 -0.022291222524570824 0 -0.0069526164216219682 -0.02111497987932601 0 -0.0066432068104629255 -0.022093248088536147 0 -0.0057891227355130704 -0.023454473702398108 0 -0.0046267922715238219 -0.026547977790487311 0 -0.0043680065031397337 -0.026702059074767314 0 -0.0043453035412382626 -0.026375490352258394 0 -0.0043680065031397337 -0.026702059074767314 0 -0.004116722535753856 -0.026671549696905543 0 -0.003868425581061377 -0.027080248597980906 0 -0.0041346547953234726 -0.026392791125638731 0 -0.0043453035412382626 -0.026375490352258394 0 -0.004116722535753856 -0.026671549696905543 0 -0.0043680065031397337 -0.026702059074767314 0 -0.0043453035412382626 -0.026375490352258394 0 -0.004116722535753856 -0.026671549696905543 0 -0.0041346547953234726 -0.026392791125638731 0 -0.004116722535753856 -0.026671549696905543 0 -0.003940183177426765 -0.026536750410163536 0 -0.0073642567643655522 -0.020457647827191436 0 -0.0086139670671317812 -0.017805493418863345 0 -0.0062769269316320739 -0.023001314853729894 0 -0.0062116425332520197 -0.023391060551049656 0 -0.0053942641134726976 -0.023450347720230028 0 -0.0057891227355130704 -0.023454473702398108 0 -0.0073642567643655522 -0.020457647827191436 0 -0.0066432068104629255 -0.022093248088536147 0 -0.0073642567643655522 -0.020457647827191436 0 -0.0091469066431613816 -0.018500693228511493 0 -0.0095855923571904669 -0.017600827965775674 0 -0.0086282303881059109 -0.017618606240966447 0 -0.0095855923571904669 -0.017600827965775674 0 -0.0086282303881059109 -0.017618606240966447 0 -0.0086221012121449996 -0.016421528654890636 0 -0.0073642567643655522 -0.020457647827191436 0 -0.0064569099102459596 -0.022283044715710396 0 -0.0082778553234547376 -0.018475527209087732 0 -0.0077506829588388686 -0.018109720551834275 0 -0.0086282303881059109 -0.017618606240966447 0 -0.0077506829588388686 -0.018109720551834275 0 -0.0086282303881059109 -0.017618606240966447 0 -0.0074743688590680393 -0.017012342537680351 0 -0.0086282303881059109 -0.017618606240966447 0 -0.0074743688590680393 -0.017012342537680351 0 -0.0086221012121449996 -0.016421528654890636 0 -0.0074743688590680393 -0.017012342537680351 0 -0.0086221012121449996 -0.016421528654890636 0 -0.0068042888660636734 -0.015415625867425 0 -0.0086221012121449996 -0.016421528654890636 0 -0.008440587423422085 -0.015110521688330186 0 -0.0068042888660636734 -0.015415625867425 0 -0.0073434396583378116 -0.020113962923432486 0 -0.0072945146246406771 -0.020342033344328752 0 -0.0072106954778822421 -0.020311180041271699 0 -0.0095855923571904669 -0.017600827965775674 0 -0.0086221012121449996 -0.016421528654890636 0 -0.009749862727773069 -0.016013676752568585 0 -0.0086221012121449996 -0.016421528654890636 0 -0.009749862727773069 -0.016013676752568585 0 -0.008440587423422085 -0.015110521688330186 0 -0.009749862727773069 -0.016013676752568585 0 -0.0099698914236285158 -0.014458599449879863 0 -0.008440587423422085 -0.015110521688330186 0 -0.0080551379549455449 -0.017903383726003339 0 -0.0084351241706852563 -0.013113120031087534 0 -0.0086139670671317812 -0.017805493418863345 0 -0.0080551379549455449 -0.017903383726003339 0 -0.0072945146246406771 -0.020342033344328752 0 -0.0072509789178545909 -0.020583636840911218 0 -0.0072030562613665449 -0.020443395793317182 0 -0.0099698914236285158 -0.014458599449879863 0 -0.008440587423422085 -0.015110521688330186 0 -0.0080504567814202489 -0.013667341964119811 0 -0.0074942135459697794 -0.014500823203462059 0 -0.008440587423422085 -0.015110521688330186 0 -0.0080504567814202489 -0.013667341964119811 0 -0.0074942135459697794 -0.014500823203462059 0 -0.008440587423422085 -0.015110521688330186 0 -0.0068042888660636734 -0.015415625867425 0 -0.0074942135459697794 -0.014500823203462059 0 -0.0068042888660636734 -0.015415625867425 0 -0.006698690002283853 -0.01385878758523402 0 -0.0052917239033193038 -0.014617701002124575 0 -0.0068042888660636734 -0.015415625867425 0 -0.006698690002283853 -0.01385878758523402 0 -0.0051120655573756186 -0.015104476774697423 0 -0.0067943198835495513 -0.01539157256450311 0 -0.0054498757909153478 -0.015165960837274712 0 -0.0051693309878518903 -0.01613079642603743 0 -0.0068042888660636734 -0.015415625867425 0 -0.0062200089807924281 -0.0165981755756829 0 -0.0051693309878518903 -0.01613079642603743 0 -0.0068042888660636734 -0.015415625867425 0 -0.0062200089807924281 -0.0165981755756829 0 -0.0074743688590680393 -0.017012342537680351 0 -0.0068042888660636734 -0.015415625867425 0 -0.003139072470981157 -0.028260843544308155 0 -0.003271301825627947 -0.02857047551723748 0 -0.0033499988002325168 -0.028696344524681016 0 -0.003139072470981157 -0.028260843544308155 0 -0.0031990525312992524 -0.028408251547478766 0 -0.0033499988002325168 -0.028696344524681016 0 -0.003139072470981157 -0.028260843544308155 0 -0.0031871706660377684 -0.02818155625636453 0 -0.0031990525312992524 -0.028408251547478766 0 -0.0029579322365619934 -0.028204387618373673 0 -0.0029349452197239161 -0.027818486207491559 0 -0.003271301825627947 -0.02857047551723748 0 -0.003139072470981157 -0.028260843544308155 0 -0.0030570115891775701 -0.028010486223625019 0 -0.003271301825627947 -0.02857047551723748 0 -0.0029349452197239161 -0.027818486207491559 0 -0.0030570115891775701 -0.028010486223625019 0 -0.003271301825627947 -0.02857047551723748 0 -0.0029349452197239161 -0.027818486207491559 0 -0.0030570115891775701 -0.028010486223625019 0 -0.0029930533204679814 -0.027511222469366926 0 -0.003139072470981157 -0.028260843544308155 0 -0.0030570115891775701 -0.028010486223625019 0 -0.0030841043190565293 -0.027772550548333094 0 -0.0030570115891775701 -0.028010486223625019 0 -0.0030841043190565293 -0.027772550548333094 0 -0.0029930533204679814 -0.027511222469366926 0 -0.0030841043190565293 -0.027772550548333094 0 -0.0029930533204679814 -0.027511222469366926 0 -0.003177307341977392 -0.027384430722370689 0 -0.0029930533204679814 -0.027511222469366926 0 -0.0031107552113848005 -0.027087082740243514 0 -0.003177307341977392 -0.027384430722370689 0 -0.0030841043190565293 -0.027772550548333094 0 -0.003177307341977392 -0.027384430722370689 0 -0.0031719949115018875 -0.027725105107431799 0 -0.003177307341977392 -0.027384430722370689 0 -0.0031719949115018875 -0.027725105107431799 0 -0.003287731743156093 -0.027506684118238815 0 -0.0031719949115018875 -0.027725105107431799 0 -0.0031496005496024835 -0.028025063723046743 0 -0.0032212824529276487 -0.027903642401913866 0 -0.0031719949115018875 -0.027725105107431799 0 -0.0032212824529276487 -0.027903642401913866 0 -0.003287731743156093 -0.027506684118238815 0 -0.0030841043190565293 -0.027772550548333094 0 -0.0031719949115018875 -0.027725105107431799 0 -0.0031496005496024835 -0.028025063723046743 0 -0.003139072470981157 -0.028260843544308155 0 -0.0030841043190565293 -0.027772550548333094 0 -0.0031496005496024835 -0.028025063723046743 0 -0.0031496005496024835 -0.028025063723046743 0 -0.0031871706660377684 -0.02818155625636453 0 -0.0032212824529276487 -0.027903642401913866 0 -0.003139072470981157 -0.028260843544308155 0 -0.0031496005496024835 -0.028025063723046743 0 -0.0031871706660377684 -0.02818155625636453 0 -0.0032212824529276487 -0.027903642401913866 0 -0.0033376532713347896 -0.027842034124024043 0 -0.0032355731394201437 -0.028112083157557588 0 -0.0031871706660377684 -0.02818155625636453 0 -0.0032212824529276487 -0.027903642401913866 0 -0.0032355731394201437 -0.028112083157557588 0 -0.0033376532713347896 -0.027842034124024043 0 -0.0036379364044020119 -0.02753367056708883 0 -0.0032355731394201437 -0.028112083157557588 0 -0.0036105615855617909 -0.027089932866411679 0 -0.0031536713594801534 -0.028212181993471443 0 -0.0033376532713347896 -0.027842034124024043 0 -0.003488421367912894 -0.027618969076983052 0 -0.0033322609645361021 -0.027696082512547109 0 -0.0032212824529276487 -0.027903642401913866 0 -0.0033376532713347896 -0.027842034124024043 0 -0.0033322609645361021 -0.027696082512547109 0 -0.0033376532713347896 -0.027842034124024043 0 -0.003488421367912894 -0.027618969076983052 0 -0.0036379364044020119 -0.02753367056708883 0 -0.0034059389486657435 -0.027486717524885022 0 -0.003287731743156093 -0.027506684118238815 0 -0.0034390457519939072 -0.02720383972016148 0 -0.003488421367912894 -0.027618969076983052 0 -0.0034059389486657435 -0.027486717524885022 0 -0.0033322609645361021 -0.027696082512547109 0 -0.003488421367912894 -0.027618969076983052 0 -0.0035638124231577657 -0.02747841069963515 0 -0.0036379364044020119 -0.02753367056708883 0 -0.003488421367912894 -0.027618969076983052 0 -0.0035230672430370418 -0.027372840965304086 0 -0.0035638124231577657 -0.02747841069963515 0 -0.003488421367912894 -0.027618969076983052 0 -0.0035230672430370418 -0.027372840965304086 0 -0.0034059389486657435 -0.027486717524885022 0 -0.0035230672430370418 -0.027372840965304086 0 -0.0034059389486657435 -0.027486717524885022 0 -0.0034390457519939072 -0.02720383972016148 0 -0.0032212824529276487 -0.027903642401913866 0 -0.0033322609645361021 -0.027696082512547109 0 -0.003287731743156093 -0.027506684118238815 0 -0.0034059389486657435 -0.027486717524885022 0 -0.0033322609645361021 -0.027696082512547109 0 -0.003287731743156093 -0.027506684118238815 0 -0.003287731743156093 -0.027506684118238815 0 -0.0033461937346146494 -0.027092807880818606 0 -0.0034390457519939072 -0.02720383972016148 0 -0.003177307341977392 -0.027384430722370689 0 -0.003287731743156093 -0.027506684118238815 0 -0.0033461937346146494 -0.027092807880818606 0 -0.0031107552113848005 -0.027087082740243514 0 -0.003177307341977392 -0.027384430722370689 0 -0.0032610134059930934 -0.026833313788947877 0 -0.003177307341977392 -0.027384430722370689 0 -0.0033461937346146494 -0.027092807880818606 0 -0.0032610134059930934 -0.026833313788947877 0 -0.0033461937346146494 -0.027092807880818606 0 -0.0032610134059930934 -0.026833313788947877 0 -0.0034621012923053817 -0.026667232278304306 0 -0.0033461937346146494 -0.027092807880818606 0 -0.0034621012923053817 -0.026667232278304306 0 -0.0035110232409533543 -0.026915945420861068 0 -0.0034621012923053817 -0.026667232278304306 0 -0.0035110232409533543 -0.026915945420861068 0 -0.0035909012636842828 -0.026671605358626897 0 -0.0033461937346146494 -0.027092807880818606 0 -0.0035110232409533543 -0.026915945420861068 0 -0.0034390457519939072 -0.02720383972016148 0 -0.0035110232409533543 -0.026915945420861068 0 -0.0034390457519939072 -0.02720383972016148 0 -0.0035531863236068152 -0.027130318671889225 0 -0.0035230672430370418 -0.027372840965304086 0 -0.0034390457519939072 -0.02720383972016148 0 -0.0035531863236068152 -0.027130318671889225 0 -0.0035531863236068152 -0.027130318671889225 0 -0.0036412166012720236 -0.026873956999479337 0 -0.003668441180414957 -0.02715435526850779 0 -0.0036412166012720236 -0.026873956999479337 0 -0.0038003827886927697 -0.026846916646404345 0 -0.003668441180414957 -0.02715435526850779 0 -0.0036412166012720236 -0.026873956999479337 0 -0.0037390260657335591 -0.026571303180502184 0 -0.0038003827886927697 -0.026846916646404345 0 -0.0035110232409533543 -0.026915945420861068 0 -0.0036412166012720236 -0.026873956999479337 0 -0.0035909012636842828 -0.026671605358626897 0 -0.0035110232409533543 -0.026915945420861068 0 -0.0035531863236068152 -0.027130318671889225 0 -0.0036412166012720236 -0.026873956999479337 0 -0.0036412166012720236 -0.026873956999479337 0 -0.0035909012636842828 -0.026671605358626897 0 -0.0037390260657335591 -0.026571303180502184 0 -0.0036197289958898198 -0.026319632223488716 0 -0.0035909012636842828 -0.026671605358626897 0 -0.0037390260657335591 -0.026571303180502184 0 -0.0036197289958898198 -0.026319632223488716 0 -0.0034621012923053817 -0.026667232278304306 0 -0.0035909012636842828 -0.026671605358626897 0 -0.0039369728388478501 -0.025823789868863172 0 -0.0040012074241524845 -0.026189726820396012 0 -0.0038392938142683113 -0.026209075464340877 0 -0.0036197289958898198 -0.026319632223488716 0 -0.0037390260657335591 -0.026571303180502184 0 -0.0038392938142683113 -0.026209075464340877 0 -0.0037390260657335591 -0.026571303180502184 0 -0.0038392938142683113 -0.026209075464340877 0 -0.003940183177426765 -0.026536750410163536 0 -0.0040012074241524845 -0.026189726820396012 0 -0.0038392938142683113 -0.026209075464340877 0 -0.003940183177426765 -0.026536750410163536 0 -0.003940183177426765 -0.026536750410163536 0 -0.0038003827886927697 -0.026846916646404345 0 -0.0039378230553236667 -0.026804132881033668 0 -0.004116722535753856 -0.026671549696905543 0 -0.003940183177426765 -0.026536750410163536 0 -0.0039378230553236667 -0.026804132881033668 0 -0.0037390260657335591 -0.026571303180502184 0 -0.003940183177426765 -0.026536750410163536 0 -0.0038003827886927697 -0.026846916646404345 0 -0.0038003827886927697 -0.026846916646404345 0 -0.0039378230553236667 -0.026804132881033668 0 -0.003868425581061377 -0.027080248597980906 0 -0.0038003827886927697 -0.026846916646404345 0 -0.003868425581061377 -0.027080248597980906 0 -0.003668441180414957 -0.02715435526850779 0 -0.004116722535753856 -0.026671549696905543 0 -0.0039378230553236667 -0.026804132881033668 0 -0.003868425581061377 -0.027080248597980906 0 -0.0062116425332520197 -0.023391060551049656 0 -0.0053942641134726976 -0.023450347720230028 0 -0.0057499399338737074 -0.024159979801559803 0 -0.0057891227355130704 -0.023454473702398108 0 -0.0044116264393674436 -0.026108807497145239 0 -0.0043680065031397337 -0.026702059074767314 0 -0.003868425581061377 -0.027080248597980906 0 -0.0037476932770999774 -0.02740362824903118 0 -0.003868425581061377 -0.027080248597980906 0 -0.0036945034957865052 -0.027290885473256272 0 -0.003668441180414957 -0.02715435526850779 0 -0.0036945034957865052 -0.027290885473256272 0 -0.003668441180414957 -0.02715435526850779 0 -0.0036124096118832281 -0.027387919829753221 0 -0.0035230672430370418 -0.027372840965304086 0 -0.003668441180414957 -0.02715435526850779 0 -0.0036124096118832281 -0.027387919829753221 0 -0.0035230672430370418 -0.027372840965304086 0 -0.0035531863236068152 -0.027130318671889225 0 -0.003668441180414957 -0.02715435526850779 0 -0.0036945034957865052 -0.027290885473256272 0 -0.0036124096118832281 -0.027387919829753221 0 -0.0036379364044020119 -0.02753367056708883 0 -0.0035230672430370418 -0.027372840965304086 0 -0.0036124096118832281 -0.027387919829753221 0 -0.0035638124231577657 -0.02747841069963515 0 -0.0036124096118832281 -0.027387919829753221 0 -0.0035638124231577657 -0.02747841069963515 0 -0.0036379364044020119 -0.02753367056708883 0 -0.003868425581061377 -0.027080248597980906 0 -0.0037476932770999774 -0.02740362824903118 0 -0.0036379364044020119 -0.02753367056708883 0 -0.003868425581061377 -0.027080248597980906 0 -0.0036945034957865052 -0.027290885473256272 0 -0.0036379364044020119 -0.02753367056708883 0 -0.0044116264393674436 -0.026108807497145239 0 -0.0036105615855617909 -0.027089932866411679 0 -0.0035527648729093055 -0.027890449277525122 0 -0.0035060597533490933 -0.027913742424377583 0 -0.0034161214680865971 -0.028084357267572496 0 -0.0035527648729093055 -0.027890449277525122 0 -0.0034809034662211195 -0.028270531381131635 0 -0.0034161214680865971 -0.028084357267572496 0 -0.0053942641134726976 -0.023450347720230028 0 -0.0057499399338737074 -0.024159979801559803 0 -0.0051494044831534086 -0.024865472018452416 0 -0.0044116264393674436 -0.026108807497145239 0 -0.0046114556782658241 -0.025899433766022328 0 -0.0057499399338737074 -0.024159979801559803 0 -0.0051494044831534086 -0.024865472018452416 0 -0.0052929947514411433 -0.024925871936193545 0 -0.0064569099102459596 -0.022283044715710396 0 -0.005483271491518435 -0.023602789436268555 0 -0.0072106954778822421 -0.020311180041271699 0 -0.0072030562613665449 -0.020443395793317182 0 -0.0070747719257860638 -0.020527468136338788 0 -0.0072945146246406771 -0.020342033344328752 0 -0.0072106954778822421 -0.020311180041271699 0 -0.0072030562613665449 -0.020443395793317182 0 -0.0072509789178545909 -0.020583636840911218 0 -0.0072030562613665449 -0.020443395793317182 0 -0.0070747719257860638 -0.020527468136338788 0 -0.0080551379549455449 -0.017903383726003339 0 -0.005483271491518435 -0.023602789436268555 0 -0.0050823413814563836 -0.021808799246138464 0 -0.0057059751160442908 -0.02185262528639087 0 -0.0058004615174113011 -0.022147231989407559 0 -0.0050823413814563836 -0.021808799246138464 0 -0.0054848075171903283 -0.021633670981934226 0 -0.0057059751160442908 -0.02185262528639087 0 -0.0054848075171903283 -0.021633670981934226 0 -0.0057059751160442908 -0.02185262528639087 0 -0.0060054657842506017 -0.021806232505867617 0 -0.0051571797302944781 -0.023291549482842545 0 -0.0051178332676477135 -0.025371251336500762 0 -0.0054848075171903283 -0.021633670981934226 0 -0.0059997473228919499 -0.021802221302839386 0 -0.0060572229209373742 -0.021705060780646455 0 -0.0051178332676477135 -0.025371251336500762 0 -0.0056445068578223224 -0.024951224552567791 0 -0.0057059751160442908 -0.02185262528639087 0 -0.0060054657842506017 -0.021806232505867617 0 -0.0058004615174113011 -0.022147231989407559 0 -0.0051178332676477135 -0.025371251336500762 0 -0.005483271491518435 -0.023602789436268555 0 -0.0046075911584515647 -0.024983171928813608 0 -0.0046324437016699782 -0.024709323807248114 0 -0.0047433906293470754 -0.024756364579163567 0 -0.0051178332676477135 -0.025371251336500762 0 -0.0046114556782658241 -0.025899433766022328 0 -0.0046114556782658241 -0.025899433766022328 0 -0.005483271491518435 -0.023602789436268555 0 -0.0034571574496822179 -0.028369623440404279 0 -0.0032885740523397682 -0.028353469783204993 0 -0.0033099567401412579 -0.028413532938249008 0 -0.003455767920470212 -0.028422038797343067 0 -0.0034571574496822179 -0.028369623440404279 0 -0.0033099567401412579 -0.028413532938249008 0 -0.0051178332676477135 -0.025371251336500762 0 -0.0042652422046799091 -0.028470791814601753 0 -0.0054550226556958044 -0.028525022169445909 0 -0.0054264720327018299 -0.028548676236328629 0 -0.0054052814759844034 -0.028534890122748562 0 -0.0054550226556958044 -0.028525022169445909 0 -0.0054529914681770032 -0.028531625684169813 0 -0.0054264720327018299 -0.028548676236328629 0 -0.0054264720327018299 -0.028548676236328629 0 -0.0054052814759844034 -0.028534890122748562 0 -0.0053973364582965431 -0.028559188844651025 0 -0.0046114556782658241 -0.025899433766022328 0 -0.0031834106913066723 -0.028416710963489217 0 -0.0035060597533490933 -0.027913742424377583 0 -0.0034161214680865971 -0.028084357267572496 0 -0.0032355731394201437 -0.028112083157557588 0 -0.0034809034662211195 -0.028270531381131635 0 -0.0033160492495623666 -0.028125223660070173 0 -0.0032356784034296101 -0.028163323416405862 0 -0.0034809034662211195 -0.028270531381131635 0 -0.0034161214680865971 -0.028084357267572496 0 -0.0033160492495623666 -0.028125223660070173 0 -0.0033160492495623666 -0.028125223660070173 0 -0.0032355731394201437 -0.028112083157557588 0 -0.0032356784034296101 -0.028163323416405862 0 -0.0034161214680865971 -0.028084357267572496 0 -0.0033160492495623666 -0.028125223660070173 0 -0.0032355731394201437 -0.028112083157557588 0 -0.0031834106913066723 -0.028416710963489217 0 -0.0032152282518771013 -0.028347532825991142 0 -0.0032885740523397682 -0.028353469783204993 0 -0.0032150537040158151 -0.028400196177588075 0 -0.0031999264560895828 -0.028386802353074343 0 -0.0031871706660377684 -0.02818155625636453 0 -0.0032356784034296101 -0.028163323416405862 0 -0.0031990525312992524 -0.028408251547478766 0 -0.0032885740523397682 -0.028353469783204993 0 -0.0031999264560895828 -0.028386802353074343 0 -0.0031990525312992524 -0.028408251547478766 0 -0.0031871706660377684 -0.02818155625636453 0 -0.0032355731394201437 -0.028112083157557588 0 -0.0032356784034296101 -0.028163323416405862 0 -0.0042652422046799091 -0.028470791814601753 0 -0.0048198229488635265 -0.029607201766556773 0 -0.0054052814759844034 -0.028534890122748562 0 -0.0053973364582965431 -0.028559188844651025 0 -0.0053712440222033241 -0.028539885201704779 0 -0.006259280610215928 -0.032722223474692523 0 -0.0062366383645996431 -0.032568758565068599 0 -0.0061673981874696927 -0.032696271753451182 0 -0.0032885740523397682 -0.028353469783204993 0 -0.0033099567401412579 -0.028413532938249008 0 -0.0032150537040158151 -0.028400196177588075 0 -0.0060722375448180686 -0.03094594487439966 0 -0.0048198229488635265 -0.029607201766556773 0 -0.0062366383645996431 -0.032568758565068599 0 -0.0061209081353186517 -0.032551532482608191 0 -0.0060769683608570026 -0.032155505339874303 0 -0.0062366383645996431 -0.032568758565068599 0 -0.0061673981874696927 -0.032696271753451182 0 -0.0061209081353186517 -0.032551532482608191 0 -0.0061673981874696927 -0.032696271753451182 0 -0.0060790762208527381 -0.03282982802348941 0 -0.006052302498947411 -0.032726936271779215 0 -0.0061673981874696927 -0.032696271753451182 0 -0.0061209081353186517 -0.032551532482608191 0 -0.006052302498947411 -0.032726936271779215 0 -0.0048198229488635265 -0.029607201766556773 0 -0.0047215252449231346 -0.030566835445941971 0 -0.0031596063053136612 -0.028294997761980571 0 -0.0031999264560895828 -0.028386802353074343 0 -0.003571527149464905 -0.028711386866273059 0 -0.0048198229488635265 -0.029607201766556773 0 -0.00417502787906347 -0.028928749542593467 0 -0.0031999264560895828 -0.028386802353074343 0 -0.0031990525312992524 -0.028408251547478766 0 -0.0033499988002325168 -0.028696344524681016 0 -0.0061060713516588533 -0.032908263383069458 0 -0.0061185283408030523 -0.032862474545075751 0 -0.0059731089846588375 -0.033098410153468864 0 -0.0061185283408030523 -0.032862474545075751 0 -0.0061753048722408173 -0.03272796066345756 0 -0.0059731089846588375 -0.033098410153468864 0 -0.0061060713516588533 -0.032908263383069458 0 -0.0061185283408030523 -0.032862474545075751 0 -0.0061118680753917175 -0.032814410405255422 0 -0.0061060713516588533 -0.032908263383069458 0 -0.0061038502697705792 -0.032899021971158751 0 -0.0061570773701756553 -0.032875855540681703 0 -0.0061060713516588533 -0.032908263383069458 0 -0.0061570773701756553 -0.032875855540681703 0 -0.0061118680753917175 -0.032814410405255422 0 -0.0061060713516588533 -0.032908263383069458 0 -0.0061038502697705792 -0.032899021971158751 0 -0.0060289275940993243 -0.032981969975944665 0 -0.0061038502697705792 -0.032899021971158751 0 -0.0059908287490649473 -0.032952749909548169 0 -0.0060289275940993243 -0.032981969975944665 0 -0.0061038502697705792 -0.032899021971158751 0 -0.0060790762208527381 -0.03282982802348941 0 -0.0061641585362983897 -0.032812176087576132 0 -0.0061038502697705792 -0.032899021971158751 0 -0.0060790762208527381 -0.03282982802348941 0 -0.0059908287490649473 -0.032952749909548169 0 -0.0061673981874696927 -0.032696271753451182 0 -0.0060790762208527381 -0.03282982802348941 0 -0.0061641585362983897 -0.032812176087576132 0 -0.0061038502697705792 -0.032899021971158751 0 -0.0061641585362983897 -0.032812176087576132 0 -0.0061570773701756553 -0.032875855540681703 0 -0.006259280610215928 -0.032722223474692523 0 -0.0061673981874696927 -0.032696271753451182 0 -0.0061641585362983897 -0.032812176087576132 0 -0.006259280610215928 -0.032722223474692523 0 -0.0061570773701756553 -0.032875855540681703 0 -0.0063308323149900711 -0.032855196975568608 0 -0.0063115549824123221 -0.032803964935875347 0 -0.0057358406862402936 -0.030215189763299701 0 -0.006259280610215928 -0.032722223474692523 0 -0.0061641585362983897 -0.032812176087576132 0 -0.0061570773701756553 -0.032875855540681703 0 -0.0061570773701756553 -0.032875855540681703 0 -0.0059982973058701596 -0.032782833318853954 0 -0.0059378430561127108 -0.0328755557004149 0 -0.0061570773701756553 -0.032875855540681703 0 -0.0061118680753917175 -0.032814410405255422 0 -0.0059982973058701596 -0.032782833318853954 0 -0.0061118680753917175 -0.032814410405255422 0 -0.0059982973058701596 -0.032782833318853954 0 -0.0060160863240372115 -0.032663850206518616 0 -0.004798394584109399 -0.026318104223305942 0 -0.0046315813563462763 -0.027692927873215867 0 -0.0058612910348556637 -0.032784265766186732 0 -0.0059210943414485344 -0.032795644775469424 0 -0.0058652192355795312 -0.032599906726154142 0 -0.0059982973058701596 -0.032782833318853954 0 -0.0059210943414485344 -0.032795644775469424 0 -0.0058652192355795312 -0.032599906726154142 0 -0.004798394584109399 -0.026318104223305942 0 -0.0055133290209520239 -0.024237277579596157 0 -0.0045687998333569504 -0.026139632404881548 0 -0.0051492926972101054 -0.026857620329922786 0 -0.0044452915961461789 -0.026828179785110644 0 -0.0058612910348556637 -0.032784265766186732 0 -0.0059210943414485344 -0.032795644775469424 0 -0.0059065718829346336 -0.032830137908752652 0 -0.004798394584109399 -0.026318104223305942 0 -0.0058144216400787211 -0.028549184510283418 0 -0.0053701356936487303 -0.03273351341714744 0 -0.0057358406862402936 -0.030215189763299701 0 -0.0059982973058701596 -0.032782833318853954 0 -0.0059210943414485344 -0.032795644775469424 0 -0.0059258283615526864 -0.032832427068071851 0 -0.0059210943414485344 -0.032795644775469424 0 -0.0059065718829346336 -0.032830137908752652 0 -0.0059258283615526864 -0.032832427068071851 0 -0.0056445068578223224 -0.024951224552567791 0 -0.0055133290209520239 -0.024237277579596157 0 -0.006259280610215928 -0.032722223474692523 0 -0.0063308323149900711 -0.032855196975568608 0 -0.0063394325062072279 -0.032838879213946813 0 -0.0056445068578223224 -0.024951224552567791 0 -0.0059248951983817523 -0.029462239399347202 0 -0.0054529914681770032 -0.028531625684169813 0 -0.0054264720327018299 -0.028548676236328629 0 -0.0054281725231494164 -0.028595045703110306 0 -0.0063358607319194179 -0.025368208418576902 0 -0.0054539200335728842 -0.026858723455269486 0 -0.0060344275916323223 -0.02703222611124231 0 -0.006208274678070713 -0.029266145540334323 0 -0.0064424745595873792 -0.029275999496851658 0 -0.0063462918082664741 -0.029437521581920388 0 -0.0058144216400787211 -0.028549184510283418 0 -0.0057358406862402936 -0.030215189763299701 0 -0.0058144216400787211 -0.028549184510283418 0 -0.0059248951983817523 -0.029462239399347202 0 -0.0057358406862402936 -0.030215189763299701 0 -0.0059248951983817523 -0.029462239399347202 0 -0.0060722375448180686 -0.03094594487439966 0 -0.0059248951983817523 -0.029462239399347202 0 -0.0054264720327018299 -0.028548676236328629 0 -0.0053973364582965431 -0.028559188844651025 0 -0.0054281725231494164 -0.028595045703110306 0 -0.0055851309256416759 -0.027020555360166496 0 -0.0054539200335728842 -0.026858723455269486 0 -0.0060344275916323223 -0.02703222611124231 0 -0.0058144216400787211 -0.028549184510283418 0 -0.0055133290209520239 -0.024237277579596157 0 -0.0054848075171903283 -0.021633670981934226 0 -0.0057846702018821894 -0.02112259734388847 0 -0.0052766844108931565 -0.020560575285266308 0 -0.0060572229209373742 -0.021705060780646455 0 -0.0062500783467359516 -0.020628768133257685 0 -0.0057846702018821894 -0.02112259734388847 0 -0.0050823413814563836 -0.021808799246138464 0 -0.0054848075171903283 -0.021633670981934226 0 -0.0052766844108931565 -0.020560575285266308 0 -0.0062500783467359516 -0.020628768133257685 0 -0.0057846702018821894 -0.02112259734388847 0 -0.0052766844108931565 -0.020560575285266308 0 -0.0080551379549455449 -0.017903383726003339 0 -0.0042894248391873984 -0.014992084011948816 0 -0.0054848075171903283 -0.021633670981934226 0 -0.0060572229209373742 -0.021705060780646455 0 -0.0057846702018821894 -0.02112259734388847 0 -0.0055133290209520239 -0.024237277579596157 0 -0.0042894248391873984 -0.014992084011948816 0 -0.005596977948599628 -0.019313239262828744 0 -0.0018739134956814686 -0.020189068587635094 0 -0.0026179980594440849 -0.015606754670880123 0 -0.005596977948599628 -0.019313239262828744 0 -0.0054104147709254482 -0.020350319836053222 0 -0.0018739134956814686 -0.020189068587635094 0 -0.004798394584109399 -0.026318104223305942 0 -0.00049754309430326043 -0.013886579955098455 0 -0.0042894248391873984 -0.014992084011948816 0 -0.00049754309430326043 -0.013886579955098455 0 -0.00049754309430326043 -0.013886579955098455 0 0.0017112154187344894 -0.008702467355310604 0 0.00042270427927964795 -0.010085457191068759 0 0.0024806603157151363 -0.012337766441295483 0 0.0011519523155490189 -0.012046530514996597 0 -0.00049754309430326043 -0.013886579955098455 0 6.8501273779596328e-06 -0.018100891611325762 0 -0.0015700719189227148 -0.022737159662618446 0 -0.0037373155641121491 -0.020943763355126155 0 -0.002061378132399917 -0.019721481879170704 0 0.0017191719541348926 -0.0085325506220617336 0 0.00042270427927964795 -0.010085457191068759 0 0.0024806603157151363 -0.012337766441295483 0 -0.005323646392242345 -0.029130469531350782 0 6.8501273779596328e-06 -0.018100891611325762 0 -0.005323646392242345 -0.029130469531350782 0 -0.0064481256332791816 -0.033088801802796677 0 -0.005323646392242345 -0.029130469531350782 0 -0.0046315813563462763 -0.027692927873215867 0 -0.0015700719189227148 -0.022737159662618446 0 -0.0037373155641121491 -0.020943763355126155 0 -0.0034014694277170934 -0.022784391202120998 0 -0.003078759893041383 -0.024634194189994817 0 -0.0015700719189227148 -0.022737159662618446 0 -0.0034014694277170934 -0.022784391202120998 0 -0.005909591403814929 -0.032299320552861659 0 -0.0058652192355795312 -0.032599906726154142 0 -0.0060160863240372115 -0.032663850206518616 0 -0.0059982973058701596 -0.032782833318853954 0 -0.0058652192355795312 -0.032599906726154142 0 -0.0060160863240372115 -0.032663850206518616 0 -0.005909591403814929 -0.032299320552861659 0 -0.0060160863240372115 -0.032663850206518616 0 -0.0061753048722408173 -0.03272796066345756 0 -0.0061118680753917175 -0.032814410405255422 0 -0.0060160863240372115 -0.032663850206518616 0 -0.0061753048722408173 -0.03272796066345756 0 -0.0089656478369068305 -0.038830013395294127 0 -0.0089952238438288992 -0.039303640493936289 0 -0.0099070403705826676 -0.039475082303152075 0 -0.0055667985912757354 -0.035172320998135165 0 -0.0064687781725525934 -0.035450208427274893 0 -0.0064200970017581054 -0.035787329464903359 0 -0.0055667985912757354 -0.035172320998135165 0 -0.0064687781725525934 -0.035450208427274893 0 -0.0056642208707884398 -0.03464789262202287 0 -0.00815166799419733 -0.037897613645352088 0 -0.0064481256332791816 -0.033088801802796677 0 -0.005323646392242345 -0.029130469531350782 0 -0.0065601298409281765 -0.035013308250779453 0 -0.0089656478369068305 -0.038830013395294127 0 -0.0089952238438288992 -0.039303640493936289 0 -0.0085541817154967566 -0.038981239257362084 0 -0.0089952238438288992 -0.039303640493936289 0 -0.0085541817154967566 -0.038981239257362084 0 -0.0084791963362952309 -0.039450763961498714 0 -0.0089656478369068305 -0.038830013395294127 0 -0.0085541817154967566 -0.038981239257362084 0 -0.0083397688443408516 -0.038531530522550178 0 -0.0064687781725525934 -0.035450208427274893 0 -0.0064200970017581054 -0.035787329464903359 0 -0.0069244682883855208 -0.03607973891490477 0 -0.0065601298409281765 -0.035013308250779453 0 -0.0063377420792272883 -0.034484332153694612 0 -0.00815166799419733 -0.037897613645352088 0 -0.007305601764108007 -0.03673962109436614 0 -0.0089656478369068305 -0.038830013395294127 0 -0.0079889383840486775 -0.037803343390401638 0 -0.0083397688443408516 -0.038531530522550178 0 -0.0061185283408030523 -0.032862474545075751 0 -0.0061118680753917175 -0.032814410405255422 0 -0.0061753048722408173 -0.03272796066345756 0 -0.004989654415655965 -0.0058598718591696469 0 -0.0026982193439033211 -0.0075441825099470177 0 -0.0046080218316196693 -0.0080415898853170784 0 -0.0055106995129144843 -0.0093949503803166818 0 -0.0050126497735828923 -0.0087711112998926644 0 -0.004989654415655965 -0.0058598718591696469 0 -0.0046080218316196693 -0.0080415898853170784 0 -0.0068363249188001761 -0.0080180619148886509 0 -0.0068781646656141662 -0.0080695525519953355 0 -0.0055106995129144843 -0.0093949503803166818 0 -0.0078845987535385818 -0.0059600138961503919 0 -0.004989654415655965 -0.0058598718591696469 0 -0.0068363249188001761 -0.0080180619148886509 0 -0.0052917239033193038 -0.014617701002124575 0 -0.0051753719853736635 -0.013531028285101464 0 -0.006698690002283853 -0.01385878758523402 0 -0.0045060019165153479 -0.012534197767340407 0 -0.0062938125733673972 -0.012625122949946466 0 -0.0051753719853736635 -0.013531028285101464 0 -0.0062938125733673972 -0.012625122949946466 0 -0.0051753719853736635 -0.013531028285101464 0 -0.006698690002283853 -0.01385878758523402 0 -0.0062938125733673972 -0.012625122949946466 0 -0.006698690002283853 -0.01385878758523402 0 -0.0081053847044147958 -0.012756288778157683 0 -0.006698690002283853 -0.01385878758523402 0 -0.0080504567814202489 -0.013667341964119811 0 -0.0081053847044147958 -0.012756288778157683 0 -0.0074942135459697794 -0.014500823203462059 0 -0.006698690002283853 -0.01385878758523402 0 -0.0080504567814202489 -0.013667341964119811 0 -0.0080504567814202489 -0.013667341964119811 0 -0.0087896758092203126 -0.013358503430514805 0 -0.0081053847044147958 -0.012756288778157683 0 -0.0095291729925199211 -0.012929701413143771 0 -0.0087896758092203126 -0.013358503430514805 0 -0.0081053847044147958 -0.012756288778157683 0 -0.0093234146994056015 -0.01421844984803324 0 -0.0095291729925199211 -0.012929701413143771 0 -0.0087896758092203126 -0.013358503430514805 0 -0.0093234146994056015 -0.01421844984803324 0 -0.0080504567814202489 -0.013667341964119811 0 -0.0087896758092203126 -0.013358503430514805 0 -0.0042894248391873984 -0.014992084011948816 0 -0.0050126497735828923 -0.0087711112998926644 0 0.0010670890417412459 -0.0057867261585230071 0 -0.0019527870370462245 -0.0058070305747989865 0 -0.00052295100413301296 -0.0077926718393031592 0 0.0010670890417412459 -0.0057867261585230071 0 0.0015929300969881859 -0.008534435987386832 0 -0.00052295100413301296 -0.0077926718393031592 0 -0.0019527870370462245 -0.0058070305747989865 0 -0.0026982193439033211 -0.0075441825099470177 0 -0.00052295100413301296 -0.0077926718393031592 0 -0.004989654415655965 -0.0058598718591696469 0 -0.0019527870370462245 -0.0058070305747989865 0 -0.0026982193439033211 -0.0075441825099470177 0 -0.0026982193439033211 -0.0075441825099470177 0 -0.0016430852744336898 -0.0091245756541937593 0 -0.00052295100413301296 -0.0077926718393031592 0 -0.0026982193439033211 -0.0075441825099470177 0 -0.0016430852744336898 -0.0091245756541937593 0 -0.0031847585313327298 -0.0093524105089164526 0 -0.0016430852744336898 -0.0091245756541937593 0 -0.00052295100413301296 -0.0077926718393031592 0 0.00042270427927964795 -0.010085457191068759 0 0.0015929300969881859 -0.008534435987386832 0 -0.00052295100413301296 -0.0077926718393031592 0 0.00042270427927964795 -0.010085457191068759 0 -0.0016430852744336898 -0.0091245756541937593 0 0.00042270427927964795 -0.010085457191068759 0 -0.0014872128504634457 -0.010780182125009505 0 0.00042270427927964795 -0.010085457191068759 0 -0.0014872128504634457 -0.010780182125009505 0 -5.4453859927140958e-05 -0.011840965389436979 0 0.00042270427927964795 -0.010085457191068759 0 -5.4453859927140958e-05 -0.011840965389436979 0 0.0011519523155490189 -0.012046530514996597 0 -0.0031847585313327298 -0.0093524105089164526 0 -0.0014872128504634457 -0.010780182125009505 0 -0.0035551266147225025 -0.011834341053637763 0 -0.0016430852744336898 -0.0091245756541937593 0 -0.0031847585313327298 -0.0093524105089164526 0 -0.0014872128504634457 -0.010780182125009505 0 -0.0031847585313327298 -0.0093524105089164526 0 -0.0052942338940310295 -0.0094521287117480379 0 -0.0035551266147225025 -0.011834341053637763 0 -0.0052942338940310295 -0.0094521287117480379 0 -0.0057228738096111046 -0.011376945295115341 0 -0.0035551266147225025 -0.011834341053637763 0 -0.0031847585313327298 -0.0093524105089164526 0 -0.0046080218316196693 -0.0080415898853170784 0 -0.0052942338940310295 -0.0094521287117480379 0 -0.0026982193439033211 -0.0075441825099470177 0 -0.0031847585313327298 -0.0093524105089164526 0 -0.0046080218316196693 -0.0080415898853170784 0 -0.0046080218316196693 -0.0080415898853170784 0 -0.0052942338940310295 -0.0094521287117480379 0 -0.0068363249188001761 -0.0080180619148886509 0 -0.0076455786511304396 -0.010213208108666147 0 -0.0052942338940310295 -0.0094521287117480379 0 -0.0068363249188001761 -0.0080180619148886509 0 -0.0076455786511304396 -0.010213208108666147 0 -0.0052942338940310295 -0.0094521287117480379 0 -0.0057228738096111046 -0.011376945295115341 0 -0.0076455786511304396 -0.010213208108666147 0 -0.0057228738096111046 -0.011376945295115341 0 -0.0068484223701883572 -0.013400322071485178 0 -0.0057228738096111046 -0.011376945295115341 0 -0.0068484223701883572 -0.013400322071485178 0 -0.0040481475844101637 -0.014388985402280077 0 -0.0068484223701883572 -0.013400322071485178 0 -0.0040481475844101637 -0.014388985402280077 0 -0.0059676422900045625 -0.01602048310856671 0 -0.0039928206348764494 -0.014300823106210579 0 -0.0065368035917842378 -0.017054124625195451 0 -0.0057228738096111046 -0.011376945295115341 0 -0.0040481475844101637 -0.014388985402280077 0 -0.0035551266147225025 -0.011834341053637763 0 -0.0040481475844101637 -0.014388985402280077 0 -0.0035551266147225025 -0.011834341053637763 0 -0.0013057849898606888 -0.013085788164543654 0 -0.0014872128504634457 -0.010780182125009505 0 -0.0035551266147225025 -0.011834341053637763 0 -0.0013057849898606888 -0.013085788164543654 0 -0.0014872128504634457 -0.010780182125009505 0 -0.0013057849898606888 -0.013085788164543654 0 -5.4453859927140958e-05 -0.011840965389436979 0 -5.4453859927140958e-05 -0.011840965389436979 0 0.0007310107220678861 -0.013004567858388298 0 0.0011519523155490189 -0.012046530514996597 0 -0.0013057849898606888 -0.013085788164543654 0 -5.4453859927140958e-05 -0.011840965389436979 0 0.0007310107220678861 -0.013004567858388298 0 -0.0013057849898606888 -0.013085788164543654 0 0.0007310107220678861 -0.013004567858388298 0 0.0005697773155587543 -0.014416704997246396 0 -0.0013057849898606888 -0.013085788164543654 0 0.0005697773155587543 -0.014416704997246396 0 -0.0016874183030235724 -0.015413361873862812 0 0.0005697773155587543 -0.014416704997246396 0 -0.0016874183030235724 -0.015413361873862812 0 -0.00022768820213482131 -0.017670526939737956 0 -0.0040481475844101637 -0.014388985402280077 0 -0.0016874183030235724 -0.015413361873862812 0 -0.0032351538589273864 -0.018314624820928431 0 -0.0040481475844101637 -0.014388985402280077 0 -0.0013057849898606888 -0.013085788164543654 0 -0.0016874183030235724 -0.015413361873862812 0 -0.0016874183030235724 -0.015413361873862812 0 -0.0032351538589273864 -0.018314624820928431 0 -0.00022768820213482131 -0.017670526939737956 0 -0.0032351538589273864 -0.018314624820928431 0 -0.00022768820213482131 -0.017670526939737956 0 0.00025589590612683742 -0.020113870544332828 0 -0.0032351538589273864 -0.018314624820928431 0 0.00025589590612683742 -0.020113870544332828 0 -0.0020057774364228877 -0.021872342488147099 0 -0.0032351538589273864 -0.018314624820928431 0 -0.0051926582679152535 -0.020714701142318926 0 -0.0020057774364228877 -0.021872342488147099 0 -0.0032351538589273864 -0.018314624820928431 0 -0.006327823769938525 -0.017058350431371713 0 -0.0051926582679152535 -0.020714701142318926 0 -0.0037560366727871484 -0.017899178578411376 0 -0.006568532842087812 -0.01590424471993665 0 -0.006327823769938525 -0.017058350431371713 0 -0.0051926582679152535 -0.020714701142318926 0 -0.0084932820373511408 -0.019371989765726381 0 -0.0031656672556304049 -0.015015984203266662 0 -0.0025808205613343073 -0.014830077170486239 0 -0.003695770740685546 -0.01434679206666031 0 -0.0065368035917842378 -0.017054124625195451 0 -0.006568532842087812 -0.01590424471993665 0 -0.0040481475844101637 -0.014388985402280077 0 -0.0032351538589273864 -0.018314624820928431 0 -0.006327823769938525 -0.017058350431371713 0 -0.0088647241762236477 -0.040617168543187823 0 -0.0089841094677937799 -0.039821505594707811 0 -0.0093719524471155714 -0.04013584512888782 0 -0.0088647241762236477 -0.040617168543187823 0 -0.0089841094677937799 -0.039821505594707811 0 -0.0079492394123595427 -0.040205403329973848 0 -0.0084791963362952309 -0.039450763961498714 0 -0.0089841094677937799 -0.039821505594707811 0 -0.0079492394123595427 -0.040205403329973848 0 -0.0089952238438288992 -0.039303640493936289 0 -0.0084791963362952309 -0.039450763961498714 0 -0.0089841094677937799 -0.039821505594707811 0 -0.0089952238438288992 -0.039303640493936289 0 -0.0089841094677937799 -0.039821505594707811 0 -0.0099070403705826676 -0.039475082303152075 0 -0.0089841094677937799 -0.039821505594707811 0 -0.0093719524471155714 -0.04013584512888782 0 -0.0099070403705826676 -0.039475082303152075 0 -0.0093719524471155714 -0.04013584512888782 0 -0.0099070403705826676 -0.039475082303152075 0 -0.0096947891176657267 -0.040625528673328984 0 -0.0088647241762236477 -0.040617168543187823 0 -0.0093719524471155714 -0.04013584512888782 0 -0.0096947891176657267 -0.040625528673328984 0 -0.0064481256332791816 -0.033088801802796677 0 -0.0067205785727393521 -0.035129628224283359 0 -0.0038975228167144804 -0.028335079624517791 0 -0.004469660006020418 -0.02848499294131571 0 -0.0036463742448193783 -0.029244784372587936 0 -0.0052903296395716889 -0.025016212455371067 0 -0.00036091354798921063 -0.025715446419451258 0 -0.0010872754220802913 -0.021337061521798519 0 -0.0046265645859845956 -0.028677253096380556 0 -0.0052903296395716889 -0.025016212455371067 0 -0.00036091354798921063 -0.025715446419451258 0 -0.0064481256332791816 -0.033088801802796677 0 0.0002329302356337988 -0.020391742453237376 0 6.8501273779596328e-06 -0.018100891611325762 0 0.0002329302356337988 -0.020391742453237376 0 0.0025156512992744319 -0.012322986744868369 0 0.0018787596801495719 -0.013687822828564929 0 0.0030111460423336098 -0.0146099628524944 0 0.0025156512992744319 -0.012322986744868369 0 0.0020775594619625473 -0.012619279808679232 0 0.0018787596801495719 -0.013687822828564929 0 6.8501273779596328e-06 -0.018100891611325762 0 0.0014440958970681837 -0.016588030085920823 0 0.0024806603157151363 -0.012337766441295483 0 0.0011519523155490189 -0.012046530514996597 0 0.0020775594619625473 -0.012619279808679232 0 0.0007310107220678861 -0.013004567858388298 0 0.0011519523155490189 -0.012046530514996597 0 0.0020775594619625473 -0.012619279808679232 0 0.0007310107220678861 -0.013004567858388298 0 0.0005697773155587543 -0.014416704997246396 0 0.0018787596801495719 -0.013687822828564929 0 0.0007310107220678861 -0.013004567858388298 0 0.0020775594619625473 -0.012619279808679232 0 0.0018787596801495719 -0.013687822828564929 0 0.0005697773155587543 -0.014416704997246396 0 0.0018787596801495719 -0.013687822828564929 0 0.0030111460423336098 -0.0146099628524944 0 0.0002329302356337988 -0.020391742453237376 0 -0.001160679993101996 -0.0244622858515526 0 0.0005697773155587543 -0.014416704997246396 0 -0.00022768820213482131 -0.017670526939737956 0 0.0030111460423336098 -0.0146099628524944 0 0.0010548946820610606 -0.015858648211343265 0 0.0002329302356337988 -0.020391742453237376 0 -0.00022768820213482131 -0.017670526939737956 0 0.00025589590612683742 -0.020113870544332828 0 0.0023563877931099624 -0.018695294109785252 0 -0.00022768820213482131 -0.017670526939737956 0 0.0019356535376006943 -0.016852007201292735 0 0.0023563877931099624 -0.018695294109785252 0 0.00025589590612683742 -0.020113870544332828 0 0.0023563877931099624 -0.018695294109785252 0 0.0028319454585367947 -0.021214423546268693 0 -0.001160679993101996 -0.0244622858515526 0 -0.00070612610635414669 -0.026810782809490209 0 -0.0039343123981485477 -0.030247705025902738 0 -0.0044274258918584625 -0.029547095121104303 0 -0.0042508170088642041 -0.031145767644282386 0 -0.0039343123981485477 -0.030247705025902738 0 -0.0032700361185669501 -0.030717184936352011 0 -0.0042508170088642041 -0.031145767644282386 0 -0.004469660006020418 -0.02848499294131571 0 -0.0044274258918584625 -0.029547095121104303 0 -0.0036463742448193783 -0.029244784372587936 0 -0.0039343123981485477 -0.030247705025902738 0 -0.0044274258918584625 -0.029547095121104303 0 -0.0036463742448193783 -0.029244784372587936 0 -0.0088647241762236477 -0.040617168543187823 0 -0.0096947891176657267 -0.040625528673328984 0 -0.0090512086063111556 -0.041169773031949186 0 -0.0096947891176657267 -0.040625528673328984 0 -0.0095886344506319315 -0.04191339408205081 0 -0.0090512086063111556 -0.041169773031949186 0 -0.0039343123981485477 -0.030247705025902738 0 -0.0036463742448193783 -0.029244784372587936 0 -0.0032700361185669501 -0.030717184936352011 0 -0.0067205785727393521 -0.035129628224283359 0 -0.0064176990043398642 -0.036272630345676959 0 -0.0095886344506319315 -0.04191339408205081 0 -0.0086768314147486775 -0.042591586276126719 0 -0.0082688515772530689 -0.041474793953129349 0 -0.0095886344506319315 -0.04191339408205081 0 -0.0090512086063111556 -0.041169773031949186 0 -0.0082688515772530689 -0.041474793953129349 0 -0.0088227333341059453 -0.040695186632067851 0 -0.0082074731198767716 -0.041899574644072513 0 -0.0088647241762236477 -0.040617168543187823 0 -0.0090512086063111556 -0.041169773031949186 0 -0.0082688515772530689 -0.041474793953129349 0 -0.0086768314147486775 -0.042591586276126719 0 -0.009429636700026953 -0.043559385876683003 0 -0.0081004552908843577 -0.044415234081272376 0 -0.0032700361185669501 -0.030717184936352011 0 -0.0037327570499517881 -0.03151686718733198 0 -0.0034018116491085922 -0.03231816232211103 0 -0.0095886344506319315 -0.04191339408205081 0 -0.0086768314147486775 -0.042591586276126719 0 -0.009429636700026953 -0.043559385876683003 0 -0.0064176990043398642 -0.036272630345676959 0 -0.0062837512281106941 -0.03817449482188548 0 -0.0032700361185669501 -0.030717184936352011 0 -0.0034018116491085922 -0.03231816232211103 0 -0.0029598458672761138 -0.032571998097095933 0 -0.0037327570499517881 -0.03151686718733198 0 -0.0034018116491085922 -0.03231816232211103 0 -0.0031755086318132181 -0.033269399929725316 0 -0.0037327570499517881 -0.03151686718733198 0 -0.0039642214661436397 -0.032266034070535105 0 -0.0033282648655629408 -0.032516354244875971 0 -0.0036623638303211452 -0.031638248163245106 0 -0.0034235725345073882 -0.032826162903442542 0 -0.0049835365385630425 -0.035735926482747656 0 -0.0062837512281106941 -0.03817449482188548 0 -0.0034018116491085922 -0.03231816232211103 0 -0.0029524012882942226 -0.032592296905193795 0 -0.0031755086318132181 -0.033269399929725316 0 0.0032390944594570862 -0.023811852462974684 0 0.0028319454585367947 -0.021214423546268693 0 0.00077662941164347694 -0.022818124039343069 0 0.00028642602940059058 -0.024530454686454692 0 -0.00070612610635414669 -0.026810782809490209 0 -0.0037327570499517881 -0.03151686718733198 0 -0.0039642214661436397 -0.032266034070535105 0 -0.0042508170088642041 -0.031145767644282386 0 -0.0032700361185669501 -0.030717184936352011 0 -0.0037327570499517881 -0.03151686718733198 0 -0.0042508170088642041 -0.031145767644282386 0 0.00025589590612683742 -0.020113870544332828 0 0.0028319454585367947 -0.021214423546268693 0 0.00077662941164347694 -0.022818124039343069 0 0.00028642602940059058 -0.024530454686454692 0 0.00039117703510861348 -0.018897482489609128 0 0.00076409218498684601 -0.016490808267754207 0 -0.00035213777892463132 -0.015940604320520385 0 -0.00042116074696995839 -0.016704761402351605 0 0.00076409218498684601 -0.016490808267754207 0 -0.00042116074696995839 -0.016704761402351605 0 4.0817607865567342e-05 -0.017296321300288037 0 -0.00042116074696995839 -0.016704761402351605 0 4.0817607865567342e-05 -0.017296321300288037 0 -0.00078704311850140798 -0.017386697739274627 0 4.0817607865567342e-05 -0.017296321300288037 0 0.00021734574003087024 -0.017990004730098614 0 -0.00034804829380056612 -0.018091354777444366 0 4.0817607865567342e-05 -0.017296321300288037 0 -0.00078704311850140798 -0.017386697739274627 0 -0.00034804829380056612 -0.018091354777444366 0 4.0817607865567342e-05 -0.017296321300288037 0 0.00021734574003087024 -0.017990004730098614 0 0.00095130318014483451 -0.017764705404441635 0 0.00076409218498684601 -0.016490808267754207 0 4.0817607865567342e-05 -0.017296321300288037 0 0.00095130318014483451 -0.017764705404441635 0 0.00028642602940059058 -0.024530454686454692 0 0.00086268003751359878 -0.021796545399993331 0 -0.0048953991104595399 -0.035412066593169839 0 -0.0047046125532740094 -0.035483763270527775 0 -0.0050468572911494848 -0.034633792929517834 0 0.00081091134512403502 -0.027659075040061175 0 0.00073550814893865043 -0.026902740692555965 0 0.00037404879299610388 -0.027522170537252814 0 0.00028642602940059058 -0.024530454686454692 0 -0.0034235725345073882 -0.032826162903442542 0 -0.0029524012882942226 -0.032592296905193795 0 -0.0028246380904392624 -0.033427331176671661 0 -0.0031755086318132181 -0.033269399929725316 0 -0.0062837512281106941 -0.03817449482188548 0 -0.0061799436405904906 -0.038647167449497484 0 -0.0061799436405904906 -0.038647167449497484 0 -0.0034235725345073882 -0.032826162903442542 0 -0.0034235725345073882 -0.032826162903442542 0 -0.0059813645452605705 -0.034659786192297801 0 0.00073550814893865043 -0.026902740692555965 0 0.00037404879299610388 -0.027522170537252814 0 0.0001084701273089878 -0.026866190737989966 0 -0.0061799436405904906 -0.038647167449497484 0 -0.0059813645452605705 -0.034659786192297801 0 -0.0090411796754578649 -0.043380261606044863 0 -0.0090754708269243766 -0.043286811008601919 0 -0.0092034214409141089 -0.043420252079298317 0 -0.0061799436405904906 -0.038647167449497484 0 -0.0088703136908844377 -0.043308644866240552 0 -0.0062837512281106941 -0.03817449482188548 0 -0.0082914567548308792 -0.0438536921063069 0 -0.0083415260152933466 -0.041912505068956427 0 -0.0083045898068705454 -0.042184712859939751 0 -0.0078717676372375908 -0.042251086238634862 0 -0.0083045898068705454 -0.042184712859939751 0 -0.0078717676372375908 -0.042251086238634862 0 -0.0078460129833463985 -0.042451366877061691 0 -0.0020717236698419169 -0.015778457786603532 0 -0.0027794642791333247 -0.01572146502436237 0 -0.0023140701809290913 -0.0163959149348081 0 -0.0027794642791333247 -0.01572146502436237 0 -0.0030074588970041651 -0.016566700707518305 0 -0.0036201952825306864 -0.01582764041179225 0 -0.0027794642791333247 -0.01572146502436237 0 -0.0031656672556304049 -0.015015984203266662 0 -0.0036201952825306864 -0.01582764041179225 0 -0.0027794642791333247 -0.01572146502436237 0 -0.0031656672556304049 -0.015015984203266662 0 -0.0025808205613343073 -0.014830077170486239 0 -0.0037560366727871484 -0.017899178578411376 0 -0.0017995060846226611 -0.01864718290923472 0 -0.0020717236698419169 -0.015778457786603532 0 -0.0027794642791333247 -0.01572146502436237 0 -0.0025808205613343073 -0.014830077170486239 0 -0.0020717236698419169 -0.015778457786603532 0 -0.0025808205613343073 -0.014830077170486239 0 -0.001454950708770881 -0.015374175478735591 0 0.00039117703510861348 -0.018897482489609128 0 -0.0017995060846226611 -0.01864718290923472 0 0.00025589590612683742 -0.020113870544332828 0 0.00077662941164347694 -0.022818124039343069 0 -0.0020057774364228877 -0.021872342488147099 0 -0.00035213777892463132 -0.015940604320520385 0 -0.001454950708770881 -0.015374175478735591 0 -0.0012933817506125677 -0.016547380284899833 0 -0.00035213777892463132 -0.015940604320520385 0 -0.00042116074696995839 -0.016704761402351605 0 -0.0012933817506125677 -0.016547380284899833 0 -0.0020717236698419169 -0.015778457786603532 0 -0.001454950708770881 -0.015374175478735591 0 -0.0012933817506125677 -0.016547380284899833 0 -0.0020717236698419169 -0.015778457786603532 0 -0.0012933817506125677 -0.016547380284899833 0 -0.0023140701809290913 -0.0163959149348081 0 -0.00042116074696995839 -0.016704761402351605 0 -0.0012933817506125677 -0.016547380284899833 0 -0.00078704311850140798 -0.017386697739274627 0 -0.00078704311850140798 -0.017386697739274627 0 -0.0015220621118893368 -0.017565430769033996 0 -0.001045646148952972 -0.018165427537103544 0 -0.00078704311850140798 -0.017386697739274627 0 -0.001045646148952972 -0.018165427537103544 0 -0.00034804829380056612 -0.018091354777444366 0 -0.0012933817506125677 -0.016547380284899833 0 -0.00078704311850140798 -0.017386697739274627 0 -0.0015220621118893368 -0.017565430769033996 0 -0.0012933817506125677 -0.016547380284899833 0 -0.0015220621118893368 -0.017565430769033996 0 -0.002237336556501328 -0.017211114043715742 0 -0.002237336556501328 -0.017211114043715742 0 -0.0028710782881433889 -0.017528434670102955 0 -0.0021459754858168664 -0.017892836713457823 0 -0.0015220621118893368 -0.017565430769033996 0 -0.002237336556501328 -0.017211114043715742 0 -0.0021459754858168664 -0.017892836713457823 0 -0.002237336556501328 -0.017211114043715742 0 -0.0023140701809290913 -0.0163959149348081 0 -0.0030074588970041651 -0.016566700707518305 0 -0.0012933817506125677 -0.016547380284899833 0 -0.002237336556501328 -0.017211114043715742 0 -0.0023140701809290913 -0.0163959149348081 0 -0.0027794642791333247 -0.01572146502436237 0 -0.0023140701809290913 -0.0163959149348081 0 -0.0030074588970041651 -0.016566700707518305 0 -0.0030074588970041651 -0.016566700707518305 0 -0.0028710782881433889 -0.017528434670102955 0 -0.0038991733435792754 -0.016781610116290958 0 -0.002237336556501328 -0.017211114043715742 0 -0.0030074588970041651 -0.016566700707518305 0 -0.0028710782881433889 -0.017528434670102955 0 -0.0028710782881433889 -0.017528434670102955 0 -0.0037132956669029722 -0.017525507345719865 0 -0.0038991733435792754 -0.016781610116290958 0 -0.0038991733435792754 -0.016781610116290958 0 -0.0045558185965988898 -0.016558039583441042 0 -0.0048715829105909284 -0.017359024523137947 0 -0.0037132956669029722 -0.017525507345719865 0 -0.0038991733435792754 -0.016781610116290958 0 -0.0048715829105909284 -0.017359024523137947 0 -0.0045558185965988898 -0.016558039583441042 0 -0.004362047152098065 -0.016033299349173285 0 -0.0050845076513705142 -0.016085090770138082 0 -0.0038991733435792754 -0.016781610116290958 0 -0.0045558185965988898 -0.016558039583441042 0 -0.004362047152098065 -0.016033299349173285 0 -0.0038991733435792754 -0.016781610116290958 0 -0.004362047152098065 -0.016033299349173285 0 -0.0036201952825306864 -0.01582764041179225 0 -0.0030074588970041651 -0.016566700707518305 0 -0.0038991733435792754 -0.016781610116290958 0 -0.0036201952825306864 -0.01582764041179225 0 -0.004362047152098065 -0.016033299349173285 0 -0.0036201952825306864 -0.01582764041179225 0 -0.0042187449317158641 -0.015525362608864213 0 -0.0036201952825306864 -0.01582764041179225 0 -0.0042187449317158641 -0.015525362608864213 0 -0.0038091895447628652 -0.015293790451521058 0 -0.004362047152098065 -0.016033299349173285 0 -0.0047743139786883011 -0.015641634072472915 0 -0.0050845076513705142 -0.016085090770138082 0 -0.004362047152098065 -0.016033299349173285 0 -0.0042187449317158641 -0.015525362608864213 0 -0.0047743139786883011 -0.015641634072472915 0 -0.004562659640940883 -0.015211035839515427 0 -0.0048355384842176143 -0.015202582887630234 0 -0.0047743139786883011 -0.015641634072472915 0 -0.0042187449317158641 -0.015525362608864213 0 -0.004562659640940883 -0.015211035839515427 0 -0.0047743139786883011 -0.015641634072472915 0 -0.0041500433064345001 -0.015154415006789755 0 -0.004562659640940883 -0.015211035839515427 0 -0.0040702963658086422 -0.014769996409372453 0 -0.0042187449317158641 -0.015525362608864213 0 -0.0041500433064345001 -0.015154415006789755 0 -0.004562659640940883 -0.015211035839515427 0 -0.004562659640940883 -0.015211035839515427 0 -0.0047146125335319677 -0.01489531405106647 0 -0.0048355384842176143 -0.015202582887630234 0 -0.0068915178270683919 -0.011949995764833708 0 -0.0063306731200546314 -0.011803872450777929 0 -0.0066760859491015118 -0.011589439025390325 0 -0.004562659640940883 -0.015211035839515427 0 -0.0047146125335319677 -0.01489531405106647 0 -0.004092883876146299 -0.014700631760694822 0 -0.0045976823998507815 -0.015207895253769884 0 -0.0044159513309127889 -0.013974895700411478 0 -0.0064430906728404043 -0.013505453874916081 0 -0.0044159513309127889 -0.013974895700411478 0 -0.0041500433064345001 -0.015154415006789755 0 -0.0038040105759068786 -0.014940940647550305 0 -0.0040702963658086422 -0.014769996409372453 0 -0.0038040105759068786 -0.014940940647550305 0 -0.0040702963658086422 -0.014769996409372453 0 -0.0036867638251011923 -0.014660489298250076 0 -0.0031656672556304049 -0.015015984203266662 0 -0.0036201952825306864 -0.01582764041179225 0 -0.0038091895447628652 -0.015293790451521058 0 -0.0031656672556304049 -0.015015984203266662 0 -0.0038040105759068786 -0.014940940647550305 0 -0.0036867638251011923 -0.014660489298250076 0 -0.0031656672556304049 -0.015015984203266662 0 -0.0038040105759068786 -0.014940940647550305 0 -0.0038091895447628652 -0.015293790451521058 0 -0.0042187449317158641 -0.015525362608864213 0 -0.0041500433064345001 -0.015154415006789755 0 -0.0038091895447628652 -0.015293790451521058 0 -0.0041500433064345001 -0.015154415006789755 0 -0.0038040105759068786 -0.014940940647550305 0 -0.0038091895447628652 -0.015293790451521058 0 -0.0051110843153709734 -0.0048397831450233105 0 -0.0055355592491401007 -0.0049902735513603679 0 -0.0052300502240455252 -0.0053739829037039531 0 -0.0013489230895549109 -0.0025033652470670647 0 -0.0069994564509294026 -0.0012143921396761761 0 -0.0036785754819640961 -0.0092502670564809583 0 -0.0065830364294662087 -0.008308535814084167 0 -0.0013489230895549109 -0.0025033652470670647 0 -0.0036785754819640961 -0.0092502670564809583 0 -0.0064430906728404043 -0.013505453874916081 0 -0.0036785754819640961 -0.0092502670564809583 0 -0.0068915178270683919 -0.011949995764833708 0 -0.0074418497817487946 -0.01210010028258696 0 -0.0071602716218597054 -0.011635954747554663 0 -0.0047146125335319677 -0.01489531405106647 0 -0.0048355384842176143 -0.015202582887630234 0 -0.0052802952939206508 -0.015054807478383213 0 -0.0036785754819640961 -0.0092502670564809583 0 -0.00066042540101622486 -0.010249415695476301 0 -0.0052802952939206508 -0.015054807478383213 0 -0.0047743139786883011 -0.015641634072472915 0 -0.0050845076513705142 -0.016085090770138082 0 0.0028066391385046397 -0.003427064659901577 0 0.0027597592272911786 -0.0036362989194221027 0 0.0030920006921697236 -0.0038078156640449974 0 -0.0048355384842176143 -0.015202582887630234 0 -0.0052802952939206508 -0.015054807478383213 0 -0.0047743139786883011 -0.015641634072472915 0 0.0026374766323055765 -0.0034981808274514529 0 0.0027597592272911786 -0.0036362989194221027 0 0.0026425016460512266 -0.0036851918496861578 0 0.0026374766323055765 -0.0034981808274514529 0 0.0028066391385046397 -0.003427064659901577 0 0.0027597592272911786 -0.0036362989194221027 0 0.0027597592272911786 -0.0036362989194221027 0 0.0030920006921697236 -0.0038078156640449974 0 0.0026394295264462421 -0.0038698348647181204 0 0.0027597592272911786 -0.0036362989194221027 0 0.0026394295264462421 -0.0038698348647181204 0 0.0026425016460512266 -0.0036851918496861578 0 0.0026394295264462421 -0.0038698348647181204 0 0.0026651326877174149 -0.0037458763102087094 0 0.0026425016460512266 -0.0036851918496861578 0 -0.00066042540101622486 -0.010249415695476301 0 -0.00067202331361515576 -0.010115313544647519 0 0.0030920006921697236 -0.0038078156640449974 0 0.0026394295264462421 -0.0038698348647181204 0 0.0034504939709549634 -0.0050617512965683755 0 -0.0045558185965988898 -0.016558039583441042 0 -0.0050845076513705142 -0.016085090770138082 0 -0.0048715829105909284 -0.017359024523137947 0 0.0036581286471264493 -0.0024268547745925806 0 -0.00067202331361515576 -0.010115313544647519 0 0.0026394295264462421 -0.0038698348647181204 0 0.002660433978896292 -0.0034938545498982444 0 0.0028172779081678365 -0.0032953565657484127 0 0.0026651326877174149 -0.0037458763102087094 0 0.0027834422309671769 -0.0035516542128535443 0 0.002660433978896292 -0.0034938545498982444 0 0.0026394295264462421 -0.0038698348647181204 0 0.0026651326877174149 -0.0037458763102087094 0 0.002660433978896292 -0.0034938545498982444 0 0.0020500419778748135 -0.0015599509151115968 0 0.0018166591666832056 -0.0013212270333650745 0 0.0026651326877174149 -0.0037458763102087094 0 0.0024337454679935252 -0.0037830730515128522 0 0.0027834422309671769 -0.0035516542128535443 0 0.0026651326877174149 -0.0037458763102087094 0 0.0024337454679935252 -0.0037830730515128522 0 0.0025450821949547673 -0.003687190583330812 0 -0.00015004775234296649 0.003008755600817445 0 -0.0010117198512876718 0.0009602971557541685 0 0.0014019860586181601 0.00041935338531891428 0 -0.00015004775234296649 0.003008755600817445 0 -0.0024623097830229839 0.0025580305197554784 0 -0.0010117198512876718 0.0009602971557541685 0 0.0020500419778748135 -0.0015599509151115968 0 -0.004617777264363917 0.0067003483124010972 0 0.0024337454679935252 -0.0037830730515128522 0 0.0021641572978088135 -0.003411339954449625 0 0.0023742508591491963 -0.0034794036005438818 0 0.0024337454679935252 -0.0037830730515128522 0 0.0021641572978088135 -0.003411339954449625 0 0.0018518378040347596 -0.0033434927874024787 0 -0.00015004775234296649 0.003008755600817445 0 -0.0024623097830229839 0.0025580305197554784 0 -0.0017264534994876431 0.0051288557970300104 0 0.0021641572978088135 -0.003411339954449625 0 0.0023742508591491963 -0.0034794036005438818 0 0.0022115846452569568 -0.0032552033787545229 0 0.0023742508591491963 -0.0034794036005438818 0 0.0026425016460512266 -0.0036851918496861578 0 0.0024532600255289419 -0.0032835167298108717 0 0.0026651326877174149 -0.0037458763102087094 0 0.0026425016460512266 -0.0036851918496861578 0 0.0025450821949547673 -0.003687190583330812 0 0.0024337454679935252 -0.0037830730515128522 0 0.0023742508591491963 -0.0034794036005438818 0 0.0025450821949547673 -0.003687190583330812 0 0.0023742508591491963 -0.0034794036005438818 0 0.0026425016460512266 -0.0036851918496861578 0 0.0025450821949547673 -0.003687190583330812 0 -0.011381541137175771 0.01585743897274712 0 -0.0094473368727227038 0.014889017018682782 0 -0.0105050749337398 0.016355337166131509 0 -0.011381541137175771 0.01585743897274712 0 -0.010845514024560845 0.014457261270783787 0 -0.0094473368727227038 0.014889017018682782 0 -0.011381541137175771 0.01585743897274712 0 -0.01158330015677485 0.015186657175227923 0 -0.012066085629795918 0.015575352781053851 0 -0.011381541137175771 0.01585743897274712 0 -0.01158330015677485 0.015186657175227923 0 -0.010845514024560845 0.014457261270783787 0 -0.01158330015677485 0.015186657175227923 0 -0.010845514024560845 0.014457261270783787 0 -0.012018103269395992 0.014851934077648904 0 -0.0098923268075140885 0.01679724223219714 0 -0.01177927248414103 0.017093548567918983 0 -0.0093032526939358685 0.017775201592228375 0 -0.0058394137383631995 0.00974077732014785 0 -0.004617777264363917 0.0067003483124010972 0 -0.0094473368727227038 0.014889017018682782 0 -0.0088253631702248456 0.017184368366392609 0 -0.0098923268075140885 0.01679724223219714 0 -0.0094473368727227038 0.014889017018682782 0 -0.0098923268075140885 0.01679724223219714 0 -0.0105050749337398 0.016355337166131509 0 -0.0088253631702248456 0.017184368366392609 0 -0.0098923268075140885 0.01679724223219714 0 -0.0093032526939358685 0.017775201592228375 0 -0.0098923268075140885 0.01679724223219714 0 -0.0105050749337398 0.016355337166131509 0 -0.01177927248414103 0.017093548567918983 0 -0.011381541137175771 0.01585743897274712 0 -0.0105050749337398 0.016355337166131509 0 -0.01177927248414103 0.017093548567918983 0 -0.012940476345335225 0.0194422901057082 0 -0.011648667471262161 0.013025973895277879 0 -0.014017856771043795 0.020388212258054931 0 -0.014758236802646436 0.019580033051447687 0 -0.016065275330033876 0.019606389767601869 0 -0.014104897701547249 0.019364248145106202 0 -0.014758236802646436 0.019580033051447687 0 -0.014484567047007313 0.01855306429446962 0 -0.014104897701547249 0.019364248145106202 0 -0.014484567047007313 0.01855306429446962 0 -0.013482167960076208 0.018780504837406634 0 -0.014017856771043795 0.020388212258054931 0 -0.014118283240940712 0.019829830187130911 0 -0.014758236802646436 0.019580033051447687 0 -0.014104897701547249 0.019364248145106202 0 -0.014118283240940712 0.019829830187130911 0 -0.013565802149683498 0.019990313307639937 0 -0.014104897701547249 0.019364248145106202 0 -0.014118283240940712 0.019829830187130911 0 -0.014758236802646436 0.019580033051447687 0 -0.014017856771043795 0.020388212258054931 0 -0.014118283240940712 0.019829830187130911 0 -0.013565802149683498 0.019990313307639937 0 -0.014758236802646436 0.019580033051447687 0 -0.015727957463791874 0.019176828478570843 0 -0.014484567047007313 0.01855306429446962 0 -0.016403548150750315 0.012269726021947872 0 -0.016301172197104429 0.014352752038957337 0 -0.014758236802646436 0.019580033051447687 0 -0.015727957463791874 0.019176828478570843 0 -0.016065275330033876 0.019606389767601869 0 -0.015471093084700611 0.011716215079474892 0 -0.013438283792360461 0.0090381474135942993 0 -0.011439310883809469 0.0096320760641911089 0 -0.0075906936500279697 0.0082012383559639541 0 -0.0083306509250408896 0.0091681199417947123 0 -0.0076643744924927166 0.0093599739594977735 0 -0.004617777264363917 0.0067003483124010972 0 -0.011648667471262161 0.013025973895277879 0 -0.011648667471262161 0.013025973895277879 0 -0.010974342314859409 0.0080654982797136541 0 -0.017411330628087505 0.0089846919673903548 0 -0.017267858304034434 0.0089178671420293461 0 -0.017341159567102964 0.0090805139697068792 0 -0.017267858304034434 0.0089178671420293461 0 -0.017341159567102964 0.0090805139697068792 0 -0.017228057885740101 0.0089291631238990667 0 -0.016403548150750315 0.012269726021947872 0 -0.010974342314859409 0.0080654982797136541 0 -0.016403548150750315 0.012269726021947872 0 -0.011648667471262161 0.013025973895277879 0 -0.017341159567102964 0.0090805139697068792 0 -0.017222174319050567 0.0091920436032821851 0 -0.017420002775353424 0.0092567060204857849 0 -0.017341159567102964 0.0090805139697068792 0 -0.017489160303493061 0.0091698106017411695 0 -0.017420002775353424 0.0092567060204857849 0 -0.017489160303493061 0.0091698106017411695 0 -0.017519567243602669 0.0092733310924604795 0 -0.017420002775353424 0.0092567060204857849 0 -0.017411330628087505 0.0089846919673903548 0 -0.017341159567102964 0.0090805139697068792 0 -0.017489160303493061 0.0091698106017411695 0 -0.017411330628087505 0.0089846919673903548 0 -0.017489160303493061 0.0091698106017411695 0 -0.017644614191337962 0.0093037470914608192 0 -0.016403548150750315 0.012269726021947872 0 -0.017862493234034459 0.0085141699443121131 0 -0.018334350906360954 0.010283681652381979 0 -0.017631903209598565 0.0094120782054874248 0 -0.017663346599289323 0.0099102287688251529 0 -0.018334350906360954 0.010283681652381979 0 -0.017631903209598565 0.0094120782054874248 0 -0.017644614191337962 0.0093037470914608192 0 -0.017489160303493061 0.0091698106017411695 0 -0.017557972716535159 0.009267505644726835 0 -0.017644614191337962 0.0093037470914608192 0 -0.017489160303493061 0.0091698106017411695 0 -0.017557972716535159 0.009267505644726835 0 -0.017519567243602669 0.0092733310924604795 0 -0.017631903209598565 0.0094120782054874248 0 -0.017663346599289323 0.0099102287688251529 0 -0.016920361677178579 0.0095624480772852002 0 0.0027555238940366877 -0.0029049884155585618 0 0.0026425016460512266 -0.0036851918496861578 0 0.0024532600255289419 -0.0032835167298108717 0 -0.0013489230895549109 -0.0025033652470670647 0 0.0034265614376182882 -0.0038237960956377646 0 0.0027555238940366877 -0.0029049884155585618 0 0.0023283263174840169 -0.0030412974273015263 0 0.0024532600255289419 -0.0032835167298108717 0 -0.0013489230895549109 -0.0025033652470670647 0 -0.0026041694548987271 -0.00018250471071759467 0 0.0023283263174840169 -0.0030412974273015263 0 0.0024532600255289419 -0.0032835167298108717 0 0.0022115846452569568 -0.0032552033787545229 0 0.0023742508591491963 -0.0034794036005438818 0 0.0024532600255289419 -0.0032835167298108717 0 0.0022115846452569568 -0.0032552033787545229 0 0.0023283263174840169 -0.0030412974273015263 0 0.0022115846452569568 -0.0032552033787545229 0 0.0019142381230047411 -0.003106495317515042 0 -0.0082708977864159074 0.002044550152194059 0 -0.0080920694250784537 0.0021309429095648018 0 -0.0081854968492998097 0.0018610133094222104 0 0.0022115846452569568 -0.0032552033787545229 0 0.0019142381230047411 -0.003106495317515042 0 0.0019019905167215029 -0.0031593216281424895 0 0.0021641572978088135 -0.003411339954449625 0 0.0022115846452569568 -0.0032552033787545229 0 0.0019019905167215029 -0.0031593216281424895 0 0.0021641572978088135 -0.003411339954449625 0 0.0018518378040347596 -0.0033434927874024787 0 0.0019019905167215029 -0.0031593216281424895 0 -0.0075906936500279697 0.0082012383559639541 0 -0.0076643744924927166 0.0093599739594977735 0 -0.0073200248911347195 0.0091798749697755908 0 -0.004617777264363917 0.0067003483124010972 0 -0.0082342400926919395 0.0059961672143145064 0 -0.0088648471109982335 0.0055297477381348291 0 -0.0082342400926919395 0.0059961672143145064 0 -0.007896818622876842 0.0072644523162335509 0 -0.0091172931253361688 0.0068940372324064131 0 -0.0088668816737379249 0.0077646267025340701 0 -0.010974342314859409 0.0080654982797136541 0 -0.0088648471109982335 0.0055297477381348291 0 -0.010974342314859409 0.0080654982797136541 0 -0.0082342400926919395 0.0059961672143145064 0 -0.0026041694548987271 -0.00018250471071759467 0 -0.0088648471109982335 0.0055297477381348291 0 -0.0082708977864159074 0.002044550152194059 0 -0.0081854968492998097 0.0018610133094222104 0 -0.0083441832162190147 0.0018317562511727336 0 -0.0088648471109982335 0.0055297477381348291 0 -0.012965718531363891 0.005346414891744259 0 -0.017341159567102964 0.0090805139697068792 0 -0.017228057885740101 0.0089291631238990667 0 -0.017222174319050567 0.0091920436032821851 0 -0.0084428926809151841 0.0019602310402187764 0 -0.0082708977864159074 0.002044550152194059 0 -0.0083441832162190147 0.0018317562511727336 0 -0.0084428926809151841 0.0019602310402187764 0 -0.0083441832162190147 0.0018317562511727336 0 -0.008526189406080506 0.0016872027780515952 0 -0.0083441832162190147 0.0018317562511727336 0 -0.0082912200534139176 0.0016023856095410669 0 -0.008526189406080506 0.0016872027780515952 0 -0.017222174319050567 0.0091920436032821851 0 -0.017327900633647385 0.0093247607373935452 0 -0.017420002775353424 0.0092567060204857849 0 -0.0081854968492998097 0.0018610133094222104 0 -0.0083441832162190147 0.0018317562511727336 0 -0.0082912200534139176 0.0016023856095410669 0 -0.012965718531363891 0.005346414891744259 0 -0.01268886806755776 0.0056853323309989908 0 -0.017222174319050567 0.0091920436032821851 0 -0.017327900633647385 0.0093247607373935452 0 -0.017253191456844535 0.009366222471837108 0 -0.017327900633647385 0.0093247607373935452 0 -0.017253191456844535 0.009366222471837108 0 -0.017333631285325952 0.0093963116140183787 0 -0.017253191456844535 0.009366222471837108 0 -0.017333631285325952 0.0093963116140183787 0 -0.017318127270956753 0.0094291173107018227 0 -0.017253191456844535 0.009366222471837108 0 -0.017318127270956753 0.0094291173107018227 0 -0.017276032253797285 0.0094206613089321892 0 -0.017333631285325952 0.0093963116140183787 0 -0.017318127270956753 0.0094291173107018227 0 -0.017370623997088185 0.009452187931869617 0 -0.0082912200534139176 0.0016023856095410669 0 -0.0083966167579399408 0.0013588552839005868 0 -0.0085945660295702261 0.0014100791118343639 0 -0.0082912200534139176 0.0016023856095410669 0 -0.008526189406080506 0.0016872027780515952 0 -0.0085945660295702261 0.0014100791118343639 0 -0.01268886806755776 0.0056853323309989908 0 -0.013285276871653994 0.0045628601964185682 0 -0.017704950784238931 0.0094956151485564022 0 -0.017661767268609484 0.0094330648092609982 0 -0.017730549461211189 0.0094475043551373334 0 -0.017704950784238931 0.0094956151485564022 0 -0.017661767268609484 0.0094330648092609982 0 -0.01760732785771487 0.00945580060585678 0 -0.017661767268609484 0.0094330648092609982 0 -0.017663820519658348 0.0093752285655319817 0 -0.017598841186855937 0.0093816449027003014 0 -0.017661767268609484 0.0094330648092609982 0 -0.017598841186855937 0.0093816449027003014 0 -0.01760732785771487 0.00945580060585678 0 -0.017661767268609484 0.0094330648092609982 0 -0.017663820519658348 0.0093752285655319817 0 -0.017730549461211189 0.0094475043551373334 0 -0.017663820519658348 0.0093752285655319817 0 -0.01770406677397833 0.0093602542892624561 0 -0.017730549461211189 0.0094475043551373334 0 -0.017631903209598565 0.0094120782054874248 0 -0.017644614191337962 0.0093037470914608192 0 -0.01770406677397833 0.0093602542892624561 0 -0.017663820519658348 0.0093752285655319817 0 -0.017644614191337962 0.0093037470914608192 0 -0.01770406677397833 0.0093602542892624561 0 -0.017663820519658348 0.0093752285655319817 0 -0.017644614191337962 0.0093037470914608192 0 -0.017621501120086754 0.0093467420849174809 0 -0.017663820519658348 0.0093752285655319817 0 -0.017621501120086754 0.0093467420849174809 0 -0.017598841186855937 0.0093816449027003014 0 -0.017621501120086754 0.0093467420849174809 0 -0.017578164904101069 0.0093212175885672693 0 -0.017598841186855937 0.0093816449027003014 0 -0.017644614191337962 0.0093037470914608192 0 -0.017621501120086754 0.0093467420849174809 0 -0.017578164904101069 0.0093212175885672693 0 -0.017557972716535159 0.009267505644726835 0 -0.017644614191337962 0.0093037470914608192 0 -0.017578164904101069 0.0093212175885672693 0 -0.017578164904101069 0.0093212175885672693 0 -0.017519567243602669 0.0092733310924604795 0 -0.017520354738214932 0.0093345080572366877 0 -0.017557972716535159 0.009267505644726835 0 -0.017578164904101069 0.0093212175885672693 0 -0.017519567243602669 0.0092733310924604795 0 -0.017578164904101069 0.0093212175885672693 0 -0.017520354738214932 0.0093345080572366877 0 -0.017598841186855937 0.0093816449027003014 0 -0.017520354738214932 0.0093345080572366877 0 -0.017539325036682284 0.0093978088762323268 0 -0.017598841186855937 0.0093816449027003014 0 -0.017539325036682284 0.0093978088762323268 0 -0.017598841186855937 0.0093816449027003014 0 -0.01760732785771487 0.00945580060585678 0 -0.017539325036682284 0.0093978088762323268 0 -0.01760732785771487 0.00945580060585678 0 -0.017528402357484769 0.009440667137097597 0 -0.017539325036682284 0.0093978088762323268 0 -0.017440687710755933 0.0093842692638442474 0 -0.017528402357484769 0.009440667137097597 0 -0.017520354738214932 0.0093345080572366877 0 -0.017539325036682284 0.0093978088762323268 0 -0.017440687710755933 0.0093842692638442474 0 -0.017519567243602669 0.0092733310924604795 0 -0.017520354738214932 0.0093345080572366877 0 -0.017420002775353424 0.0092567060204857849 0 -0.017520354738214932 0.0093345080572366877 0 -0.017440687710755933 0.0093842692638442474 0 -0.017420002775353424 0.0092567060204857849 0 -0.017327900633647385 0.0093247607373935452 0 -0.017440687710755933 0.0093842692638442474 0 -0.017420002775353424 0.0092567060204857849 0 -0.017327900633647385 0.0093247607373935452 0 -0.017333631285325952 0.0093963116140183787 0 -0.017440687710755933 0.0093842692638442474 0 -0.017333631285325952 0.0093963116140183787 0 -0.017413400248968251 0.0094368691208619737 0 -0.017370623997088185 0.009452187931869617 0 -0.017333631285325952 0.0093963116140183787 0 -0.017440687710755933 0.0093842692638442474 0 -0.017413400248968251 0.0094368691208619737 0 -0.017413400248968251 0.0094368691208619737 0 -0.017370623997088185 0.009452187931869617 0 -0.017452667944928033 0.0095006079405167247 0 -0.017452667944928033 0.0095006079405167247 0 -0.017492738781979961 0.0094687488632355463 0 -0.017577999627494682 0.0095538268542874477 0 -0.017413400248968251 0.0094368691208619737 0 -0.017452667944928033 0.0095006079405167247 0 -0.017492738781979961 0.0094687488632355463 0 -0.017440687710755933 0.0093842692638442474 0 -0.017413400248968251 0.0094368691208619737 0 -0.017492738781979961 0.0094687488632355463 0 -0.017440687710755933 0.0093842692638442474 0 -0.017492738781979961 0.0094687488632355463 0 -0.017528402357484769 0.009440667137097597 0 -0.01760732785771487 0.00945580060585678 0 -0.017528402357484769 0.009440667137097597 0 -0.017587972648514139 0.0095080147273450179 0 -0.017492738781979961 0.0094687488632355463 0 -0.017528402357484769 0.009440667137097597 0 -0.017587972648514139 0.0095080147273450179 0 -0.017492738781979961 0.0094687488632355463 0 -0.017587972648514139 0.0095080147273450179 0 -0.017577999627494682 0.0095538268542874477 0 -0.017587972648514139 0.0095080147273450179 0 -0.017685744314293008 0.0096034364576643161 0 -0.017698103762103481 0.0095528225091371811 0 -0.017587972648514139 0.0095080147273450179 0 -0.017577999627494682 0.0095538268542874477 0 -0.017685744314293008 0.0096034364576643161 0 -0.01760732785771487 0.00945580060585678 0 -0.017587972648514139 0.0095080147273450179 0 -0.017698103762103481 0.0095528225091371811 0 -0.017704950784238931 0.0094956151485564022 0 -0.01760732785771487 0.00945580060585678 0 -0.017698103762103481 0.0095528225091371811 0 -0.017696865258543901 0.0097269311575810761 0 -0.017661325479547078 0.0096318085377117262 0 -0.017561815538477504 0.0095990137382165313 0 -0.017577999627494682 0.0095538268542874477 0 -0.017685744314293008 0.0096034364576643161 0 -0.017661325479547078 0.0096318085377117262 0 -0.017696865258543901 0.0097269311575810761 0 -0.017661325479547078 0.0096318085377117262 0 -0.017793177073087085 0.0096805186759215869 0 -0.017685744314293008 0.0096034364576643161 0 -0.017661325479547078 0.0096318085377117262 0 -0.017793177073087085 0.0096805186759215869 0 -0.017452667944928033 0.0095006079405167247 0 -0.017577999627494682 0.0095538268542874477 0 -0.017561815538477504 0.0095990137382165313 0 -0.017577999627494682 0.0095538268542874477 0 -0.017661325479547078 0.0096318085377117262 0 -0.017561815538477504 0.0095990137382165313 0 -0.017561815538477504 0.0095990137382165313 0 -0.017438048224321323 0.009532798445359569 0 -0.01754803521465486 0.0096574807712377052 0 -0.017696865258543901 0.0097269311575810761 0 -0.017561815538477504 0.0095990137382165313 0 -0.01754803521465486 0.0096574807712377052 0 -0.017438048224321323 0.009532798445359569 0 -0.017459590282197512 0.0095974207072694762 0 -0.01754803521465486 0.0096574807712377052 0 -0.017438048224321323 0.009532798445359569 0 -0.017391467580435051 0.0094872376317391999 0 -0.017459590282197512 0.0095974207072694762 0 -0.017452667944928033 0.0095006079405167247 0 -0.017438048224321323 0.009532798445359569 0 -0.017386689965293422 0.0094751981372631616 0 -0.017452667944928033 0.0095006079405167247 0 -0.017561815538477504 0.0095990137382165313 0 -0.017438048224321323 0.009532798445359569 0 -0.017370623997088185 0.009452187931869617 0 -0.017452667944928033 0.0095006079405167247 0 -0.017386689965293422 0.0094751981372631616 0 -0.017370623997088185 0.009452187931869617 0 -0.017386689965293422 0.0094751981372631616 0 -0.017354908495124409 0.0094469048502171908 0 -0.017386689965293422 0.0094751981372631616 0 -0.017357344311307695 0.0094476036685462901 0 -0.017354908495124409 0.0094469048502171908 0 -0.017438048224321323 0.009532798445359569 0 -0.017357344311307695 0.0094476036685462901 0 -0.017391467580435051 0.0094872376317391999 0 -0.017357344311307695 0.0094476036685462901 0 -0.017391467580435051 0.0094872376317391999 0 -0.017325154860368459 0.0092093299370149644 0 -0.017438048224321323 0.009532798445359569 0 -0.017386689965293422 0.0094751981372631616 0 -0.017357344311307695 0.0094476036685462901 0 -0.016887181121623025 0.0092930866050900014 0 -0.017332246667112913 0.0092817444157325939 0 -0.017391467580435051 0.0094872376317391999 0 -0.017468636140628803 0.0097675027473925983 0 -0.017325154860368459 0.0092093299370149644 0 -0.015642404158302221 0.0081944474323377026 0 -0.016919623722841951 0.0088458328880745285 0 -0.016429786019698689 0.0088611011939398205 0 -0.016919623722841951 0.0088458328880745285 0 -0.016429786019698689 0.0088611011939398205 0 -0.017325154860368459 0.0092093299370149644 0 -0.017468636140628803 0.0097675027473925983 0 -0.017459590282197512 0.0095974207072694762 0 -0.01754803521465486 0.0096574807712377052 0 -0.017391467580435051 0.0094872376317391999 0 -0.017468636140628803 0.0097675027473925983 0 -0.017459590282197512 0.0095974207072694762 0 -0.017696865258543901 0.0097269311575810761 0 -0.017617191538331179 0.0097721941539130174 0 -0.017730764757114246 0.0099265833591339024 0 -0.017468636140628803 0.0097675027473925983 0 -0.017617191538331179 0.0097721941539130174 0 -0.017730764757114246 0.0099265833591339024 0 -0.016887181121623025 0.0092930866050900014 0 -0.017282851283343302 0.0086074687183551515 0 -0.017468636140628803 0.0097675027473925983 0 -0.017617191538331179 0.0097721941539130174 0 -0.01754803521465486 0.0096574807712377052 0 -0.017696865258543901 0.0097269311575810761 0 -0.017617191538331179 0.0097721941539130174 0 -0.01754803521465486 0.0096574807712377052 0 -0.013285276871653994 0.0045628601964185682 0 -0.009945815289772994 -0.004642572462825457 0 -0.012507110185664871 -0.0025481334229062015 0 -0.010743211301315813 -0.0022031209222683787 0 -0.013988960951848492 -0.0010608175214305731 0 -0.011601992204491615 -0.0040474367099067547 0 -0.012507110185664871 -0.0025481334229062015 0 -0.013081073508125273 -0.0056631493889575312 0 -0.011321977942152076 -0.0041404026492707375 0 -0.011601992204491615 -0.0040474367099067547 0 -0.010743211301315813 -0.0022031209222683787 0 -0.014932072371696423 0.0006782239825745799 0 -0.013285276871653994 0.0045628601964185682 0 -0.018014095298281477 0.0090950184504468273 0 -0.017859772610492691 0.0093493072309072459 0 -0.017655292037353578 0.0092707892859906649 0 -0.014932072371696423 0.0006782239825745799 0 -0.014522134058648694 0.00041597705414314753 0 -0.011601992204491615 -0.0040474367099067547 0 -0.012507110185664871 -0.0025481334229062015 0 -0.010743211301315813 -0.0022031209222683787 0 -0.018014095298281477 0.0090950184504468273 0 -0.017655292037353578 0.0092707892859906649 0 -0.017325154860368459 0.0092093299370149644 0 -0.013285276871653994 0.0045628601964185682 0 -0.019103298776804112 0.0099742045310491721 0 -0.017318127270956753 0.0094291173107018227 0 -0.017276032253797285 0.0094206613089321892 0 -0.017352687733151389 0.0094069102117149868 0 -0.017318127270956753 0.0094291173107018227 0 -0.017354908495124409 0.0094469048502171908 0 -0.017352687733151389 0.0094069102117149868 0 -0.017318127270956753 0.0094291173107018227 0 -0.017370623997088185 0.009452187931869617 0 -0.017354908495124409 0.0094469048502171908 0 -0.017352687733151389 0.0094069102117149868 0 -0.017655292037353578 0.0092707892859906649 0 -0.017325154860368459 0.0092093299370149644 0 -0.017357344311307695 0.0094476036685462901 0 -0.017354908495124409 0.0094469048502171908 0 -0.017352687733151389 0.0094069102117149868 0 -0.017357344311307695 0.0094476036685462901 0 -0.017352687733151389 0.0094069102117149868 0 -0.017325154860368459 0.0092093299370149644 0 -0.017859772610492691 0.0093493072309072459 0 -0.017352687733151389 0.0094069102117149868 0 -0.017655292037353578 0.0092707892859906649 0 -0.014491657516895112 0.0024612052342404241 0 -0.014932072371696423 0.0006782239825745799 0 -0.016919623722841951 0.0088458328880745285 0 -0.018014095298281477 0.0090950184504468273 0 -0.017325154860368459 0.0092093299370149644 0 -0.012836680196979353 -0.0043619226174037009 0 -0.0120662058587291 -0.0039775551947165899 0 -0.013363944733601051 -0.0033704139590731352 0 -0.013717890012487823 -0.004695416291298651 0 -0.012836680196979353 -0.0043619226174037009 0 -0.013363944733601051 -0.0033704139590731352 0 -0.013131285826300713 -0.0067366704447729157 0 -0.014932072371696423 0.0006782239825745799 0 -0.012879964595101373 -0.0072720164123758228 0 -0.011374840463355407 -0.0042007427443006545 0 -0.013081073508125273 -0.0056631493889575312 0 -0.011374840463355407 -0.0042007427443006545 0 -0.011601992204491615 -0.0040474367099067547 0 -0.013081073508125273 -0.0056631493889575312 0 -0.013081073508125273 -0.0056631493889575312 0 -0.013793377477803303 -0.0059223346331525976 0 -0.013489772518323189 -0.0039803252629404115 0 -0.013256959245650823 -0.0065846950863659168 0 -0.013081073508125273 -0.0056631493889575312 0 -0.013793377477803303 -0.0059223346331525976 0 -0.012879964595101373 -0.0072720164123758228 0 -0.013256959245650823 -0.0065846950863659168 0 -0.013081073508125273 -0.0056631493889575312 0 -0.014019105011716116 -0.011747138991510532 0 -0.013407415220582867 -0.013403078975386283 0 -0.012367478181516249 -0.011972686421056729 0 -0.012507110185664871 -0.0025481334229062015 0 -0.013081073508125273 -0.0056631493889575312 0 -0.014086737763109399 -0.0018750259167333871 0 -0.014053591332824373 -0.0093968594383674019 0 -0.012020326276915905 -0.0067736289724738127 0 -0.014019105011716116 -0.011747138991510532 0 -0.013407415220582867 -0.013403078975386283 0 -0.014253488790331495 -0.014873925075297041 0 -0.013651330636979023 -0.0038979985533654339 0 -0.012020326276915905 -0.0067736289724738127 0 -0.013407415220582867 -0.013403078975386283 0 -0.013253709382262465 -0.014487135852674854 0 -0.014253488790331495 -0.014873925075297041 0 -0.013253709382262465 -0.014487135852674854 0 -0.014066721821820066 -0.015596752082599401 0 -0.012251495707604955 -0.015144451115890219 0 -0.013253709382262465 -0.014487135852674854 0 -0.014253488790331495 -0.014873925075297041 0 -0.014066721821820066 -0.015596752082599401 0 -0.012507110185664871 -0.0025481334229062015 0 -0.014086737763109399 -0.0018750259167333871 0 -0.013988960951848492 -0.0010608175214305731 0 -0.011776459423991992 -0.013644235389357036 0 -0.010559530806903139 -0.014746787152672509 0 -0.012251495707604955 -0.015144451115890219 0 -0.013253709382262465 -0.014487135852674854 0 -0.011776459423991992 -0.013644235389357036 0 -0.012251495707604955 -0.015144451115890219 0 -0.013407415220582867 -0.013403078975386283 0 -0.013253709382262465 -0.014487135852674854 0 -0.011776459423991992 -0.013644235389357036 0 -0.011776459423991992 -0.013644235389357036 0 -0.012367478181516249 -0.011972686421056729 0 -0.010816111810875875 -0.01209900221770246 0 -0.013407415220582867 -0.013403078975386283 0 -0.011776459423991992 -0.013644235389357036 0 -0.012367478181516249 -0.011972686421056729 0 -0.011412949456315259 -0.010484046631255975 0 -0.012484855195778547 -0.010107763958976931 0 -0.012367478181516249 -0.011972686421056729 0 -0.012484855195778547 -0.010107763958976931 0 -0.014019105011716116 -0.011747138991510532 0 -0.012367478181516249 -0.011972686421056729 0 -0.011412949456315259 -0.010484046631255975 0 -0.012367478181516249 -0.011972686421056729 0 -0.010816111810875875 -0.01209900221770246 0 -0.011776459423991992 -0.013644235389357036 0 -0.0092697706593219634 -0.012683641536890956 0 -0.010816111810875875 -0.01209900221770246 0 -0.0099662702488081279 -0.010335660861119689 0 -0.0092697706593219634 -0.012683641536890956 0 -0.010816111810875875 -0.01209900221770246 0 -0.0099662702488081279 -0.010335660861119689 0 -0.011412949456315259 -0.010484046631255975 0 -0.010816111810875875 -0.01209900221770246 0 -0.0076455786511304396 -0.010213208108666147 0 -0.0068484223701883572 -0.013400322071485178 0 -0.0092697706593219634 -0.012683641536890956 0 -0.0068484223701883572 -0.013400322071485178 0 -0.0092697706593219634 -0.012683641536890956 0 -0.0086207006574649404 -0.015375469301859471 0 -0.0068484223701883572 -0.013400322071485178 0 -0.0059676422900045625 -0.01602048310856671 0 -0.0086207006574649404 -0.015375469301859471 0 -0.0092697706593219634 -0.012683641536890956 0 -0.010559530806903139 -0.014746787152672509 0 -0.0086207006574649404 -0.015375469301859471 0 -0.011776459423991992 -0.013644235389357036 0 -0.0092697706593219634 -0.012683641536890956 0 -0.010559530806903139 -0.014746787152672509 0 -0.010559530806903139 -0.014746787152672509 0 -0.01091386100349878 -0.016865655526068748 0 -0.0086207006574649404 -0.015375469301859471 0 -0.01091386100349878 -0.016865655526068748 0 -0.0086207006574649404 -0.015375469301859471 0 -0.0079223871833777413 -0.018048123475569181 0 -0.0059676422900045625 -0.01602048310856671 0 -0.0086207006574649404 -0.015375469301859471 0 -0.0079223871833777413 -0.018048123475569181 0 -0.0063306731200546314 -0.011803872450777929 0 -0.0059879783745766905 -0.011464636618307876 0 -0.0066760859491015118 -0.011589439025390325 0 -0.0041269127086655099 -0.014784522883125381 0 -0.003695770740685546 -0.01434679206666031 0 -0.0036867638251011923 -0.014660489298250076 0 -0.0044159513309127889 -0.013974895700411478 0 -0.0039111412144224641 -0.014332447715193057 0 -0.0044159513309127889 -0.013974895700411478 0 -0.006568532842087812 -0.01590424471993665 0 -0.0031656672556304049 -0.015015984203266662 0 -0.003695770740685546 -0.01434679206666031 0 -0.0036867638251011923 -0.014660489298250076 0 -0.0091884344015445447 -0.014360266043107275 0 -0.006568532842087812 -0.01590424471993665 0 -0.0068988923798882235 -0.011044295170501038 0 -0.0059879783745766905 -0.011464636618307876 0 -0.0066760859491015118 -0.011589439025390325 0 -0.0068988923798882235 -0.011044295170501038 0 -0.0066760859491015118 -0.011589439025390325 0 -0.0071602716218597054 -0.011635954747554663 0 -0.0068915178270683919 -0.011949995764833708 0 -0.0066760859491015118 -0.011589439025390325 0 -0.0071602716218597054 -0.011635954747554663 0 -0.0074418497817487946 -0.01210010028258696 0 -0.0071602716218597054 -0.011635954747554663 0 -0.0076526169696875318 -0.011377657152658113 0 -0.0068988923798882235 -0.011044295170501038 0 -0.0071602716218597054 -0.011635954747554663 0 -0.0076526169696875318 -0.011377657152658113 0 -0.0055355592491401007 -0.0049902735513603679 0 -0.0054601281129421668 -0.0054364048714360862 0 -0.0052300502240455252 -0.0053739829037039531 0 -0.0054601281129421668 -0.0054364048714360862 0 -0.0052300502240455252 -0.0053739829037039531 0 -0.0054129562310426199 -0.0058859604745114232 0 -0.0069994564509294026 -0.0012143921396761761 0 -0.009945815289772994 -0.004642572462825457 0 -0.0052300502240455252 -0.0053739829037039531 0 -0.005368987291444899 -0.0059035015721049452 0 -0.0054129562310426199 -0.0058859604745114232 0 -0.0065830364294662087 -0.008308535814084167 0 -0.0092584848019635953 -0.0080809649161114432 0 -0.011508865606050573 -0.0066353030143993848 0 -0.011437914019067116 -0.0061582754126911507 0 -0.011632703982325026 -0.0060800884172187777 0 -0.012020326276915905 -0.0067736289724738127 0 -0.009945815289772994 -0.004642572462825457 0 -0.012020326276915905 -0.0067736289724738127 0 -0.0092584848019635953 -0.0080809649161114432 0 -0.009945815289772994 -0.004642572462825457 0 -0.0092584848019635953 -0.0080809649161114432 0 -0.0068988923798882235 -0.011044295170501038 0 -0.0076526169696875318 -0.011377657152658113 0 -0.007857791957881409 -0.010609728464247896 0 -0.010559530806903139 -0.014746787152672509 0 -0.01091386100349878 -0.016865655526068748 0 -0.012251495707604955 -0.015144451115890219 0 -0.0091884344015445447 -0.014360266043107275 0 -0.0092584848019635953 -0.0080809649161114432 0 -0.01091386100349878 -0.016865655526068748 0 -0.014066721821820066 -0.015596752082599401 0 -0.012251495707604955 -0.015144451115890219 0 3.980867292858839e-05 -0.054944983289755563 0 1.6689860175396981e-05 -0.054977732476668192 0 2.1496458473076231e-05 -0.05497414621805146 0 0.00016219548846979512 -0.054188731331317179 0 0.0001232939787094403 -0.054028142781437652 0 3.980867292858839e-05 -0.054944983289755563 0 1.6689860175396981e-05 -0.054977732476668192 0 1.0473033626155572e-05 -0.054985302810377799 0 2.4890407674423618e-08 -0.054999942650015968 0 1.6689860175396981e-05 -0.054977732476668192 0 2.1496458473076231e-05 -0.05497414621805146 0 2.4890407674423618e-08 -0.054999942650015968 0 1.6689860175396981e-05 -0.054977732476668192 0 1.0473033626155572e-05 -0.054985302810377799 0 0.0001232939787094403 -0.054028142781437652 0 1.0591447531879425e-07 -0.05499961015508148 0 2.4890407674423618e-08 -0.054999942650015968 0 1.0473033626155572e-05 -0.054985302810377799 0 -6.2280286137479755e-09 -0.054999999889586954 0 0.000369257798806243 -0.052031994800819714 0 0.00047790765024929963 -0.053355099844241187 0 0.00011290694026676086 -0.052713864842263952 0 0.00047790765024929963 -0.053355099844241187 0 0.00011290694026676086 -0.052713864842263952 0 0.00010703520302305591 -0.053658046813542797 0 0.00011290694026676086 -0.052713864842263952 0 -0.00015228714188448485 -0.052370457198132686 0 -0.00010404537878984651 -0.05179987044290707 0 -0.00015228714188448485 -0.052370457198132686 0 -0.00025182869746744665 -0.051553675644990117 0 -0.00010404537878984651 -0.05179987044290707 0 -0.00025182869746744665 -0.051553675644990117 0 -0.00010404537878984651 -0.05179987044290707 0 -0.00031276415584539761 -0.051202510423435321 0 0.000369257798806243 -0.052031994800819714 0 0.00011290694026676086 -0.052713864842263952 0 -0.00010404537878984651 -0.05179987044290707 0 0.0032907123654071658 -0.047154630085690333 0 0.002729110059848004 -0.047889206208592383 0 0.00016219548846979512 -0.054188731331317179 0 0.0032907123654071658 -0.047154630085690333 0 0.000369257798806243 -0.052031994800819714 0 -0.00010404537878984651 -0.05179987044290707 0 0.00010305036968244618 -0.051369418936053957 0 3.980867292858839e-05 -0.054944983289755563 0 8.2943031551845468e-05 -0.054888708221211994 0 6.0326700224577728e-05 -0.054932475300539373 0 0.0032907123654071658 -0.047154630085690333 0 0.0037095153352824134 -0.046339730712003604 0 -0.00010404537878984651 -0.05179987044290707 0 0.00010305036968244618 -0.051369418936053957 0 -0.00031276415584539761 -0.051202510423435321 0 0.007261371426592402 -0.041338237542166062 0 0.007435735837554313 -0.041382172661721679 0 0.0076282173238868198 -0.041614260895940787 0 0.007261371426592402 -0.041338237542166062 0 0.007435735837554313 -0.041382172661721679 0 0.0072215435347680393 -0.04159807257170034 0 0.0032907123654071658 -0.047154630085690333 0 0.0075828630980898136 -0.039866953304621838 0 0.006134238673030909 -0.040569810784161997 0 0.0064167561878228736 -0.041320357495419076 0 0.0072215435347680393 -0.04159807257170034 0 0.006134238673030909 -0.040569810784161997 0 0.0055343223491333754 -0.041664337319266838 0 0.0050226819671832373 -0.040871421336696398 0 0.0055343223491333754 -0.041664337319266838 0 0.0064167561878228736 -0.041320357495419076 0 0.0071038346123873785 -0.041862817937413511 0 0.006134238673030909 -0.040569810784161997 0 0.0055343223491333754 -0.041664337319266838 0 0.0064167561878228736 -0.041320357495419076 0 0.002729110059848004 -0.047889206208592383 0 0.0010743805093985435 -0.050765079847973599 0 0.00013243460450738928 -0.054850213076754757 0 3.4321093220702756e-05 -0.054927008661683874 0 2.8464440724046956e-05 -0.054963146757418639 0 0.0029054879669414206 -0.047983706742611695 0 0.0010743805093985435 -0.050765079847973599 0 0.0055343223491333754 -0.041664337319266838 0 0.0050226819671832373 -0.040871421336696398 0 0.0038332151958667894 -0.041276475703585176 0 6.0326700224577728e-05 -0.054932475300539373 0 3.5346224928805111e-05 -0.054960886195467594 0 2.6507444229029015e-05 -0.054977785124228552 0 3.980867292858839e-05 -0.054944983289755563 0 6.0326700224577728e-05 -0.054932475300539373 0 3.5346224928805111e-05 -0.054960886195467594 0 3.980867292858839e-05 -0.054944983289755563 0 2.1496458473076231e-05 -0.05497414621805146 0 3.5346224928805111e-05 -0.054960886195467594 0 2.4890407674423618e-08 -0.054999942650015968 0 2.1496458473076231e-05 -0.05497414621805146 0 4.3091573375896883e-08 -0.054999926320066908 0 2.1496458473076231e-05 -0.05497414621805146 0 3.5346224928805111e-05 -0.054960886195467594 0 4.3091573375896883e-08 -0.054999926320066908 0 0.0010743805093985435 -0.050765079847973599 0 -9.429973629358673e-07 -0.054997604709766189 0 8.2371099176146158e-10 -0.054999972281696355 0 1.5038538892971663e-05 -0.054976090248135094 0 5.9208606542303009e-09 -0.05500000438352784 0 1.0120012744766311e-06 -0.054997471984398243 0 0.0010743805093985435 -0.050765079847973599 0 3.5346224928805111e-05 -0.054960886195467594 0 4.3091573375896883e-08 -0.054999926320066908 0 2.6507444229029015e-05 -0.054977785124228552 0 3.4321093220702756e-05 -0.054927008661683874 0 3.2910315131815571e-08 -0.0549997114608732 0 2.8464440724046956e-05 -0.054963146757418639 0 2.8464440724046956e-05 -0.054963146757418639 0 7.363258422769361e-05 -0.054955440525626884 0 2.3801551368388849e-08 -0.05500007726642215 0 3.2910315131815571e-08 -0.0549997114608732 0 2.8464440724046956e-05 -0.054963146757418639 0 2.3801551368388849e-08 -0.05500007726642215 0 0.00013243460450738928 -0.054850213076754757 0 2.8464440724046956e-05 -0.054963146757418639 0 7.363258422769361e-05 -0.054955440525626884 0 9.3837065691409983e-05 -0.054874540326528262 0 0.00015391078214124172 -0.054770253146823981 0 9.4987217441309292e-05 -0.054788344858362453 0 5.3440354111208153e-05 -0.054883774133278884 0 0.00016661417038474357 -0.054735513355693849 0 2.6877107767412642e-08 -0.054999633925385288 0 1.8554642025376003e-08 -0.054999910596458972 0 5.3440354111208153e-05 -0.054883774133278884 0 9.3837065691409983e-05 -0.054874540326528262 0 4.9300350040027002e-08 -0.054999936145739017 0 9.4987217441309292e-05 -0.054788344858362453 0 2.6877107767412642e-08 -0.054999633925385288 0 5.3440354111208153e-05 -0.054883774133278884 0 1.8554642025376003e-08 -0.054999910596458972 0 5.3440354111208153e-05 -0.054883774133278884 0 3.7497670162325004e-05 -0.054950595361362813 0 5.3440354111208153e-05 -0.054883774133278884 0 0.00011523817853312646 -0.05482001519247872 0 3.7497670162325004e-05 -0.054950595361362813 0 5.3440354111208153e-05 -0.054883774133278884 0 0.00011523817853312646 -0.05482001519247872 0 0.00016661417038474357 -0.054735513355693849 0 0.00011523817853312646 -0.05482001519247872 0 3.7497670162325004e-05 -0.054950595361362813 0 0.00011196275299329526 -0.054893199554841988 0 4.1622856920979551e-05 -0.054989412026522425 0 3.7497670162325004e-05 -0.054950595361362813 0 6.7196186901963102e-05 -0.054962437512427589 0 3.7497670162325004e-05 -0.054950595361362813 0 0.00011196275299329526 -0.054893199554841988 0 6.7196186901963102e-05 -0.054962437512427589 0 0.00011196275299329526 -0.054893199554841988 0 0.00011658049800313805 -0.054959330461717519 0 6.7196186901963102e-05 -0.054962437512427589 0 7.5666252521268602e-05 -0.054981814348661229 0 0.00011658049800313805 -0.054959330461717519 0 6.7196186901963102e-05 -0.054962437512427589 0 4.1622856920979551e-05 -0.054989412026522425 0 7.5666252521268602e-05 -0.054981814348661229 0 6.7196186901963102e-05 -0.054962437512427589 0 1.2006511032117083e-08 -0.054999998372158097 0 1.8554642025376003e-08 -0.054999910596458972 0 3.7497670162325004e-05 -0.054950595361362813 0 1.2006511032117083e-08 -0.054999998372158097 0 4.1622856920979551e-05 -0.054989412026522425 0 3.7497670162325004e-05 -0.054950595361362813 0 0.00020517022715965728 -0.054223832264103149 0 0.00013275217166390692 -0.054272817793887991 0 0.00014962387770446817 -0.054158628122397544 0 0.00020517022715965728 -0.054223832264103149 0 0.00013275217166390692 -0.054272817793887991 0 0.00020131105472297889 -0.054357570935065054 0 7.5949031760513952e-05 -0.054170848925931048 0 0.00013275217166390692 -0.054272817793887991 0 0.00014962387770446817 -0.054158628122397544 0 7.5949031760513952e-05 -0.054170848925931048 0 0.00013275217166390692 -0.054272817793887991 0 4.2283275434775121e-05 -0.054337888486577932 0 0.0001319135603947082 -0.054200358330307535 0 0.00037340922584469142 -0.054126716403644935 0 7.5949031760513952e-05 -0.054170848925931048 0 0.00027988252022167337 -0.054020267165993265 0 -2.8457159718204481e-05 -0.054049761203238005 0 0.00020517022715965728 -0.054223832264103149 0 0.00010994610625268155 -0.054134492408000813 0 0.00020157223262971013 -0.054070697053132631 0 0.00037340922584469142 -0.054126716403644935 0 0.00037310722265426494 -0.053681749986945859 0 0.00027092108443605643 -0.054120867286667956 0 0.00037340922584469142 -0.054126716403644935 0 0.0001740411823585591 -0.054011052811725066 0 0.00043234839511362963 -0.054168362175270685 0 0.00035978515080010873 -0.054277413521545602 0 0.00037310722265426494 -0.053681749986945859 0 0.00041020238658464578 -0.054229686152109685 0 0.00014461008029114788 -0.055091594844854617 0 0.00011658049800313805 -0.054959330461717519 0 0.00020595221838612792 -0.054936163060519093 0 0.00020517022715965728 -0.054223832264103149 0 0.00020157223262971013 -0.054070697053132631 0 0.00035978515080010873 -0.054277413521545602 0 0.00055017083990546083 -0.053759339803800897 0 0.0001740411823585591 -0.054011052811725066 0 0.00043234839511362963 -0.054168362175270685 0 0.00043234839511362963 -0.054168362175270685 0 0.00035978515080010873 -0.054277413521545602 0 0.0002408168054370794 -0.054631651520886559 0 0.00011196275299329526 -0.054893199554841988 0 0.00020595221838612792 -0.054936163060519093 0 0.0002408168054370794 -0.054631651520886559 0 0.00011196275299329526 -0.054893199554841988 0 0.00011658049800313805 -0.054959330461717519 0 0.00020595221838612792 -0.054936163060519093 0 0.00020517022715965728 -0.054223832264103149 0 0.00035978515080010873 -0.054277413521545602 0 0.00020131105472297889 -0.054357570935065054 0 0.00035978515080010873 -0.054277413521545602 0 0.0002408168054370794 -0.054631651520886559 0 0.00020131105472297889 -0.054357570935065054 0 0.00030506165422905014 -0.054569620188395333 0 0.00026153321774170665 -0.054620146935750367 0 0.00011523817853312646 -0.05482001519247872 0 0.00011196275299329526 -0.054893199554841988 0 0.0002408168054370794 -0.054631651520886559 0 0.00011523817853312646 -0.05482001519247872 0 0.0002408168054370794 -0.054631651520886559 0 0.00016661417038474357 -0.054735513355693849 0 0.0002408168054370794 -0.054631651520886559 0 0.00015378173520291542 -0.054551168341246521 0 0.00013299891621754102 -0.054415503094848446 0 0.0002408168054370794 -0.054631651520886559 0 0.00020131105472297889 -0.054357570935065054 0 0.00013299891621754102 -0.054415503094848446 0 0.00013275217166390692 -0.054272817793887991 0 0.00020131105472297889 -0.054357570935065054 0 0.00013299891621754102 -0.054415503094848446 0 0.00013275217166390692 -0.054272817793887991 0 0.00013299891621754102 -0.054415503094848446 0 4.2283275434775121e-05 -0.054337888486577932 0 0.00015378173520291542 -0.054551168341246521 0 0.00013299891621754102 -0.054415503094848446 0 5.6216817648348122e-05 -0.05448651976967709 0 0.00013299891621754102 -0.054415503094848446 0 5.6216817648348122e-05 -0.05448651976967709 0 4.2283275434775121e-05 -0.054337888486577932 0 0.00016509871553064301 -0.054629573963813009 0 0.00018519794730510825 -0.05469009143750822 0 9.0401976399486536e-05 -0.0546887523518403 0 0.00015378173520291542 -0.054551168341246521 0 0.00016509871553064301 -0.054629573963813009 0 8.7428592537473179e-05 -0.054603765683697916 0 0.00015378173520291542 -0.054551168341246521 0 5.6216817648348122e-05 -0.05448651976967709 0 8.7428592537473179e-05 -0.054603765683697916 0 0.0002408168054370794 -0.054631651520886559 0 0.00015378173520291542 -0.054551168341246521 0 0.00016509871553064301 -0.054629573963813009 0 0.00016509871553064301 -0.054629573963813009 0 8.7428592537473179e-05 -0.054603765683697916 0 9.0401976399486536e-05 -0.0546887523518403 0 9.4987217441309292e-05 -0.054788344858362453 0 0.00016661417038474357 -0.054735513355693849 0 0.00018519794730510825 -0.05469009143750822 0 0.0002408168054370794 -0.054631651520886559 0 0.00016509871553064301 -0.054629573963813009 0 0.00016661417038474357 -0.054735513355693849 0 0.00016509871553064301 -0.054629573963813009 0 0.00016661417038474357 -0.054735513355693849 0 0.00018519794730510825 -0.05469009143750822 0 0.0029054879669414206 -0.047983706742611695 0 0.0035675068314879621 -0.04830267888483071 0 0.00013243460450738928 -0.054850213076754757 0 7.363258422769361e-05 -0.054955440525626884 0 0.00015293976245299589 -0.054848098577971634 0 0.00013243460450738928 -0.054850213076754757 0 0.00015293976245299589 -0.054848098577971634 0 0.00014569386767247059 -0.054776672538756073 0 0.00015293976245299589 -0.054848098577971634 0 9.0401976399486536e-05 -0.0546887523518403 0 0.00014569386767247059 -0.054776672538756073 0 0.00015391078214124172 -0.054770253146823981 0 9.0622311045894473e-05 -0.054711336891619507 0 0.0064167561878228736 -0.041320357495419076 0 0.0071038346123873785 -0.041862817937413511 0 0.0072215435347680393 -0.04159807257170034 0 0.0071038346123873785 -0.041862817937413511 0 0.0072215435347680393 -0.04159807257170034 0 0.007467325421992045 -0.041638797109480853 0 0.0035675068314879621 -0.04830267888483071 0 0.0038211984685936149 -0.048682022433705258 0 9.0401976399486536e-05 -0.0546887523518403 0 0.00014569386767247059 -0.054776672538756073 0 -0.00011810402644438441 -0.054618393347131436 0 0.0071038346123873785 -0.041862817937413511 0 0.007467325421992045 -0.041638797109480853 0 0.0076981036269348655 -0.041942951266662913 0 0.007467325421992045 -0.041638797109480853 0 0.0078118620372923941 -0.041629242312988667 0 0.0076981036269348655 -0.041942951266662913 0 0.0078118620372923941 -0.041629242312988667 0 0.0082710212907451189 -0.042185778178951527 0 0.0081131979345860795 -0.041512469801426713 0 0.0078118620372923941 -0.041629242312988667 0 0.0076981036269348655 -0.041942951266662913 0 0.0082710212907451189 -0.042185778178951527 0 -0.00020820571419852781 -0.054416836808309076 0 -0.00038164802441959021 -0.054263729413878921 0 -0.00046110003972626876 -0.054374342852676623 0 0.0038211984685936149 -0.048682022433705258 0 0.0044547796991614248 -0.044584379010521077 0 -0.00011810402644438441 -0.054618393347131436 0 -0.00020820571419852781 -0.054416836808309076 0 -0.00046110003972626876 -0.054374342852676623 0 9.0401976399486536e-05 -0.0546887523518403 0 -0.00011810402644438441 -0.054618393347131436 0 -1.5380645482887472e-05 -0.054553581646866696 0 8.7428592537473179e-05 -0.054603765683697916 0 9.0401976399486536e-05 -0.0546887523518403 0 -1.5380645482887472e-05 -0.054553581646866696 0 -0.00011810402644438441 -0.054618393347131436 0 -0.00020820571419852781 -0.054416836808309076 0 -1.5380645482887472e-05 -0.054553581646866696 0 -0.00020820571419852781 -0.054416836808309076 0 -1.5380645482887472e-05 -0.054553581646866696 0 -6.7776687447222407e-05 -0.054401117755044102 0 5.6216817648348122e-05 -0.05448651976967709 0 -1.5380645482887472e-05 -0.054553581646866696 0 -6.7776687447222407e-05 -0.054401117755044102 0 5.6216817648348122e-05 -0.05448651976967709 0 8.7428592537473179e-05 -0.054603765683697916 0 -1.5380645482887472e-05 -0.054553581646866696 0 5.6216817648348122e-05 -0.05448651976967709 0 4.2283275434775121e-05 -0.054337888486577932 0 -6.7776687447222407e-05 -0.054401117755044102 0 7.5949031760513952e-05 -0.054170848925931048 0 4.2283275434775121e-05 -0.054337888486577932 0 -8.8748938693274001e-05 -0.054236875187635744 0 4.2283275434775121e-05 -0.054337888486577932 0 -8.8748938693274001e-05 -0.054236875187635744 0 -6.7776687447222407e-05 -0.054401117755044102 0 -8.8748938693274001e-05 -0.054236875187635744 0 -6.7776687447222407e-05 -0.054401117755044102 0 -0.00022113219991913073 -0.054297321359413592 0 -0.00020820571419852781 -0.054416836808309076 0 -6.7776687447222407e-05 -0.054401117755044102 0 -0.00022113219991913073 -0.054297321359413592 0 -0.00022113219991913073 -0.054297321359413592 0 -0.00040848950628016303 -0.054028634231485503 0 -0.00038164802441959021 -0.054263729413878921 0 -0.00022113219991913073 -0.054297321359413592 0 -0.00023086467497729948 -0.054146523121844065 0 -0.00040848950628016303 -0.054028634231485503 0 -0.00020820571419852781 -0.054416836808309076 0 -0.00022113219991913073 -0.054297321359413592 0 -0.00038164802441959021 -0.054263729413878921 0 -8.8748938693274001e-05 -0.054236875187635744 0 -0.00022113219991913073 -0.054297321359413592 0 -0.00023086467497729948 -0.054146523121844065 0 -0.00027603289376703288 -0.053846489764736515 0 -0.00018834237179580804 -0.054018491301677983 0 -0.00040848950628016303 -0.054028634231485503 0 -0.0026128454743206803 -0.041665499677071186 0 -0.0032305951738809584 -0.041577160310393609 0 -0.002797739489961224 -0.041012985109872641 0 -0.00023086467497729948 -0.054146523121844065 0 -0.00018834237179580804 -0.054018491301677983 0 -0.00040848950628016303 -0.054028634231485503 0 -0.0010621404891804909 -0.048486534447289287 0 -0.0020679216224805683 -0.048099551595328555 0 -0.0010621404891804909 -0.048486534447289287 0 0.00081658588386483038 -0.054324611166265677 0 -0.00011530118042826647 -0.053821401204443411 0 -0.00035620343790853 -0.053788787291169697 0 -0.00018834237179580804 -0.054018491301677983 0 -0.00011530118042826647 -0.053821401204443411 0 -0.00018834237179580804 -0.054018491301677983 0 -2.8457159718204481e-05 -0.054049761203238005 0 -0.00011530118042826647 -0.053821401204443411 0 0.00027988252022167337 -0.054020267165993265 0 -2.8457159718204481e-05 -0.054049761203238005 0 7.5949031760513952e-05 -0.054170848925931048 0 -8.8748938693274001e-05 -0.054236875187635744 0 -2.8457159718204481e-05 -0.054049761203238005 0 -8.8748938693274001e-05 -0.054236875187635744 0 -0.00018834237179580804 -0.054018491301677983 0 -2.8457159718204481e-05 -0.054049761203238005 0 -8.8748938693274001e-05 -0.054236875187635744 0 -0.00023086467497729948 -0.054146523121844065 0 -0.00018834237179580804 -0.054018491301677983 0 -0.0024139122958380327 -0.03034868490842961 0 -0.0024012342652265065 -0.030448938759473021 0 -0.0022288752008725789 -0.030626231378846912 0 -0.0025643458352073429 -0.03364406126020314 0 -0.00096701968826662095 -0.041780689906414432 0 -0.0024012342652265065 -0.030448938759473021 0 -0.0024393064115927551 -0.030480312901259191 0 -0.0024712699828507529 -0.030391613454687435 0 -0.0024343684795812429 -0.03042343175842881 0 -0.0024012342652265065 -0.030448938759473021 0 -0.0024712699828507529 -0.030391613454687435 0 -0.0024343684795812429 -0.03042343175842881 0 -0.0024526773915103705 -0.030460357440627993 0 -0.0024012342652265065 -0.030448938759473021 0 -0.0025643458352073429 -0.03364406126020314 0 -0.0023047851496977977 -0.029578702822858859 0 -0.0019775943879534854 -0.041532330280729793 0 -0.002797739489961224 -0.041012985109872641 0 -0.0023527826275262015 -0.040446613648948367 0 -0.00040848950628016303 -0.054028634231485503 0 -0.00038164802441959021 -0.054263729413878921 0 -0.00053840884932181122 -0.054138101655492266 0 -0.0020679216224805683 -0.048099551595328555 0 -0.00096701968826662095 -0.041780689906414432 0 -0.00038164802441959021 -0.054263729413878921 0 -0.00053840884932181122 -0.054138101655492266 0 -0.00046110003972626876 -0.054374342852676623 0 -0.00096701968826662095 -0.041780689906414432 0 0.00048548161094363353 -0.035346740537328572 0 -0.0022288752008725789 -0.030626231378846912 0 -0.0024393064115927551 -0.030480312901259191 0 -0.0023051758342589931 -0.030761528037562064 0 -0.0024012342652265065 -0.030448938759473021 0 -0.0022288752008725789 -0.030626231378846912 0 -0.0024393064115927551 -0.030480312901259191 0 0.00048548161094363353 -0.035346740537328572 0 0.00010005970485087015 -0.035761633590415828 0 0.0024957662276010612 -0.03747634316308094 0 0.0040677905252569264 -0.038059557618470859 0 0.0029987663123566253 -0.039973139977181694 0 -0.00096701968826662095 -0.041780689906414432 0 0.0044547796991614248 -0.044584379010521077 0 0.00048548161094363353 -0.035346740537328572 0 0.0044547796991614248 -0.044584379010521077 0 0.0021309687194228117 -0.041708377327958755 0 0.0010290808276242475 -0.043012419324169465 0 0.0028127007914110799 -0.043687608823225865 0 0.0044547796991614248 -0.044584379010521077 0 0.0061417299527403964 -0.03973321897453802 0 0.0040677905252569264 -0.038059557618470859 0 0.0029987663123566253 -0.039973139977181694 0 0.0049772071325913068 -0.040707540705963219 0 0.0025049809853784043 -0.038085808523933541 0 0.0061417299527403964 -0.03973321897453802 0 0.0021504017981194491 -0.036148891549845491 0 -0.00039209479830932295 -0.036612892867722666 0 -0.00078319487770338694 -0.03516915303045199 0 0.0025049809853784043 -0.038085808523933541 0 0.00010005970485087015 -0.035761633590415828 0 0.0024957662276010612 -0.03747634316308094 0 0.0029987663123566253 -0.039973139977181694 0 0.00102330131078963 -0.03922509978272367 0 0.0021504017981194491 -0.036148891549845491 0 9.8078778702869864e-05 -0.038129695004186344 0 -0.00039209479830932295 -0.036612892867722666 0 0.0021504017981194491 -0.036148891549845491 0 9.8078778702869864e-05 -0.038129695004186344 0 0.0027756421972982182 -0.038430864738920288 0 9.8078778702869864e-05 -0.038129695004186344 0 0.002879323374084019 -0.040620271289969756 0 0.0027756421972982182 -0.038430864738920288 0 9.8078778702869864e-05 -0.038129695004186344 0 -0.00011553458092291041 -0.042434888776756254 0 0.002879323374084019 -0.040620271289969756 0 -0.00011553458092291041 -0.042434888776756254 0 0.002879323374084019 -0.040620271289969756 0 0.0058288733161310693 -0.043585770688886527 0 0.002879323374084019 -0.040620271289969756 0 0.0054778664425061659 -0.041270065219858654 0 0.0058288733161310693 -0.043585770688886527 0 0.0054778664425061659 -0.041270065219858654 0 0.004450252686659383 -0.039826349199979162 0 0.0063447239141925585 -0.040634763043861516 0 0.002879323374084019 -0.040620271289969756 0 0.0054778664425061659 -0.041270065219858654 0 0.004450252686659383 -0.039826349199979162 0 0.0021504017981194491 -0.036148891549845491 0 0.0027756421972982182 -0.038430864738920288 0 0.0057303672272558167 -0.037676082533314698 0 0.004450252686659383 -0.039826349199979162 0 0.0057303672272558167 -0.037676082533314698 0 0.0063447239141925585 -0.040634763043861516 0 0.002879323374084019 -0.040620271289969756 0 0.004450252686659383 -0.039826349199979162 0 0.0027756421972982182 -0.038430864738920288 0 0.004450252686659383 -0.039826349199979162 0 0.0027756421972982182 -0.038430864738920288 0 0.0057303672272558167 -0.037676082533314698 0 0.0078118620372923941 -0.041629242312988667 0 0.0081131979345860795 -0.041512469801426713 0 0.0074802970118548846 -0.041158753791395816 0 0.0061171216232085816 -0.039931244391828713 0 0.0063447239141925585 -0.040634763043861516 0 0.0074802970118548846 -0.041158753791395816 0 0.0061417299527403964 -0.03973321897453802 0 0.0078604533700622065 -0.041357695286492795 0 0.0061417299527403964 -0.03973321897453802 0 0.0062180311866153271 -0.04004002157582854 0 0.0063447239141925585 -0.040634763043861516 0 0.0074802970118548846 -0.041158753791395816 0 0.0068424564526100616 -0.04152080403760175 0 0.0072215435347680393 -0.04159807257170034 0 0.007467325421992045 -0.041638797109480853 0 0.0074802970118548846 -0.041158753791395816 0 0.007435735837554313 -0.041382172661721679 0 0.0072215435347680393 -0.04159807257170034 0 0.0074802970118548846 -0.041158753791395816 0 0.007467325421992045 -0.041638797109480853 0 0.0078118620372923941 -0.041629242312988667 0 0.0074802970118548846 -0.041158753791395816 0 0.007435735837554313 -0.041382172661721679 0 0.0074802970118548846 -0.041158753791395816 0 0.0076282173238868198 -0.041614260895940787 0 0.0074802970118548846 -0.041158753791395816 0 0.0076282173238868198 -0.041614260895940787 0 0.0068424564526100616 -0.04152080403760175 0 0.0076282173238868198 -0.041614260895940787 0 0.0068424564526100616 -0.04152080403760175 0 0.0058288733161310693 -0.043585770688886527 0 0.0037095153352824134 -0.046339730712003604 0 0.0024412507732162621 -0.046909738758033899 0 0.0054778664425061659 -0.041270065219858654 0 0.0063447239141925585 -0.040634763043861516 0 0.0068424564526100616 -0.04152080403760175 0 0.0054778664425061659 -0.041270065219858654 0 0.0068424564526100616 -0.04152080403760175 0 0.0058288733161310693 -0.043585770688886527 0 -0.00031276415584539761 -0.051202510423435321 0 -0.00034383473267637086 -0.051144400245151538 0 -0.00032185782876013337 -0.050270175653052029 0 -0.00034383473267637086 -0.051144400245151538 0 -0.00039999146708649295 -0.050531184407422512 0 -0.00032185782876013337 -0.050270175653052029 0 -0.00025182869746744665 -0.051553675644990117 0 -0.00031276415584539761 -0.051202510423435321 0 -0.00034383473267637086 -0.051144400245151538 0 -0.00015228714188448485 -0.052370457198132686 0 -0.00034383473267637086 -0.051144400245151538 0 -0.00047039395304346093 -0.05198772795183125 0 -0.00015228714188448485 -0.052370457198132686 0 -0.00025182869746744665 -0.051553675644990117 0 -0.00034383473267637086 -0.051144400245151538 0 -0.00039999146708649295 -0.050531184407422512 0 -0.00068222904019315839 -0.050790831746522443 0 -0.00047039395304346093 -0.05198772795183125 0 -0.00034383473267637086 -0.051144400245151538 0 -0.00039999146708649295 -0.050531184407422512 0 -0.00047039395304346093 -0.05198772795183125 0 -0.00039999146708649295 -0.050531184407422512 0 -0.00068222904019315839 -0.050790831746522443 0 -0.00038733103950005691 -0.049346065575796558 0 -0.00038733103950005691 -0.049346065575796558 0 -0.0019810177745863415 -0.049318446388130432 0 -0.0016530645082845497 -0.050524456242445143 0 -0.00068222904019315839 -0.050790831746522443 0 -0.00038733103950005691 -0.049346065575796558 0 -0.0016530645082845497 -0.050524456242445143 0 -0.00058373151391654635 -0.047032618629620521 0 -0.00038733103950005691 -0.049346065575796558 0 -0.0019810177745863415 -0.049318446388130432 0 -0.00011553458092291041 -0.042434888776756254 0 -0.00058373151391654635 -0.047032618629620521 0 0.0058288733161310693 -0.043585770688886527 0 -0.00039999146708649295 -0.050531184407422512 0 -0.00038733103950005691 -0.049346065575796558 0 -0.00032185782876013337 -0.050270175653052029 0 -0.00058633524240766317 -0.047182812703108146 0 0.0024412507732162621 -0.046909738758033899 0 -0.00058373151391654635 -0.047032618629620521 0 -0.00038733103950005691 -0.049346065575796558 0 -0.00032185782876013337 -0.050270175653052029 0 -0.0025734333951152122 -0.039126569212696145 0 -0.0036154605837939 -0.039258799574191448 0 -0.0025049902538811868 -0.039162284817019895 0 -0.0032061557392983938 -0.039089586036439312 0 -0.0026922871324547293 -0.03844794578217027 0 -0.0025741479870287159 -0.039146175897125143 0 -0.0025049902538811868 -0.039162284817019895 0 -0.0032338496548526999 -0.039738303571939824 0 -0.0025049902538811868 -0.039162284817019895 0 -0.0032338496548526999 -0.039738303571939824 0 -0.0040527594155743462 -0.039381758311934065 0 -0.00011553458092291041 -0.042434888776756254 0 -0.00058373151391654635 -0.047032618629620521 0 -0.0040317053488829122 -0.048226266387855946 0 -0.00058373151391654635 -0.047032618629620521 0 -0.0040317053488829122 -0.048226266387855946 0 -0.0019810177745863415 -0.049318446388130432 0 -0.0025741479870287159 -0.039146175897125143 0 -0.0025049902538811868 -0.039162284817019895 0 -0.0023786051937548115 -0.039746767413753492 0 -0.003198955335889746 -0.043558950313800721 0 -0.0024707463713450842 -0.039983104422333271 0 -0.0019810177745863415 -0.049318446388130432 0 -0.0033196094454611717 -0.050955813965648432 0 -0.0016530645082845497 -0.050524456242445143 0 -0.0040317053488829122 -0.048226266387855946 0 -0.0019810177745863415 -0.049318446388130432 0 -0.0033196094454611717 -0.050955813965648432 0 -0.0025741479870287159 -0.039146175897125143 0 -0.0032338496548526999 -0.039738303571939824 0 -0.0029180949048226434 -0.040743755126979107 0 -0.003198955335889746 -0.043558950313800721 0 -0.0031541037088898549 -0.045786695812750862 0 -0.0032338496548526999 -0.039738303571939824 0 -0.0040527594155743462 -0.039381758311934065 0 -0.0040623713530377548 -0.040574147239227934 0 -0.0032061557392983938 -0.039089586036439312 0 -0.0041064214764048946 -0.038406953099711698 0 -0.0048467203524133248 -0.039552209427508686 0 -0.0040527594155743462 -0.039381758311934065 0 -0.0053856056225710935 -0.039767577551179427 0 -0.0040623713530377548 -0.040574147239227934 0 -0.0036154605837939 -0.039258799574191448 0 -0.0051395228153820584 -0.039647731427257867 0 -0.0032061557392983938 -0.039089586036439312 0 -0.0041064214764048946 -0.038406953099711698 0 -0.0035244585333405439 -0.037624748137791438 0 -0.0032061557392983938 -0.039089586036439312 0 -0.0035244585333405439 -0.037624748137791438 0 -0.0026922871324547293 -0.03844794578217027 0 -0.0035244585333405439 -0.037624748137791438 0 -0.0028789353587534354 -0.036772966923504756 0 -0.0026922871324547293 -0.03844794578217027 0 -0.0041064214764048946 -0.038406953099711698 0 -0.0035244585333405439 -0.037624748137791438 0 -0.0045727809691538295 -0.036921373006721797 0 -0.0035244585333405439 -0.037624748137791438 0 -0.0036626374591109266 -0.036008648133891506 0 -0.0045727809691538295 -0.036921373006721797 0 -0.0036626374591109266 -0.036008648133891506 0 -0.0028789353587534354 -0.036772966923504756 0 -0.0032653830292562343 -0.034735998861015617 0 -0.0035244585333405439 -0.037624748137791438 0 -0.0036626374591109266 -0.036008648133891506 0 -0.0028789353587534354 -0.036772966923504756 0 -0.0028789353587534354 -0.036772966923504756 0 -0.0025117040825138222 -0.037877511670508693 0 -0.0026922871324547293 -0.03844794578217027 0 -0.0028789353587534354 -0.036772966923504756 0 -0.0025117040825138222 -0.037877511670508693 0 -0.0023358597969434991 -0.036294370390004646 0 -0.0025117040825138222 -0.037877511670508693 0 -0.001653358959533686 -0.037430799759482186 0 -0.0023358597969434991 -0.036294370390004646 0 -0.0025049902538811868 -0.039162284817019895 0 -0.0026922871324547293 -0.03844794578217027 0 -0.0023786051937548115 -0.039746767413753492 0 -0.0025117040825138222 -0.037877511670508693 0 -0.0026922871324547293 -0.03844794578217027 0 -0.0023786051937548115 -0.039746767413753492 0 -0.00011553458092291041 -0.042434888776756254 0 -0.0040317053488829122 -0.048226266387855946 0 -0.0023786051937548115 -0.039746767413753492 0 9.8078778702869864e-05 -0.038129695004186344 0 -0.00011553458092291041 -0.042434888776756254 0 -0.0023786051937548115 -0.039746767413753492 0 9.8078778702869864e-05 -0.038129695004186344 0 -0.0023786051937548115 -0.039746767413753492 0 -0.001653358959533686 -0.037430799759482186 0 -0.0025117040825138222 -0.037877511670508693 0 -0.0023786051937548115 -0.039746767413753492 0 -0.001653358959533686 -0.037430799759482186 0 9.8078778702869864e-05 -0.038129695004186344 0 -0.001653358959533686 -0.037430799759482186 0 -0.00039209479830932295 -0.036612892867722666 0 -0.0013525090831575048 -0.036062225111938247 0 -0.0010236264163468929 -0.035669141827026227 0 -0.0024205079057921523 -0.034492874828192181 0 -0.001653358959533686 -0.037430799759482186 0 -0.00039209479830932295 -0.036612892867722666 0 -0.0013525090831575048 -0.036062225111938247 0 -0.00039209479830932295 -0.036612892867722666 0 -0.0013525090831575048 -0.036062225111938247 0 -0.00078319487770338694 -0.03516915303045199 0 -0.001653358959533686 -0.037430799759482186 0 -0.0013525090831575048 -0.036062225111938247 0 -0.0023358597969434991 -0.036294370390004646 0 -0.00067885044782794188 -0.036116851937018989 0 0.00010005970485087015 -0.035761633590415828 0 -0.0013525090831575048 -0.036062225111938247 0 -0.0023358597969434991 -0.036294370390004646 0 -0.0024205079057921523 -0.034492874828192181 0 -0.0023358597969434991 -0.036294370390004646 0 -0.0024205079057921523 -0.034492874828192181 0 -0.0027152603217783277 -0.035393835409808991 0 -0.0028789353587534354 -0.036772966923504756 0 -0.0023358597969434991 -0.036294370390004646 0 -0.0027152603217783277 -0.035393835409808991 0 -0.00011974665580850256 -0.032226617305397061 0 -0.0014428481054436374 -0.031669849749424765 0 -0.00087922476250085527 -0.031433196539761545 0 0.00010005970485087015 -0.035761633590415828 0 -0.0021602162850033915 -0.032778801480470146 0 -0.0014428481054436374 -0.031669849749424765 0 -0.00087922476250085527 -0.031433196539761545 0 -0.001641349848355355 -0.030998957517068243 0 0.00058347400678252274 -0.031388854979148749 0 -0.00031599860993442312 -0.031468908457064078 0 -0.00085984555232340341 -0.030812549972629243 0 0.00058347400678252274 -0.031388854979148749 0 -0.00011974665580850256 -0.032226617305397061 0 -0.00031599860993442312 -0.031468908457064078 0 -0.00011974665580850256 -0.032226617305397061 0 -0.00087922476250085527 -0.031433196539761545 0 -0.00031599860993442312 -0.031468908457064078 0 -0.00087922476250085527 -0.031433196539761545 0 -0.00031599860993442312 -0.031468908457064078 0 -0.00085984555232340341 -0.030812549972629243 0 0.00048548161094363353 -0.035346740537328572 0 -0.0022143739650065729 -0.029984964626740815 0 -0.0024393064115927551 -0.030480312901259191 0 -0.0023051758342589931 -0.030761528037562064 0 -0.0027381005882141261 -0.030494347808155898 0 -0.0024393064115927551 -0.030480312901259191 0 -0.0026063843306388937 -0.030286474379521429 0 -0.0027381005882141261 -0.030494347808155898 0 -0.0026063843306388937 -0.030286474379521429 0 -0.0027381005882141261 -0.030494347808155898 0 -0.0027581256329097209 -0.030297029071627606 0 -0.0022143739650065729 -0.029984964626740815 0 -0.0026222506542901394 -0.03029113226560598 0 -0.00085984555232340341 -0.030812549972629243 0 -0.0022462838895793728 -0.030249003237857622 0 -0.001641349848355355 -0.030998957517068243 0 -0.00087922476250085527 -0.031433196539761545 0 -0.00085984555232340341 -0.030812549972629243 0 -0.001641349848355355 -0.030998957517068243 0 -0.0027381005882141261 -0.030494347808155898 0 -0.0029213764862395879 -0.030193803903165266 0 -0.0032432891432914758 -0.030109813150877431 0 -0.0027381005882141261 -0.030494347808155898 0 -0.0027581256329097209 -0.030297029071627606 0 -0.0029213764862395879 -0.030193803903165266 0 -0.0027633629337026869 -0.030237961643571391 0 -0.0029213764862395879 -0.030193803903165266 0 -0.0028721442993555565 -0.030119060760758699 0 -0.0027581256329097209 -0.030297029071627606 0 -0.0027633629337026869 -0.030237961643571391 0 -0.0029213764862395879 -0.030193803903165266 0 -0.0030542788076150834 -0.02991434563836045 0 -0.0029213764862395879 -0.030193803903165266 0 -0.0031100331763331927 -0.030014074198365673 0 -0.0030542788076150834 -0.02991434563836045 0 -0.0029213764862395879 -0.030193803903165266 0 -0.0028721442993555565 -0.030119060760758699 0 -0.0027633629337026869 -0.030237961643571391 0 -0.0028721442993555565 -0.030119060760758699 0 -0.0027167994127466509 -0.030328666983290228 0 -0.0029519367375498615 -0.029918611668847586 0 -0.0028721442993555565 -0.030119060760758699 0 -0.0027167994127466509 -0.030328666983290228 0 -0.0031040358363003395 -0.030619635953547143 0 -0.0026063843306388937 -0.030286474379521429 0 -0.0027167994127466509 -0.030328666983290228 0 -0.0024343684795812429 -0.03042343175842881 0 -0.0026063843306388937 -0.030286474379521429 0 -0.0024712699828507529 -0.030391613454687435 0 -0.0026850446282353163 -0.030262230849423113 0 -0.0026904998578952928 -0.03043662355350445 0 -0.0024393064115927551 -0.030480312901259191 0 -0.0026063843306388937 -0.030286474379521429 0 -0.0024712699828507529 -0.030391613454687435 0 -0.0026063843306388937 -0.030286474379521429 0 -0.0027633629337026869 -0.030237961643571391 0 -0.0027167994127466509 -0.030328666983290228 0 -0.0026063843306388937 -0.030286474379521429 0 -0.0027581256329097209 -0.030297029071627606 0 -0.0027633629337026869 -0.030237961643571391 0 -0.0033395513575580713 -0.029728502874864674 0 -0.0032432891432914758 -0.030109813150877431 0 -0.0034975616732777458 -0.029638932873932395 0 -0.0026222506542901394 -0.03029113226560598 0 -0.003536440967720302 -0.029611303638299179 0 -0.0022462838895793728 -0.030249003237857622 0 -0.0031220903692884892 -0.030398855834912968 0 -0.0035729363299806397 -0.029677816543825106 0 -0.0029213764862395879 -0.030193803903165266 0 -0.0032432891432914758 -0.030109813150877431 0 -0.0031100331763331927 -0.030014074198365673 0 -0.0032125383402256224 -0.029804086875393633 0 -0.0033395513575580713 -0.029728502874864674 0 -0.0032432891432914758 -0.030109813150877431 0 -0.0032125383402256224 -0.029804086875393633 0 -0.0032432891432914758 -0.030109813150877431 0 -0.0031100331763331927 -0.030014074198365673 0 -0.0032125383402256224 -0.029804086875393633 0 -0.0030542788076150834 -0.02991434563836045 0 -0.0031100331763331927 -0.030014074198365673 0 -0.0022462838895793728 -0.030249003237857622 0 -0.001641349848355355 -0.030998957517068243 0 -0.0027077394620195002 -0.031110561706027638 0 -0.0022462838895793728 -0.030249003237857622 0 -0.0031220903692884892 -0.030398855834912968 0 -0.0027077394620195002 -0.031110561706027638 0 -0.0033447270000285419 -0.032721869482834912 0 -0.0032653830292562343 -0.034735998861015617 0 -0.0044414068809041016 -0.033918277788971128 0 -0.0021602162850033915 -0.032778801480470146 0 -0.0030420034228116019 -0.031894109997220442 0 -0.0014428481054436374 -0.031669849749424765 0 -0.001641349848355355 -0.030998957517068243 0 -0.0027077394620195002 -0.031110561706027638 0 -0.0024205079057921523 -0.034492874828192181 0 -0.0033447270000285419 -0.032721869482834912 0 -0.0032653830292562343 -0.034735998861015617 0 -0.0024205079057921523 -0.034492874828192181 0 -0.0032653830292562343 -0.034735998861015617 0 -0.0027152603217783277 -0.035393835409808991 0 -0.0028789353587534354 -0.036772966923504756 0 -0.0032653830292562343 -0.034735998861015617 0 -0.0027152603217783277 -0.035393835409808991 0 -0.0036626374591109266 -0.036008648133891506 0 -0.0032653830292562343 -0.034735998861015617 0 -0.0044414068809041016 -0.033918277788971128 0 -0.0044414068809041016 -0.033918277788971128 0 -0.0050457517950479912 -0.033081191828353923 0 -0.0052040654825001925 -0.033137974773691035 0 -0.0044414068809041016 -0.033918277788971128 0 -0.0050457517950479912 -0.033081191828353923 0 -0.0048904026613224919 -0.032415647508031387 0 -0.0044795143601757664 -0.033873898488815744 0 -0.0059456857644609963 -0.034593588289519424 0 -0.0045696177722431668 -0.030878705149219227 0 -0.0041876660188267713 -0.032227227185824006 0 -0.0039720726682818093 -0.030568194885229452 0 -0.0044414068809041016 -0.033918277788971128 0 -0.0048904026613224919 -0.032415647508031387 0 -0.0041876660188267713 -0.032227227185824006 0 -0.0048904026613224919 -0.032415647508031387 0 -0.0045696177722431668 -0.030878705149219227 0 -0.0041876660188267713 -0.032227227185824006 0 -0.0033447270000285419 -0.032721869482834912 0 -0.0044414068809041016 -0.033918277788971128 0 -0.0041876660188267713 -0.032227227185824006 0 -0.0030420034228116019 -0.031894109997220442 0 -0.0040661643020165703 -0.030712610916108562 0 -0.0031220903692884892 -0.030398855834912968 0 -0.0027077394620195002 -0.031110561706027638 0 -0.0039720726682818093 -0.030568194885229452 0 -0.0031220903692884892 -0.030398855834912968 0 -0.0039720726682818093 -0.030568194885229452 0 -0.0035729363299806397 -0.029677816543825106 0 -0.0033447270000285419 -0.032721869482834912 0 -0.0041876660188267713 -0.032227227185824006 0 -0.0039720726682818093 -0.030568194885229452 0 -0.0039720726682818093 -0.030568194885229452 0 -0.0038261388697931487 -0.029671962196160646 0 -0.0039705486087541157 -0.029595891706351931 0 -0.0045696177722431668 -0.030878705149219227 0 -0.0039720726682818093 -0.030568194885229452 0 -0.0039705486087541157 -0.029595891706351931 0 -0.0036516465930178069 -0.029064591508564826 0 -0.0038261388697931487 -0.029671962196160646 0 -0.0039705486087541157 -0.029595891706351931 0 -0.0036516465930178069 -0.029064591508564826 0 -0.0038261388697931487 -0.029671962196160646 0 -0.0035729363299806397 -0.029677816543825106 0 -0.0039720726682818093 -0.030568194885229452 0 -0.0038261388697931487 -0.029671962196160646 0 -0.0035729363299806397 -0.029677816543825106 0 -0.0036668015121294182 -0.029157229333923285 0 -0.003536440967720302 -0.029611303638299179 0 -0.003271301825627947 -0.02857047551723748 0 -0.0035352046199802699 -0.028933585557863153 0 -0.0037739456576891504 -0.029313905337798464 0 -0.0029579322365619934 -0.028204387618373673 0 -0.003271301825627947 -0.02857047551723748 0 -0.0035352046199802699 -0.028933585557863153 0 -0.0035352046199802699 -0.028933585557863153 0 -0.0039705486087541157 -0.029595891706351931 0 -0.0037739456576891504 -0.029313905337798464 0 -0.0036516465930178069 -0.029064591508564826 0 -0.0035352046199802699 -0.028933585557863153 0 -0.0039705486087541157 -0.029595891706351931 0 -0.0045696177722431668 -0.030878705149219227 0 -0.0039705486087541157 -0.029595891706351931 0 -0.0037739456576891504 -0.029313905337798464 0 -0.003271301825627947 -0.02857047551723748 0 -0.0037739456576891504 -0.029313905337798464 0 -0.0033499988002325168 -0.028696344524681016 0 -0.0037739456576891504 -0.029313905337798464 0 -0.0033499988002325168 -0.028696344524681016 0 -0.003571527149464905 -0.028711386866273059 0 -0.0031999264560895828 -0.028386802353074343 0 -0.0033499988002325168 -0.028696344524681016 0 -0.003571527149464905 -0.028711386866273059 0 -0.0045696177722431668 -0.030878705149219227 0 -0.0037739456576891504 -0.029313905337798464 0 -0.003571527149464905 -0.028711386866273059 0 -0.0044669435445341627 -0.030716482747643287 0 -0.0047215252449231346 -0.030566835445941971 0 -0.0048904026613224919 -0.032415647508031387 0 -0.0045696177722431668 -0.030878705149219227 0 -0.0060769683608570026 -0.032155505339874303 0 -0.0048904026613224919 -0.032415647508031387 0 -0.0060769683608570026 -0.032155505339874303 0 -0.0055161473965678522 -0.03273312606457475 0 -0.0050457517950479912 -0.033081191828353923 0 -0.0048904026613224919 -0.032415647508031387 0 -0.0055161473965678522 -0.03273312606457475 0 -0.0055161473965678522 -0.03273312606457475 0 -0.0059193281867474376 -0.032673395904293627 0 -0.0056782794290893522 -0.032889892285573603 0 -0.0055161473965678522 -0.03273312606457475 0 -0.0056782794290893522 -0.032889892285573603 0 -0.0053905449468684315 -0.03298490438344074 0 -0.0050457517950479912 -0.033081191828353923 0 -0.0055161473965678522 -0.03273312606457475 0 -0.0053905449468684315 -0.03298490438344074 0 -0.0050457517950479912 -0.033081191828353923 0 -0.0053905449468684315 -0.03298490438344074 0 -0.0052463011462876704 -0.033069275932664413 0 -0.0061209081353186517 -0.032551532482608191 0 -0.0060769683608570026 -0.032155505339874303 0 -0.0059193281867474376 -0.032673395904293627 0 -0.0060769683608570026 -0.032155505339874303 0 -0.0055161473965678522 -0.03273312606457475 0 -0.0059193281867474376 -0.032673395904293627 0 -0.0059193281867474376 -0.032673395904293627 0 -0.0059130020973237893 -0.03287484446480856 0 -0.0056782794290893522 -0.032889892285573603 0 -0.0061209081353186517 -0.032551532482608191 0 -0.0059193281867474376 -0.032673395904293627 0 -0.006052302498947411 -0.032726936271779215 0 -0.0059193281867474376 -0.032673395904293627 0 -0.006052302498947411 -0.032726936271779215 0 -0.0059130020973237893 -0.03287484446480856 0 -0.0060790762208527381 -0.03282982802348941 0 -0.0059130020973237893 -0.03287484446480856 0 -0.0059908287490649473 -0.032952749909548169 0 -0.0060790762208527381 -0.03282982802348941 0 -0.006052302498947411 -0.032726936271779215 0 -0.0059130020973237893 -0.03287484446480856 0 -0.0059130020973237893 -0.03287484446480856 0 -0.0057170128218743069 -0.032989328414291363 0 -0.0056782794290893522 -0.032889892285573603 0 -0.0059130020973237893 -0.03287484446480856 0 -0.0058617325393423552 -0.032996754399064319 0 -0.0057170128218743069 -0.032989328414291363 0 -0.0058617325393423552 -0.032996754399064319 0 -0.0057104999432455754 -0.033050204955451142 0 -0.0057170128218743069 -0.032989328414291363 0 -0.0058617325393423552 -0.032996754399064319 0 -0.0059487041965790022 -0.033036614255038496 0 -0.0058576989063156898 -0.033050166200855671 0 -0.0058617325393423552 -0.032996754399064319 0 -0.0058576989063156898 -0.033050166200855671 0 -0.0057104999432455754 -0.033050204955451142 0 -0.0059130020973237893 -0.03287484446480856 0 -0.0058617325393423552 -0.032996754399064319 0 -0.0059908287490649473 -0.032952749909548169 0 -0.0058617325393423552 -0.032996754399064319 0 -0.0059908287490649473 -0.032952749909548169 0 -0.0059487041965790022 -0.033036614255038496 0 -0.0061060713516588533 -0.032908263383069458 0 -0.0060289275940993243 -0.032981969975944665 0 -0.0059731089846588375 -0.033098410153468864 0 -0.0060289275940993243 -0.032981969975944665 0 -0.0059487041965790022 -0.033036614255038496 0 -0.0059731089846588375 -0.033098410153468864 0 -0.0064200970017581054 -0.035787329464903359 0 -0.0069105863726006602 -0.03616884869537966 0 -0.0069244682883855208 -0.03607973891490477 0 -0.0059908287490649473 -0.032952749909548169 0 -0.0060289275940993243 -0.032981969975944665 0 -0.0059487041965790022 -0.033036614255038496 0 -0.0058576989063156898 -0.033050166200855671 0 -0.0059731089846588375 -0.033098410153468864 0 -0.0057104999432455754 -0.033050204955451142 0 -0.0059487041965790022 -0.033036614255038496 0 -0.0058576989063156898 -0.033050166200855671 0 -0.0059731089846588375 -0.033098410153468864 0 -0.0079889383840486775 -0.037803343390401638 0 -0.0071527256877290286 -0.037403781840823803 0 -0.0067866429205489173 -0.036208995115256964 0 -0.007305601764108007 -0.03673962109436614 0 -0.0068508144314160272 -0.036306729501687111 0 -0.0069105863726006602 -0.03616884869537966 0 -0.0069244682883855208 -0.03607973891490477 0 -0.0067866429205489173 -0.036208995115256964 0 -0.0071527256877290286 -0.037403781840823803 0 -0.0067348724883835396 -0.037549837432201028 0 -0.0070902047855084076 -0.037964003851702614 0 -0.0071527256877290286 -0.037403781840823803 0 -0.0067348724883835396 -0.037549837432201028 0 -0.0066484580491608415 -0.036992236265589153 0 -0.0079889383840486775 -0.037803343390401638 0 -0.0071527256877290286 -0.037403781840823803 0 -0.0075490266037760182 -0.038012100710176952 0 -0.0071527256877290286 -0.037403781840823803 0 -0.0067866429205489173 -0.036208995115256964 0 -0.0066484580491608415 -0.036992236265589153 0 -0.0059731089846588375 -0.033098410153468864 0 -0.0054672534546118491 -0.033092073466480978 0 -0.0052040654825001925 -0.033137974773691035 0 -0.0069105863726006602 -0.03616884869537966 0 -0.0067866429205489173 -0.036208995115256964 0 -0.0068112199543749787 -0.036077712287880925 0 -0.0063377420792272883 -0.034484332153694612 0 -0.0059456857644609963 -0.034593588289519424 0 -0.0059731089846588375 -0.033098410153468864 0 -0.0054672534546118491 -0.033092073466480978 0 -0.0057104999432455754 -0.033050204955451142 0 -0.0054672534546118491 -0.033092073466480978 0 -0.0057104999432455754 -0.033050204955451142 0 -0.0055536852870718238 -0.033015945897822092 0 -0.0057104999432455754 -0.033050204955451142 0 -0.0057170128218743069 -0.032989328414291363 0 -0.0055536852870718238 -0.033015945897822092 0 -0.0055536852870718238 -0.033015945897822092 0 -0.0056782794290893522 -0.032889892285573603 0 -0.0053905449468684315 -0.03298490438344074 0 -0.0057170128218743069 -0.032989328414291363 0 -0.0055536852870718238 -0.033015945897822092 0 -0.0056782794290893522 -0.032889892285573603 0 -0.0054672534546118491 -0.033092073466480978 0 -0.0053570325090361286 -0.033065597783504617 0 -0.0052040654825001925 -0.033137974773691035 0 -0.0053570325090361286 -0.033065597783504617 0 -0.0052463011462876704 -0.033069275932664413 0 -0.0052040654825001925 -0.033137974773691035 0 -0.0054672534546118491 -0.033092073466480978 0 -0.0055536852870718238 -0.033015945897822092 0 -0.0053570325090361286 -0.033065597783504617 0 -0.0053570325090361286 -0.033065597783504617 0 -0.0053905449468684315 -0.03298490438344074 0 -0.0052463011462876704 -0.033069275932664413 0 -0.0055536852870718238 -0.033015945897822092 0 -0.0053570325090361286 -0.033065597783504617 0 -0.0053905449468684315 -0.03298490438344074 0 -0.0050457517950479912 -0.033081191828353923 0 -0.0052463011462876704 -0.033069275932664413 0 -0.0052040654825001925 -0.033137974773691035 0 -0.0044414068809041016 -0.033918277788971128 0 -0.0068112199543749787 -0.036077712287880925 0 -0.0057643500114924664 -0.036532896746081213 0 -0.0068112199543749787 -0.036077712287880925 0 -0.0057643500114924664 -0.036532896746081213 0 -0.0063512126161810682 -0.036551836191073724 0 -0.0067866429205489173 -0.036208995115256964 0 -0.0068112199543749787 -0.036077712287880925 0 -0.0063512126161810682 -0.036551836191073724 0 -0.0044414068809041016 -0.033918277788971128 0 -0.0057643500114924664 -0.036532896746081213 0 -0.0045727809691538295 -0.036921373006721797 0 -0.0036626374591109266 -0.036008648133891506 0 -0.0044414068809041016 -0.033918277788971128 0 -0.0045727809691538295 -0.036921373006721797 0 -0.0057643500114924664 -0.036532896746081213 0 -0.0045727809691538295 -0.036921373006721797 0 -0.0052739169633035298 -0.03789038961064143 0 -0.0041064214764048946 -0.038406953099711698 0 -0.0045727809691538295 -0.036921373006721797 0 -0.0052739169633035298 -0.03789038961064143 0 -0.0057643500114924664 -0.036532896746081213 0 -0.006185545859502593 -0.037294007577390875 0 -0.0052739169633035298 -0.03789038961064143 0 -0.0067866429205489173 -0.036208995115256964 0 -0.0063512126161810682 -0.036551836191073724 0 -0.0066484580491608415 -0.036992236265589153 0 -0.0063512126161810682 -0.036551836191073724 0 -0.0066484580491608415 -0.036992236265589153 0 -0.006185545859502593 -0.037294007577390875 0 -0.0057643500114924664 -0.036532896746081213 0 -0.0063512126161810682 -0.036551836191073724 0 -0.006185545859502593 -0.037294007577390875 0 -0.0067348724883835396 -0.037549837432201028 0 -0.0066484580491608415 -0.036992236265589153 0 -0.006185545859502593 -0.037294007577390875 0 -0.0067348724883835396 -0.037549837432201028 0 -0.006185545859502593 -0.037294007577390875 0 -0.0062768149740958261 -0.038296950538802929 0 -0.006185545859502593 -0.037294007577390875 0 -0.0062768149740958261 -0.038296950538802929 0 -0.0052739169633035298 -0.03789038961064143 0 -0.0041064214764048946 -0.038406953099711698 0 -0.0052739169633035298 -0.03789038961064143 0 -0.0048467203524133248 -0.039552209427508686 0 -0.0062768149740958261 -0.038296950538802929 0 -0.0052739169633035298 -0.03789038961064143 0 -0.0048467203524133248 -0.039552209427508686 0 -0.0048467203524133248 -0.039552209427508686 0 -0.0068853726394223274 -0.039060349328720281 0 -0.0066626659704112469 -0.039967693442657194 0 -0.0062768149740958261 -0.038296950538802929 0 -0.0048467203524133248 -0.039552209427508686 0 -0.0068853726394223274 -0.039060349328720281 0 -0.0051395228153820584 -0.039647731427257867 0 -0.0065754971606824704 -0.039981478371143776 0 -0.0068853726394223274 -0.039060349328720281 0 -0.0078579249721772992 -0.039077512518645205 0 -0.0075366728691570531 -0.038464779463862342 0 -0.0068853726394223274 -0.039060349328720281 0 -0.0078579249721772992 -0.039077512518645205 0 -0.0066626659704112469 -0.039967693442657194 0 -0.0085541817154967566 -0.038981239257362084 0 -0.0084791963362952309 -0.039450763961498714 0 -0.0078579249721772992 -0.039077512518645205 0 -0.0085541817154967566 -0.038981239257362084 0 -0.0078579249721772992 -0.039077512518645205 0 -0.0083397688443408516 -0.038531530522550178 0 -0.0078579249721772992 -0.039077512518645205 0 -0.0079169038640390082 -0.038340197613717576 0 -0.0075366728691570531 -0.038464779463862342 0 -0.0079169038640390082 -0.038340197613717576 0 -0.0075490266037760182 -0.038012100710176952 0 -0.0075366728691570531 -0.038464779463862342 0 -0.0078579249721772992 -0.039077512518645205 0 -0.0079169038640390082 -0.038340197613717576 0 -0.0083397688443408516 -0.038531530522550178 0 -0.0079889383840486775 -0.037803343390401638 0 -0.0079169038640390082 -0.038340197613717576 0 -0.0083397688443408516 -0.038531530522550178 0 -0.0079889383840486775 -0.037803343390401638 0 -0.0079169038640390082 -0.038340197613717576 0 -0.0075490266037760182 -0.038012100710176952 0 -0.0071527256877290286 -0.037403781840823803 0 -0.0075490266037760182 -0.038012100710176952 0 -0.0070902047855084076 -0.037964003851702614 0 -0.0075490266037760182 -0.038012100710176952 0 -0.0070902047855084076 -0.037964003851702614 0 -0.0075366728691570531 -0.038464779463862342 0 -0.0068853726394223274 -0.039060349328720281 0 -0.0070902047855084076 -0.037964003851702614 0 -0.0075366728691570531 -0.038464779463862342 0 -0.0062768149740958261 -0.038296950538802929 0 -0.0068853726394223274 -0.039060349328720281 0 -0.0070902047855084076 -0.037964003851702614 0 -0.0067348724883835396 -0.037549837432201028 0 -0.0062768149740958261 -0.038296950538802929 0 -0.0070902047855084076 -0.037964003851702614 0 -0.0079492394123595427 -0.040205403329973848 0 -0.0066626659704112469 -0.039967693442657194 0 -0.0068301756993819299 -0.041459772068482524 0 -0.0088647241762236477 -0.040617168543187823 0 -0.0079492394123595427 -0.040205403329973848 0 -0.0079089773051155953 -0.041130943535619642 0 -0.0079492394123595427 -0.040205403329973848 0 -0.0068301756993819299 -0.041459772068482524 0 -0.0079089773051155953 -0.041130943535619642 0 -0.0084791963362952309 -0.039450763961498714 0 -0.0078579249721772992 -0.039077512518645205 0 -0.0079492394123595427 -0.040205403329973848 0 -0.0078579249721772992 -0.039077512518645205 0 -0.0079492394123595427 -0.040205403329973848 0 -0.0066626659704112469 -0.039967693442657194 0 -0.0053856056225710935 -0.039767577551179427 0 -0.0066626659704112469 -0.039967693442657194 0 -0.0059230463409659226 -0.040882236786465659 0 -0.0053856056225710935 -0.039767577551179427 0 -0.0059230463409659226 -0.040882236786465659 0 -0.004867039976898092 -0.041367248856224247 0 -0.0059230463409659226 -0.040882236786465659 0 -0.0057116773126154189 -0.041968102865017884 0 -0.004867039976898092 -0.041367248856224247 0 -0.0066626659704112469 -0.039967693442657194 0 -0.0059230463409659226 -0.040882236786465659 0 -0.0068301756993819299 -0.041459772068482524 0 -0.0059230463409659226 -0.040882236786465659 0 -0.0057116773126154189 -0.041968102865017884 0 -0.0068301756993819299 -0.041459772068482524 0 -0.0057116773126154189 -0.041968102865017884 0 -0.0066866557735126468 -0.042712502895029092 0 -0.0068301756993819299 -0.041459772068482524 0 -0.0057116773126154189 -0.041968102865017884 0 -0.0055340160788241314 -0.042923401854689472 0 -0.0045329811413828995 -0.042470096619006636 0 -0.0057116773126154189 -0.041968102865017884 0 -0.0055340160788241314 -0.042923401854689472 0 -0.0066866557735126468 -0.042712502895029092 0 -0.0066866557735126468 -0.042712502895029092 0 -0.0068301756993819299 -0.041459772068482524 0 -0.0081472739969837768 -0.042348947779056567 0 -0.0066866557735126468 -0.042712502895029092 0 -0.0081472739969837768 -0.042348947779056567 0 -0.0074145289959922471 -0.043637201004947848 0 -0.0088647241762236477 -0.040617168543187823 0 -0.0079089773051155953 -0.041130943535619642 0 -0.0081472739969837768 -0.042348947779056567 0 -0.0068301756993819299 -0.041459772068482524 0 -0.0079089773051155953 -0.041130943535619642 0 -0.0081472739969837768 -0.042348947779056567 0 -0.0086768314147486775 -0.042591586276126719 0 -0.0082688515772530689 -0.041474793953129349 0 -0.0074723953679057273 -0.04291708538352141 0 -0.0082074731198767716 -0.041899574644072513 0 -0.007445050292069752 -0.043291072271763958 0 -0.0066866557735126468 -0.042712502895029092 0 -0.0074145289959922471 -0.043637201004947848 0 -0.0064182516088170695 -0.04387293150971798 0 -0.0074145289959922471 -0.043637201004947848 0 -0.0067818676255294976 -0.04462240584209929 0 -0.0064182516088170695 -0.04387293150971798 0 -0.007445050292069752 -0.043291072271763958 0 -0.0068218615818889747 -0.044541122042201488 0 -0.0086768314147486775 -0.042591586276126719 0 -0.0074723953679057273 -0.04291708538352141 0 -0.0081004552908843577 -0.044415234081272376 0 -0.0074723953679057273 -0.04291708538352141 0 -0.0081004552908843577 -0.044415234081272376 0 -0.0067818676255294976 -0.04462240584209929 0 -0.0078717676372375908 -0.042251086238634862 0 -0.0078460129833463985 -0.042451366877061691 0 -0.0074198914922535405 -0.042591204284835538 0 -0.0081004552908843577 -0.044415234081272376 0 -0.0067818676255294976 -0.04462240584209929 0 -0.0067472261863521493 -0.045179831577121403 0 -0.0082914567548308792 -0.0438536921063069 0 -0.0071020492916048254 -0.043790951713438088 0 -0.0067818676255294976 -0.04462240584209929 0 -0.0067472261863521493 -0.045179831577121403 0 -0.0063000996007657704 -0.044914857816232133 0 -0.0078460129833463985 -0.042451366877061691 0 -0.007403754573264195 -0.042721806134506636 0 -0.0074198914922535405 -0.042591204284835538 0 -0.0088703136908844377 -0.043308644866240552 0 -0.0083495842124035463 -0.043040917598978767 0 -0.0092034214409141089 -0.043420252079298317 0 -0.0095165281299367608 -0.04339264638833909 0 -0.0092422343506575223 -0.043340698831010653 0 -0.0090754708269243766 -0.043286811008601919 0 -0.0092034214409141089 -0.043420252079298317 0 -0.0092422343506575223 -0.043340698831010653 0 -0.0057909604054784038 -0.0456045171408676 0 -0.0058973843175878981 -0.044691922089897217 0 -0.0051912104143458232 -0.04490657670640362 0 -0.0067472261863521493 -0.045179831577121403 0 -0.0057909604054784038 -0.0456045171408676 0 -0.0063000996007657704 -0.044914857816232133 0 -0.0083495842124035463 -0.043040917598978767 0 -0.0085362800410846342 -0.042875843792150245 0 -0.007403754573264195 -0.042721806134506636 0 -0.0074198914922535405 -0.042591204284835538 0 -0.0069676099321553803 -0.042916556889530819 0 -0.007403754573264195 -0.042721806134506636 0 -0.0069676099321553803 -0.042916556889530819 0 -0.0069593211905059722 -0.042981289546797787 0 -0.0057909604054784038 -0.0456045171408676 0 -0.0063000996007657704 -0.044914857816232133 0 -0.0058973843175878981 -0.044691922089897217 0 -0.0071020492916048254 -0.043790951713438088 0 -0.0061563023053956582 -0.044383906519642767 0 -0.0067818676255294976 -0.04462240584209929 0 -0.0063000996007657704 -0.044914857816232133 0 -0.0063556797087055555 -0.044480545164564678 0 -0.0063000996007657704 -0.044914857816232133 0 -0.0063556797087055555 -0.044480545164564678 0 -0.0058973843175878981 -0.044691922089897217 0 -0.0058973843175878981 -0.044691922089897217 0 -0.0052671165822283303 -0.044068069916090961 0 -0.0049695624999526603 -0.045007908694804317 0 -0.0057018145842821456 -0.044770509236666492 0 -0.0053903014365035565 -0.044735630656094517 0 -0.0058973843175878981 -0.044691922089897217 0 -0.0052671165822283303 -0.044068069916090961 0 -0.0064182516088170695 -0.04387293150971798 0 -0.0063556797087055555 -0.044480545164564678 0 -0.0058973843175878981 -0.044691922089897217 0 -0.0064182516088170695 -0.04387293150971798 0 -0.0067818676255294976 -0.04462240584209929 0 -0.0063556797087055555 -0.044480545164564678 0 -0.0064182516088170695 -0.04387293150971798 0 -0.0055340160788241314 -0.042923401854689472 0 -0.0066866557735126468 -0.042712502895029092 0 -0.0064182516088170695 -0.04387293150971798 0 -0.0055340160788241314 -0.042923401854689472 0 -0.0052671165822283303 -0.044068069916090961 0 -0.0064182516088170695 -0.04387293150971798 0 -0.0055340160788241314 -0.042923401854689472 0 -0.0052671165822283303 -0.044068069916090961 0 -0.0045154437841149787 -0.043509697428813769 0 -0.0045154437841149787 -0.043509697428813769 0 -0.0038323306340641385 -0.044090766326489679 0 -0.0036016833153979053 -0.042960429881824497 0 -0.0045154437841149787 -0.043509697428813769 0 -0.0038323306340641385 -0.044090766326489679 0 -0.0045269790722924788 -0.044386793391709443 0 -0.0052671165822283303 -0.044068069916090961 0 -0.0045154437841149787 -0.043509697428813769 0 -0.0045269790722924788 -0.044386793391709443 0 -0.0052671165822283303 -0.044068069916090961 0 -0.0045269790722924788 -0.044386793391709443 0 -0.0049695624999526603 -0.045007908694804317 0 -0.0053903014365035565 -0.044735630656094517 0 -0.0033372175783457107 -0.048424432758947297 0 -0.0045269790722924788 -0.044386793391709443 0 -0.0049695624999526603 -0.045007908694804317 0 -0.0040548819914386558 -0.045278647008769796 0 -0.0038323306340641385 -0.044090766326489679 0 -0.0045269790722924788 -0.044386793391709443 0 -0.0040548819914386558 -0.045278647008769796 0 -0.0035129280997885652 -0.049250684333965823 0 -0.0033372175783457107 -0.048424432758947297 0 -0.0030670511434807562 -0.053785426127060672 0 -0.003161484186345783 -0.05442595647762067 0 -0.0027528012985855712 -0.054212144636237809 0 -0.0044988684714693354 -0.045113666969998759 0 -0.0050300593807904217 -0.045555285970057958 0 -0.0047236981517317688 -0.046145392151204272 0 -0.0057909604054784038 -0.0456045171408676 0 -0.0051912104143458232 -0.04490657670640362 0 -0.0050300593807904217 -0.045555285970057958 0 -0.0051912104143458232 -0.04490657670640362 0 -0.0044988684714693354 -0.045113666969998759 0 -0.0050300593807904217 -0.045555285970057958 0 -0.0032763977392251194 -0.047782167528461574 0 -0.0031548389434510925 -0.047820479005545098 0 -0.0032125725500565623 -0.047863967750106928 0 -0.003161484186345783 -0.05442595647762067 0 -0.0024432718346463333 -0.054645866307791738 0 -0.0027528012985855712 -0.054212144636237809 0 -0.0033372175783457107 -0.048424432758947297 0 -0.0027087665408813359 -0.051585890415636881 0 -0.0024432718346463333 -0.054645866307791738 0 -0.0027528012985855712 -0.054212144636237809 0 -0.0023447741944612149 -0.054000546846504932 0 -0.0024432718346463333 -0.054645866307791738 0 -0.0023447741944612149 -0.054000546846504932 0 -0.0018993274039158805 -0.05428594915690408 0 -0.0030670511434807562 -0.053785426127060672 0 -0.0027528012985855712 -0.054212144636237809 0 -0.0023447741944612149 -0.054000546846504932 0 -0.0030670511434807562 -0.053785426127060672 0 -0.0023447741944612149 -0.054000546846504932 0 -0.0023023660461774166 -0.053366763110828386 0 -0.0030670511434807562 -0.053785426127060672 0 -0.0023023660461774166 -0.053366763110828386 0 -0.0030429984807193427 -0.053071746168223105 0 -0.0035129280997885652 -0.049250684333965823 0 -0.003305685014221921 -0.047937317789791621 0 -0.0023447741944612149 -0.054000546846504932 0 -0.0023023660461774166 -0.053366763110828386 0 -0.0016782888858560777 -0.053661812345518527 0 -0.0030503343600173731 -0.052121170157285533 0 -0.0030429984807193427 -0.053071746168223105 0 -0.0019085346298576516 -0.052804169122449854 0 -0.0023023660461774166 -0.053366763110828386 0 -0.0030429984807193427 -0.053071746168223105 0 -0.0019085346298576516 -0.052804169122449854 0 -0.0030503343600173731 -0.052121170157285533 0 -0.0020437692798302722 -0.051883095041896699 0 -0.0019085346298576516 -0.052804169122449854 0 -0.003186412446953832 -0.047042118100966951 0 -0.003305685014221921 -0.047937317789791621 0 -0.0033148506870141104 -0.041981541062278707 0 -0.0045329811413828995 -0.042470096619006636 0 -0.004867039976898092 -0.041367248856224247 0 -0.0045154437841149787 -0.043509697428813769 0 -0.0036016833153979053 -0.042960429881824497 0 -0.0045329811413828995 -0.042470096619006636 0 -0.0033148506870141104 -0.041981541062278707 0 -0.0036016833153979053 -0.042960429881824497 0 -0.0045329811413828995 -0.042470096619006636 0 -0.0055340160788241314 -0.042923401854689472 0 -0.0045154437841149787 -0.043509697428813769 0 -0.0045329811413828995 -0.042470096619006636 0 -0.0057116773126154189 -0.041968102865017884 0 -0.0045329811413828995 -0.042470096619006636 0 -0.004867039976898092 -0.041367248856224247 0 -0.0033148506870141104 -0.041981541062278707 0 -0.004867039976898092 -0.041367248856224247 0 -0.0040623713530377548 -0.040574147239227934 0 -0.0053856056225710935 -0.039767577551179427 0 -0.004867039976898092 -0.041367248856224247 0 -0.0040623713530377548 -0.040574147239227934 0 -0.0032338496548526999 -0.039738303571939824 0 -0.0040623713530377548 -0.040574147239227934 0 -0.0029180949048226434 -0.040743755126979107 0 -0.0033196094454611717 -0.050955813965648432 0 -0.0020437692798302722 -0.051883095041896699 0 -0.0016530645082845497 -0.050524456242445143 0 -0.0030503343600173731 -0.052121170157285533 0 -0.0033196094454611717 -0.050955813965648432 0 -0.0020437692798302722 -0.051883095041896699 0 -0.003186412446953832 -0.047042118100966951 0 -0.0031541037088898549 -0.045786695812750862 0 -0.0033148506870141104 -0.041981541062278707 0 -0.0040623713530377548 -0.040574147239227934 0 -0.0029180949048226434 -0.040743755126979107 0 -0.00097916502587770205 -0.052448707313532433 0 -0.0020437692798302722 -0.051883095041896699 0 -0.0013987465662937252 -0.051303168672731013 0 -0.0020437692798302722 -0.051883095041896699 0 -0.0016530645082845497 -0.050524456242445143 0 -0.0013987465662937252 -0.051303168672731013 0 -0.00068222904019315839 -0.050790831746522443 0 -0.0016530645082845497 -0.050524456242445143 0 -0.0013987465662937252 -0.051303168672731013 0 -0.00068222904019315839 -0.050790831746522443 0 -0.00097916502587770205 -0.052448707313532433 0 -0.0013987465662937252 -0.051303168672731013 0 -0.00097916502587770205 -0.052448707313532433 0 -0.00047039395304346093 -0.05198772795183125 0 -0.00051252182255245697 -0.053776267209903611 0 -0.00047039395304346093 -0.05198772795183125 0 -0.00051252182255245697 -0.053776267209903611 0 -0.00010695307957131058 -0.053508640821738826 0 -0.00068222904019315839 -0.050790831746522443 0 -0.00097916502587770205 -0.052448707313532433 0 -0.00047039395304346093 -0.05198772795183125 0 -0.00015228714188448485 -0.052370457198132686 0 -0.00047039395304346093 -0.05198772795183125 0 -0.00010695307957131058 -0.053508640821738826 0 -0.00098083158859025763 -0.052554461986353905 0 -0.00058974140242400641 -0.053383421565665459 0 -0.00097916502587770205 -0.052448707313532433 0 -0.00070387595917704483 -0.053028850091060793 0 -0.0012027885444490377 -0.053129507740013765 0 -0.00070387595917704483 -0.053028850091060793 0 -0.00091730204490236974 -0.05370639216810013 0 -0.00032632192237297641 -0.053618984070199806 0 -0.00070387595917704483 -0.053028850091060793 0 -0.0012027885444490377 -0.053129507740013765 0 -0.00091730204490236974 -0.05370639216810013 0 -0.0012027885444490377 -0.053129507740013765 0 -0.0019085346298576516 -0.052804169122449854 0 -0.0016782888858560777 -0.053661812345518527 0 -0.00097916502587770205 -0.052448707313532433 0 -0.0012027885444490377 -0.053129507740013765 0 -0.0019085346298576516 -0.052804169122449854 0 -0.00097916502587770205 -0.052448707313532433 0 -0.0020437692798302722 -0.051883095041896699 0 -0.0019085346298576516 -0.052804169122449854 0 -0.0012027885444490377 -0.053129507740013765 0 -0.0016782888858560777 -0.053661812345518527 0 -0.00091730204490236974 -0.05370639216810013 0 -0.0023023660461774166 -0.053366763110828386 0 -0.0019085346298576516 -0.052804169122449854 0 -0.0016782888858560777 -0.053661812345518527 0 -0.0016782888858560777 -0.053661812345518527 0 -0.0013407274568854337 -0.054303559584534089 0 -0.00091730204490236974 -0.05370639216810013 0 -0.0016782888858560777 -0.053661812345518527 0 -0.0018993274039158805 -0.05428594915690408 0 -0.0013407274568854337 -0.054303559584534089 0 -0.0023447741944612149 -0.054000546846504932 0 -0.0016782888858560777 -0.053661812345518527 0 -0.0018993274039158805 -0.05428594915690408 0 -0.0018993274039158805 -0.05428594915690408 0 -0.0013407274568854337 -0.054303559584534089 0 -0.0017229966442170561 -0.054802766819139655 0 -0.0013407274568854337 -0.054303559584534089 0 -0.0017229966442170561 -0.054802766819139655 0 -0.0010877562848263321 -0.054912188971752672 0 -0.0027087665408813359 -0.051585890415636881 0 -0.0024006695075455106 -0.051238325569080284 0 -0.0024432718346463333 -0.054645866307791738 0 -0.0018993274039158805 -0.05428594915690408 0 -0.0017229966442170561 -0.054802766819139655 0 -0.0013407274568854337 -0.054303559584534089 0 -0.00085598562020911657 -0.054596946687985183 0 -0.0010877562848263321 -0.054912188971752672 0 -0.0013407274568854337 -0.054303559584534089 0 -0.00085598562020911657 -0.054596946687985183 0 -0.00085648826249725243 -0.054197719377194455 0 -0.00085598562020911657 -0.054596946687985183 0 -0.00085648826249725243 -0.054197719377194455 0 -0.00051805451988188049 -0.054512510582458727 0 -0.00085648826249725243 -0.054197719377194455 0 -0.00091730204490236974 -0.05370639216810013 0 -0.00046460127741996269 -0.054134631328507245 0 -0.0013407274568854337 -0.054303559584534089 0 -0.00085648826249725243 -0.054197719377194455 0 -0.00091730204490236974 -0.05370639216810013 0 -0.00091730204490236974 -0.05370639216810013 0 -0.00032632192237297641 -0.053618984070199806 0 -0.00046460127741996269 -0.054134631328507245 0 -0.00022005314367376763 -0.054098722250969566 0 -6.1339626402892101e-06 -0.054575614511628318 0 -0.00032632192237297641 -0.053618984070199806 0 -0.00046460127741996269 -0.054134631328507245 0 -1.6523295953079542e-05 -0.054237560849267147 0 -0.00046460127741996269 -0.054134631328507245 0 -0.00023126162561627102 -0.054453330316995875 0 -1.6523295953079542e-05 -0.054237560849267147 0 -0.00046460127741996269 -0.054134631328507245 0 -0.00051805451988188049 -0.054512510582458727 0 -0.00023126162561627102 -0.054453330316995875 0 -0.00085648826249725243 -0.054197719377194455 0 -0.00046460127741996269 -0.054134631328507245 0 -0.00051805451988188049 -0.054512510582458727 0 -0.00051805451988188049 -0.054512510582458727 0 -0.00023126162561627102 -0.054453330316995875 0 -0.00021964141735109519 -0.054703790218028035 0 -0.00024289110639819753 -0.054328748601538461 0 -0.0001742107757762842 -0.055179494395068945 0 -0.00051805451988188049 -0.054512510582458727 0 -0.00021964141735109519 -0.054703790218028035 0 -0.00057783412034263511 -0.05496605628885437 0 -0.00085598562020911657 -0.054596946687985183 0 -0.00051805451988188049 -0.054512510582458727 0 -0.00057783412034263511 -0.05496605628885437 0 3.397061307435627e-08 -0.054999811848815056 0 -1.7559483817860811e-06 -0.054910405441346274 0 1.7885668221316187e-05 -0.05497197812106637 0 3.397061307435627e-08 -0.054999811848815056 0 -1.7559483817860811e-06 -0.054910405441346274 0 -3.5319635862891995e-05 -0.05499393466810782 0 -0.0001824848173029005 -0.054940439860211993 0 -7.1185075047456548e-05 -0.054844233320208824 0 -3.5319635862891995e-05 -0.05499393466810782 0 -1.7559483817860811e-06 -0.054910405441346274 0 -7.1185075047456548e-05 -0.054844233320208824 0 -3.5319635862891995e-05 -0.05499393466810782 0 -0.00023126162561627102 -0.054453330316995875 0 -7.1185075047456548e-05 -0.054844233320208824 0 -3.4231860115953427e-05 -0.054694845082559437 0 -3.4231860115953427e-05 -0.054694845082559437 0 1.7885668221316187e-05 -0.05497197812106637 0 -1.6523295953079542e-05 -0.054237560849267147 0 -1.7559483817860811e-06 -0.054910405441346274 0 -7.1185075047456548e-05 -0.054844233320208824 0 -3.4231860115953427e-05 -0.054694845082559437 0 -0.00023126162561627102 -0.054453330316995875 0 -0.0001824848173029005 -0.054940439860211993 0 -7.1185075047456548e-05 -0.054844233320208824 0 -1.7559483817860811e-06 -0.054910405441346274 0 -3.4231860115953427e-05 -0.054694845082559437 0 1.7885668221316187e-05 -0.05497197812106637 0 3.397061307435627e-08 -0.054999811848815056 0 6.9906898332624788e-08 -0.054999779587172268 0 1.7885668221316187e-05 -0.05497197812106637 0 6.9906898332624788e-08 -0.054999779587172268 0 1.7885668221316187e-05 -0.05497197812106637 0 4.7482451558120903e-05 -0.054912025894744483 0 6.9906898332624788e-08 -0.054999779587172268 0 4.7482451558120903e-05 -0.054912025894744483 0 1.7086479023738018e-07 -0.054999627519897558 0 2.2639564478912084e-05 -0.054912492415460701 0 -6.1339626402892101e-06 -0.054575614511628318 0 -0.00023126162561627102 -0.054453330316995875 0 -3.4231860115953427e-05 -0.054694845082559437 0 -1.6523295953079542e-05 -0.054237560849267147 0 -0.0001170091354336485 -0.054588097508566628 0 4.7482451558120903e-05 -0.054912025894744483 0 9.1427641701088646e-05 -0.054746431366456953 0 4.7482451558120903e-05 -0.054912025894744483 0 1.7086479023738018e-07 -0.054999627519897558 0 9.1427641701088646e-05 -0.054746431366456953 0 1.7086479023738018e-07 -0.054999627519897558 0 -6.4977752017386438e-08 -0.054999846780005017 0 9.1427641701088646e-05 -0.054746431366456953 0 -6.4977752017386438e-08 -0.054999846780005017 0 0.00013581350786423773 -0.054354583036567219 0 9.1427641701088646e-05 -0.054746431366456953 0 -0.00051252182255245697 -0.053776267209903611 0 -0.0001170091354336485 -0.054588097508566628 0 -0.00010695307957131058 -0.053508640821738826 0 -0.0001170091354336485 -0.054588097508566628 0 0.00013581350786423773 -0.054354583036567219 0 9.1427641701088646e-05 -0.054746431366456953 0 -0.0001170091354336485 -0.054588097508566628 0 0.00013581350786423773 -0.054354583036567219 0 -0.00010695307957131058 -0.053508640821738826 0 -0.00058974140242400641 -0.053383421565665459 0 -0.00022005314367376763 -0.054098722250969566 0 0.00013581350786423773 -0.054354583036567219 0 -0.00010695307957131058 -0.053508640821738826 0 0.00010703520302305591 -0.053658046813542797 0 0.00011290694026676086 -0.052713864842263952 0 -0.00015228714188448485 -0.052370457198132686 0 0.00010703520302305591 -0.053658046813542797 0 -0.00015228714188448485 -0.052370457198132686 0 -0.00010695307957131058 -0.053508640821738826 0 0.00010703520302305591 -0.053658046813542797 0 0.00047790765024929963 -0.053355099844241187 0 0.00010703520302305591 -0.053658046813542797 0 0.00017997034099854377 -0.05454213448512045 0 0.00047790765024929963 -0.053355099844241187 0 1.5280239240008178e-06 -0.054996266336655955 0 0.00017997034099854377 -0.05454213448512045 0 -6.4977752017386438e-08 -0.054999846780005017 0 1.5280239240008178e-06 -0.054996266336655955 0 0.00017997034099854377 -0.05454213448512045 0 -6.4977752017386438e-08 -0.054999846780005017 0 0.00013581350786423773 -0.054354583036567219 0 0.00017997034099854377 -0.05454213448512045 0 0.00013581350786423773 -0.054354583036567219 0 0.00010703520302305591 -0.053658046813542797 0 0.00017997034099854377 -0.05454213448512045 0 -0.00040055184466224934 -0.053879440742059838 0 -0.00013887339110579149 -0.054292317399033341 0 -0.00018070202864669578 -0.053481243479169174 0 -0.00040055184466224934 -0.053879440742059838 0 -0.00013887339110579149 -0.054292317399033341 0 -1.8481581218196622e-07 -0.054998795208689777 0 -0.00013887339110579149 -0.054292317399033341 0 -1.8481581218196622e-07 -0.054998795208689777 0 2.1792171034214654e-07 -0.054998191044882572 0 -0.00040055184466224934 -0.053879440742059838 0 -1.8481581218196622e-07 -0.054998795208689777 0 -0.00043615768554895046 -0.054098809577881657 0 -1.8481581218196622e-07 -0.054998795208689777 0 -0.00043615768554895046 -0.054098809577881657 0 -3.0348503937252713e-07 -0.054998850834245175 0 -0.00040055184466224934 -0.053879440742059838 0 -0.00097848473760405222 -0.053306500612271115 0 -0.00043615768554895046 -0.054098809577881657 0 -0.00040055184466224934 -0.053879440742059838 0 -0.00084324174058419033 -0.053115718471112815 0 -0.00097848473760405222 -0.053306500612271115 0 -0.0014036875041474515 -0.052720818451450914 0 -0.00084324174058419033 -0.053115718471112815 0 -0.00097848473760405222 -0.053306500612271115 0 -0.0012849356205840204 -0.052498352043519464 0 -0.00084324174058419033 -0.053115718471112815 0 -0.00090512297475430945 -0.052532906379845 0 -0.0014036875041474515 -0.052720818451450914 0 -0.0012849356205840204 -0.052498352043519464 0 -0.00084324174058419033 -0.053115718471112815 0 -0.00040055184466224934 -0.053879440742059838 0 -0.00084324174058419033 -0.053115718471112815 0 -0.00018070202864669578 -0.053481243479169174 0 -0.00090512297475430945 -0.052532906379845 0 -0.00054170571718120642 -0.052484685483498855 0 -0.00018070202864669578 -0.053481243479169174 0 -0.00084324174058419033 -0.053115718471112815 0 -0.00090512297475430945 -0.052532906379845 0 -0.00018070202864669578 -0.053481243479169174 0 -0.0012849356205840204 -0.052498352043519464 0 -0.00090512297475430945 -0.052532906379845 0 -0.0016263514642218954 -0.051813892553732199 0 -0.00090512297475430945 -0.052532906379845 0 -0.0013075734549306101 -0.051594864929896567 0 -0.0016263514642218954 -0.051813892553732199 0 -0.00090512297475430945 -0.052532906379845 0 -0.0013075734549306101 -0.051594864929896567 0 -0.00054170571718120642 -0.052484685483498855 0 -0.0013075734549306101 -0.051594864929896567 0 -0.00054170571718120642 -0.052484685483498855 0 -0.00097985850637172874 -0.051135154014714815 0 -0.0013075734549306101 -0.051594864929896567 0 -0.00097985850637172874 -0.051135154014714815 0 -0.0016091900457807339 -0.05060965538511656 0 -0.00054170571718120642 -0.052484685483498855 0 0.00028672351203932848 -0.053203751782855704 0 -0.00018070202864669578 -0.053481243479169174 0 -0.00054170571718120642 -0.052484685483498855 0 0.00028672351203932848 -0.053203751782855704 0 -0.00097985850637172874 -0.051135154014714815 0 0.00028672351203932848 -0.053203751782855704 0 -0.00018070202864669578 -0.053481243479169174 0 2.1792171034214654e-07 -0.054998191044882572 0 -0.00013887339110579149 -0.054292317399033341 0 -0.00018070202864669578 -0.053481243479169174 0 2.1792171034214654e-07 -0.054998191044882572 0 0.00028672351203932848 -0.053203751782855704 0 2.1792171034214654e-07 -0.054998191044882572 0 -2.7544915968334564e-07 -0.054998657553099024 0 0.00028672351203932848 -0.053203751782855704 0 -2.7544915968334564e-07 -0.054998657553099024 0 7.6938899737423564e-05 -0.054871293634559302 0 0.00028672351203932848 -0.053203751782855704 0 0.00065118536599657645 -0.054691166402835695 0 7.6938899737423564e-05 -0.054871293634559302 0 0.00037309679048219842 -0.053242964093213448 0 0.00059328278527678033 -0.052150096842610461 0 0.00065118536599657645 -0.054691166402835695 0 7.6938899737423564e-05 -0.054871293634559302 0 0.00019813362552924529 -0.055184649160396677 0 -2.7544915968334564e-07 -0.054998657553099024 0 7.6938899737423564e-05 -0.054871293634559302 0 1.105759902675706e-07 -0.055000707288632024 0 -3.7999123612556338e-08 -0.055000170381032769 0 -3.8667868303778821e-05 -0.055024437096130301 0 -3.5319635862891995e-05 -0.05499393466810782 0 7.6938899737423564e-05 -0.054871293634559302 0 1.105759902675706e-07 -0.055000707288632024 0 0.00019813362552924529 -0.055184649160396677 0 -6.843362681020804e-08 -0.055000031106328361 0 0.00023608460032024258 -0.055093773274925741 0 0.00059328278527678033 -0.052150096842610461 0 -0.00019939179294243566 -0.053368476643345805 0 -3.8667868303778821e-05 -0.055024437096130301 0 -3.5319635862891995e-05 -0.05499393466810782 0 -0.00011092123579254536 -0.055037163441760337 0 0.00065118536599657645 -0.054691166402835695 0 0.00019813362552924529 -0.055184649160396677 0 0.00064792613688632742 -0.055287605709057802 0 0.00023608460032024258 -0.055093773274925741 0 -0.00019939179294243566 -0.053368476643345805 0 -0.0001824848173029005 -0.054940439860211993 0 -3.5319635862891995e-05 -0.05499393466810782 0 -0.00011092123579254536 -0.055037163441760337 0 3.397061307435627e-08 -0.054999811848815056 0 -3.7999123612556338e-08 -0.055000170381032769 0 -3.5319635862891995e-05 -0.05499393466810782 0 -0.0001742107757762842 -0.055179494395068945 0 -0.00019939179294243566 -0.053368476643345805 0 -0.00021964141735109519 -0.054703790218028035 0 -0.00057783412034263511 -0.05496605628885437 0 -0.00019427281613059033 -0.055035305452142198 0 0.00055359540659685052 -0.050211086291119367 0 0.00039806767211089043 -0.048492490733751975 0 -0.00085750950933426032 -0.049274492069967701 0 -0.00089195152585381339 -0.051301860850481149 0 -0.00019939179294243566 -0.053368476643345805 0 -0.0012566010790081102 -0.048043378081402924 0 0.00039806767211089043 -0.048492490733751975 0 -0.00085750950933426032 -0.049274492069967701 0 -0.0012566010790081102 -0.048043378081402924 0 -0.00085750950933426032 -0.049274492069967701 0 -0.0021005515923200437 -0.048463817321391024 0 -0.00085750950933426032 -0.049274492069967701 0 -0.00097985850637172874 -0.051135154014714815 0 -0.0017286601823637276 -0.049684926415176328 0 0.00055359540659685052 -0.050211086291119367 0 -0.00085750950933426032 -0.049274492069967701 0 -0.00097985850637172874 -0.051135154014714815 0 0.00028672351203932848 -0.053203751782855704 0 0.00055359540659685052 -0.050211086291119367 0 -0.00097985850637172874 -0.051135154014714815 0 -0.00097985850637172874 -0.051135154014714815 0 -0.0016091900457807339 -0.05060965538511656 0 -0.0017286601823637276 -0.049684926415176328 0 -0.0016091900457807339 -0.05060965538511656 0 -0.0020931826248120175 -0.049843567372777821 0 -0.0018972458217844039 -0.050720373404731234 0 -0.0016091900457807339 -0.05060965538511656 0 -0.0020931826248120175 -0.049843567372777821 0 -0.0017286601823637276 -0.049684926415176328 0 -0.0023066600489332028 -0.049900510546877191 0 -0.0020931826248120175 -0.049843567372777821 0 -0.0025803877306145649 -0.049133784769102309 0 -0.0023066600489332028 -0.049900510546877191 0 -0.0020931826248120175 -0.049843567372777821 0 -0.0018972458217844039 -0.050720373404731234 0 -0.0020931826248120175 -0.049843567372777821 0 -0.0023460901568615545 -0.049046189255421715 0 -0.0025803877306145649 -0.049133784769102309 0 -0.0023460901568615545 -0.049046189255421715 0 -0.0021005515923200437 -0.048463817321391024 0 -0.0026859025890040669 -0.048396417655846923 0 -0.0023460901568615545 -0.049046189255421715 0 -0.002717596959896196 -0.04861734540247082 0 -0.0025803877306145649 -0.049133784769102309 0 -0.0023460901568615545 -0.049046189255421715 0 -0.0026859025890040669 -0.048396417655846923 0 -0.002717596959896196 -0.04861734540247082 0 -0.0023460901568615545 -0.049046189255421715 0 -0.0017286601823637276 -0.049684926415176328 0 -0.0021005515923200437 -0.048463817321391024 0 -0.0020931826248120175 -0.049843567372777821 0 -0.0023460901568615545 -0.049046189255421715 0 -0.0017286601823637276 -0.049684926415176328 0 -0.00085750950933426032 -0.049274492069967701 0 -0.0017286601823637276 -0.049684926415176328 0 -0.0021005515923200437 -0.048463817321391024 0 -0.0021005515923200437 -0.048463817321391024 0 -0.0026859025890040669 -0.048396417655846923 0 -0.0027207331190935474 -0.048024939920736712 0 -0.0021005515923200437 -0.048463817321391024 0 -0.0024441524903272656 -0.047764839512330459 0 -0.0027207331190935474 -0.048024939920736712 0 -0.00089195152585381339 -0.051301860850481149 0 -0.0017549144327242468 -0.051378955836104231 0 -0.00085598562020911657 -0.054596946687985183 0 -0.00057783412034263511 -0.05496605628885437 0 -0.0010877562848263321 -0.054912188971752672 0 -0.0012566010790081102 -0.048043378081402924 0 -0.0021005515923200437 -0.048463817321391024 0 -0.0024441524903272656 -0.047764839512330459 0 -0.0030403670467021569 -0.047786136822417717 0 -0.002992581171016312 -0.048033394546756619 0 -0.0031138124842871409 -0.047945951416062893 0 -0.0030403670467021569 -0.047786136822417717 0 -0.0031138124842871409 -0.047945951416062893 0 -0.0031526105449650936 -0.047900407420516593 0 -0.0024006695075455106 -0.051238325569080284 0 -0.0017549144327242468 -0.051378955836104231 0 -0.0030403670467021569 -0.047786136822417717 0 -0.002992581171016312 -0.048033394546756619 0 -0.0027207331190935474 -0.048024939920736712 0 -0.0030403670467021569 -0.047786136822417717 0 -0.0024441524903272656 -0.047764839512330459 0 -0.0027207331190935474 -0.048024939920736712 0 -0.0026859025890040669 -0.048396417655846923 0 -0.002992581171016312 -0.048033394546756619 0 -0.0027207331190935474 -0.048024939920736712 0 -0.0026859025890040669 -0.048396417655846923 0 -0.002992581171016312 -0.048033394546756619 0 -0.0029552846970674227 -0.048201603357702037 0 -0.002992581171016312 -0.048033394546756619 0 -0.0031180274477475363 -0.0479812709187485 0 -0.0029552846970674227 -0.048201603357702037 0 -0.0031180274477475363 -0.0479812709187485 0 -0.0031414478091463518 -0.047922418259678475 0 -0.0031643676651284453 -0.047802723329138853 0 -0.002992581171016312 -0.048033394546756619 0 -0.0031180274477475363 -0.0479812709187485 0 -0.0031138124842871409 -0.047945951416062893 0 -0.0031138124842871409 -0.047945951416062893 0 -0.0031414478091463518 -0.047922418259678475 0 -0.0031365886039524246 -0.047939703702037935 0 -0.0031180274477475363 -0.0479812709187485 0 -0.0031138124842871409 -0.047945951416062893 0 -0.0031414478091463518 -0.047922418259678475 0 -0.0031180274477475363 -0.0479812709187485 0 -0.0030755547509295901 -0.048030485352198664 0 -0.0031643676651284453 -0.047802723329138853 0 -0.0030755547509295901 -0.048030485352198664 0 -0.0031643676651284453 -0.047802723329138853 0 -0.0031552683816045242 -0.047882120941240294 0 -0.0031643676651284453 -0.047802723329138853 0 -0.0031552683816045242 -0.047882120941240294 0 -0.0031800443587785194 -0.04754456721984008 0 -0.0030755547509295901 -0.048030485352198664 0 -0.0031552683816045242 -0.047882120941240294 0 -0.0029324088117674671 -0.048388422547393319 0 -0.0031552683816045242 -0.047882120941240294 0 -0.0029324088117674671 -0.048388422547393319 0 -0.0032710853098868171 -0.048137725621518114 0 -0.0037397553281029966 -0.047274107712121205 0 -0.0031800443587785194 -0.04754456721984008 0 -0.0041094358297552001 -0.046552204956041988 0 -0.0033992536630619687 -0.047663062734308384 0 -0.0037397553281029966 -0.047274107712121205 0 -0.0031800443587785194 -0.04754456721984008 0 -0.0031552683816045242 -0.047882120941240294 0 -0.0033992536630619687 -0.047663062734308384 0 -0.0031800443587785194 -0.04754456721984008 0 -0.0026859025890040669 -0.048396417655846923 0 -0.0029552846970674227 -0.048201603357702037 0 -0.002717596959896196 -0.04861734540247082 0 -0.0031180274477475363 -0.0479812709187485 0 -0.0030755547509295901 -0.048030485352198664 0 -0.0029552846970674227 -0.048201603357702037 0 -0.0030755547509295901 -0.048030485352198664 0 -0.0029552846970674227 -0.048201603357702037 0 -0.0029324088117674671 -0.048388422547393319 0 -0.0029552846970674227 -0.048201603357702037 0 -0.0029324088117674671 -0.048388422547393319 0 -0.002717596959896196 -0.04861734540247082 0 -0.0029324088117674671 -0.048388422547393319 0 -0.002717596959896196 -0.04861734540247082 0 -0.0025803877306145649 -0.049133784769102309 0 -0.0029324088117674671 -0.048388422547393319 0 -0.0028900139273374298 -0.048793680807037457 0 -0.0032710853098868171 -0.048137725621518114 0 -0.0029324088117674671 -0.048388422547393319 0 -0.0025803877306145649 -0.049133784769102309 0 -0.0028900139273374298 -0.048793680807037457 0 -0.0028900139273374298 -0.048793680807037457 0 -0.0026789038817654313 -0.049415355961823622 0 -0.0030447728249068016 -0.048917335353374461 0 -0.0023066600489332028 -0.049900510546877191 0 -0.0025803877306145649 -0.049133784769102309 0 -0.0026789038817654313 -0.049415355961823622 0 -0.0025803877306145649 -0.049133784769102309 0 -0.0028900139273374298 -0.048793680807037457 0 -0.0026789038817654313 -0.049415355961823622 0 -0.0033992536630619687 -0.047663062734308384 0 -0.0032710853098868171 -0.048137725621518114 0 -0.003884870265201922 -0.047573450571707115 0 -0.0032710853098868171 -0.048137725621518114 0 -0.0037331046644671346 -0.048360004630631025 0 -0.003884870265201922 -0.047573450571707115 0 -0.0033992536630619687 -0.047663062734308384 0 -0.0037397553281029966 -0.047274107712121205 0 -0.003884870265201922 -0.047573450571707115 0 -0.0031552683816045242 -0.047882120941240294 0 -0.0033992536630619687 -0.047663062734308384 0 -0.0032710853098868171 -0.048137725621518114 0 -0.0028900139273374298 -0.048793680807037457 0 -0.0032710853098868171 -0.048137725621518114 0 -0.0030447728249068016 -0.048917335353374461 0 -0.0032710853098868171 -0.048137725621518114 0 -0.0030447728249068016 -0.048917335353374461 0 -0.0037331046644671346 -0.048360004630631025 0 -0.0037331046644671346 -0.048360004630631025 0 -0.0032652389367499985 -0.04921656542162349 0 -0.003731009340484699 -0.049192366864460782 0 -0.0030447728249068016 -0.048917335353374461 0 -0.0032652389367499985 -0.04921656542162349 0 -0.0028732774369674289 -0.049552236781643139 0 -0.0030447728249068016 -0.048917335353374461 0 -0.0037331046644671346 -0.048360004630631025 0 -0.0032652389367499985 -0.04921656542162349 0 -0.0032652389367499985 -0.04921656542162349 0 -0.003731009340484699 -0.049192366864460782 0 -0.0030053691703051024 -0.05000994716658725 0 -0.0032652389367499985 -0.04921656542162349 0 -0.0030053691703051024 -0.05000994716658725 0 -0.0028732774369674289 -0.049552236781643139 0 -0.003731009340484699 -0.049192366864460782 0 -0.0035742977882293483 -0.050065200344011539 0 -0.0030053691703051024 -0.05000994716658725 0 -0.0035742977882293483 -0.050065200344011539 0 -0.0030053691703051024 -0.05000994716658725 0 -0.0028499827976829701 -0.051049213530558982 0 -0.0030053691703051024 -0.05000994716658725 0 -0.0024376069015007665 -0.050870823370971291 0 -0.0028499827976829701 -0.051049213530558982 0 -0.0030053691703051024 -0.05000994716658725 0 -0.0024376069015007665 -0.050870823370971291 0 -0.0024353835173657272 -0.050215216014985221 0 -0.0030053691703051024 -0.05000994716658725 0 -0.0024353835173657272 -0.050215216014985221 0 -0.0028732774369674289 -0.049552236781643139 0 -0.0026789038817654313 -0.049415355961823622 0 -0.0030447728249068016 -0.048917335353374461 0 -0.0028732774369674289 -0.049552236781643139 0 -0.0023066600489332028 -0.049900510546877191 0 -0.0026789038817654313 -0.049415355961823622 0 -0.0024353835173657272 -0.050215216014985221 0 -0.0026789038817654313 -0.049415355961823622 0 -0.0024353835173657272 -0.050215216014985221 0 -0.0028732774369674289 -0.049552236781643139 0 -0.0023066600489332028 -0.049900510546877191 0 -0.0024353835173657272 -0.050215216014985221 0 -0.0018972458217844039 -0.050720373404731234 0 -0.0024353835173657272 -0.050215216014985221 0 -0.0018972458217844039 -0.050720373404731234 0 -0.0020679576834837644 -0.051045850570720482 0 -0.0013075734549306101 -0.051594864929896567 0 -0.0018972458217844039 -0.050720373404731234 0 -0.0016263514642218954 -0.051813892553732199 0 -0.0013075734549306101 -0.051594864929896567 0 -0.0016091900457807339 -0.05060965538511656 0 -0.0018972458217844039 -0.050720373404731234 0 -0.0018972458217844039 -0.050720373404731234 0 -0.0016263514642218954 -0.051813892553732199 0 -0.0020679576834837644 -0.051045850570720482 0 -0.0016263514642218954 -0.051813892553732199 0 -0.0020679576834837644 -0.051045850570720482 0 -0.0020816423075142036 -0.051651026695798748 0 -0.0024376069015007665 -0.050870823370971291 0 -0.0020679576834837644 -0.051045850570720482 0 -0.0020816423075142036 -0.051651026695798748 0 -0.0024376069015007665 -0.050870823370971291 0 -0.0024353835173657272 -0.050215216014985221 0 -0.0020679576834837644 -0.051045850570720482 0 -0.0016263514642218954 -0.051813892553732199 0 -0.0020816423075142036 -0.051651026695798748 0 -0.0017240823630573863 -0.052214874576830037 0 -0.0014036875041474515 -0.052720818451450914 0 -0.0012849356205840204 -0.052498352043519464 0 -0.0017240823630573863 -0.052214874576830037 0 -0.0012849356205840204 -0.052498352043519464 0 -0.0016263514642218954 -0.051813892553732199 0 -0.0017240823630573863 -0.052214874576830037 0 -0.0014036875041474515 -0.052720818451450914 0 -0.0017240823630573863 -0.052214874576830037 0 -0.0019637291855718231 -0.052191217600059334 0 -0.0017240823630573863 -0.052214874576830037 0 -0.0019952145328151765 -0.05199190820623141 0 -0.0019637291855718231 -0.052191217600059334 0 -0.0020816423075142036 -0.051651026695798748 0 -0.0019952145328151765 -0.05199190820623141 0 -0.0022274456003750507 -0.051781190926894857 0 -0.0019952145328151765 -0.05199190820623141 0 -0.0020310404540482478 -0.051811854312225653 0 -0.0019637291855718231 -0.052191217600059334 0 -0.0020816423075142036 -0.051651026695798748 0 -0.0017240823630573863 -0.052214874576830037 0 -0.0019952145328151765 -0.05199190820623141 0 -0.0019952145328151765 -0.05199190820623141 0 -0.0022274456003750507 -0.051781190926894857 0 -0.0020310404540482478 -0.051811854312225653 0 -0.0022274456003750507 -0.051781190926894857 0 -0.0028499827976829701 -0.051049213530558982 0 -0.0034122148088185883 -0.052012577811367068 0 -0.0022274456003750507 -0.051781190926894857 0 -0.0034122148088185883 -0.052012577811367068 0 -0.0017249465954821915 -0.05135204521402699 0 -0.0028499827976829701 -0.051049213530558982 0 -0.004090521354670632 -0.050742085017755158 0 -0.0034122148088185883 -0.052012577811367068 0 -0.0035742977882293483 -0.050065200344011539 0 -0.0028499827976829701 -0.051049213530558982 0 -0.004090521354670632 -0.050742085017755158 0 -0.0020816423075142036 -0.051651026695798748 0 -0.0022274456003750507 -0.051781190926894857 0 -0.0028499827976829701 -0.051049213530558982 0 -0.0024376069015007665 -0.050870823370971291 0 -0.0020816423075142036 -0.051651026695798748 0 -0.0028499827976829701 -0.051049213530558982 0 -0.0057833415565494203 -0.051149989280292442 0 -0.004090521354670632 -0.050742085017755158 0 -0.0050947723875084784 -0.049920629162286949 0 -0.0057833415565494203 -0.051149989280292442 0 -0.004090521354670632 -0.050742085017755158 0 -0.0034122148088185883 -0.052012577811367068 0 -0.0050765938482813062 -0.048834077219074797 0 -0.0031156545711482101 -0.05000273410780437 0 -0.0049574042056989304 -0.045718373246485429 0 -0.0024105891372469958 -0.048252855900645625 0 -0.0038038796455445471 -0.049150552988167763 0 -0.0049574042056989304 -0.045718373246485429 0 -0.0058402616590281838 -0.048055946679553471 0 -0.0038038796455445471 -0.049150552988167763 0 -0.0058402616590281838 -0.048055946679553471 0 -0.0075070006397874849 -0.046379606280446226 0 -0.0075514741240862646 -0.048954427627415996 0 -0.0049574042056989304 -0.045718373246485429 0 -0.0058402616590281838 -0.048055946679553471 0 -0.0075070006397874849 -0.046379606280446226 0 -0.010347744067239487 -0.041444187360928204 0 -0.006066614559799505 -0.043425761212224218 0 -0.012180687232690212 -0.037773950659013407 0 -0.011437036015338615 -0.037371050254921968 0 -0.011919689296762377 -0.037319691221605306 0 -0.010347744067239487 -0.041444187360928204 0 -0.0090866273040157274 -0.044228713002418749 0 -0.012180687232690212 -0.037773950659013407 0 -0.012740959115829812 -0.038665926485489548 0 -0.011901890220389486 -0.038114312745272785 0 -0.0049574042056989304 -0.045718373246485429 0 -0.0075070006397874849 -0.046379606280446226 0 -0.0074374053818144353 -0.043850924265361059 0 -0.0050765938482813062 -0.048834077219074797 0 -0.0090866273040157274 -0.044228713002418749 0 -0.0057833415565494203 -0.051149989280292442 0 -0.0072777731380791501 -0.048890639879340829 0 -0.0086491603444098699 -0.049088393267827685 0 -0.0057833415565494203 -0.051149989280292442 0 -0.0072777731380791501 -0.048890639879340829 0 -0.0062238560905071285 -0.048861763147439639 0 -0.0072777731380791501 -0.048890639879340829 0 -0.0086491603444098699 -0.049088393267827685 0 -0.0085257599177002846 -0.04736156432093417 0 -0.0072777731380791501 -0.048890639879340829 0 -0.0073854366309894122 -0.04749217461765344 0 -0.0062238560905071285 -0.048861763147439639 0 -0.0090866273040157274 -0.044228713002418749 0 -0.011301175376756709 -0.042816137490234954 0 -0.0085581703614286981 -0.048345288167486719 0 -0.0085257599177002846 -0.04736156432093417 0 -0.010067890850461943 -0.04626741220652001 0 -0.012740959115829812 -0.038665926485489548 0 -0.012407090831615621 -0.039656629322146981 0 -0.011901890220389486 -0.038114312745272785 0 -0.0090866273040157274 -0.044228713002418749 0 -0.0088104415882536164 -0.048145193607343068 0 -0.0085257599177002846 -0.04736156432093417 0 -0.0091628218330902459 -0.04602291076130121 0 -0.010067890850461943 -0.04626741220652001 0 -0.0085257599177002846 -0.04736156432093417 0 -0.0082779731594069955 -0.0463719233908369 0 -0.0091628218330902459 -0.04602291076130121 0 -0.0082779731594069955 -0.0463719233908369 0 -0.0091628218330902459 -0.04602291076130121 0 -0.0090243061199011213 -0.045211174100049829 0 -0.0073854366309894122 -0.04749217461765344 0 -0.0063458216935483999 -0.047612684154578505 0 -0.0062238560905071285 -0.048861763147439639 0 -0.0072777731380791501 -0.048890639879340829 0 -0.0085257599177002846 -0.04736156432093417 0 -0.0073854366309894122 -0.04749217461765344 0 -0.0085257599177002846 -0.04736156432093417 0 -0.0082779731594069955 -0.0463719233908369 0 -0.0073854366309894122 -0.04749217461765344 0 -0.0082779731594069955 -0.0463719233908369 0 -0.0073854366309894122 -0.04749217461765344 0 -0.0073577334439764459 -0.046490591961376539 0 -0.0073854366309894122 -0.04749217461765344 0 -0.0063458216935483999 -0.047612684154578505 0 -0.0073577334439764459 -0.046490591961376539 0 -0.0063458216935483999 -0.047612684154578505 0 -0.006482260182653592 -0.046806978232410187 0 -0.0073577334439764459 -0.046490591961376539 0 -0.0063458216935483999 -0.047612684154578505 0 -0.006482260182653592 -0.046806978232410187 0 -0.0055558239651552471 -0.047413503997286138 0 -0.0053351006706874463 -0.048562886918973237 0 -0.0045490679647139931 -0.048326876532265979 0 -0.0055558239651552471 -0.047413503997286138 0 -0.0063458216935483999 -0.047612684154578505 0 -0.0053351006706874463 -0.048562886918973237 0 -0.0055558239651552471 -0.047413503997286138 0 -0.0063458216935483999 -0.047612684154578505 0 -0.0053351006706874463 -0.048562886918973237 0 -0.0062238560905071285 -0.048861763147439639 0 -0.0057833415565494203 -0.051149989280292442 0 -0.0062238560905071285 -0.048861763147439639 0 -0.0050947723875084784 -0.049920629162286949 0 -0.0053351006706874463 -0.048562886918973237 0 -0.0062238560905071285 -0.048861763147439639 0 -0.0050947723875084784 -0.049920629162286949 0 -0.0035742977882293483 -0.050065200344011539 0 -0.004090521354670632 -0.050742085017755158 0 -0.0044279071212041032 -0.04928652614125377 0 -0.004090521354670632 -0.050742085017755158 0 -0.0050947723875084784 -0.049920629162286949 0 -0.0044279071212041032 -0.04928652614125377 0 -0.0053351006706874463 -0.048562886918973237 0 -0.0050947723875084784 -0.049920629162286949 0 -0.0044279071212041032 -0.04928652614125377 0 -0.003731009340484699 -0.049192366864460782 0 -0.0035742977882293483 -0.050065200344011539 0 -0.0044279071212041032 -0.04928652614125377 0 -0.003731009340484699 -0.049192366864460782 0 -0.0044279071212041032 -0.04928652614125377 0 -0.0045490679647139931 -0.048326876532265979 0 -0.0053351006706874463 -0.048562886918973237 0 -0.0044279071212041032 -0.04928652614125377 0 -0.0045490679647139931 -0.048326876532265979 0 -0.0037331046644671346 -0.048360004630631025 0 -0.003731009340484699 -0.049192366864460782 0 -0.0045490679647139931 -0.048326876532265979 0 -0.0037331046644671346 -0.048360004630631025 0 -0.0046504691984252016 -0.047502883246700121 0 -0.003884870265201922 -0.047573450571707115 0 -0.0037331046644671346 -0.048360004630631025 0 -0.0045490679647139931 -0.048326876532265979 0 -0.0046504691984252016 -0.047502883246700121 0 -0.0045490679647139931 -0.048326876532265979 0 -0.0046504691984252016 -0.047502883246700121 0 -0.0055558239651552471 -0.047413503997286138 0 -0.0046504691984252016 -0.047502883246700121 0 -0.0050908056930484514 -0.046699115157719087 0 -0.0045551931389905022 -0.047030672158517667 0 -0.0046504691984252016 -0.047502883246700121 0 -0.0050908056930484514 -0.046699115157719087 0 -0.0053677111421828391 -0.046948364583296751 0 -0.0050908056930484514 -0.046699115157719087 0 -0.0045551931389905022 -0.047030672158517667 0 -0.0048283459251410882 -0.046424986417915308 0 -0.0045551931389905022 -0.047030672158517667 0 -0.003884870265201922 -0.047573450571707115 0 -0.0043154926659608227 -0.046824852818736676 0 -0.0046504691984252016 -0.047502883246700121 0 -0.0045551931389905022 -0.047030672158517667 0 -0.003884870265201922 -0.047573450571707115 0 -0.0037397553281029966 -0.047274107712121205 0 -0.003884870265201922 -0.047573450571707115 0 -0.0043154926659608227 -0.046824852818736676 0 -0.006482260182653592 -0.046806978232410187 0 -0.0055558239651552471 -0.047413503997286138 0 -0.0061867740175592942 -0.046397133178473458 0 -0.006482260182653592 -0.046806978232410187 0 -0.0061867740175592942 -0.046397133178473458 0 -0.0069672184242374827 -0.045983141764399577 0 -0.0055558239651552471 -0.047413503997286138 0 -0.0053677111421828391 -0.046948364583296751 0 -0.0061867740175592942 -0.046397133178473458 0 -0.0046504691984252016 -0.047502883246700121 0 -0.0055558239651552471 -0.047413503997286138 0 -0.0053677111421828391 -0.046948364583296751 0 -0.0053677111421828391 -0.046948364583296751 0 -0.0057430482303351257 -0.046184253170336385 0 -0.0061867740175592942 -0.046397133178473458 0 -0.0050908056930484514 -0.046699115157719087 0 -0.0053677111421828391 -0.046948364583296751 0 -0.0057430482303351257 -0.046184253170336385 0 -0.0057430482303351257 -0.046184253170336385 0 -0.0061867740175592942 -0.046397133178473458 0 -0.0066161752693862643 -0.045523847150792947 0 -0.0061867740175592942 -0.046397133178473458 0 -0.0066161752693862643 -0.045523847150792947 0 -0.0069672184242374827 -0.045983141764399577 0 -0.0066161752693862643 -0.045523847150792947 0 -0.0060837164407273516 -0.045417212522338754 0 -0.0067989298864909653 -0.044713540255011792 0 -0.0057430482303351257 -0.046184253170336385 0 -0.0066161752693862643 -0.045523847150792947 0 -0.0060837164407273516 -0.045417212522338754 0 -0.0060837164407273516 -0.045417212522338754 0 -0.0053825641794659042 -0.045901263675125543 0 -0.0057391908057799115 -0.045256902597289539 0 -0.0057430482303351257 -0.046184253170336385 0 -0.0060837164407273516 -0.045417212522338754 0 -0.0053825641794659042 -0.045901263675125543 0 -0.0050908056930484514 -0.046699115157719087 0 -0.0057430482303351257 -0.046184253170336385 0 -0.0053825641794659042 -0.045901263675125543 0 -0.0053825641794659042 -0.045901263675125543 0 -0.0053449569897733532 -0.045307434342524773 0 -0.0050978367059891401 -0.045890048893247097 0 -0.0053825641794659042 -0.045901263675125543 0 -0.0053449569897733532 -0.045307434342524773 0 -0.0057391908057799115 -0.045256902597289539 0 -0.0053449569897733532 -0.045307434342524773 0 -0.0048541404901061985 -0.045893571173423402 0 -0.0055533377154459241 -0.043890224667724999 0 -0.0053449569897733532 -0.045307434342524773 0 -0.0058537223673516192 -0.044666304669810038 0 -0.0055533377154459241 -0.043890224667724999 0 -0.0053449569897733532 -0.045307434342524773 0 -0.0058537223673516192 -0.044666304669810038 0 -0.0057391908057799115 -0.045256902597289539 0 -0.0058537223673516192 -0.044666304669810038 0 -0.0063620503287606699 -0.044380929458617012 0 -0.0060344012828956062 -0.04422174912036194 0 -0.0058537223673516192 -0.044666304669810038 0 -0.0057391908057799115 -0.045256902597289539 0 -0.0061204832924925835 -0.044876099548668086 0 -0.0060837164407273516 -0.045417212522338754 0 -0.0057391908057799115 -0.045256902597289539 0 -0.0061204832924925835 -0.044876099548668086 0 -0.0060837164407273516 -0.045417212522338754 0 -0.0061204832924925835 -0.044876099548668086 0 -0.0067989298864909653 -0.044713540255011792 0 -0.0061204832924925835 -0.044876099548668086 0 -0.0063620503287606699 -0.044380929458617012 0 -0.0067989298864909653 -0.044713540255011792 0 -0.0058537223673516192 -0.044666304669810038 0 -0.0061204832924925835 -0.044876099548668086 0 -0.0063620503287606699 -0.044380929458617012 0 -0.0067989298864909653 -0.044713540255011792 0 -0.0067252517849974982 -0.044022060094304684 0 -0.0072003323438703821 -0.044046162041798315 0 -0.0063620503287606699 -0.044380929458617012 0 -0.0067989298864909653 -0.044713540255011792 0 -0.0067252517849974982 -0.044022060094304684 0 -0.0031800443587785194 -0.04754456721984008 0 -0.0041094358297552001 -0.046552204956041988 0 -0.0055533377154459241 -0.043890224667724999 0 -0.0031643676651284453 -0.047802723329138853 0 -0.0031800443587785194 -0.04754456721984008 0 -0.0032042333211625726 -0.04749530519680991 0 -0.0031800443587785194 -0.04754456721984008 0 -0.0032042333211625726 -0.04749530519680991 0 -0.0032473188200705561 -0.047546932194422763 0 -0.003163339110536875 -0.047350678444255646 0 -0.0047272287665299549 -0.04561716067851318 0 -0.0041094358297552001 -0.046552204956041988 0 -0.0043154926659608227 -0.046824852818736676 0 -0.0048541404901061985 -0.045893571173423402 0 -0.0037397553281029966 -0.047274107712121205 0 -0.0041094358297552001 -0.046552204956041988 0 -0.0043154926659608227 -0.046824852818736676 0 -0.0045551931389905022 -0.047030672158517667 0 -0.0043154926659608227 -0.046824852818736676 0 -0.0048283459251410882 -0.046424986417915308 0 -0.0043154926659608227 -0.046824852818736676 0 -0.0048283459251410882 -0.046424986417915308 0 -0.0048541404901061985 -0.045893571173423402 0 -0.0050908056930484514 -0.046699115157719087 0 -0.0053825641794659042 -0.045901263675125543 0 -0.0048283459251410882 -0.046424986417915308 0 -0.0053449569897733532 -0.045307434342524773 0 -0.0050978367059891401 -0.045890048893247097 0 -0.0048541404901061985 -0.045893571173423402 0 -0.0048283459251410882 -0.046424986417915308 0 -0.0050978367059891401 -0.045890048893247097 0 -0.0048541404901061985 -0.045893571173423402 0 -0.0053825641794659042 -0.045901263675125543 0 -0.0048283459251410882 -0.046424986417915308 0 -0.0050978367059891401 -0.045890048893247097 0 -0.0041094358297552001 -0.046552204956041988 0 -0.0048541404901061985 -0.045893571173423402 0 -0.0055533377154459241 -0.043890224667724999 0 -0.0033672246870631866 -0.047660653591833427 0 -0.0027814105590832174 -0.048072898743240493 0 -0.0031414478091463518 -0.047922418259678475 0 -0.0031643676651284453 -0.047802723329138853 0 -0.0031407856910723926 -0.047971685151855473 0 -0.0031414478091463518 -0.047922418259678475 0 -0.0031394407583629404 -0.047946147761575325 0 -0.0031407856910723926 -0.047971685151855473 0 -0.0031414478091463518 -0.047922418259678475 0 -0.0031365886039524246 -0.047939703702037935 0 -0.0031394407583629404 -0.047946147761575325 0 -0.0031138124842871409 -0.047945951416062893 0 -0.0031365886039524246 -0.047939703702037935 0 -0.0031526105449650936 -0.047900407420516593 0 -0.0031365886039524246 -0.047939703702037935 0 -0.00314913002008691 -0.047936852354208942 0 -0.0031526105449650936 -0.047900407420516593 0 -0.00314913002008691 -0.047936852354208942 0 -0.0031394407583629404 -0.047946147761575325 0 -0.0031407856910723926 -0.047971685151855473 0 -0.0031365886039524246 -0.047939703702037935 0 -0.00314913002008691 -0.047936852354208942 0 -0.0031394407583629404 -0.047946147761575325 0 -0.0027814105590832174 -0.048072898743240493 0 -0.0052782038714397394 -0.045525958474424533 0 -0.0032042333211625726 -0.04749530519680991 0 -0.0032473188200705561 -0.047546932194422763 0 -0.0041461385250502877 -0.047008482016198685 0 -0.0031407856910723926 -0.047971685151855473 0 -0.0031879947872860996 -0.047912603647130056 0 -0.0033235948167483309 -0.047904203006631917 0 -0.0055533377154459241 -0.043890224667724999 0 -0.0060344012828956062 -0.04422174912036194 0 -0.0063212428547072871 -0.044034119337495285 0 -0.0058537223673516192 -0.044666304669810038 0 -0.0055533377154459241 -0.043890224667724999 0 -0.0060344012828956062 -0.04422174912036194 0 -0.0055533377154459241 -0.043890224667724999 0 -0.0063212428547072871 -0.044034119337495285 0 -0.0069001262577464773 -0.043637492198583656 0 -0.0067252517849974982 -0.044022060094304684 0 -0.0063212428547072871 -0.044034119337495285 0 -0.0069001262577464773 -0.043637492198583656 0 -0.0067252517849974982 -0.044022060094304684 0 -0.0069001262577464773 -0.043637492198583656 0 -0.0072003323438703821 -0.044046162041798315 0 -0.0063620503287606699 -0.044380929458617012 0 -0.0067252517849974982 -0.044022060094304684 0 -0.0063212428547072871 -0.044034119337495285 0 -0.0063620503287606699 -0.044380929458617012 0 -0.0060344012828956062 -0.04422174912036194 0 -0.0063212428547072871 -0.044034119337495285 0 -0.00314913002008691 -0.047936852354208942 0 -0.0031407856910723926 -0.047971685151855473 0 -0.0031879947872860996 -0.047912603647130056 0 -0.0031879947872860996 -0.047912603647130056 0 -0.0032125725500565623 -0.047863967750106928 0 -0.0033235948167483309 -0.047904203006631917 0 -0.0031879947872860996 -0.047912603647130056 0 -0.0032125725500565623 -0.047863967750106928 0 -0.0031526105449650936 -0.047900407420516593 0 -0.0031548389434510925 -0.047820479005545098 0 -0.0032125725500565623 -0.047863967750106928 0 -0.0031526105449650936 -0.047900407420516593 0 -0.0031548389434510925 -0.047820479005545098 0 -0.0030403670467021569 -0.047786136822417717 0 -0.0031526105449650936 -0.047900407420516593 0 -0.00314913002008691 -0.047936852354208942 0 -0.0031879947872860996 -0.047912603647130056 0 -0.0031526105449650936 -0.047900407420516593 0 -0.0090080924770342876 -0.04287770012879985 0 -0.0092081063502342277 -0.043108752460474305 0 -0.0097217124173947667 -0.043073053521250071 0 -0.0050300593807904217 -0.045555285970057958 0 -0.0049663130592188858 -0.046018395459563266 0 -0.0047236981517317688 -0.046145392151204272 0 -0.0057909604054784038 -0.0456045171408676 0 -0.0050300593807904217 -0.045555285970057958 0 -0.0049663130592188858 -0.046018395459563266 0 -0.0090080924770342876 -0.04287770012879985 0 -0.0086496175195427179 -0.042942412665251735 0 -0.0088564118715922426 -0.04301964722975439 0 -0.0068068621074996042 -0.044102399200356822 0 -0.0052782038714397394 -0.045525958474424533 0 -0.0033372175783457107 -0.048424432758947297 0 -0.0052782038714397394 -0.045525958474424533 0 -0.0032763977392251194 -0.047782167528461574 0 -0.0032125725500565623 -0.047863967750106928 0 -0.0033235948167483309 -0.047904203006631917 0 -0.0055533377154459241 -0.043890224667724999 0 -0.0069001262577464773 -0.043637492198583656 0 -0.0084172218613507519 -0.042325822672823143 0 -0.0052782038714397394 -0.045525958474424533 0 -0.006526223366438386 -0.043548847149734858 0 -0.0086496175195427179 -0.042942412665251735 0 -0.0085754559360563375 -0.043180453247001545 0 -0.0088564118715922426 -0.04301964722975439 0 -0.0047272287665299549 -0.04561716067851318 0 -0.0052782038714397394 -0.045525958474424533 0 -0.0084172218613507519 -0.042325822672823143 0 -0.0085754559360563375 -0.043180453247001545 0 -0.0079366688752569355 -0.043655198649834519 0 -0.0069001262577464773 -0.043637492198583656 0 -0.0084172218613507519 -0.042325822672823143 0 -0.0079366688752569355 -0.043655198649834519 0 -0.0069001262577464773 -0.043637492198583656 0 -0.0072003323438703821 -0.044046162041798315 0 -0.0079366688752569355 -0.043655198649834519 0 -0.0085754559360563375 -0.043180453247001545 0 -0.0079366688752569355 -0.043655198649834519 0 -0.0088016338767577546 -0.043571333104969821 0 -0.0079366688752569355 -0.043655198649834519 0 -0.0088016338767577546 -0.043571333104969821 0 -0.0082943522231342763 -0.044084859605830126 0 -0.0085754559360563375 -0.043180453247001545 0 -0.0088016338767577546 -0.043571333104969821 0 -0.0092081063502342277 -0.043108752460474305 0 -0.0085754559360563375 -0.043180453247001545 0 -0.0088564118715922426 -0.04301964722975439 0 -0.0092081063502342277 -0.043108752460474305 0 -0.0090080924770342876 -0.04287770012879985 0 -0.0088564118715922426 -0.04301964722975439 0 -0.0092081063502342277 -0.043108752460474305 0 -0.0088016338767577546 -0.043571333104969821 0 -0.0092081063502342277 -0.043108752460474305 0 -0.0093634589360687883 -0.043526586387038053 0 -0.0092081063502342277 -0.043108752460474305 0 -0.0093634589360687883 -0.043526586387038053 0 -0.0095898659277318873 -0.043216614601540117 0 -0.0093634589360687883 -0.043526586387038053 0 -0.0089818812549431574 -0.044045742848420819 0 -0.0096386167964368549 -0.043834188239172449 0 -0.0088016338767577546 -0.043571333104969821 0 -0.0089818812549431574 -0.044045742848420819 0 -0.0082943522231342763 -0.044084859605830126 0 -0.0088016338767577546 -0.043571333104969821 0 -0.0093634589360687883 -0.043526586387038053 0 -0.0089818812549431574 -0.044045742848420819 0 -0.0089818812549431574 -0.044045742848420819 0 -0.0081267406748348637 -0.044653746656960792 0 -0.0085147586670967536 -0.044830318852181729 0 -0.0089818812549431574 -0.044045742848420819 0 -0.0082943522231342763 -0.044084859605830126 0 -0.0081267406748348637 -0.044653746656960792 0 -0.0089818812549431574 -0.044045742848420819 0 -0.009209832603282557 -0.04449361030277503 0 -0.0085147586670967536 -0.044830318852181729 0 -0.0089818812549431574 -0.044045742848420819 0 -0.009209832603282557 -0.04449361030277503 0 -0.0096386167964368549 -0.043834188239172449 0 -0.0067989298864909653 -0.044713540255011792 0 -0.0072003323438703821 -0.044046162041798315 0 -0.0076458546561262858 -0.04431846745763672 0 -0.0067989298864909653 -0.044713540255011792 0 -0.0076458546561262858 -0.04431846745763672 0 -0.0073901591599949794 -0.045118477301354938 0 -0.0072003323438703821 -0.044046162041798315 0 -0.0079366688752569355 -0.043655198649834519 0 -0.0076458546561262858 -0.04431846745763672 0 -0.0076458546561262858 -0.04431846745763672 0 -0.0082943522231342763 -0.044084859605830126 0 -0.0081267406748348637 -0.044653746656960792 0 -0.0079366688752569355 -0.043655198649834519 0 -0.0076458546561262858 -0.04431846745763672 0 -0.0082943522231342763 -0.044084859605830126 0 -0.0081267406748348637 -0.044653746656960792 0 -0.0073901591599949794 -0.045118477301354938 0 -0.0077412044614222769 -0.045582509403613448 0 -0.0076458546561262858 -0.04431846745763672 0 -0.0081267406748348637 -0.044653746656960792 0 -0.0073901591599949794 -0.045118477301354938 0 -0.0066161752693862643 -0.045523847150792947 0 -0.0067989298864909653 -0.044713540255011792 0 -0.0073901591599949794 -0.045118477301354938 0 -0.0066161752693862643 -0.045523847150792947 0 -0.0073901591599949794 -0.045118477301354938 0 -0.0069672184242374827 -0.045983141764399577 0 -0.0073901591599949794 -0.045118477301354938 0 -0.0069672184242374827 -0.045983141764399577 0 -0.0077412044614222769 -0.045582509403613448 0 -0.0081267406748348637 -0.044653746656960792 0 -0.0077412044614222769 -0.045582509403613448 0 -0.0085147586670967536 -0.044830318852181729 0 -0.0077412044614222769 -0.045582509403613448 0 -0.0085147586670967536 -0.044830318852181729 0 -0.0083922892494651038 -0.045457487350876916 0 -0.0077412044614222769 -0.045582509403613448 0 -0.0073577334439764459 -0.046490591961376539 0 -0.0083922892494651038 -0.045457487350876916 0 -0.0082779731594069955 -0.0463719233908369 0 -0.0073577334439764459 -0.046490591961376539 0 -0.0083922892494651038 -0.045457487350876916 0 -0.0069672184242374827 -0.045983141764399577 0 -0.0077412044614222769 -0.045582509403613448 0 -0.0073577334439764459 -0.046490591961376539 0 -0.006482260182653592 -0.046806978232410187 0 -0.0069672184242374827 -0.045983141764399577 0 -0.0073577334439764459 -0.046490591961376539 0 -0.009209832603282557 -0.04449361030277503 0 -0.0099952604362690805 -0.0441072053028915 0 -0.0096386167964368549 -0.043834188239172449 0 -0.009209832603282557 -0.04449361030277503 0 -0.0085147586670967536 -0.044830318852181729 0 -0.0083922892494651038 -0.045457487350876916 0 -0.009209832603282557 -0.04449361030277503 0 -0.0083922892494651038 -0.045457487350876916 0 -0.0090243061199011213 -0.045211174100049829 0 -0.0082779731594069955 -0.0463719233908369 0 -0.0083922892494651038 -0.045457487350876916 0 -0.0090243061199011213 -0.045211174100049829 0 -0.009209832603282557 -0.04449361030277503 0 -0.0090243061199011213 -0.045211174100049829 0 -0.0099952604362690805 -0.0441072053028915 0 -0.0091628218330902459 -0.04602291076130121 0 -0.0090243061199011213 -0.045211174100049829 0 -0.0099952604362690805 -0.0441072053028915 0 -0.0099952604362690805 -0.0441072053028915 0 -0.010317750946321164 -0.043334303167980384 0 -0.010967257906388949 -0.042234123704709893 0 -0.0099952604362690805 -0.0441072053028915 0 -0.010317750946321164 -0.043334303167980384 0 -0.0096386167964368549 -0.043834188239172449 0 -0.010967257906388949 -0.042234123704709893 0 -0.010060946156858284 -0.042760205385105575 0 -0.010113071505402858 -0.040227634860691384 0 -0.010317750946321164 -0.043334303167980384 0 -0.010967257906388949 -0.042234123704709893 0 -0.010060946156858284 -0.042760205385105575 0 -0.010317750946321164 -0.043334303167980384 0 -0.010060946156858284 -0.042760205385105575 0 -0.010026138830210479 -0.043241702615464131 0 -0.010060946156858284 -0.042760205385105575 0 -0.010026138830210479 -0.043241702615464131 0 -0.0096682519439785126 -0.043239165366549488 0 -0.010317750946321164 -0.043334303167980384 0 -0.0096386167964368549 -0.043834188239172449 0 -0.0098529592685953418 -0.043414200325157561 0 -0.010317750946321164 -0.043334303167980384 0 -0.010026138830210479 -0.043241702615464131 0 -0.0098529592685953418 -0.043414200325157561 0 -0.0093634589360687883 -0.043526586387038053 0 -0.0096386167964368549 -0.043834188239172449 0 -0.0098529592685953418 -0.043414200325157561 0 -0.0093634589360687883 -0.043526586387038053 0 -0.0098529592685953418 -0.043414200325157561 0 -0.0095898659277318873 -0.043216614601540117 0 -0.0098529592685953418 -0.043414200325157561 0 -0.0095898659277318873 -0.043216614601540117 0 -0.0098040103599211174 -0.04321852903485713 0 -0.010026138830210479 -0.043241702615464131 0 -0.0098529592685953418 -0.043414200325157561 0 -0.0098040103599211174 -0.04321852903485713 0 -0.0098040103599211174 -0.04321852903485713 0 -0.0096037402893099817 -0.043250995297106687 0 -0.0096682519439785126 -0.043239165366549488 0 -0.010026138830210479 -0.043241702615464131 0 -0.0098040103599211174 -0.04321852903485713 0 -0.0096682519439785126 -0.043239165366549488 0 -0.0095165281299367608 -0.04339264638833909 0 -0.0097217124173947667 -0.043073053521250071 0 -0.0096037402893099817 -0.043250995297106687 0 -0.0098040103599211174 -0.04321852903485713 0 -0.0097217124173947667 -0.043073053521250071 0 -0.0096037402893099817 -0.043250995297106687 0 -0.0061563023053956582 -0.044383906519642767 0 -0.0068068621074996042 -0.044102399200356822 0 -0.0068068621074996042 -0.044102399200356822 0 -0.0085362800410846342 -0.042875843792150245 0 -0.0069676099321553803 -0.042916556889530819 0 -0.0065028475155530759 -0.04323257390171225 0 -0.0069593211905059722 -0.042981289546797787 0 -0.0095898659277318873 -0.043216614601540117 0 -0.0098040103599211174 -0.04321852903485713 0 -0.0097217124173947667 -0.043073053521250071 0 -0.0092081063502342277 -0.043108752460474305 0 -0.0095898659277318873 -0.043216614601540117 0 -0.0097217124173947667 -0.043073053521250071 0 -0.0093166850453972171 -0.04327964611605585 0 -0.0091544527133279631 -0.043269427114455236 0 -0.0091593594036157369 -0.043226347235676449 0 -0.0093166850453972171 -0.04327964611605585 0 -0.0094403018215979389 -0.043249982352042811 0 -0.0091593594036157369 -0.043226347235676449 0 -0.0092422343506575223 -0.043340698831010653 0 -0.0093166850453972171 -0.04327964611605585 0 -0.0091544527133279631 -0.043269427114455236 0 -0.0093166850453972171 -0.04327964611605585 0 -0.0096037402893099817 -0.043250995297106687 0 -0.0094403018215979389 -0.043249982352042811 0 -0.0095165281299367608 -0.04339264638833909 0 -0.0093166850453972171 -0.04327964611605585 0 -0.0096037402893099817 -0.043250995297106687 0 -0.0095165281299367608 -0.04339264638833909 0 -0.0092422343506575223 -0.043340698831010653 0 -0.0093166850453972171 -0.04327964611605585 0 -0.0096037402893099817 -0.043250995297106687 0 -0.0094403018215979389 -0.043249982352042811 0 -0.0096682519439785126 -0.043239165366549488 0 -0.0094403018215979389 -0.043249982352042811 0 -0.0096682519439785126 -0.043239165366549488 0 -0.0092220503530817052 -0.043160403234863434 0 -0.0096682519439785126 -0.043239165366549488 0 -0.0092220503530817052 -0.043160403234863434 0 -0.0092992172520531095 -0.042917322929335519 0 -0.0092220503530817052 -0.043160403234863434 0 -0.009081957082680071 -0.043154649976677999 0 -0.0089817971056413235 -0.043022963143185808 0 -0.0092220503530817052 -0.043160403234863434 0 -0.0091593594036157369 -0.043226347235676449 0 -0.009081957082680071 -0.043154649976677999 0 -0.0094403018215979389 -0.043249982352042811 0 -0.0092220503530817052 -0.043160403234863434 0 -0.0091593594036157369 -0.043226347235676449 0 -0.0091593594036157369 -0.043226347235676449 0 -0.009081957082680071 -0.043154649976677999 0 -0.0090605641297036785 -0.043209294440726763 0 -0.0091544527133279631 -0.043269427114455236 0 -0.0091593594036157369 -0.043226347235676449 0 -0.0090605641297036785 -0.043209294440726763 0 -0.009081957082680071 -0.043154649976677999 0 -0.0089817971056413235 -0.043022963143185808 0 -0.0090605641297036785 -0.043209294440726763 0 -0.0089817971056413235 -0.043022963143185808 0 -0.0084043019389684285 -0.042531345533104788 0 -0.0090605641297036785 -0.043209294440726763 0 -0.0089817971056413235 -0.043022963143185808 0 -0.0092992172520531095 -0.042917322929335519 0 -0.0084043019389684285 -0.042531345533104788 0 -0.0088765768089648141 -0.038988065657201122 0 -0.0096789212682401107 -0.039804844474340934 0 -0.0092524064208046666 -0.035937119939557234 0 -0.0095975704258929179 -0.034872184542052077 0 -0.0097849644252418853 -0.036089583874912151 0 -0.0092220503530817052 -0.043160403234863434 0 -0.0089817971056413235 -0.043022963143185808 0 -0.0092992172520531095 -0.042917322929335519 0 -0.0092992172520531095 -0.042917322929335519 0 -0.0093490742268618563 -0.042427713102964767 0 -0.0084043019389684285 -0.042531345533104788 0 -0.010060946156858284 -0.042760205385105575 0 -0.0096682519439785126 -0.043239165366549488 0 -0.0092992172520531095 -0.042917322929335519 0 -0.010060946156858284 -0.042760205385105575 0 -0.0092992172520531095 -0.042917322929335519 0 -0.0093490742268618563 -0.042427713102964767 0 -0.0095217919516324013 -0.041291317705380692 0 -0.0084043019389684285 -0.042531345533104788 0 -0.009278524513689778 -0.038314529005649363 0 -0.010060946156858284 -0.042760205385105575 0 -0.0095217919516324013 -0.041291317705380692 0 -0.010113071505402858 -0.040227634860691384 0 -0.010060946156858284 -0.042760205385105575 0 -0.0093490742268618563 -0.042427713102964767 0 -0.0095217919516324013 -0.041291317705380692 0 -0.0093490742268618563 -0.042427713102964767 0 -0.0095217919516324013 -0.041291317705380692 0 -0.0084043019389684285 -0.042531345533104788 0 -0.0092524064208046666 -0.035937119939557234 0 -0.0094890690205760263 -0.036892462187292245 0 -0.0097849644252418853 -0.036089583874912151 0 -0.0088765768089648141 -0.038988065657201122 0 -0.0092576601589525465 -0.038363357889263747 0 -0.0092524064208046666 -0.035937119939557234 0 -0.0094890690205760263 -0.036892462187292245 0 -0.009278524513689778 -0.038314529005649363 0 -0.0094890690205760263 -0.036892462187292245 0 -0.009405099918520822 -0.037056216666788384 0 -0.0097849644252418853 -0.036089583874912151 0 -0.0094890690205760263 -0.036892462187292245 0 -0.009405099918520822 -0.037056216666788384 0 -0.009278524513689778 -0.038314529005649363 0 -0.0047624353083378082 -0.030668895895382273 0 -0.0054534340777824706 -0.030535961306495475 0 -0.009405099918520822 -0.037056216666788384 0 -0.0098872675715438157 -0.037530780198935347 0 -0.01003967352999615 -0.035758543995394985 0 -0.009405099918520822 -0.037056216666788384 0 -0.0098872675715438157 -0.037530780198935347 0 -0.009278524513689778 -0.038314529005649363 0 -0.0098872675715438157 -0.037530780198935347 0 -0.009278524513689778 -0.038314529005649363 0 -0.010113071505402858 -0.040227634860691384 0 -0.0095217919516324013 -0.041291317705380692 0 -0.009278524513689778 -0.038314529005649363 0 -0.010113071505402858 -0.040227634860691384 0 -0.010967257906388949 -0.042234123704709893 0 -0.010113071505402858 -0.040227634860691384 0 -0.011138719366595032 -0.038848373616390826 0 -0.0091628218330902459 -0.04602291076130121 0 -0.0099952604362690805 -0.0441072053028915 0 -0.010067890850461943 -0.04626741220652001 0 -0.01075515111876427 -0.042642554986224213 0 -0.011301175376756709 -0.042816137490234954 0 -0.010967257906388949 -0.042234123704709893 0 -0.012407090831615621 -0.039656629322146981 0 -0.011138719366595032 -0.038848373616390826 0 -0.0099952604362690805 -0.0441072053028915 0 -0.010967257906388949 -0.042234123704709893 0 -0.010067890850461943 -0.04626741220652001 0 -0.012407090831615621 -0.039656629322146981 0 -0.011138719366595032 -0.038848373616390826 0 -0.011901890220389486 -0.038114312745272785 0 -0.0098872675715438157 -0.037530780198935347 0 -0.010113071505402858 -0.040227634860691384 0 -0.011138719366595032 -0.038848373616390826 0 -0.011138719366595032 -0.038848373616390826 0 -0.010909123881688321 -0.037351170413968494 0 -0.011901890220389486 -0.038114312745272785 0 -0.0098872675715438157 -0.037530780198935347 0 -0.011138719366595032 -0.038848373616390826 0 -0.010909123881688321 -0.037351170413968494 0 -0.010909123881688321 -0.037351170413968494 0 -0.011901890220389486 -0.038114312745272785 0 -0.011437036015338615 -0.037371050254921968 0 -0.012180687232690212 -0.037773950659013407 0 -0.011901890220389486 -0.038114312745272785 0 -0.011437036015338615 -0.037371050254921968 0 -0.011437036015338615 -0.037371050254921968 0 -0.010541095928690201 -0.036544353968204518 0 -0.010905610435152377 -0.036842482447628527 0 -0.010909123881688321 -0.037351170413968494 0 -0.011437036015338615 -0.037371050254921968 0 -0.010541095928690201 -0.036544353968204518 0 -0.010541095928690201 -0.036544353968204518 0 -0.01003967352999615 -0.035758543995394985 0 -0.0103085209746554 -0.036696723637647734 0 -0.010541095928690201 -0.036544353968204518 0 -0.01003967352999615 -0.035758543995394985 0 -0.010640399932669483 -0.036379598457585781 0 -0.00050704985559801049 -0.02444058816487123 0 -0.00077384149523385159 -0.023841790610643662 0 -0.0005994814461538192 -0.023090072578190755 0 -0.0054534340777824706 -0.030535961306495475 0 -0.0040649034200859278 -0.028272153501879855 0 -0.0098872675715438157 -0.037530780198935347 0 -0.010909123881688321 -0.037351170413968494 0 -0.0103085209746554 -0.036696723637647734 0 -0.0098872675715438157 -0.037530780198935347 0 -0.01003967352999615 -0.035758543995394985 0 -0.0103085209746554 -0.036696723637647734 0 -0.010909123881688321 -0.037351170413968494 0 -0.010541095928690201 -0.036544353968204518 0 -0.0103085209746554 -0.036696723637647734 0 -0.0045254762158405647 -0.032186382719379888 0 -0.0047891332824326971 -0.030761304171138065 0 -0.003428284244293007 -0.031555186702592365 0 -0.0045254762158405647 -0.032186382719379888 0 -0.003428284244293007 -0.031555186702592365 0 -0.0031270224609598776 -0.032905590397529938 0 -0.0011745961319461109 -0.022165648125160219 0 -0.0012969059003352726 -0.022542961963473079 0 -0.00085270001123377256 -0.022040382055152585 0 -0.0029066323539936535 -0.026861260911969123 0 -0.0040649034200859278 -0.028272153501879855 0 -0.0040649034200859278 -0.028272153501879855 0 0.0001394465205143395 -0.022045857453090702 0 -0.010541095928690201 -0.036544353968204518 0 -0.010640399932669483 -0.036379598457585781 0 -0.010882460460723263 -0.036979866946776664 0 -0.0040649034200859278 -0.028272153501879855 0 -0.0073491112883601892 -0.034781783324391712 0 -0.010541095928690201 -0.036544353968204518 0 -0.010905610435152377 -0.036842482447628527 0 -0.010882460460723263 -0.036979866946776664 0 -0.010905610435152377 -0.036842482447628527 0 -0.010148316544260143 -0.037558378771234344 0 -0.0093102032714031443 -0.037268397663150467 0 -0.01296718041826924 -0.035346532449804291 0 -0.006066614559799505 -0.043425761212224218 0 -0.011437036015338615 -0.037371050254921968 0 -0.010905610435152377 -0.036842482447628527 0 -0.011919689296762377 -0.037319691221605306 0 -0.010905610435152377 -0.036842482447628527 0 -0.010148316544260143 -0.037558378771234344 0 -0.010532809084030264 -0.038089503434522776 0 -0.010148316544260143 -0.037558378771234344 0 -0.010532809084030264 -0.038089503434522776 0 -0.0098589155299751308 -0.038477574926830384 0 -0.0073491112883601892 -0.034781783324391712 0 -0.0068778295001805439 -0.034626086212875364 0 -0.010905610435152377 -0.036842482447628527 0 -0.010882460460723263 -0.036979866946776664 0 -0.010532809084030264 -0.038089503434522776 0 -0.003428284244293007 -0.031555186702592365 0 -0.0031270224609598776 -0.032905590397529938 0 -0.0021415654733597804 -0.032419627317316582 0 -0.0031270224609598776 -0.032905590397529938 0 -0.0021415654733597804 -0.032419627317316582 0 -0.0020231330734688719 -0.03354395009204697 0 -0.0068778295001805439 -0.034626086212875364 0 -0.0026899524020755463 -0.041163602641406276 0 -0.0021415654733597804 -0.032419627317316582 0 -0.0020231330734688719 -0.03354395009204697 0 -0.00098644518782146982 -0.033573126811209865 0 -0.0020231330734688719 -0.03354395009204697 0 -0.0017228827566142047 -0.034268809738927888 0 -0.0024410857520337712 -0.034095852293298208 0 -0.0020231330734688719 -0.03354395009204697 0 -0.0017228827566142047 -0.034268809738927888 0 -0.00098644518782146982 -0.033573126811209865 0 -0.0024410857520337712 -0.034095852293298208 0 -0.0032067489778951253 -0.0337378569842465 0 -0.0028270045008544401 -0.034196916728334047 0 -0.0031270224609598776 -0.032905590397529938 0 -0.0024410857520337712 -0.034095852293298208 0 -0.0042350233336684523 -0.033617052089123384 0 -0.0031684736448075669 -0.035199397716572149 0 -0.0014808353588798119 -0.027991021163257548 0 -0.0031270224609598776 -0.032905590397529938 0 -0.0020231330734688719 -0.03354395009204697 0 -0.0024410857520337712 -0.034095852293298208 0 -0.0029066323539936535 -0.026861260911969123 0 -0.0014808353588798119 -0.027991021163257548 0 -0.0045254762158405647 -0.032186382719379888 0 -0.0031270224609598776 -0.032905590397529938 0 -0.0042350233336684523 -0.033617052089123384 0 -0.0011745961319461109 -0.022165648125160219 0 -0.0011364427258075134 -0.022136946142352652 0 -0.00091352274343647552 -0.021936244222444012 0 -0.0011745961319461109 -0.022165648125160219 0 -0.00085270001123377256 -0.022040382055152585 0 -0.00091352274343647552 -0.021936244222444012 0 0.0023857553000151536 -0.022131128339009761 0 0.0015306572439388896 -0.023063540310967703 0 0.00057253333698254025 -0.02162298368643031 0 -0.0014808353588798119 -0.027991021163257548 0 0.00016815804242945875 -0.021108614252892812 0 0.0015306572439388896 -0.023063540310967703 0 0.0016991653223426516 -0.023983776793944294 0 0.0008305288843727844 -0.024233751675438647 0 0.0015306572439388896 -0.023063540310967703 0 0.0016991653223426516 -0.023983776793944294 0 0.0027256369510116735 -0.023785658563833391 0 0.0023857553000151536 -0.022131128339009761 0 0.0015306572439388896 -0.023063540310967703 0 0.0027256369510116735 -0.023785658563833391 0 -0.0032067489778951253 -0.0337378569842465 0 -0.0030613676499728574 -0.034576313594619407 0 -0.0028270045008544401 -0.034196916728334047 0 -0.0014808353588798119 -0.027991021163257548 0 -0.00014445407839602591 -0.029338604083790135 0 0.0027256369510116735 -0.023785658563833391 0 0.0019263410869785347 -0.024886008201711843 0 0.0030334765653360451 -0.025516214790525838 0 -0.00014445407839602591 -0.029338604083790135 0 0.0010616751303669206 -0.029591879200618735 0 -0.0030613676499728574 -0.034576313594619407 0 -0.0028828436830644179 -0.035353890365637318 0 -0.0025723305474403112 -0.035036055342485106 0 0.0016991653223426516 -0.023983776793944294 0 0.0027256369510116735 -0.023785658563833391 0 0.0019263410869785347 -0.024886008201711843 0 0.0020699890134895857 -0.025013676358683672 0 0.0010616751303669206 -0.029591879200618735 0 0.0020699890134895857 -0.025013676358683672 0 0.00095877458551347084 -0.024337568658464474 0 0.0016991653223426516 -0.023983776793944294 0 0.0019263410869785347 -0.024886008201711843 0 0.0008305288843727844 -0.024233751675438647 0 0.0022282176658356637 -0.025096842710935777 0 0.0012650254674588318 -0.02533602726452578 0 0.0020909999740923546 -0.025937827689867906 0 0.0022282176658356637 -0.025096842710935777 0 0.0012650254674588318 -0.02533602726452578 0 0.0008305288843727844 -0.024233751675438647 0 -3.2705769916617046e-05 -0.027029791428454884 0 -1.1155728070040265e-06 -0.02720231897170728 0 0.00030306516175259926 -0.025892794160623272 0 0.0012650254674588318 -0.02533602726452578 0 0.0020909999740923546 -0.025937827689867906 0 0.00030306516175259926 -0.025892794160623272 0 0.0012293599877158973 -0.026425949760617698 0 0.00020357478322684765 -0.026082561338760142 0 -3.2705769916617046e-05 -0.027029791428454884 0 0.00014631502670893329 -0.027562873292081434 0 -1.1155728070040265e-06 -0.02720231897170728 0 -3.2705769916617046e-05 -0.027029791428454884 0 0.0010532325441157473 -0.027064460077129909 0 0.00014631502670893329 -0.027562873292081434 0 0.0020909999740923546 -0.025937827689867906 0 0.0036225682379255812 -0.025890357213753289 0 0.0036451757491892923 -0.026023112022761842 0 0.0022282176658356637 -0.025096842710935777 0 0.0020909999740923546 -0.025937827689867906 0 0.0036225682379255812 -0.025890357213753289 0 0.00036666753029496499 -0.032619324829697344 0 0.00021525430104844535 -0.032616129659355529 0 4.0324603495194812e-07 -0.031163380475552553 0 0.0012293599877158973 -0.026425949760617698 0 0.00096927805916789819 -0.029587677778983575 0 0.0010616751303669206 -0.029591879200618735 0 0.00096927805916789819 -0.029587677778983575 0 0.00096927805916789819 -0.029587677778983575 0 -8.4376185544938063e-06 -0.0310591374903159 0 0.00045911549535027627 -0.030403677298449644 0 0.00047797816569790581 -0.030509702903989619 0 0.00067385257014019196 -0.030518696965241232 0 0.0010616751303669206 -0.029591879200618735 0 -8.4376185544938063e-06 -0.0310591374903159 0 0.0010532325441157473 -0.027064460077129909 0 0.00014631502670893329 -0.027562873292081434 0 3.6955272761673763e-05 -0.028657406590018957 0 0.00096927805916789819 -0.029587677778983575 0 1.4627891034367811e-07 -0.031158748376788517 0 0.0010532325441157473 -0.027064460077129909 0 3.6955272761673763e-05 -0.028657406590018957 0 3.1335497283917219e-06 -0.031154122946187104 0 3.6955272761673763e-05 -0.028657406590018957 0 -8.8419258010250371e-07 -0.028108430724198562 0 3.1335497283917219e-06 -0.031154122946187104 0 -8.8419258010250371e-07 -0.028108430724198562 0 -1.1155728070040265e-06 -0.02720231897170728 0 0.00019388084084187213 -0.026172446298495768 0 3.6955272761673763e-05 -0.028657406590018957 0 -8.8419258010250371e-07 -0.028108430724198562 0 -1.1155728070040265e-06 -0.02720231897170728 0 0.00014631502670893329 -0.027562873292081434 0 3.6955272761673763e-05 -0.028657406590018957 0 -1.1155728070040265e-06 -0.02720231897170728 0 0.00078760243634565252 -0.034617033336708909 0 0.00086180697288440716 -0.035428873312699942 0 0.0040858291520721735 -0.037392062831973001 0 0.00031146836477736724 -0.035372516523987381 0 0.00096984325596510725 -0.036857614970655574 0 6.5181027829463287e-05 -0.033820874091795801 0 -1.1422379638676971e-05 -0.033121224560648803 0 0.00031146836477736724 -0.035372516523987381 0 6.5181027829463287e-05 -0.033820874091795801 0 -2.692586898072252e-05 -0.032190267683365081 0 9.4232810939024805e-07 -0.034445762979248791 0 6.5181027829463287e-05 -0.033820874091795801 0 -2.692586898072252e-05 -0.032190267683365081 0 -1.1422379638676971e-05 -0.033121224560648803 0 6.5181027829463287e-05 -0.033820874091795801 0 0.00031146836477736724 -0.035372516523987381 0 9.4232810939024805e-07 -0.034445762979248791 0 -2.692586898072252e-05 -0.032190267683365081 0 4.0324603495194812e-07 -0.031163380475552553 0 9.4232810939024805e-07 -0.034445762979248791 0 0.00021525430104844535 -0.032616129659355529 0 -2.692586898072252e-05 -0.032190267683365081 0 4.0324603495194812e-07 -0.031163380475552553 0 0.00021525430104844535 -0.032616129659355529 0 -2.692586898072252e-05 -0.032190267683365081 0 -9.4002927830990057e-05 -0.032473923320435784 0 0.00022607154257294363 -0.031912797151207706 0 0.00078760243634565252 -0.034617033336708909 0 -8.4376185544938063e-06 -0.0310591374903159 0 -0.00068841327380788969 -0.037823390932702677 0 -0.0027871790624870254 -0.035406555019095808 0 -0.0022171376025028927 -0.035456674017954985 0 -0.0025723305474403112 -0.035036055342485106 0 -0.0004587977174969419 -0.034019701440870041 0 0.00050589248740758529 -0.034549449161973979 0 0.00063662834332890185 -0.034091484628801703 0 -8.4376185544938063e-06 -0.0310591374903159 0 0.00078760243634565252 -0.034617033336708909 0 -0.0028828436830644179 -0.035353890365637318 0 -0.0027871790624870254 -0.035406555019095808 0 -0.0025723305474403112 -0.035036055342485106 0 0.0040858291520721735 -0.037392062831973001 0 0.0026221584306498204 -0.037731978935046248 0 0.00096984325596510725 -0.036857614970655574 0 0.003574440152068481 -0.038632186859588961 0 0.0018040197483049393 -0.037979467029702799 0 7.1767618196755633e-05 -0.038331238948825792 0 -0.0035105771005933591 -0.043179474763669359 0 -0.0018430270466072236 -0.042046666669795049 0 -0.0002250687784086755 -0.043346355494392919 0 -0.00068841327380788969 -0.037823390932702677 0 0.0012112491767656158 -0.040840141621119076 0 0.003574440152068481 -0.038632186859588961 0 0.0026221584306498204 -0.037731978935046248 0 0.0018040197483049393 -0.037979467029702799 0 0.0040858291520721735 -0.037392062831973001 0 0.003574440152068481 -0.038632186859588961 0 0.0026221584306498204 -0.037731978935046248 0 0.00078760243634565252 -0.034617033336708909 0 -0.00068841327380788969 -0.037823390932702677 0 0.0026221584306498204 -0.037731978935046248 0 0.0018040197483049393 -0.037979467029702799 0 0.00096984325596510725 -0.036857614970655574 0 -0.0035105771005933591 -0.043179474763669359 0 -0.0018430270466072236 -0.042046666669795049 0 -0.0027844004329937574 -0.040335058828137843 0 -0.00068841327380788969 -0.037823390932702677 0 -0.002603217099870121 -0.037938160362408449 0 -0.0018430270466072236 -0.042046666669795049 0 -0.0027844004329937574 -0.040335058828137843 0 -0.0012071887268878673 -0.041178559769789194 0 -0.0022171376025028927 -0.035456674017954985 0 -0.0020313480226941119 -0.03485068402761525 0 -0.0025723305474403112 -0.035036055342485106 0 -0.0020313480226941119 -0.03485068402761525 0 -0.0025723305474403112 -0.035036055342485106 0 -0.002466454185411126 -0.034542154979771381 0 -0.0030613676499728574 -0.034576313594619407 0 -0.0025723305474403112 -0.035036055342485106 0 -0.002466454185411126 -0.034542154979771381 0 -0.0030613676499728574 -0.034576313594619407 0 -0.002466454185411126 -0.034542154979771381 0 -0.0028270045008544401 -0.034196916728334047 0 -0.0024410857520337712 -0.034095852293298208 0 -0.002466454185411126 -0.034542154979771381 0 -0.0028270045008544401 -0.034196916728334047 0 -0.0017228827566142047 -0.034268809738927888 0 -0.0020313480226941119 -0.03485068402761525 0 -0.002466454185411126 -0.034542154979771381 0 -0.0017228827566142047 -0.034268809738927888 0 -0.0024410857520337712 -0.034095852293298208 0 -0.002466454185411126 -0.034542154979771381 0 -0.0021184922555060374 -0.037113530782603349 0 -0.0027844004329937574 -0.040335058828137843 0 -3.6593263777387073e-06 -0.038961969841702748 0 -0.0018204974415480487 -0.035553452330970958 0 -0.002603217099870121 -0.037938160362408449 0 0.0031009783742828962 -0.045160521203700538 0 0.0019524093968703729 -0.045835168404655825 0 0.0029979005328203715 -0.046583493417361718 0 0.0031009783742828962 -0.045160521203700538 0 0.0029979005328203715 -0.046583493417361718 0 0.0036387725209447081 -0.045899063460953862 0 0.0046893282017770122 -0.044967863150426293 0 0.0031009783742828962 -0.045160521203700538 0 0.0036387725209447081 -0.045899063460953862 0 0.0046893282017770122 -0.044967863150426293 0 0.0031009783742828962 -0.045160521203700538 0 0.0032207181550463868 -0.043100404792440219 0 0.0031009783742828962 -0.045160521203700538 0 0.0018202301805137491 -0.043942062289782015 0 0.0019524093968703729 -0.045835168404655825 0 0.0031009783742828962 -0.045160521203700538 0 0.0032207181550463868 -0.043100404792440219 0 0.0018202301805137491 -0.043942062289782015 0 0.0032207181550463868 -0.043100404792440219 0 0.001123039992903116 -0.040069711544144897 0 0.0018202301805137491 -0.043942062289782015 0 -0.0027844004329937574 -0.040335058828137843 0 -3.6593263777387073e-06 -0.038961969841702748 0 -0.0012071887268878673 -0.041178559769789194 0 0.0031290570835111457 -0.042067918451367266 0 0.0012112491767656158 -0.040840141621119076 0 0.0046893282017770122 -0.044967863150426293 0 0.0032207181550463868 -0.043100404792440219 0 0.0050773169261648429 -0.040443990457500106 0 -3.6593263777387073e-06 -0.038961969841702748 0 -0.0012071887268878673 -0.041178559769789194 0 -0.0002250687784086755 -0.043346355494392919 0 -0.0018430270466072236 -0.042046666669795049 0 -0.0012071887268878673 -0.041178559769789194 0 -0.0002250687784086755 -0.043346355494392919 0 0.0018040197483049393 -0.037979467029702799 0 0.00076433659677096631 -0.037658976253514484 0 7.1767618196755633e-05 -0.038331238948825792 0 0.00076433659677096631 -0.037658976253514484 0 0.00034836232812195383 -0.0375581403745604 0 7.1767618196755633e-05 -0.038331238948825792 0 0.00076433659677096631 -0.037658976253514484 0 0.00034836232812195383 -0.0375581403745604 0 0.00096984325596510725 -0.036857614970655574 0 0.0018040197483049393 -0.037979467029702799 0 0.00076433659677096631 -0.037658976253514484 0 0.00096984325596510725 -0.036857614970655574 0 0.00034836232812195383 -0.0375581403745604 0 0.00053870249437501896 -0.038120293035493955 0 0.00027830055528864193 -0.037023469008123651 0 0.00034836232812195383 -0.0375581403745604 0 0.0003829147976401984 -0.03755158406936511 0 0.00053870249437501896 -0.038120293035493955 0 0.00096450940033964132 -0.038468441095103105 0 0.0012112491767656158 -0.040840141621119076 0 0.0012112491767656158 -0.040840141621119076 0 0.0016004897016727725 -0.039562669285986451 0 0.0003829147976401984 -0.03755158406936511 0 0.001123039992903116 -0.040069711544144897 0 0.00053870249437501896 -0.038120293035493955 0 0.0032207181550463868 -0.043100404792440219 0 0.0050773169261648429 -0.040443990457500106 0 0.001123039992903116 -0.040069711544144897 0 0.001123039992903116 -0.040069711544144897 0 0.00053870249437501896 -0.038120293035493955 0 0.00023406152260542043 -0.037254255030808349 0 0.001123039992903116 -0.040069711544144897 0 1.154669081655437e-06 -0.03773482092539681 0 0.00023406152260542043 -0.037254255030808349 0 1.154669081655437e-06 -0.03773482092539681 0 0.00023406152260542043 -0.037254255030808349 0 9.4232810939024805e-07 -0.034445762979248791 0 0.00023406152260542043 -0.037254255030808349 0 0.00031146836477736724 -0.035372516523987381 0 9.4232810939024805e-07 -0.034445762979248791 0 0.00034836232812195383 -0.0375581403745604 0 0.00096984325596510725 -0.036857614970655574 0 0.00027830055528864193 -0.037023469008123651 0 0.00031146836477736724 -0.035372516523987381 0 0.00096984325596510725 -0.036857614970655574 0 0.00027830055528864193 -0.037023469008123651 0 0.00053870249437501896 -0.038120293035493955 0 0.00023406152260542043 -0.037254255030808349 0 0.00027830055528864193 -0.037023469008123651 0 0.00023406152260542043 -0.037254255030808349 0 0.00031146836477736724 -0.035372516523987381 0 0.00027830055528864193 -0.037023469008123651 0 -1.3096643798764845e-06 -0.041018660776340969 0 8.7344171922089015e-05 -0.040040505102859482 0 -0.00041742564777836049 -0.042048634863046885 0 0.001123039992903116 -0.040069711544144897 0 1.154669081655437e-06 -0.03773482092539681 0 8.7344171922089015e-05 -0.040040505102859482 0 1.154669081655437e-06 -0.03773482092539681 0 -1.3096643798764845e-06 -0.041018660776340969 0 8.7344171922089015e-05 -0.040040505102859482 0 0.001123039992903116 -0.040069711544144897 0 -8.7857505894767832e-05 -0.042195619480657323 0 0.00061923238160845615 -0.042987797523464398 0 0.001123039992903116 -0.040069711544144897 0 8.7344171922089015e-05 -0.040040505102859482 0 -8.7857505894767832e-05 -0.042195619480657323 0 8.7344171922089015e-05 -0.040040505102859482 0 -8.7857505894767832e-05 -0.042195619480657323 0 -0.00041742564777836049 -0.042048634863046885 0 -8.7857505894767832e-05 -0.042195619480657323 0 0.00013736028991871807 -0.044773624972784976 0 -0.00066572623392266417 -0.043308705719683531 0 -8.7857505894767832e-05 -0.042195619480657323 0 0.00061923238160845615 -0.042987797523464398 0 0.00013736028991871807 -0.044773624972784976 0 0.001123039992903116 -0.040069711544144897 0 0.00061923238160845615 -0.042987797523464398 0 0.0018202301805137491 -0.043942062289782015 0 0.00061923238160845615 -0.042987797523464398 0 0.0018202301805137491 -0.043942062289782015 0 0.00013736028991871807 -0.044773624972784976 0 0.0019524093968703729 -0.045835168404655825 0 0.00013736028991871807 -0.044773624972784976 0 0.0010216873201071037 -0.046808551440142558 0 0.0018202301805137491 -0.043942062289782015 0 0.0019524093968703729 -0.045835168404655825 0 0.00013736028991871807 -0.044773624972784976 0 0.00013736028991871807 -0.044773624972784976 0 4.0801204843892348e-05 -0.046899213476774101 0 0.0010216873201071037 -0.046808551440142558 0 4.0801204843892348e-05 -0.046899213476774101 0 0.00083297046933300414 -0.048536689334249705 0 -0.00061646211984329167 -0.048451616257901182 0 4.0801204843892348e-05 -0.046899213476774101 0 0.00083297046933300414 -0.048536689334249705 0 0.0010216873201071037 -0.046808551440142558 0 0.00083297046933300414 -0.048536689334249705 0 -0.00021881494502856098 -0.049660444065188436 0 -0.00061646211984329167 -0.048451616257901182 0 0.00083297046933300414 -0.048536689334249705 0 0.0020857508501117756 -0.04743516083033196 0 0.0024244386298246591 -0.048757415672124611 0 0.00083297046933300414 -0.048536689334249705 0 0.0024244386298246591 -0.048757415672124611 0 0.0015097798276072101 -0.049471757139935998 0 0.00083297046933300414 -0.048536689334249705 0 0.0020857508501117756 -0.04743516083033196 0 0.0010216873201071037 -0.046808551440142558 0 0.0019524093968703729 -0.045835168404655825 0 0.0020857508501117756 -0.04743516083033196 0 0.0010216873201071037 -0.046808551440142558 0 0.0019524093968703729 -0.045835168404655825 0 0.0020857508501117756 -0.04743516083033196 0 0.0029979005328203715 -0.046583493417361718 0 0.0029979005328203715 -0.046583493417361718 0 0.0036387725209447081 -0.045899063460953862 0 0.0037795708418326538 -0.046822847246536251 0 0.0029979005328203715 -0.046583493417361718 0 0.0037795708418326538 -0.046822847246536251 0 0.0031045782530946761 -0.047679674944780592 0 0.0037795708418326538 -0.046822847246536251 0 0.0036513281679488034 -0.047738634039516191 0 0.0031045782530946761 -0.047679674944780592 0 0.0020857508501117756 -0.04743516083033196 0 0.0029979005328203715 -0.046583493417361718 0 0.0031045782530946761 -0.047679674944780592 0 0.0031290570835111457 -0.042067918451367266 0 -0.0026899524020755463 -0.041163602641406276 0 -0.0021184922555060374 -0.037113530782603349 0 -0.0007173899418845077 -0.035404949706484029 0 -0.00098644518782146982 -0.033573126811209865 0 -3.6593263777387073e-06 -0.038961969841702748 0 -0.0007173899418845077 -0.035404949706484029 0 -0.00031213990707096496 -0.033814683500920553 0 0.0046893282017770122 -0.044967863150426293 0 0.0037795708418326538 -0.046822847246536251 0 0.0042478605269355204 -0.047765790649316756 0 0.0046893282017770122 -0.044967863150426293 0 0.0036387725209447081 -0.045899063460953862 0 0.0037795708418326538 -0.046822847246536251 0 -0.0018204974415480487 -0.035553452330970958 0 -0.0011311654425777138 -0.033755368327277692 0 -0.0021184922555060374 -0.037113530782603349 0 -3.6593263777387073e-06 -0.038961969841702748 0 -0.0007173899418845077 -0.035404949706484029 0 -0.010532809084030264 -0.038089503434522776 0 -0.0093518437384424481 -0.039192086513325175 0 -0.0098589155299751308 -0.038477574926830384 0 -0.0021415654733597804 -0.032419627317316582 0 -0.00098644518782146982 -0.033573126811209865 0 -0.00031213990707096496 -0.033814683500920553 0 -0.0007173899418845077 -0.035404949706484029 0 -0.00098644518782146982 -0.033573126811209865 0 -0.00031213990707096496 -0.033814683500920553 0 0.0042478605269355204 -0.047765790649316756 0 0.0036513281679488034 -0.047738634039516191 0 0.0034135332993226151 -0.04831761072054068 0 0.0037795708418326538 -0.046822847246536251 0 0.0042478605269355204 -0.047765790649316756 0 0.0036513281679488034 -0.047738634039516191 0 0.0020857508501117756 -0.04743516083033196 0 0.0031045782530946761 -0.047679674944780592 0 0.0024244386298246591 -0.048757415672124611 0 0.0036513281679488034 -0.047738634039516191 0 0.0031045782530946761 -0.047679674944780592 0 0.0034135332993226151 -0.04831761072054068 0 0.0042478605269355204 -0.047765790649316756 0 0.0034135332993226151 -0.04831761072054068 0 0.0034025416306597326 -0.049112978752181846 0 0.0034135332993226151 -0.04831761072054068 0 0.0024244386298246591 -0.048757415672124611 0 0.0034025416306597326 -0.049112978752181846 0 0.0031045782530946761 -0.047679674944780592 0 0.0034135332993226151 -0.04831761072054068 0 0.0024244386298246591 -0.048757415672124611 0 0.0034025416306597326 -0.049112978752181846 0 0.0038955483250505229 -0.05018642743024232 0 0.0022383982212412679 -0.050191434432767669 0 0.0024244386298246591 -0.048757415672124611 0 0.0034025416306597326 -0.049112978752181846 0 0.0022383982212412679 -0.050191434432767669 0 0.0042478605269355204 -0.047765790649316756 0 0.0034025416306597326 -0.049112978752181846 0 0.0038955483250505229 -0.05018642743024232 0 -0.0093518437384424481 -0.039192086513325175 0 -0.0098589155299751308 -0.038477574926830384 0 -0.0093102032714031443 -0.037268397663150467 0 -0.010148316544260143 -0.037558378771234344 0 -0.0098589155299751308 -0.038477574926830384 0 -0.0093102032714031443 -0.037268397663150467 0 -0.0026899524020755463 -0.041163602641406276 0 -0.006066614559799505 -0.043425761212224218 0 -0.006066614559799505 -0.043425761212224218 0 -0.00047839321774088714 -0.050686690658084517 0 -0.0058402616590281838 -0.048055946679553471 0 -0.0075514741240862646 -0.048954427627415996 0 -0.0052217731684356681 -0.050013721113925526 0 -0.0058402616590281838 -0.048055946679553471 0 -0.0038038796455445471 -0.049150552988167763 0 -0.0052217731684356681 -0.050013721113925526 0 -0.0038038796455445471 -0.049150552988167763 0 -0.0029494348998394255 -0.050768635102680038 0 -0.0052217731684356681 -0.050013721113925526 0 -0.0024105891372469958 -0.048252855900645625 0 -0.0038038796455445471 -0.049150552988167763 0 -0.0021539252133331833 -0.050231575438425595 0 -0.0038038796455445471 -0.049150552988167763 0 -0.0029494348998394255 -0.050768635102680038 0 -0.0021539252133331833 -0.050231575438425595 0 0.00083297046933300414 -0.048536689334249705 0 0.00050739748981714489 -0.050353824819441867 0 -0.00021881494502856098 -0.049660444065188436 0 0.00083297046933300414 -0.048536689334249705 0 0.00050739748981714489 -0.050353824819441867 0 0.0015097798276072101 -0.049471757139935998 0 0.00050739748981714489 -0.050353824819441867 0 0.0015097798276072101 -0.049471757139935998 0 0.0022383982212412679 -0.050191434432767669 0 0.0024244386298246591 -0.048757415672124611 0 0.0015097798276072101 -0.049471757139935998 0 0.0022383982212412679 -0.050191434432767669 0 -0.0014999568815822588 -0.050467000041857953 0 -0.00047839321774088714 -0.050686690658084517 0 -0.0013705535014156838 -0.050810025682081379 0 -0.0020103444054523031 -0.051592209517550031 0 -0.0021436031649898204 -0.051197995993431313 0 -0.0013705535014156838 -0.050810025682081379 0 -0.0021436031649898204 -0.051197995993431313 0 -0.0015979552720817368 -0.049975888248602413 0 -0.0013705535014156838 -0.050810025682081379 0 -0.0017249465954821915 -0.05135204521402699 0 -0.0020103444054523031 -0.051592209517550031 0 0.00050739748981714489 -0.050353824819441867 0 -0.0013705535014156838 -0.050810025682081379 0 -0.00021881494502856098 -0.049660444065188436 0 -0.0014999568815822588 -0.050467000041857953 0 -0.0013241820433856717 -0.050758921667641968 0 -0.0029494348998394255 -0.050768635102680038 0 -0.0013705535014156838 -0.050810025682081379 0 -0.0021539252133331833 -0.050231575438425595 0 -0.0013705535014156838 -0.050810025682081379 0 -0.0015979552720817368 -0.049975888248602413 0 -0.00021881494502856098 -0.049660444065188436 0 -0.0031156545711482101 -0.05000273410780437 0 -0.0018549369559273756 -0.051197598395859606 0 -0.0013705535014156838 -0.050810025682081379 0 -0.0021539252133331833 -0.050231575438425595 0 -0.0017249465954821915 -0.05135204521402699 0 -0.0024105891372469958 -0.048252855900645625 0 -0.0021539252133331833 -0.050231575438425595 0 -0.0017249465954821915 -0.05135204521402699 0 -0.0022274456003750507 -0.051781190926894857 0 -0.0017249465954821915 -0.05135204521402699 0 -0.0020310404540482478 -0.051811854312225653 0 -0.0017249465954821915 -0.05135204521402699 0 -0.0020310404540482478 -0.051811854312225653 0 -0.0020103444054523031 -0.051592209517550031 0 -0.0020310404540482478 -0.051811854312225653 0 -0.0020103444054523031 -0.051592209517550031 0 -0.0019637291855718231 -0.052191217600059334 0 -0.0020103444054523031 -0.051592209517550031 0 -0.0019637291855718231 -0.052191217600059334 0 -0.0021958252588084389 -0.052023288439828029 0 -0.0014036875041474515 -0.052720818451450914 0 -0.0019637291855718231 -0.052191217600059334 0 -0.0016682917465536511 -0.052665208443880812 0 -0.0019637291855718231 -0.052191217600059334 0 -0.0021958252588084389 -0.052023288439828029 0 -0.0016682917465536511 -0.052665208443880812 0 -0.0021958252588084389 -0.052023288439828029 0 -0.0021436031649898204 -0.051197995993431313 0 -0.0028102434042400269 -0.051807307923395794 0 -0.0020103444054523031 -0.051592209517550031 0 -0.0021958252588084389 -0.052023288439828029 0 -0.0021436031649898204 -0.051197995993431313 0 -0.0021436031649898204 -0.051197995993431313 0 -0.0021576232803516022 -0.050033682206518368 0 -0.0028102434042400269 -0.051807307923395794 0 -0.0021436031649898204 -0.051197995993431313 0 -0.0021576232803516022 -0.050033682206518368 0 -0.0015979552720817368 -0.049975888248602413 0 -0.0021958252588084389 -0.052023288439828029 0 -0.0028102434042400269 -0.051807307923395794 0 -0.001787506896635524 -0.052645159285284134 0 -0.0029043907096837824 -0.05161978978687818 0 -0.0030810153724350185 -0.050736509256007943 0 -0.0028102434042400269 -0.051807307923395794 0 -0.0025492485072018648 -0.048229583708726043 0 -0.0043436051567099414 -0.047573797126825738 0 -0.0021576232803516022 -0.050033682206518368 0 -0.0028102434042400269 -0.051807307923395794 0 -0.0025492485072018648 -0.048229583708726043 0 -0.0021576232803516022 -0.050033682206518368 0 -0.0025492485072018648 -0.048229583708726043 0 -0.0015892067312600481 -0.048470349008633166 0 -0.0025492485072018648 -0.048229583708726043 0 -0.0015892067312600481 -0.048470349008633166 0 -0.0017470762073661917 -0.046808455322224433 0 -0.0015892067312600481 -0.048470349008633166 0 -0.00081185320034570473 -0.046713726339903124 0 -0.0017470762073661917 -0.046808455322224433 0 -0.0021576232803516022 -0.050033682206518368 0 -0.0015892067312600481 -0.048470349008633166 0 -0.0015979552720817368 -0.049975888248602413 0 -0.0015892067312600481 -0.048470349008633166 0 -0.0015979552720817368 -0.049975888248602413 0 -0.00061646211984329167 -0.048451616257901182 0 -0.0015979552720817368 -0.049975888248602413 0 -0.00021881494502856098 -0.049660444065188436 0 -0.00061646211984329167 -0.048451616257901182 0 4.0801204843892348e-05 -0.046899213476774101 0 -0.00061646211984329167 -0.048451616257901182 0 -0.00081185320034570473 -0.046713726339903124 0 -0.0015892067312600481 -0.048470349008633166 0 -0.00061646211984329167 -0.048451616257901182 0 -0.00081185320034570473 -0.046713726339903124 0 0.00013736028991871807 -0.044773624972784976 0 4.0801204843892348e-05 -0.046899213476774101 0 -0.00081185320034570473 -0.046713726339903124 0 0.00013736028991871807 -0.044773624972784976 0 -0.00081185320034570473 -0.046713726339903124 0 -0.0011309554875005641 -0.044947350859994656 0 -0.00081185320034570473 -0.046713726339903124 0 -0.0017470762073661917 -0.046808455322224433 0 -0.0011309554875005641 -0.044947350859994656 0 -0.0017470762073661917 -0.046808455322224433 0 -0.0011309554875005641 -0.044947350859994656 0 -0.0026728468477869413 -0.045703438770939964 0 -0.0011309554875005641 -0.044947350859994656 0 -0.0011694938017826082 -0.043300880265110302 0 -0.0019704715889687385 -0.04427296520670803 0 -0.0011309554875005641 -0.044947350859994656 0 -0.0019704715889687385 -0.04427296520670803 0 -0.0026728468477869413 -0.045703438770939964 0 0.00013736028991871807 -0.044773624972784976 0 -0.0011309554875005641 -0.044947350859994656 0 -0.00066572623392266417 -0.043308705719683531 0 -0.0011309554875005641 -0.044947350859994656 0 -0.00066572623392266417 -0.043308705719683531 0 -0.0011694938017826082 -0.043300880265110302 0 -8.7857505894767832e-05 -0.042195619480657323 0 -0.00066572623392266417 -0.043308705719683531 0 -0.00041742564777836049 -0.042048634863046885 0 -0.0011694938017826082 -0.043300880265110302 0 -0.00096680979906382184 -0.042667096214395746 0 -0.00041742564777836049 -0.042048634863046885 0 -0.00066572623392266417 -0.043308705719683531 0 -0.0011694938017826082 -0.043300880265110302 0 -0.00041742564777836049 -0.042048634863046885 0 -0.0011694938017826082 -0.043300880265110302 0 -0.0019704715889687385 -0.04427296520670803 0 -0.0018574760722920994 -0.043217458067536747 0 -0.0011694938017826082 -0.043300880265110302 0 -0.0018574760722920994 -0.043217458067536747 0 -0.00096680979906382184 -0.042667096214395746 0 -0.00096680979906382184 -0.042667096214395746 0 -5.7835999603647046e-05 -0.042388293200120671 0 -0.0022084884038981582 -0.042206782776684798 0 -3.2701823061037677e-07 -0.044307250541272575 0 -5.7835999603647046e-05 -0.042388293200120671 0 -2.3261646091000419e-05 -0.045245324347087945 0 -0.00023451172573439821 -0.042725778907106507 0 -0.0014238673528756966 -0.043452536384182484 0 -0.0018574760722920994 -0.043217458067536747 0 -0.00096680979906382184 -0.042667096214395746 0 -0.0022084884038981582 -0.042206782776684798 0 -1.3096643798764845e-06 -0.041018660776340969 0 -3.2701823061037677e-07 -0.044307250541272575 0 -5.7835999603647046e-05 -0.042388293200120671 0 -1.3096643798764845e-06 -0.041018660776340969 0 -5.7835999603647046e-05 -0.042388293200120671 0 -0.00041742564777836049 -0.042048634863046885 0 -0.00096680979906382184 -0.042667096214395746 0 -5.7835999603647046e-05 -0.042388293200120671 0 -0.00041742564777836049 -0.042048634863046885 0 4.6818425457882485e-05 -0.047124762636334624 0 2.7804130005159344e-07 -0.047590850672643785 0 -2.3261646091000419e-05 -0.045245324347087945 0 -0.00088843112433522437 -0.048344598872702454 0 -5.6468769198771591e-07 -0.047593433876063018 0 -3.2701823061037677e-07 -0.044307250541272575 0 2.7804130005159344e-07 -0.047590850672643785 0 -2.3261646091000419e-05 -0.045245324347087945 0 -0.0042689302812270657 -0.043035514729193716 0 -0.0022084884038981582 -0.042206782776684798 0 -0.0030341278296871122 -0.043786721783625152 0 -0.0018574760722920994 -0.043217458067536747 0 -0.0022084884038981582 -0.042206782776684798 0 -0.0030341278296871122 -0.043786721783625152 0 -0.00088843112433522437 -0.048344598872702454 0 -0.0014238673528756966 -0.043452536384182484 0 -0.0019704715889687385 -0.04427296520670803 0 -0.0018574760722920994 -0.043217458067536747 0 -0.0030341278296871122 -0.043786721783625152 0 -0.0042689302812270657 -0.043035514729193716 0 -0.0030341278296871122 -0.043786721783625152 0 -0.0043380292737059817 -0.045062144788064758 0 -0.0012306317179207478 -0.053847777390747545 0 -0.0013648867933224638 -0.054138261532454657 0 -0.0012018084587912593 -0.054235003122834725 0 -0.00088843112433522437 -0.048344598872702454 0 -0.0030711316947461581 -0.049609776862611039 0 -0.0030711316947461581 -0.049609776862611039 0 -0.0030810153724350185 -0.050736509256007943 0 -0.0043380292737059817 -0.045062144788064758 0 -0.0026728468477869413 -0.045703438770939964 0 -0.0043436051567099414 -0.047573797126825738 0 -0.0013648867933224638 -0.054138261532454657 0 -0.0020186125004042006 -0.05404004727157212 0 -0.0012410916089690503 -0.054355880131102131 0 -0.0030341278296871122 -0.043786721783625152 0 -0.0043380292737059817 -0.045062144788064758 0 -0.0026728468477869413 -0.045703438770939964 0 -0.0019704715889687385 -0.04427296520670803 0 -0.0030341278296871122 -0.043786721783625152 0 -0.0026728468477869413 -0.045703438770939964 0 -0.0025492485072018648 -0.048229583708726043 0 -0.0026728468477869413 -0.045703438770939964 0 -0.0043436051567099414 -0.047573797126825738 0 -0.0025492485072018648 -0.048229583708726043 0 -0.0017470762073661917 -0.046808455322224433 0 -0.0026728468477869413 -0.045703438770939964 0 1.4715985694452571e-06 -0.047599707248069396 0 -4.4550336999495447e-05 -0.051231207620220529 0 -9.8065346894460475e-07 -0.054997355683250759 0 -0.0020186125004042006 -0.05404004727157212 0 -0.00094393878892994596 -0.054282581474059351 0 -0.0012410916089690503 -0.054355880131102131 0 -0.00094393878892994596 -0.054282581474059351 0 -0.0008528883481488626 -0.054554871376193588 0 -0.00041704564726226988 -0.054699474925345291 0 -0.00094393878892994596 -0.054282581474059351 0 -0.0008528883481488626 -0.054554871376193588 0 -0.0012410916089690503 -0.054355880131102131 0 -0.0008528883481488626 -0.054554871376193588 0 -0.0012410916089690503 -0.054355880131102131 0 -0.0010581903051400518 -0.054377324435499343 0 -0.0013648867933224638 -0.054138261532454657 0 -0.0012410916089690503 -0.054355880131102131 0 -0.0012018084587912593 -0.054235003122834725 0 -0.0012306317179207478 -0.053847777390747545 0 -0.0012018084587912593 -0.054235003122834725 0 -0.00099472991584810913 -0.054505345910951526 0 -0.0012410916089690503 -0.054355880131102131 0 -0.0012018084587912593 -0.054235003122834725 0 -0.0010581903051400518 -0.054377324435499343 0 -0.0009456593597347195 -0.054411050856929329 0 -0.00044029511946074647 -0.054549957595202647 0 -0.0010581903051400518 -0.054377324435499343 0 -0.00099472991584810913 -0.054505345910951526 0 -0.00028443730930034913 -0.054162360482454382 0 -0.0008528883481488626 -0.054554871376193588 0 -0.0010581903051400518 -0.054377324435499343 0 -0.00054774800714724582 -0.05486691549813482 0 -0.0012018084587912593 -0.054235003122834725 0 -0.0010581903051400518 -0.054377324435499343 0 -0.00099472991584810913 -0.054505345910951526 0 -0.00088843112433522437 -0.048344598872702454 0 -0.00059392002545707401 -0.053277862103858299 0 0.00024366027513209482 -0.04860676978600581 0 1.4715985694452571e-06 -0.047599707248069396 0 -4.4550336999495447e-05 -0.051231207620220529 0 -4.4550336999495447e-05 -0.051231207620220529 0 -9.8065346894460475e-07 -0.054997355683250759 0 -0.00011399678729138218 -0.05424859766188446 0 -9.8065346894460475e-07 -0.054997355683250759 0 -0.00011399678729138218 -0.05424859766188446 0 2.0358844181998342e-07 -0.054998943230445296 0 -0.00099472991584810913 -0.054505345910951526 0 -0.00028443730930034913 -0.054162360482454382 0 -0.00011399678729138218 -0.05424859766188446 0 -0.00059392002545707401 -0.053277862103858299 0 -0.00031574222331675575 -0.053944262563123527 0 -0.00044029511946074647 -0.054549957595202647 0 -2.3721992145419869e-07 -0.054999784029045561 0 -0.00028443730930034913 -0.054162360482454382 0 -0.00011399678729138218 -0.05424859766188446 0 2.0358844181998342e-07 -0.054998943230445296 0 -0.00054774800714724582 -0.05486691549813482 0 -3.0068979901272089e-07 -0.055000185079568609 0 -0.00041704564726226988 -0.054699474925345291 0 -0.0008528883481488626 -0.054554871376193588 0 -0.00054774800714724582 -0.05486691549813482 0 -0.00041704564726226988 -0.054699474925345291 0 -0.00094393878892994596 -0.054282581474059351 0 -0.00041704564726226988 -0.054699474925345291 0 -0.00045710241322023567 -0.054320976496804028 0 -3.0068979901272089e-07 -0.055000185079568609 0 -0.00041704564726226988 -0.054699474925345291 0 -1.845369864358667e-07 -0.054999301629269803 0 -0.00041704564726226988 -0.054699474925345291 0 -1.845369864358667e-07 -0.054999301629269803 0 -0.00045710241322023567 -0.054320976496804028 0 -1.845369864358667e-07 -0.054999301629269803 0 -2.2738900684904936e-07 -0.054999046933369995 0 -0.00045710241322023567 -0.054320976496804028 0 -2.2738900684904936e-07 -0.054999046933369995 0 -0.00045710241322023567 -0.054320976496804028 0 -0.00034326164900359152 -0.054346221767110334 0 -0.00045710241322023567 -0.054320976496804028 0 -0.00098406665899121123 -0.053457189999723119 0 -0.00034326164900359152 -0.054346221767110334 0 -0.00094393878892994596 -0.054282581474059351 0 -0.00045710241322023567 -0.054320976496804028 0 -0.0011942220826594353 -0.053459674758971377 0 -0.0020186125004042006 -0.05404004727157212 0 -0.00094393878892994596 -0.054282581474059351 0 -0.0011942220826594353 -0.053459674758971377 0 -0.0028102434042400269 -0.051807307923395794 0 -0.0020186125004042006 -0.05404004727157212 0 -0.0011942220826594353 -0.053459674758971377 0 -0.0028102434042400269 -0.051807307923395794 0 -0.0011942220826594353 -0.053459674758971377 0 -0.001787506896635524 -0.052645159285284134 0 -0.00045710241322023567 -0.054320976496804028 0 -0.0011942220826594353 -0.053459674758971377 0 -0.00098406665899121123 -0.053457189999723119 0 -0.0011942220826594353 -0.053459674758971377 0 -0.001787506896635524 -0.052645159285284134 0 -0.00098406665899121123 -0.053457189999723119 0 -0.001787506896635524 -0.052645159285284134 0 -0.00098406665899121123 -0.053457189999723119 0 -0.0016682917465536511 -0.052665208443880812 0 -0.0021958252588084389 -0.052023288439828029 0 -0.001787506896635524 -0.052645159285284134 0 -0.0016682917465536511 -0.052665208443880812 0 -0.0014036875041474515 -0.052720818451450914 0 -0.0016682917465536511 -0.052665208443880812 0 -0.00097848473760405222 -0.053306500612271115 0 -0.00098406665899121123 -0.053457189999723119 0 -0.00097848473760405222 -0.053306500612271115 0 -0.00043615768554895046 -0.054098809577881657 0 -0.00098406665899121123 -0.053457189999723119 0 -0.0016682917465536511 -0.052665208443880812 0 -0.00097848473760405222 -0.053306500612271115 0 -0.00043615768554895046 -0.054098809577881657 0 -3.0348503937252713e-07 -0.054998850834245175 0 -0.00034326164900359152 -0.054346221767110334 0 -2.2738900684904936e-07 -0.054999046933369995 0 -3.0348503937252713e-07 -0.054998850834245175 0 -0.00034326164900359152 -0.054346221767110334 0 -0.00098406665899121123 -0.053457189999723119 0 -0.00043615768554895046 -0.054098809577881657 0 -0.00034326164900359152 -0.054346221767110334 0 0.00075156390812595628 -0.0061393974028421993 0 0.002336967343373731 -0.0074539644224322103 0 -0.00030362451333687285 -0.0052099860074890552 0 0.001680300980768048 -0.0069340683740188227 0 0.00041438898588358486 -0.0081728320137981567 0 0.0019179619938526086 -0.0071627798947507607 0 0.0030784092876624918 -0.0066078325312346666 0 0.0029954303769836777 -0.0079014075739514827 0 0.0019179619938526086 -0.0071627798947507607 0 0.0030784092876624918 -0.0066078325312346666 0 0.0015872684670698556 -0.0053703732724252606 0 0.0030784092876624918 -0.0066078325312346666 0 0.0040166077957524606 -0.0069157502891958504 0 0.003567061801877703 -0.0076093201386005964 0 0.0030784092876624918 -0.0066078325312346666 0 0.0040166077957524606 -0.0069157502891958504 0 0.0040466902856482485 -0.0056487012999938274 0 -0.003239300042395222 -0.019063926851849877 0 -0.0025534890201398173 -0.019347218189595266 0 -0.0024627967444390882 -0.019025233408212223 0 -0.003239300042395222 -0.019063926851849877 0 -0.0025706121582274887 -0.018587536788864864 0 -0.0024627967444390882 -0.019025233408212223 0 -0.0025534890201398173 -0.019347218189595266 0 -0.0027561113317387644 -0.019839365246332126 0 -0.0024750378382145683 -0.019811828207826253 0 0.0040166077957524606 -0.0069157502891958504 0 0.003567061801877703 -0.0076093201386005964 0 0.0039471134664030042 -0.0080280970572178846 0 0.00039212992196421294 -0.013033832518952711 0 0.00057817412952217942 -0.013462424791742434 0 -0.003239300042395222 -0.019063926851849877 0 -0.0025534890201398173 -0.019347218189595266 0 -0.0027561113317387644 -0.019839365246332126 0 0.0030784092876624918 -0.0066078325312346666 0 0.003567061801877703 -0.0076093201386005964 0 0.0029954303769836777 -0.0079014075739514827 0 0.0035344173247498951 -0.008698116508431589 0 0.0021442627706512811 -0.0089473181549322781 0 0.001680300980768048 -0.0069340683740188227 0 0.003567061801877703 -0.0076093201386005964 0 0.0035344173247498951 -0.008698116508431589 0 0.0029954303769836777 -0.0079014075739514827 0 0.0034927574095238263 -0.0085841239112705615 0 0.002336967343373731 -0.0074539644224322103 0 0.0039471134664030042 -0.0080280970572178846 0 0.0035344173247498951 -0.008698116508431589 0 0.0041601480237803655 -0.0095800556246337879 0 0.00057817412952217942 -0.013462424791742434 0 0.00036047125483881196 -0.017079071689096895 0 0.003567061801877703 -0.0076093201386005964 0 0.0039471134664030042 -0.0080280970572178846 0 0.0035344173247498951 -0.008698116508431589 0 -0.0027561113317387644 -0.019839365246332126 0 -0.0025811938478614879 -0.020161668790711122 0 -0.0024750378382145683 -0.019811828207826253 0 0.0035344173247498951 -0.008698116508431589 0 0.0032383127737598827 -0.0095165700133836972 0 0.0041601480237803655 -0.0095800556246337879 0 0.0032383127737598827 -0.0095165700133836972 0 0.0041601480237803655 -0.0095800556246337879 0 0.0031347458893713205 -0.010305634113915219 0 0.00036047125483881196 -0.017079071689096895 0 0.00072324486043993735 -0.018802260733636059 0 0.00060814736112014579 -0.020410042488009452 0 0.00025366952179278323 -0.020258040600646579 0 0.00085523686125426636 -0.019928754930419911 0 0.0021442627706512811 -0.0089473181549322781 0 0.0024325371092497466 -0.010015521183279514 0 0.0010931130177586278 -0.010005664866239612 0 0.0035344173247498951 -0.008698116508431589 0 0.0032383127737598827 -0.0095165700133836972 0 0.0021442627706512811 -0.0089473181549322781 0 0.0032383127737598827 -0.0095165700133836972 0 0.0021442627706512811 -0.0089473181549322781 0 0.0024325371092497466 -0.010015521183279514 0 0.0032383127737598827 -0.0095165700133836972 0 0.0024325371092497466 -0.010015521183279514 0 0.0031347458893713205 -0.010305634113915219 0 0.0021442627706512811 -0.0089473181549322781 0 0.0010931130177586278 -0.010005664866239612 0 0.00041438898588358486 -0.0081728320137981567 0 0.0021442627706512811 -0.0089473181549322781 0 0.001680300980768048 -0.0069340683740188227 0 0.00041438898588358486 -0.0081728320137981567 0 -0.00030362451333687285 -0.0052099860074890552 0 0.00041438898588358486 -0.0081728320137981567 0 -0.0012996091522392416 -0.0076906257588271621 0 0.0010931130177586278 -0.010005664866239612 0 0.00041438898588358486 -0.0081728320137981567 0 -0.00087055167714086379 -0.010199899978984935 0 0.00041438898588358486 -0.0081728320137981567 0 -0.0012996091522392416 -0.0076906257588271621 0 -0.00087055167714086379 -0.010199899978984935 0 -0.0021916605475021575 -0.0091602501599476385 0 -0.0012996091522392416 -0.0076906257588271621 0 -0.00087055167714086379 -0.010199899978984935 0 -0.0021916605475021575 -0.0091602501599476385 0 -0.0037553440096360744 -0.0083795187081503828 0 -0.0012996091522392416 -0.0076906257588271621 0 -0.0021916605475021575 -0.0091602501599476385 0 -0.0037553440096360744 -0.0083795187081503828 0 -0.0028571745720589706 -0.010526929808194117 0 -0.0037553440096360744 -0.0083795187081503828 0 -0.0012996091522392416 -0.0076906257588271621 0 -0.0024102917064076535 -0.0053336418832202349 0 -0.0028398257628482406 -0.005225945550569224 0 -0.0028092572297584557 -0.0051143966163207048 0 -0.0024102917064076535 -0.0053336418832202349 0 -0.0037047610836345342 -0.0072913393902437843 0 -0.0023038285459936339 -0.0051342186876887968 0 -0.0029520703103863536 -0.0051864846680668526 0 -0.0029569971744767957 -0.0051591763669102631 0 -0.002993339365952584 -0.00517260759401826 0 -0.0029520703103863536 -0.0051864846680668526 0 -0.0029809169513579661 -0.0051520667127149637 0 -0.002993339365952584 -0.00517260759401826 0 -0.0037047610836345342 -0.0072913393902437843 0 -0.0015790752493960315 -0.0061309377441071972 0 -0.0028398257628482406 -0.005225945550569224 0 -0.0029520703103863536 -0.0051864846680668526 0 -0.0029809169513579661 -0.0051520667127149637 0 -0.0028398257628482406 -0.005225945550569224 0 -0.0029520703103863536 -0.0051864846680668526 0 -0.0029600166513636 -0.0051712133295928452 0 -0.0028398257628482406 -0.005225945550569224 0 -0.0029809169513579661 -0.0051520667127149637 0 -0.0028092572297584557 -0.0051143966163207048 0 -0.0029809169513579661 -0.0051520667127149637 0 -0.002993339365952584 -0.00517260759401826 0 -0.0032305898185860512 -0.0049814912569315067 0 -0.0030524734029564828 -0.0047219877229298553 0 -0.0033443263035867823 -0.0041157985758507676 0 -0.0032305898185860512 -0.0049814912569315067 0 -0.0029809169513579661 -0.0051520667127149637 0 -0.0030524734029564828 -0.0047219877229298553 0 -0.0032305898185860512 -0.0049814912569315067 0 -0.0030524734029564828 -0.0047219877229298553 0 -0.0028092572297584557 -0.0051143966163207048 0 -0.0027406400311420927 -0.0045480965020222343 0 -0.0029809169513579661 -0.0051520667127149637 0 -0.0030524734029564828 -0.0047219877229298553 0 -0.0028092572297584557 -0.0051143966163207048 0 -0.0030524734029564828 -0.0047219877229298553 0 -0.0027406400311420927 -0.0045480965020222343 0 -0.0030454306193054754 -0.0042066570968198672 0 -0.0030524734029564828 -0.0047219877229298553 0 -0.0030454306193054754 -0.0042066570968198672 0 -0.0033443263035867823 -0.0041157985758507676 0 -0.0050154797005940426 0.0026331858357656582 0 -0.0034459160346354215 0.009124059316975755 0 -0.0050154797005940426 0.0026331858357656582 0 -0.0030312021593803819 -0.0013589324951650259 0 -0.006410180146781113 0.0081092348714887057 0 -0.0068120214385891534 0.0066326797448097554 0 -0.0037862169511154037 0.009962377857691565 0 -0.00030362451333687285 -0.0052099860074890552 0 -0.0012996091522392416 -0.0076906257588271621 0 -0.0024102917064076535 -0.0053336418832202349 0 -0.0028092572297584557 -0.0051143966163207048 0 -0.0027406400311420927 -0.0045480965020222343 0 -0.0024102917064076535 -0.0053336418832202349 0 -0.0027406400311420927 -0.0045480965020222343 0 -0.0024102917064076535 -0.0053336418832202349 0 -0.0020284539765569169 -0.004176711263838285 0 0.00075156390812595628 -0.0061393974028421993 0 -0.00070760081042732851 -0.0055128509302774182 0 -0.00030362451333687285 -0.0052099860074890552 0 -0.0024102917064076535 -0.0053336418832202349 0 -0.0020284539765569169 -0.004176711263838285 0 0.0019179619938526086 -0.0071627798947507607 0 0.00037231500026592727 -0.0061599609526763813 0 0.0015872684670698556 -0.0053703732724252606 0 0.00037231500026592727 -0.0061599609526763813 0 -0.00022636960031848218 -0.0043306159426540498 0 0.0015872684670698556 -0.0053703732724252606 0 -0.00070760081042732851 -0.0055128509302774182 0 -0.0020172931234197565 -0.0019498767890295547 0 0.00037231500026592727 -0.0061599609526763813 0 -0.00022636960031848218 -0.0043306159426540498 0 -0.0014695626334009276 -0.0048508148222083883 0 -0.0027406400311420927 -0.0045480965020222343 0 -0.0020284539765569169 -0.004176711263838285 0 -0.002740118963934615 -0.0036961213030547607 0 -0.00051274217292184812 -0.003823196029254251 0 -0.0021149312911873967 -0.0042529993393264744 0 -0.0019821326388639372 -0.0023506199802488968 0 -0.00051274217292184812 -0.003823196029254251 0 0.0010492086761970593 -0.0037149945120348278 0 -0.00069021057678505821 -0.0012857825161221856 0 -0.00046052591884518764 -0.0040459082872075728 0 -0.0020172931234197565 -0.0019498767890295547 0 -0.00046052591884518764 -0.0040459082872075728 0 0.00091293579889615531 -0.0036734764379070819 0 -0.00022636960031848218 -0.0043306159426540498 0 0.0010492086761970593 -0.0037149945120348278 0 0.0015872684670698556 -0.0053703732724252606 0 -0.0091968593598597756 0.012876589026162526 0 -0.0069270078893794189 0.0080028235711515645 0 -0.0094960151638000603 0.018146633071066086 0 -0.0096385570576095723 0.017348423161694479 0 -0.010232024946429033 0.018503900228967588 0 -0.0050154797005940426 0.0026331858357656582 0 -0.0069270078893794189 0.0080028235711515645 0 -0.0030454306193054754 -0.0042066570968198672 0 -0.0032896847659520251 -0.0038513775696634436 0 -0.0030994357821520764 -0.0038577143541178001 0 -0.0069270078893794189 0.0080028235711515645 0 -0.00543233392361849 0.0042393326758925157 0 -0.0030454306193054754 -0.0042066570968198672 0 -0.0033443263035867823 -0.0041157985758507676 0 -0.0032896847659520251 -0.0038513775696634436 0 -0.0076818105830733525 0.0091069137174569804 0 -0.0079022135457664823 0.0071750337262538721 0 -0.0062890980255885277 0.007869580468027982 0 -0.0091968593598597756 0.012876589026162526 0 -0.00543233392361849 0.0042393326758925157 0 -0.0030454306193054754 -0.0042066570968198672 0 -0.0030994357821520764 -0.0038577143541178001 0 -0.002740118963934615 -0.0036961213030547607 0 -0.0027406400311420927 -0.0045480965020222343 0 -0.0030454306193054754 -0.0042066570968198672 0 -0.002740118963934615 -0.0036961213030547607 0 -0.00543233392361849 0.0042393326758925157 0 -0.0020172931234197565 -0.0019498767890295547 0 -0.0064450093852881822 0.0036164039110738763 0 -0.0033192337780790036 0.0049366988821698777 0 -0.0069682980546521417 0.0076128015441824064 0 -0.0021149312911873967 -0.0042529993393264744 0 -0.0019821326388639372 -0.0023506199802488968 0 -0.0038475888762378682 -0.0026328940280967703 0 -0.0020172931234197565 -0.0019498767890295547 0 -0.0083117259390775231 0.0075064569563130018 0 -0.010195164653107353 0.017324111174526979 0 -0.011442782095780483 0.017350664974730257 0 -0.012650264747070226 0.018993271187417921 0 -0.0080840512947345164 0.0050731304020244566 0 -0.0064450093852881822 0.0036164039110738763 0 -0.0069682980546521417 0.0076128015441824064 0 -0.010775726686058461 0.015916126669494549 0 -0.010195164653107353 0.017324111174526979 0 -0.010692039457333099 0.016443365807394052 0 -0.0091968593598597756 0.012876589026162526 0 -0.0083117259390775231 0.0075064569563130018 0 -0.010799886127691489 0.015918445034080641 0 -0.011442782095780483 0.017350664974730257 0 -0.010692039457333099 0.016443365807394052 0 -0.010195164653107353 0.017324111174526979 0 -0.011442782095780483 0.017350664974730257 0 -0.010692039457333099 0.016443365807394052 0 -0.0091968593598597756 0.012876589026162526 0 -0.0092545037571311189 0.014350019330946307 0 -0.010611906645098436 0.0096345566142161648 0 -0.011416305586287612 0.012180853389541231 0 -0.012700987528460527 0.012078611777288159 0 -0.0083117259390775231 0.0075064569563130018 0 -0.0065986334406644273 0.0052587094266138478 0 -0.010611906645098436 0.0096345566142161648 0 -0.011416305586287612 0.012180853389541231 0 -0.0099346112520434689 0.012440168612466091 0 -0.0083117259390775231 0.0075064569563130018 0 -0.013296629695237065 0.016450059778433928 0 -0.0019821326388639372 -0.0023506199802488968 0 -0.0031274519578644746 -1.1949048790482298e-05 0 -0.00069021057678505821 -0.0012857825161221856 0 -0.0019821326388639372 -0.0023506199802488968 0 -0.0038475888762378682 -0.0026328940280967703 0 -0.0031274519578644746 -1.1949048790482298e-05 0 -0.0058394137383631995 0.00974077732014785 0 -0.0065986334406644273 0.0052587094266138478 0 -0.010845514024560845 0.014457261270783787 0 -0.0094473368727227038 0.014889017018682782 0 -0.0099346112520434689 0.012440168612466091 0 -0.0024623097830229839 0.0025580305197554784 0 -0.0031274519578644746 -1.1949048790482298e-05 0 -0.0010117198512876718 0.0009602971557541685 0 -0.010845514024560845 0.014457261270783787 0 -0.0099346112520434689 0.012440168612466091 0 -0.011474566955351389 0.013498367367530706 0 -0.011416305586287612 0.012180853389541231 0 -0.0099346112520434689 0.012440168612466091 0 -0.011474566955351389 0.013498367367530706 0 -0.010845514024560845 0.014457261270783787 0 -0.011474566955351389 0.013498367367530706 0 -0.012018103269395992 0.014851934077648904 0 -0.011416305586287612 0.012180853389541231 0 -0.011474566955351389 0.013498367367530706 0 -0.012187655854444169 0.013226653886522187 0 0.0010492086761970593 -0.0037149945120348278 0 0.001073419484625002 -0.001980002297275373 0 -0.00069021057678505821 -0.0012857825161221856 0 0.0010492086761970593 -0.0037149945120348278 0 0.001073419484625002 -0.001980002297275373 0 0.0025680211326559342 -0.0029811624411237754 0 -0.00051274217292184812 -0.003823196029254251 0 -0.0019821326388639372 -0.0023506199802488968 0 -0.00069021057678505821 -0.0012857825161221856 0 -0.00069021057678505821 -0.0012857825161221856 0 -0.0010117198512876718 0.0009602971557541685 0 0.0014019860586181601 0.00041935338531891428 0 -0.0031274519578644746 -1.1949048790482298e-05 0 -0.00069021057678505821 -0.0012857825161221856 0 -0.0010117198512876718 0.0009602971557541685 0 0.001073419484625002 -0.001980002297275373 0 -0.00069021057678505821 -0.0012857825161221856 0 0.0014019860586181601 0.00041935338531891428 0 0.001073419484625002 -0.001980002297275373 0 0.0014019860586181601 0.00041935338531891428 0 0.0025680211326559342 -0.0029811624411237754 0 0.0018166591666832056 -0.0013212270333650745 0 0.0026276772766059345 -0.0028548326199608499 0 0.002660433978896292 -0.0034938545498982444 0 0.0027929781136093838 -0.0034325890565569976 0 0.0025680211326559342 -0.0029811624411237754 0 0.0027834422309671769 -0.0035516542128535443 0 0.002660433978896292 -0.0034938545498982444 0 0.0025680211326559342 -0.0029811624411237754 0 0.0028172779081678365 -0.0032953565657484127 0 0.0027929781136093838 -0.0034325890565569976 0 0.00359559416822774 -0.0040162811230671286 0 0.002660433978896292 -0.0034938545498982444 0 0.0028172779081678365 -0.0032953565657484127 0 0.0027929781136093838 -0.0034325890565569976 0 0.0027929781136093838 -0.0034325890565569976 0 0.0029518477179820185 -0.0041046548261772803 0 0.00359559416822774 -0.0040162811230671286 0 0.0027929781136093838 -0.0034325890565569976 0 0.0025680211326559342 -0.0029811624411237754 0 0.0029518477179820185 -0.0041046548261772803 0 0.0025680211326559342 -0.0029811624411237754 0 0.0022431961737277742 -0.0041732816842428412 0 0.0029518477179820185 -0.0041046548261772803 0 0.0022431961737277742 -0.0041732816842428412 0 0.0027799812497263016 -0.0051067532370663521 0 0.0015872684670698556 -0.0053703732724252606 0 0.0010492086761970593 -0.0037149945120348278 0 0.0022431961737277742 -0.0041732816842428412 0 0.0015872684670698556 -0.0053703732724252606 0 0.0010492086761970593 -0.0037149945120348278 0 0.0025680211326559342 -0.0029811624411237754 0 0.0022431961737277742 -0.0041732816842428412 0 0.0022431961737277742 -0.0041732816842428412 0 0.0029518477179820185 -0.0041046548261772803 0 0.0027799812497263016 -0.0051067532370663521 0 0.0029518477179820185 -0.0041046548261772803 0 0.0027799812497263016 -0.0051067532370663521 0 0.0040466902856482485 -0.0056487012999938274 0 0.0030784092876624918 -0.0066078325312346666 0 0.0027799812497263016 -0.0051067532370663521 0 0.0015872684670698556 -0.0053703732724252606 0 0.0030784092876624918 -0.0066078325312346666 0 0.0027799812497263016 -0.0051067532370663521 0 0.0040466902856482485 -0.0056487012999938274 0 -0.0028325945438795476 -0.018069698034942391 0 -0.0038285706726104551 -0.017743861329790136 0 -0.0025706121582274887 -0.018587536788864864 0 -0.003239300042395222 -0.019063926851849877 0 -0.0038285706726104551 -0.017743861329790136 0 -0.0025706121582274887 -0.018587536788864864 0 0.00039212992196421294 -0.013033832518952711 0 9.3650232059314418e-05 -0.011689936703610336 0 9.3650232059314418e-05 -0.011689936703610336 0 -0.0004323239257581543 -0.010022164833257999 0 -0.0038285706726104551 -0.017743861329790136 0 -0.0035569628941756488 -0.016801110689851032 0 -0.0043633271192702631 -0.016334747676945066 0 0.0029518477179820185 -0.0041046548261772803 0 0.0040466902856482485 -0.0056487012999938274 0 0.00359559416822774 -0.0040162811230671286 0 -0.0028325945438795476 -0.018069698034942391 0 -0.0038285706726104551 -0.017743861329790136 0 -0.0030313331641132137 -0.017565774210667427 0 -0.0038285706726104551 -0.017743861329790136 0 -0.0030313331641132137 -0.017565774210667427 0 -0.0035569628941756488 -0.016801110689851032 0 -0.0028325945438795476 -0.018069698034942391 0 -0.0030313331641132137 -0.017565774210667427 0 -0.0025259893143726561 -0.018156597591377055 0 -0.0040963869849829741 -0.017457712048795412 0 -0.0028493161554877322 -0.017931227179360163 0 -0.0030313331641132137 -0.017565774210667427 0 -0.0035569628941756488 -0.016801110689851032 0 -0.0026880162304255715 -0.017024783100587984 0 -0.0035569628941756488 -0.016801110689851032 0 -0.0036463413847428825 -0.015816538699319024 0 -0.0026880162304255715 -0.017024783100587984 0 -0.0039554061882913286 -0.018214948690198237 0 -0.0032163559053902087 -0.018112501225295202 0 -0.0029414089329390818 -0.018883762030753877 0 -0.0035569628941756488 -0.016801110689851032 0 -0.0043633271192702631 -0.016334747676945066 0 -0.0036463413847428825 -0.015816538699319024 0 -0.00067202331361515576 -0.010115313544647519 0 -0.0040963869849829741 -0.017457712048795412 0 -0.0037132956669029722 -0.017525507345719865 0 -0.0048715829105909284 -0.017359024523137947 0 -0.0039554061882913286 -0.018214948690198237 0 -0.0045901499277935156 -0.015078228461648776 0 -0.0043633271192702631 -0.016334747676945066 0 -0.0036463413847428825 -0.015816538699319024 0 -0.00067202331361515576 -0.010115313544647519 0 -0.0004323239257581543 -0.010022164833257999 0 -0.0028710782881433889 -0.017528434670102955 0 -0.0037132956669029722 -0.017525507345719865 0 -0.0032163559053902087 -0.018112501225295202 0 -0.0037132956669029722 -0.017525507345719865 0 -0.0039554061882913286 -0.018214948690198237 0 -0.0032163559053902087 -0.018112501225295202 0 -0.0028710782881433889 -0.017528434670102955 0 -0.0025580709170290967 -0.018278626980456441 0 -0.0021459754858168664 -0.017892836713457823 0 -0.0028710782881433889 -0.017528434670102955 0 -0.0025580709170290967 -0.018278626980456441 0 -0.0032163559053902087 -0.018112501225295202 0 -0.0028493161554877322 -0.017931227179360163 0 -0.0020469751859801574 -0.018907391730821378 0 -0.0029414089329390818 -0.018883762030753877 0 -0.0022177017501075953 -0.018815440189808193 0 -0.0019289828937521802 -0.019124354047614634 0 -0.0025580709170290967 -0.018278626980456441 0 -0.0032163559053902087 -0.018112501225295202 0 -0.0029414089329390818 -0.018883762030753877 0 -0.0025580709170290967 -0.018278626980456441 0 -0.0029414089329390818 -0.018883762030753877 0 -0.0022177017501075953 -0.018815440189808193 0 -0.0022177017501075953 -0.018815440189808193 0 -0.0016692565774959235 -0.019074517422854986 0 -0.0019289828937521802 -0.019124354047614634 0 -0.0025580709170290967 -0.018278626980456441 0 -0.0022177017501075953 -0.018815440189808193 0 -0.0020752589263260475 -0.018476131497891131 0 -0.0022177017501075953 -0.018815440189808193 0 -0.0020752589263260475 -0.018476131497891131 0 -0.0016692565774959235 -0.019074517422854986 0 -0.0020752589263260475 -0.018476131497891131 0 -0.0021459754858168664 -0.017892836713457823 0 -0.0016304869563455962 -0.018247236004539803 0 -0.0025580709170290967 -0.018278626980456441 0 -0.0020752589263260475 -0.018476131497891131 0 -0.0021459754858168664 -0.017892836713457823 0 -0.0015220621118893368 -0.017565430769033996 0 -0.0021459754858168664 -0.017892836713457823 0 -0.0016304869563455962 -0.018247236004539803 0 -0.0015220621118893368 -0.017565430769033996 0 -0.0016304869563455962 -0.018247236004539803 0 -0.001045646148952972 -0.018165427537103544 0 -0.0016304869563455962 -0.018247236004539803 0 -0.001045646148952972 -0.018165427537103544 0 -0.0012652786789502427 -0.018794489843191712 0 -0.001045646148952972 -0.018165427537103544 0 -0.00066841766548549617 -0.018876184053353295 0 -0.00034804829380056612 -0.018091354777444366 0 -0.001045646148952972 -0.018165427537103544 0 -0.00066841766548549617 -0.018876184053353295 0 -0.0012652786789502427 -0.018794489843191712 0 -0.00066841766548549617 -0.018876184053353295 0 -0.0010869691063374908 -0.019391748573553674 0 -0.0012652786789502427 -0.018794489843191712 0 -0.00066841766548549617 -0.018876184053353295 0 -0.0010869691063374908 -0.019391748573553674 0 -0.0006621822039923537 -0.019671370612910955 0 -0.0016304869563455962 -0.018247236004539803 0 -0.0012652786789502427 -0.018794489843191712 0 -0.0016692565774959235 -0.019074517422854986 0 -0.0020752589263260475 -0.018476131497891131 0 -0.0016304869563455962 -0.018247236004539803 0 -0.0016692565774959235 -0.019074517422854986 0 -0.0010869691063374908 -0.019391748573553674 0 -0.0012652786789502427 -0.018794489843191712 0 -0.0016692565774959235 -0.019074517422854986 0 -0.0016692565774959235 -0.019074517422854986 0 -0.0012747064326005444 -0.019759824305865547 0 -0.001481756328835526 -0.019947804802197579 0 -0.0010869691063374908 -0.019391748573553674 0 -0.0016692565774959235 -0.019074517422854986 0 -0.0012747064326005444 -0.019759824305865547 0 -0.0012747064326005444 -0.019759824305865547 0 -0.001481756328835526 -0.019947804802197579 0 -0.0011373186903279541 -0.020340277109065795 0 -0.0006621822039923537 -0.019671370612910955 0 -0.00091446290094452352 -0.02006065858261467 0 -0.00054263054988303277 -0.020463359741247817 0 -0.0010869691063374908 -0.019391748573553674 0 -0.0006621822039923537 -0.019671370612910955 0 -0.00091446290094452352 -0.02006065858261467 0 -0.0010869691063374908 -0.019391748573553674 0 -0.0012747064326005444 -0.019759824305865547 0 -0.00091446290094452352 -0.02006065858261467 0 -0.0012747064326005444 -0.019759824305865547 0 -0.00091446290094452352 -0.02006065858261467 0 -0.0011373186903279541 -0.020340277109065795 0 -0.00091446290094452352 -0.02006065858261467 0 -0.00084163739524449859 -0.020627360187984521 0 -0.0011373186903279541 -0.020340277109065795 0 -0.00091446290094452352 -0.02006065858261467 0 -0.00084163739524449859 -0.020627360187984521 0 -0.00054263054988303277 -0.020463359741247817 0 -0.00084163739524449859 -0.020627360187984521 0 -0.00054263054988303277 -0.020463359741247817 0 -0.00061234298816726426 -0.021158417871175679 0 -0.00084163739524449859 -0.020627360187984521 0 -0.00096200571142134408 -0.021001386816169944 0 -0.0011373186903279541 -0.020340277109065795 0 -0.00084163739524449859 -0.020627360187984521 0 -0.00096200571142134408 -0.021001386816169944 0 -0.00061234298816726426 -0.021158417871175679 0 -0.001481756328835526 -0.019947804802197579 0 -0.0012810828553563806 -0.020659651755884984 0 -0.0017517657440311188 -0.020078478760378715 0 -0.001481756328835526 -0.019947804802197579 0 -0.0011373186903279541 -0.020340277109065795 0 -0.0012810828553563806 -0.020659651755884984 0 -0.00096200571142134408 -0.021001386816169944 0 -0.0011373186903279541 -0.020340277109065795 0 -0.0012810828553563806 -0.020659651755884984 0 -0.0012810828553563806 -0.020659651755884984 0 -0.0017517657440311188 -0.020078478760378715 0 -0.001677816008183724 -0.020852763178942805 0 -0.0017517657440311188 -0.020078478760378715 0 -0.0020537001263809516 -0.019702332754683468 0 -0.0019579483432616051 -0.020451306029117988 0 -0.0017517657440311188 -0.020078478760378715 0 -0.0019579483432616051 -0.020451306029117988 0 -0.001677816008183724 -0.020852763178942805 0 -0.0020537001263809516 -0.019702332754683468 0 -0.0019579483432616051 -0.020451306029117988 0 -0.0023572432070203312 -0.020921811511805968 0 -0.0019579483432616051 -0.020451306029117988 0 -0.0023572432070203312 -0.020921811511805968 0 -0.001677816008183724 -0.020852763178942805 0 -0.0020786528175668773 -0.01973423624521068 0 -0.0025387521950040026 -0.018214205985871822 0 -0.0019528435745556386 -0.01853674315843561 0 -0.0025259893143726561 -0.018156597591377055 0 -0.0025670800179594198 -0.018097805524834601 0 -0.0020537001263809516 -0.019702332754683468 0 -0.0023572432070203312 -0.020921811511805968 0 -0.0025670800179594198 -0.018097805524834601 0 -0.0028325945438795476 -0.018069698034942391 0 -0.0025706121582274887 -0.018587536788864864 0 -0.0024395979401239235 -0.018325985329164973 0 -0.0019528435745556386 -0.01853674315843561 0 -0.0025706121582274887 -0.018587536788864864 0 -0.0024395979401239235 -0.018325985329164973 0 -0.0019528435745556386 -0.01853674315843561 0 -0.0024395979401239235 -0.018325985329164973 0 -0.0025259893143726561 -0.018156597591377055 0 -0.0028325945438795476 -0.018069698034942391 0 -0.0024395979401239235 -0.018325985329164973 0 -0.0025259893143726561 -0.018156597591377055 0 -0.0026880162304255715 -0.017024783100587984 0 -0.0025670800179594198 -0.018097805524834601 0 -0.0019289828937521802 -0.019124354047614634 0 -0.0030313331641132137 -0.017565774210667427 0 -0.0025259893143726561 -0.018156597591377055 0 -0.0025670800179594198 -0.018097805524834601 0 -0.0030313331641132137 -0.017565774210667427 0 -0.0026880162304255715 -0.017024783100587984 0 -0.0025670800179594198 -0.018097805524834601 0 -0.0016692565774959235 -0.019074517422854986 0 -0.001481756328835526 -0.019947804802197579 0 -0.0019289828937521802 -0.019124354047614634 0 -0.001481756328835526 -0.019947804802197579 0 -0.0017517657440311188 -0.020078478760378715 0 -0.0019289828937521802 -0.019124354047614634 0 -0.0017517657440311188 -0.020078478760378715 0 -0.0020537001263809516 -0.019702332754683468 0 -0.0019289828937521802 -0.019124354047614634 0 -0.0020537001263809516 -0.019702332754683468 0 -0.0025670800179594198 -0.018097805524834601 0 -0.0019289828937521802 -0.019124354047614634 0 -0.0059813645452605705 -0.034659786192297801 0 -0.0048129417026706537 -0.029502080564243208 0 -0.0097134757644849207 -0.034236665715703746 0 -0.0097594635459552961 -0.03489923744318664 0 -0.0095975704258929179 -0.034872184542052077 0 -0.0059813645452605705 -0.034659786192297801 0 -0.0096789212682401107 -0.039804844474340934 0 -0.0090754708269243766 -0.043286811008601919 0 -0.0091544527133279631 -0.043269427114455236 0 -0.0090605641297036785 -0.043209294440726763 0 -0.0090754708269243766 -0.043286811008601919 0 -0.0092422343506575223 -0.043340698831010653 0 -0.0091544527133279631 -0.043269427114455236 0 0.00073550814893865043 -0.026902740692555965 0 0.0001084701273089878 -0.026866190737989966 0 0.00069599293436220706 -0.026022915620361398 0 0.0001084701273089878 -0.026866190737989966 0 -4.7783022171948454e-05 -0.025890174215434471 0 0.00069599293436220706 -0.026022915620361398 0 0.00086268003751359878 -0.021796545399993331 0 0.00090155158299639205 -0.0227050601786359 0 -4.7783022171948454e-05 -0.025890174215434471 0 0.00069599293436220706 -0.026022915620361398 0 0.00066430670814281785 -0.02497929628253636 0 0.0011001746275292913 -0.019179459115958947 0 0.0002471398571921557 -0.018819244987969587 0 9.5111719344533746e-05 -0.019898799161026579 0 0.00021734574003087024 -0.017990004730098614 0 0.00095130318014483451 -0.017764705404441635 0 0.0002471398571921557 -0.018819244987969587 0 0.00095130318014483451 -0.017764705404441635 0 0.0011001746275292913 -0.019179459115958947 0 0.0002471398571921557 -0.018819244987969587 0 -0.00066841766548549617 -0.018876184053353295 0 0.0002471398571921557 -0.018819244987969587 0 -0.00034804829380056612 -0.018091354777444366 0 0.00021734574003087024 -0.017990004730098614 0 0.0002471398571921557 -0.018819244987969587 0 -0.00034804829380056612 -0.018091354777444366 0 -0.00066841766548549617 -0.018876184053353295 0 0.0002471398571921557 -0.018819244987969587 0 -0.00021972520709304352 -0.019329166763718843 0 0.0002471398571921557 -0.018819244987969587 0 -0.00021972520709304352 -0.019329166763718843 0 9.5111719344533746e-05 -0.019898799161026579 0 -0.0006621822039923537 -0.019671370612910955 0 -0.00021972520709304352 -0.019329166763718843 0 9.5111719344533746e-05 -0.019898799161026579 0 -0.00066841766548549617 -0.018876184053353295 0 -0.0006621822039923537 -0.019671370612910955 0 -0.00021972520709304352 -0.019329166763718843 0 -0.0006621822039923537 -0.019671370612910955 0 -0.00054263054988303277 -0.020463359741247817 0 9.5111719344533746e-05 -0.019898799161026579 0 -0.00054263054988303277 -0.020463359741247817 0 -0.00018157436824655306 -0.02109786319442504 0 9.5111719344533746e-05 -0.019898799161026579 0 -0.00054263054988303277 -0.020463359741247817 0 -0.00061234298816726426 -0.021158417871175679 0 -0.00018157436824655306 -0.02109786319442504 0 -0.00061234298816726426 -0.021158417871175679 0 -0.00018157436824655306 -0.02109786319442504 0 -0.0003640778497648115 -0.021820305348371968 0 -0.00018157436824655306 -0.02109786319442504 0 0.0010854438218186827 -0.020866518344074859 0 8.4410197353936117e-05 -0.022212037857712946 0 -0.00018157436824655306 -0.02109786319442504 0 8.4410197353936117e-05 -0.022212037857712946 0 -0.0003640778497648115 -0.021820305348371968 0 -0.00018157436824655306 -0.02109786319442504 0 9.5111719344533746e-05 -0.019898799161026579 0 0.0010854438218186827 -0.020866518344074859 0 0.0011001746275292913 -0.019179459115958947 0 9.5111719344533746e-05 -0.019898799161026579 0 0.0010854438218186827 -0.020866518344074859 0 0.00090155158299639205 -0.0227050601786359 0 0.00081145361664561051 -0.022879175136017116 0 0.0010854438218186827 -0.020866518344074859 0 0.00038784472450355273 -0.023474419754962901 0 8.4410197353936117e-05 -0.022212037857712946 0 0.00081145361664561051 -0.022879175136017116 0 0.00048756808831862749 -0.02338252474617537 0 0.00066430670814281785 -0.02497929628253636 0 -0.00019474887833187895 -0.024761160379786554 0 0.00038784472450355273 -0.023474419754962901 0 -4.7783022171948454e-05 -0.025890174215434471 0 0.00066430670814281785 -0.02497929628253636 0 -0.00019474887833187895 -0.024761160379786554 0 -0.0048129417026706537 -0.029502080564243208 0 -0.0049550831234459669 -0.03066463195981935 0 -0.0097594635459552961 -0.03489923744318664 0 -0.0095975704258929179 -0.034872184542052077 0 -0.0097849644252418853 -0.036089583874912151 0 -3.3379032664108052e-05 -0.024608392278446561 0 0.00038784472450355273 -0.023474419754962901 0 -0.00017915952983991705 -0.023814032241811996 0 -3.3379032664108052e-05 -0.024608392278446561 0 -0.00019474887833187895 -0.024761160379786554 0 0.00038784472450355273 -0.023474419754962901 0 -0.0047624353083378082 -0.030668895895382273 0 -0.0049550831234459669 -0.03066463195981935 0 0.00038784472450355273 -0.023474419754962901 0 -2.4083452093325239e-05 -0.02309300149961007 0 8.4410197353936117e-05 -0.022212037857712946 0 0.00038784472450355273 -0.023474419754962901 0 -2.4083452093325239e-05 -0.02309300149961007 0 -0.00017915952983991705 -0.023814032241811996 0 -2.4083452093325239e-05 -0.02309300149961007 0 -0.00023038941090661118 -0.022451021104766006 0 -0.00036813312918972091 -0.022572679244815437 0 -2.4083452093325239e-05 -0.02309300149961007 0 8.4410197353936117e-05 -0.022212037857712946 0 -0.00023038941090661118 -0.022451021104766006 0 8.4410197353936117e-05 -0.022212037857712946 0 -0.00023038941090661118 -0.022451021104766006 0 -0.0003640778497648115 -0.021820305348371968 0 -0.00023038941090661118 -0.022451021104766006 0 -0.0003640778497648115 -0.021820305348371968 0 -0.00049368869679538663 -0.022080982796088583 0 -0.00061234298816726426 -0.021158417871175679 0 -0.0003640778497648115 -0.021820305348371968 0 -0.0007273980157210773 -0.021617565588539601 0 -0.0003640778497648115 -0.021820305348371968 0 -0.00049368869679538663 -0.022080982796088583 0 -0.0007273980157210773 -0.021617565588539601 0 -0.00049368869679538663 -0.022080982796088583 0 -0.00036813312918972091 -0.022572679244815437 0 -0.00068244843015426409 -0.02202653084307836 0 -0.00049368869679538663 -0.022080982796088583 0 -0.0007273980157210773 -0.021617565588539601 0 -0.00068244843015426409 -0.02202653084307836 0 -0.00023038941090661118 -0.022451021104766006 0 -0.00049368869679538663 -0.022080982796088583 0 -0.00036813312918972091 -0.022572679244815437 0 -0.00057602951412532536 -0.022154100967451441 0 -0.00036813312918972091 -0.022572679244815437 0 -0.00068244843015426409 -0.02202653084307836 0 -0.00057602951412532536 -0.022154100967451441 0 -0.00057040183641265008 -0.022132792522116522 0 -0.00036813312918972091 -0.022572679244815437 0 -0.00057040183641265008 -0.022132792522116522 0 -0.00067895803234297033 -0.021813175977424451 0 -0.00068054925255331194 -0.021548470640882202 0 -0.00057602951412532536 -0.022154100967451441 0 -0.00057040183641265008 -0.022132792522116522 0 -0.00067895803234297033 -0.021813175977424451 0 -0.00057040183641265008 -0.022132792522116522 0 -0.00032209589919913946 -0.022983118848217077 0 -0.00059093143040018278 -0.022375293885943032 0 -0.00057040183641265008 -0.022132792522116522 0 -0.00059093143040018278 -0.022375293885943032 0 -0.0008111486649952232 -0.021404928964684388 0 -0.00057040183641265008 -0.022132792522116522 0 -0.00036813312918972091 -0.022572679244815437 0 -0.00032209589919913946 -0.022983118848217077 0 -2.4083452093325239e-05 -0.02309300149961007 0 -0.00036813312918972091 -0.022572679244815437 0 -0.00032209589919913946 -0.022983118848217077 0 -0.00032209589919913946 -0.022983118848217077 0 -0.0005994814461538192 -0.023090072578190755 0 -0.00017915952983991705 -0.023814032241811996 0 -2.4083452093325239e-05 -0.02309300149961007 0 -0.00032209589919913946 -0.022983118848217077 0 -0.00017915952983991705 -0.023814032241811996 0 -0.00032209589919913946 -0.022983118848217077 0 -0.00059093143040018278 -0.022375293885943032 0 -0.0005994814461538192 -0.023090072578190755 0 -3.3379032664108052e-05 -0.024608392278446561 0 -0.00050704985559801049 -0.02444058816487123 0 -0.00017915952983991705 -0.023814032241811996 0 -0.00050704985559801049 -0.02444058816487123 0 -0.0005994814461538192 -0.023090072578190755 0 -0.00017915952983991705 -0.023814032241811996 0 -0.0011821810979145806 -0.021648991439589638 0 -0.0012807644326017827 -0.021735691849840408 0 -0.0014670286460543938 -0.021368032725886651 0 -0.0011821810979145806 -0.021648991439589638 0 -0.0014670286460543938 -0.021368032725886651 0 -0.0011362230439969122 -0.021541150414253498 0 -0.0011821810979145806 -0.021648991439589638 0 -0.0012807644326017827 -0.021735691849840408 0 -0.001051791890912952 -0.021557763473525098 0 -0.00168767284264983 -0.018704996133054069 0 -0.0018664215767417601 -0.020975639911803061 0 -0.0025534890201398173 -0.019347218189595266 0 -0.001897974359419923 -0.019013537717511474 0 -0.0024750378382145683 -0.019811828207826253 0 -0.00057023158551998171 -0.020658308950052207 0 -0.001897974359419923 -0.019013537717511474 0 -0.00076989202574406519 -0.020884968751798707 0 -0.0020786528175668773 -0.01973423624521068 0 -0.00099603456768675028 -0.02113873703066509 0 -0.0019528435745556386 -0.01853674315843561 0 -0.00057023158551998171 -0.020658308950052207 0 -0.001897974359419923 -0.019013537717511474 0 -0.0025534890201398173 -0.019347218189595266 0 -0.0024627967444390882 -0.019025233408212223 0 -0.001897974359419923 -0.019013537717511474 0 -0.0025706121582274887 -0.018587536788864864 0 -0.0024627967444390882 -0.019025233408212223 0 -0.001897974359419923 -0.019013537717511474 0 -0.0019528435745556386 -0.01853674315843561 0 -0.0025706121582274887 -0.018587536788864864 0 -0.001897974359419923 -0.019013537717511474 0 -0.0023572432070203312 -0.020921811511805968 0 -0.0012807644326017827 -0.021735691849840408 0 -0.0014670286460543938 -0.021368032725886651 0 -0.0023572432070203312 -0.020921811511805968 0 -0.0014670286460543938 -0.021368032725886651 0 -0.001677816008183724 -0.020852763178942805 0 -0.0014670286460543938 -0.021368032725886651 0 -0.001677816008183724 -0.020852763178942805 0 -0.0013355353189331628 -0.021127093238733706 0 -0.0012810828553563806 -0.020659651755884984 0 -0.001677816008183724 -0.020852763178942805 0 -0.0013355353189331628 -0.021127093238733706 0 -0.0012810828553563806 -0.020659651755884984 0 -0.0013355353189331628 -0.021127093238733706 0 -0.0010542033964152163 -0.0213487375058132 0 -0.00096200571142134408 -0.021001386816169944 0 -0.0012810828553563806 -0.020659651755884984 0 -0.0010542033964152163 -0.0213487375058132 0 -0.0010542033964152163 -0.0213487375058132 0 -0.00091521123977505981 -0.021689624645958371 0 -0.0011362230439969122 -0.021541150414253498 0 -0.0014670286460543938 -0.021368032725886651 0 -0.0013355353189331628 -0.021127093238733706 0 -0.0011362230439969122 -0.021541150414253498 0 -0.0013355353189331628 -0.021127093238733706 0 -0.0010542033964152163 -0.0213487375058132 0 -0.0011362230439969122 -0.021541150414253498 0 -0.00096200571142134408 -0.021001386816169944 0 -0.00061234298816726426 -0.021158417871175679 0 -0.0007273980157210773 -0.021617565588539601 0 -0.00096200571142134408 -0.021001386816169944 0 -0.0010542033964152163 -0.0213487375058132 0 -0.0007273980157210773 -0.021617565588539601 0 -0.0010542033964152163 -0.0213487375058132 0 -0.0007273980157210773 -0.021617565588539601 0 -0.00091521123977505981 -0.021689624645958371 0 -0.00091521123977505981 -0.021689624645958371 0 -0.00068244843015426409 -0.02202653084307836 0 -0.000968883449736604 -0.021745762741176948 0 -0.0007273980157210773 -0.021617565588539601 0 -0.00091521123977505981 -0.021689624645958371 0 -0.00068244843015426409 -0.02202653084307836 0 -0.00091521123977505981 -0.021689624645958371 0 -0.0011362230439969122 -0.021541150414253498 0 -0.000968883449736604 -0.021745762741176948 0 -0.0011821810979145806 -0.021648991439589638 0 -0.0011362230439969122 -0.021541150414253498 0 -0.000968883449736604 -0.021745762741176948 0 -0.000968883449736604 -0.021745762741176948 0 -0.0009424324460308932 -0.021605059682917645 0 -0.001051791890912952 -0.021557763473525098 0 -0.0011821810979145806 -0.021648991439589638 0 -0.000968883449736604 -0.021745762741176948 0 -0.001051791890912952 -0.021557763473525098 0 -0.000968883449736604 -0.021745762741176948 0 -0.0009424324460308932 -0.021605059682917645 0 -0.00080019186189366257 -0.021834616878269313 0 -0.0009424324460308932 -0.021605059682917645 0 -0.00080019186189366257 -0.021834616878269313 0 -0.00087958734322008227 -0.021475256845357209 0 -0.0009424324460308932 -0.021605059682917645 0 -0.00090080270987806684 -0.021265879098491064 0 -0.001051791890912952 -0.021557763473525098 0 -0.00068244843015426409 -0.02202653084307836 0 -0.000968883449736604 -0.021745762741176948 0 -0.00080019186189366257 -0.021834616878269313 0 -0.00057602951412532536 -0.022154100967451441 0 -0.00068244843015426409 -0.02202653084307836 0 -0.00080019186189366257 -0.021834616878269313 0 -0.00057602951412532536 -0.022154100967451441 0 -0.00080019186189366257 -0.021834616878269313 0 -0.00067895803234297033 -0.021813175977424451 0 -0.00081334571931740852 -0.021394916478823994 0 -0.00067895803234297033 -0.021813175977424451 0 -0.00087958734322008227 -0.021475256845357209 0 -0.00080019186189366257 -0.021834616878269313 0 -0.00067895803234297033 -0.021813175977424451 0 -0.00087958734322008227 -0.021475256845357209 0 -0.00090080270987806684 -0.021265879098491064 0 -0.00087958734322008227 -0.021475256845357209 0 -0.00093552192219816845 -0.020669307940851592 0 -0.00081334571931740852 -0.021394916478823994 0 -0.00087958734322008227 -0.021475256845357209 0 -0.00093552192219816845 -0.020669307940851592 0 -0.0009424324460308932 -0.021605059682917645 0 -0.00090080270987806684 -0.021265879098491064 0 -0.00087958734322008227 -0.021475256845357209 0 -0.00090080270987806684 -0.021265879098491064 0 -0.00063348506161773038 -0.020918467070349282 0 -0.00093552192219816845 -0.020669307940851592 0 -0.00090080270987806684 -0.021265879098491064 0 -0.00063348506161773038 -0.020918467070349282 0 -0.001051791890912952 -0.021557763473525098 0 -0.00099603456768675028 -0.02113873703066509 0 -0.00067352091376362785 -0.020908675527694723 0 -0.0012807644326017827 -0.021735691849840408 0 -0.00063348506161773038 -0.020918467070349282 0 -0.001051791890912952 -0.021557763473525098 0 0.00036047125483881196 -0.017079071689096895 0 -0.0018664215767417601 -0.020975639911803061 0 -0.00057023158551998171 -0.020658308950052207 0 -0.00076989202574406519 -0.020884968751798707 0 -0.00033398554822550961 -0.020760900571717918 0 0.00060814736112014579 -0.020410042488009452 0 -0.00076989202574406519 -0.020884968751798707 0 -0.00033398554822550961 -0.020760900571717918 0 -0.00057023158551998171 -0.020658308950052207 0 -0.00063348506161773038 -0.020918467070349282 0 -0.00033398554822550961 -0.020760900571717918 0 -0.00063348506161773038 -0.020918467070349282 0 -9.9269013161313837e-05 -0.020358881549275197 0 0.00010986175875229417 -0.018935670786002223 0 -0.00063348506161773038 -0.020918467070349282 0 -0.00033398554822550961 -0.020760900571717918 0 -9.9269013161313837e-05 -0.020358881549275197 0 -0.00033398554822550961 -0.020760900571717918 0 -9.9269013161313837e-05 -0.020358881549275197 0 0.00025366952179278323 -0.020258040600646579 0 -9.9269013161313837e-05 -0.020358881549275197 0 0.00025366952179278323 -0.020258040600646579 0 0.00010986175875229417 -0.018935670786002223 0 0.00060814736112014579 -0.020410042488009452 0 -0.00033398554822550961 -0.020760900571717918 0 0.00025366952179278323 -0.020258040600646579 0 0.00025366952179278323 -0.020258040600646579 0 0.00010986175875229417 -0.018935670786002223 0 0.00085523686125426636 -0.019928754930419911 0 0.00010986175875229417 -0.018935670786002223 0 0.00047920443297366652 -0.01609311709247075 0 -0.0010411159131374817 -0.017196669860827629 0 0.00047920443297366652 -0.01609311709247075 0 -0.0010411159131374817 -0.017196669860827629 0 -0.00044925293941496989 -0.015247055408796072 0 -0.0013258954770493251 -0.016330754994808332 0 -0.0010411159131374817 -0.017196669860827629 0 -0.0020134910957749076 -0.017386285131059026 0 -0.0010411159131374817 -0.017196669860827629 0 -0.0019971987408244707 -0.018324236721576209 0 -0.0020134910957749076 -0.017386285131059026 0 -0.0013258954770493251 -0.016330754994808332 0 -0.0020134910957749076 -0.017386285131059026 0 -0.0016918885143484348 -0.015448116527669092 0 -0.0013258954770493251 -0.016330754994808332 0 -0.0010411159131374817 -0.017196669860827629 0 -0.00044925293941496989 -0.015247055408796072 0 0.00010986175875229417 -0.018935670786002223 0 -0.0010411159131374817 -0.017196669860827629 0 -0.0019971987408244707 -0.018324236721576209 0 -0.00063348506161773038 -0.020918467070349282 0 0.00010986175875229417 -0.018935670786002223 0 -0.00093552192219816845 -0.020669307940851592 0 0.00013392746738639881 -0.01904085051982092 0 -0.0013451606472316381 -0.019505142769441101 0 -0.0013451606472316381 -0.019505142769441101 0 -0.0016864754252280882 -0.020375813913967072 0 -0.00081334571931740852 -0.021394916478823994 0 -0.00093552192219816845 -0.020669307940851592 0 -0.00068054925255331194 -0.021548470640882202 0 -0.0019971987408244707 -0.018324236721576209 0 -0.0026159453370122095 -0.019120348093647505 0 -0.0026177628465907333 -0.018322854603070406 0 -0.00081334571931740852 -0.021394916478823994 0 -0.00067895803234297033 -0.021813175977424451 0 -0.00068054925255331194 -0.021548470640882202 0 -0.0026159453370122095 -0.019120348093647505 0 -0.0026177628465907333 -0.018322854603070406 0 -0.0021838775539740722 -0.020056329591681552 0 -0.0019761110665742218 -0.021184843638468075 0 -0.0021838775539740722 -0.020056329591681552 0 -0.001803465540189231 -0.021092811697763562 0 -0.0023189620303604758 -0.018685770552804418 0 -0.0021811499261647879 -0.019712072092814458 0 -0.0026177628465907333 -0.018322854603070406 0 -0.0030662044254448346 -0.016349781116654458 0 -0.0021838775539740722 -0.020056329591681552 0 -0.0019971987408244707 -0.018324236721576209 0 -0.0026177628465907333 -0.018322854603070406 0 -0.0020134910957749076 -0.017386285131059026 0 -0.0026177628465907333 -0.018322854603070406 0 -0.0020134910957749076 -0.017386285131059026 0 -0.0030662044254448346 -0.016349781116654458 0 -0.0020134910957749076 -0.017386285131059026 0 -0.0030662044254448346 -0.016349781116654458 0 -0.0016918885143484348 -0.015448116527669092 0 -0.0023189620303604758 -0.018685770552804418 0 -0.0010476533377348496 -0.016566056098321319 0 -0.0030662044254448346 -0.016349781116654458 0 -0.0016044252296432378 -0.013252942283344848 0 -0.0016918885143484348 -0.015448116527669092 0 -0.0019761110665742218 -0.021184843638468075 0 -0.0020081685826418669 -0.021150736401158565 0 -0.001803465540189231 -0.021092811697763562 0 -0.0020081685826418669 -0.021150736401158565 0 -0.0015398567341663896 -0.020194100169241364 0 -0.0022181438708927166 -0.022051799841262133 0 -0.0019761110665742218 -0.021184843638468075 0 -0.0020081685826418669 -0.021150736401158565 0 -0.0015398567341663896 -0.020194100169241364 0 -0.0014515930927992097 -0.020346427217142606 0 -0.0016559173823826082 -0.020527326275723658 0 -0.0019761110665742218 -0.021184843638468075 0 -0.0015398567341663896 -0.020194100169241364 0 -0.00045813506744156755 -0.019834694497674662 0 -0.0015398567341663896 -0.020194100169241364 0 -0.00045813506744156755 -0.019834694497674662 0 -0.00095685962750710943 -0.018763064405550204 0 -0.0016044252296432378 -0.013252942283344848 0 -0.00026860893915215165 -0.013546947368530404 0 0.00037166322711914602 -0.011806718823829323 0 -0.0016044252296432378 -0.013252942283344848 0 -0.00026860893915215165 -0.013546947368530404 0 -0.0016918885143484348 -0.015448116527669092 0 0.00059236318066711337 -0.012567384492255505 0 -0.00026860893915215165 -0.013546947368530404 0 0.00078529990660108808 -0.013725895966151582 0 0.00059236318066711337 -0.012567384492255505 0 -0.00026860893915215165 -0.013546947368530404 0 0.00037166322711914602 -0.011806718823829323 0 0.00047920443297366652 -0.01609311709247075 0 0.00078529990660108808 -0.013725895966151582 0 -0.00044925293941496989 -0.015247055408796072 0 -0.00026860893915215165 -0.013546947368530404 0 0.00078529990660108808 -0.013725895966151582 0 -0.00044925293941496989 -0.015247055408796072 0 -0.0013258954770493251 -0.016330754994808332 0 -0.00044925293941496989 -0.015247055408796072 0 -0.0016918885143484348 -0.015448116527669092 0 -0.00026860893915215165 -0.013546947368530404 0 -0.00044925293941496989 -0.015247055408796072 0 -0.0016918885143484348 -0.015448116527669092 0 -0.0012969059003352726 -0.022542961963473079 0 -0.0005994814461538192 -0.023090072578190755 0 -0.00085270001123377256 -0.022040382055152585 0 -0.0005994814461538192 -0.023090072578190755 0 -0.00085270001123377256 -0.022040382055152585 0 -0.00068490693841071653 -0.021835287546484925 0 -0.00059093143040018278 -0.022375293885943032 0 -0.0005994814461538192 -0.023090072578190755 0 -0.00068490693841071653 -0.021835287546484925 0 -0.00085270001123377256 -0.022040382055152585 0 -0.00068490693841071653 -0.021835287546484925 0 -0.0007592455343090372 -0.021764627648008253 0 -0.00068490693841071653 -0.021835287546484925 0 -0.0010888184454186677 -0.021231434118630779 0 -0.0008111486649952232 -0.021404928964684388 0 -0.00068490693841071653 -0.021835287546484925 0 -0.0010888184454186677 -0.021231434118630779 0 -0.0007592455343090372 -0.021764627648008253 0 -0.00059093143040018278 -0.022375293885943032 0 -0.00068490693841071653 -0.021835287546484925 0 -0.0008111486649952232 -0.021404928964684388 0 -0.00057040183641265008 -0.022132792522116522 0 -0.00068054925255331194 -0.021548470640882202 0 -0.0008111486649952232 -0.021404928964684388 0 -0.0016864754252280882 -0.020375813913967072 0 -0.001001157481298035 -0.021200199261006868 0 -0.0026159453370122095 -0.019120348093647505 0 -0.0008111486649952232 -0.021404928964684388 0 -0.0021838775539740722 -0.020056329591681552 0 -0.0010888184454186677 -0.021231434118630779 0 -0.0008111486649952232 -0.021404928964684388 0 -0.0021838775539740722 -0.020056329591681552 0 -0.0010888184454186677 -0.021231434118630779 0 -0.0021838775539740722 -0.020056329591681552 0 -0.001803465540189231 -0.021092811697763562 0 -0.0020081685826418669 -0.021150736401158565 0 -0.001803465540189231 -0.021092811697763562 0 -0.0016216624469522789 -0.021778746267975324 0 -0.0020081685826418669 -0.021150736401158565 0 -0.0016216624469522789 -0.021778746267975324 0 -0.0022181438708927166 -0.022051799841262133 0 -0.0016216624469522789 -0.021778746267975324 0 -0.00098183101054088594 -0.021223996132813512 0 -0.00062880152967128926 -0.022591313656423171 0 -0.0017071237109775872 -0.021129190276240141 0 -0.00093165286313408194 -0.021560856236132325 0 -0.001803465540189231 -0.021092811697763562 0 -0.0016216624469522789 -0.021778746267975324 0 -0.00098183101054088594 -0.021223996132813512 0 -0.0010888184454186677 -0.021231434118630779 0 -0.001803465540189231 -0.021092811697763562 0 -0.0007592455343090372 -0.021764627648008253 0 -0.00093165286313408194 -0.021560856236132325 0 0.00016815804242945875 -0.021108614252892812 0 -0.00098183101054088594 -0.021223996132813512 0 0.00057253333698254025 -0.02162298368643031 0 -0.00062880152967128926 -0.022591313656423171 0 0.00057253333698254025 -0.02162298368643031 0 0.00041282855324251816 -0.023082876977717336 0 -0.00062880152967128926 -0.022591313656423171 0 0.0015306572439388896 -0.023063540310967703 0 0.00057253333698254025 -0.02162298368643031 0 0.00041282855324251816 -0.023082876977717336 0 -0.00085270001123377256 -0.022040382055152585 0 -0.0007592455343090372 -0.021764627648008253 0 -0.00091352274343647552 -0.021936244222444012 0 0.0012650254674588318 -0.02533602726452578 0 0.0008305288843727844 -0.024233751675438647 0 0.00030306516175259926 -0.025892794160623272 0 0.0008305288843727844 -0.024233751675438647 0 -0.00028872540637454923 -0.024129388535182983 0 0.00030306516175259926 -0.025892794160623272 0 0.0008305288843727844 -0.024233751675438647 0 0.00041282855324251816 -0.023082876977717336 0 -0.00028872540637454923 -0.024129388535182983 0 0.0015306572439388896 -0.023063540310967703 0 0.0008305288843727844 -0.024233751675438647 0 0.00041282855324251816 -0.023082876977717336 0 -0.00062880152967128926 -0.022591313656423171 0 -0.00028872540637454923 -0.024129388535182983 0 -0.001727612738968158 -0.02369687913284035 0 0.00041282855324251816 -0.023082876977717336 0 -0.00062880152967128926 -0.022591313656423171 0 -0.00028872540637454923 -0.024129388535182983 0 -0.00028872540637454923 -0.024129388535182983 0 -0.00070199985251951421 -0.025447287878432097 0 0.00030306516175259926 -0.025892794160623272 0 -0.00028872540637454923 -0.024129388535182983 0 -0.001727612738968158 -0.02369687913284035 0 -0.00070199985251951421 -0.025447287878432097 0 -0.0010597705354539551 -0.021743739687784411 0 -0.0002785237030132021 -0.023770411244382415 0 -0.0016216624469522789 -0.021778746267975324 0 -0.00062880152967128926 -0.022591313656423171 0 -0.001727612738968158 -0.02369687913284035 0 -0.0016216624469522789 -0.021778746267975324 0 -0.001727612738968158 -0.02369687913284035 0 -0.0022181438708927166 -0.022051799841262133 0 -0.0010597705354539551 -0.021743739687784411 0 -0.0016559173823826082 -0.020527326275723658 0 -0.00036547055330839266 -0.019710720245093127 0 -0.0013121508952029298 -0.018790782170679587 0 -0.00076064608557229992 -0.019356913716117918 0 -0.00036547055330839266 -0.019710720245093127 0 -0.00028263153632575278 -0.021224156295876494 0 -0.00076064608557229992 -0.019356913716117918 0 -8.5226415033959166e-07 -0.022006310476640489 0 -0.00028263153632575278 -0.021224156295876494 0 -0.00076064608557229992 -0.019356913716117918 0 -8.5226415033959166e-07 -0.022006310476640489 0 1.133794512590273e-05 -0.023082250460124933 0 -0.00028263153632575278 -0.021224156295876494 0 -8.5226415033959166e-07 -0.022006310476640489 0 1.133794512590273e-05 -0.023082250460124933 0 8.419995371194765e-07 -0.025056732588842473 0 -0.00036547055330839266 -0.019710720245093127 0 -0.00028263153632575278 -0.021224156295876494 0 0.00040632030701758637 -0.022054703888187383 0 1.133794512590273e-05 -0.023082250460124933 0 -0.00028263153632575278 -0.021224156295876494 0 0.00040632030701758637 -0.022054703888187383 0 1.133794512590273e-05 -0.023082250460124933 0 0.00040632030701758637 -0.022054703888187383 0 0.00019388084084187213 -0.026172446298495768 0 -0.0002785237030132021 -0.023770411244382415 0 0.00017498283730009489 -0.025689337991308243 0 1.133794512590273e-05 -0.023082250460124933 0 8.419995371194765e-07 -0.025056732588842473 0 0.00019388084084187213 -0.026172446298495768 0 -8.8419258010250371e-07 -0.028108430724198562 0 8.419995371194765e-07 -0.025056732588842473 0 0.00019388084084187213 -0.026172446298495768 0 -1.1155728070040265e-06 -0.02720231897170728 0 0.00019388084084187213 -0.026172446298495768 0 0.00030306516175259926 -0.025892794160623272 0 -0.00070199985251951421 -0.025447287878432097 0 0.00019388084084187213 -0.026172446298495768 0 0.00030306516175259926 -0.025892794160623272 0 0.00030688428714951673 -0.01728913292622903 0 -0.00091488292304152483 -0.01788120316826829 0 -0.00016757454134164242 -0.015861767723929981 0 0.00030688428714951673 -0.01728913292622903 0 -0.00016757454134164242 -0.015861767723929981 0 0.00056344389438133229 -0.013150313166149723 0 0.00018325885178186222 -0.014626361563384841 0 0.00050110102436377283 -0.013456307522196072 0 0.00059236318066711337 -0.012567384492255505 0 0.00037166322711914602 -0.011806718823829323 0 0.00065733384635553065 -0.011589015754096736 0 -0.00045813506744156755 -0.019834694497674662 0 0.00030688428714951673 -0.01728913292622903 0 -0.00095685962750710943 -0.018763064405550204 0 -0.0010476533377348496 -0.016566056098321319 0 0.00018325885178186222 -0.014626361563384841 0 0.00030688428714951673 -0.01728913292622903 0 -0.00095685962750710943 -0.018763064405550204 0 -0.00091488292304152483 -0.01788120316826829 0 -0.00095685962750710943 -0.018763064405550204 0 -0.0013121508952029298 -0.018790782170679587 0 -0.00091488292304152483 -0.01788120316826829 0 -0.0015398567341663896 -0.020194100169241364 0 -0.00095685962750710943 -0.018763064405550204 0 -0.0013121508952029298 -0.018790782170679587 0 -0.0013121508952029298 -0.018790782170679587 0 -0.00091488292304152483 -0.01788120316826829 0 -0.00076064608557229992 -0.019356913716117918 0 -0.00091488292304152483 -0.01788120316826829 0 -0.00042964504702834426 -0.017602742459591536 0 -0.00016757454134164242 -0.015861767723929981 0 -0.00091488292304152483 -0.01788120316826829 0 -0.00042964504702834426 -0.017602742459591536 0 -0.00076064608557229992 -0.019356913716117918 0 -8.5226415033959166e-07 -0.022006310476640489 0 -0.00076064608557229992 -0.019356913716117918 0 -9.7997816589655328e-07 -0.018956209385458431 0 -0.00042964504702834426 -0.017602742459591536 0 -0.00076064608557229992 -0.019356913716117918 0 -9.7997816589655328e-07 -0.018956209385458431 0 -0.00042964504702834426 -0.017602742459591536 0 -9.7997816589655328e-07 -0.018956209385458431 0 -1.7644968767257436e-07 -0.015905400173194563 0 -0.00042964504702834426 -0.017602742459591536 0 -1.7644968767257436e-07 -0.015905400173194563 0 -0.00016757454134164242 -0.015861767723929981 0 -0.00016757454134164242 -0.015861767723929981 0 0.00014875501180146316 -0.014051566822927242 0 0.00056344389438133229 -0.013150313166149723 0 -1.7644968767257436e-07 -0.015905400173194563 0 0.00014875501180146316 -0.014051566822927242 0 2.7421566975266605e-07 -0.012855187405672394 0 -1.7644968767257436e-07 -0.015905400173194563 0 -0.00016757454134164242 -0.015861767723929981 0 0.00014875501180146316 -0.014051566822927242 0 0.00014875501180146316 -0.014051566822927242 0 2.7421566975266605e-07 -0.012855187405672394 0 0.00010652822631728885 -0.011175365996950168 0 2.7421566975266605e-07 -0.012855187405672394 0 0.00010652822631728885 -0.011175365996950168 0 -8.9989851277684574e-08 -0.0098048202101984044 0 0.00014875501180146316 -0.014051566822927242 0 0.00010652822631728885 -0.011175365996950168 0 0.00056344389438133229 -0.013150313166149723 0 -0.00012405490406514454 -0.0086658934106932841 0 -8.9989851277684574e-08 -0.0098048202101984044 0 -4.116253732560951e-07 -0.0067542696135705002 0 0.00010652822631728885 -0.011175365996950168 0 -0.00012405490406514454 -0.0086658934106932841 0 -8.9989851277684574e-08 -0.0098048202101984044 0 0.00010652822631728885 -0.011175365996950168 0 -0.00012405490406514454 -0.0086658934106932841 0 -0.00027583760111772886 -0.0087408745599176791 0 -0.00012405490406514454 -0.0086658934106932841 0 -0.00027583760111772886 -0.0087408745599176791 0 -0.0002793752376782903 -0.0063784826075733939 0 0.00010652822631728885 -0.011175365996950168 0 -0.00027583760111772886 -0.0087408745599176791 0 0.00025096767081184883 -0.010839802979814491 0 -0.00027583760111772886 -0.0087408745599176791 0 -0.0003349944589681883 -0.0090158949334275713 0 0.00025096767081184883 -0.010839802979814491 0 -0.0003349944589681883 -0.0090158949334275713 0 0.00025096767081184883 -0.010839802979814491 0 0.000871670674997787 -0.010889528498147635 0 0.00056344389438133229 -0.013150313166149723 0 0.00025096767081184883 -0.010839802979814491 0 0.00065733384635553065 -0.011589015754096736 0 0.00010652822631728885 -0.011175365996950168 0 0.00056344389438133229 -0.013150313166149723 0 0.00025096767081184883 -0.010839802979814491 0 0.00025096767081184883 -0.010839802979814491 0 0.00065733384635553065 -0.011589015754096736 0 0.000871670674997787 -0.010889528498147635 0 0.00037166322711914602 -0.011806718823829323 0 0.00056344389438133229 -0.013150313166149723 0 0.00065733384635553065 -0.011589015754096736 0 0.00059236318066711337 -0.012567384492255505 0 0.00065733384635553065 -0.011589015754096736 0 0.0012049932322407296 -0.01231917456358151 0 0.00059236318066711337 -0.012567384492255505 0 0.00078529990660108808 -0.013725895966151582 0 0.0012049932322407296 -0.01231917456358151 0 0.00078529990660108808 -0.013725895966151582 0 0.0012049932322407296 -0.01231917456358151 0 0.0021273094771695929 -0.013423333260522655 0 0.00047920443297366652 -0.01609311709247075 0 0.00078529990660108808 -0.013725895966151582 0 0.0021273094771695929 -0.013423333260522655 0 0.0021273094771695929 -0.013423333260522655 0 0.0013871666509557455 -0.012349939861844898 0 0.0014928170143586289 -0.011707430588230813 0 0.0012049932322407296 -0.01231917456358151 0 0.0021273094771695929 -0.013423333260522655 0 0.0013871666509557455 -0.012349939861844898 0 0.0012049932322407296 -0.01231917456358151 0 0.000871670674997787 -0.010889528498147635 0 0.0013871666509557455 -0.012349939861844898 0 0.00065733384635553065 -0.011589015754096736 0 0.0012049932322407296 -0.01231917456358151 0 0.000871670674997787 -0.010889528498147635 0 0.000871670674997787 -0.010889528498147635 0 0.0011556800140511915 -0.012175239678681419 0 0.0013871666509557455 -0.012349939861844898 0 0.00077461708659145602 -0.010759361163908861 0 0.00033482995291974303 -0.010273865786160099 0 -0.0003349944589681883 -0.0090158949334275713 0 0.000871670674997787 -0.010889528498147635 0 -0.00034509346431323633 -0.0083701805340880824 0 -0.0003349944589681883 -0.0090158949334275713 0 -0.00034509346431323633 -0.0083701805340880824 0 -0.00071028131094846207 -0.0080135584280051873 0 0.0011556800140511915 -0.012175239678681419 0 0.00078665569892876787 -0.011349922107877108 0 -8.4232197195418769e-05 -0.011259751762009931 0 0.00033482995291974303 -0.010273865786160099 0 -0.00037534223417723872 -0.0098312039229870359 0 0.0011556800140511915 -0.012175239678681419 0 0.0013871666509557455 -0.012349939861844898 0 0.00078665569892876787 -0.011349922107877108 0 0.0013871666509557455 -0.012349939861844898 0 0.0014928170143586289 -0.011707430588230813 0 0.00078665569892876787 -0.011349922107877108 0 0.00098061698604921636 -0.010021419633281289 0 -0.0001784586701278141 -0.010212949131435282 0 0.00078665569892876787 -0.011349922107877108 0 0.00032110412049339061 -0.01032619122051593 0 0.00015215629045620547 -0.010785792296211544 0 0.0010931130177586278 -0.010005664866239612 0 0.00078665569892876787 -0.011349922107877108 0 0.00032110412049339061 -0.01032619122051593 0 0.0010931130177586278 -0.010005664866239612 0 0.0014928170143586289 -0.011707430588230813 0 0.0022921923565667212 -0.011192709860148951 0 0.0010931130177586278 -0.010005664866239612 0 0.0014928170143586289 -0.011707430588230813 0 0.00078665569892876787 -0.011349922107877108 0 0.0024325371092497466 -0.010015521183279514 0 0.0010931130177586278 -0.010005664866239612 0 0.0022921923565667212 -0.011192709860148951 0 0.0024325371092497466 -0.010015521183279514 0 0.0022921923565667212 -0.011192709860148951 0 0.0031347458893713205 -0.010305634113915219 0 0.00036047125483881196 -0.017079071689096895 0 0.0028449208255722004 -0.013982623450981075 0 0.00099625524734954615 -0.020708675557777039 0 0.00085523686125426636 -0.019928754930419911 0 0.0020935360558147912 -0.01769339051617946 0 0.0041601480237803655 -0.0095800556246337879 0 0.0031347458893713205 -0.010305634113915219 0 0.0035360733580393649 -0.01130487217659854 0 0.00010986175875229417 -0.018935670786002223 0 0.00085523686125426636 -0.019928754930419911 0 0.0020935360558147912 -0.01769339051617946 0 0.00010986175875229417 -0.018935670786002223 0 0.00047920443297366652 -0.01609311709247075 0 0.0020935360558147912 -0.01769339051617946 0 0.0022921923565667212 -0.011192709860148951 0 0.0031347458893713205 -0.010305634113915219 0 0.0035360733580393649 -0.01130487217659854 0 0.0023254568716966082 -0.013773107388370722 0 0.0028449208255722004 -0.013982623450981075 0 0.00047920443297366652 -0.01609311709247075 0 0.0021273094771695929 -0.013423333260522655 0 0.0020935360558147912 -0.01769339051617946 0 0.0021273094771695929 -0.013423333260522655 0 0.0022921923565667212 -0.011192709860148951 0 0.0035360733580393649 -0.01130487217659854 0 0.0021273094771695929 -0.013423333260522655 0 0.0014928170143586289 -0.011707430588230813 0 0.0022921923565667212 -0.011192709860148951 0 -5.1880174448201488e-05 -0.0089672949293544205 0 0.00014954124484091726 -0.0095588817614866428 0 0.00082825713073074263 -0.0080815627905419136 0 -5.1880174448201488e-05 -0.0089672949293544205 0 0.00014954124484091726 -0.0095588817614866428 0 -7.7856818587568099e-05 -0.0098124688382610365 0 0.002144641876050425 0.0015569522901995726 0 0.002469761619217544 0.00080755609507885372 0 0.001821758208898451 0.0011987726261887045 0 -0.0015790752493960315 -0.0061309377441071972 0 0.002107728400647556 -0.0031095312550437544 0 0.002144641876050425 0.0015569522901995726 0 0.0026207581101775198 0.0015670450579862805 0 0.002469761619217544 0.00080755609507885372 0 -0.0029389678560938258 -0.0050972865602714381 0 -0.0029569971744767957 -0.0051591763669102631 0 -0.002993339365952584 -0.00517260759401826 0 -0.0029520703103863536 -0.0051864846680668526 0 -0.0029569971744767957 -0.0051591763669102631 0 -0.0029600166513636 -0.0051712133295928452 0 -0.0029389678560938258 -0.0050972865602714381 0 -0.0029569971744767957 -0.0051591763669102631 0 -0.0029600166513636 -0.0051712133295928452 0 -0.00017941612763193627 -0.0017376362745061371 0 -0.0015790752493960315 -0.0061309377441071972 0 0.00014954124484091726 -0.0095588817614866428 0 -7.7856818587568099e-05 -0.0098124688382610365 0 -0.00027462970919384528 -0.010277416917317221 0 -0.0015790752493960315 -0.0061309377441071972 0 -0.0018432696130057026 -0.010710184726009778 0 -0.0037553440096360744 -0.0083795187081503828 0 -0.0047714233475917066 -0.010915199985072068 0 -0.0028571745720589706 -0.010526929808194117 0 0.00032110412049339061 -0.01032619122051593 0 -0.00027462970919384528 -0.010277416917317221 0 0.00015215629045620547 -0.010785792296211544 0 -0.0001784586701278141 -0.010212949131435282 0 -0.0018432696130057026 -0.010710184726009778 0 -0.0021916605475021575 -0.0091602501599476385 0 -0.00087055167714086379 -0.010199899978984935 0 -0.0028571745720589706 -0.010526929808194117 0 -0.00027462970919384528 -0.010277416917317221 0 -8.4232197195418769e-05 -0.011259751762009931 0 0.00015215629045620547 -0.010785792296211544 0 0.00078665569892876787 -0.011349922107877108 0 -8.4232197195418769e-05 -0.011259751762009931 0 0.00015215629045620547 -0.010785792296211544 0 -5.5759918550953052e-05 -0.0098901846446575459 0 -0.00037534223417723872 -0.0098312039229870359 0 -5.1880174448201488e-05 -0.0089672949293544205 0 -0.00088233560342724875 -0.0083525159156725808 0 -0.00016332651561469578 -0.0083768487662981752 0 -5.1880174448201488e-05 -0.0089672949293544205 0 -7.7856818587568099e-05 -0.0098124688382610365 0 -0.00088233560342724875 -0.0083525159156725808 0 -7.7856818587568099e-05 -0.0098124688382610365 0 -0.00027462970919384528 -0.010277416917317221 0 -8.4232197195418769e-05 -0.011259751762009931 0 -0.00088233560342724875 -0.0083525159156725808 0 -0.00056337358898019951 -0.008008448058496655 0 -0.00016332651561469578 -0.0083768487662981752 0 -0.00056337358898019951 -0.008008448058496655 0 -0.00023826832975360715 -0.0071714354949452865 0 -0.00016332651561469578 -0.0083768487662981752 0 -0.00088233560342724875 -0.0083525159156725808 0 -0.00056337358898019951 -0.008008448058496655 0 -0.00071028131094846207 -0.0080135584280051873 0 -0.00034509346431323633 -0.0083701805340880824 0 -0.00088233560342724875 -0.0083525159156725808 0 -0.00071028131094846207 -0.0080135584280051873 0 -0.00056337358898019951 -0.008008448058496655 0 -0.00071028131094846207 -0.0080135584280051873 0 -0.00023826832975360715 -0.0071714354949452865 0 -0.00071028131094846207 -0.0080135584280051873 0 -0.00023826832975360715 -0.0071714354949452865 0 -0.00052332509281374285 -0.0068247613836675573 0 -0.00023826832975360715 -0.0071714354949452865 0 -0.00016332651561469578 -0.0083768487662981752 0 0.00082825713073074263 -0.0080815627905419136 0 -5.1880174448201488e-05 -0.0089672949293544205 0 -0.00016332651561469578 -0.0083768487662981752 0 0.00082825713073074263 -0.0080815627905419136 0 0.002469761619217544 0.00080755609507885372 0 0.0016205253670625189 -0.00011361277584329301 0 0.0020926329355409 -0.00064632700759530831 0 -0.00023826832975360715 -0.0071714354949452865 0 0.00082825713073074263 -0.0080815627905419136 0 0.0012327699648338284 -0.006146391600471833 0 0.002107728400647556 -0.0031095312550437544 0 0.0014593023001023063 -0.0035045300881281008 0 4.9395009163573902e-05 -0.0052377821057918413 0 0.00098043409176984614 -0.0021922739903424801 0 0.0012327699648338284 -0.006146391600471833 0 -0.00023826832975360715 -0.0071714354949452865 0 4.9395009163573902e-05 -0.0052377821057918413 0 0.0012327699648338284 -0.006146391600471833 0 -0.00023826832975360715 -0.0071714354949452865 0 4.9395009163573902e-05 -0.0052377821057918413 0 -0.00052332509281374285 -0.0068247613836675573 0 4.9395009163573902e-05 -0.0052377821057918413 0 -0.00052332509281374285 -0.0068247613836675573 0 -8.993081298371808e-05 -0.0036301851626129719 0 4.9395009163573902e-05 -0.0052377821057918413 0 -8.993081298371808e-05 -0.0036301851626129719 0 0.00098043409176984614 -0.0021922739903424801 0 -0.00052332509281374285 -0.0068247613836675573 0 -0.0002793752376782903 -0.0063784826075733939 0 -8.993081298371808e-05 -0.0036301851626129719 0 -0.0003349944589681883 -0.0090158949334275713 0 -0.00071028131094846207 -0.0080135584280051873 0 -0.00052332509281374285 -0.0068247613836675573 0 -0.00027583760111772886 -0.0087408745599176791 0 -0.0003349944589681883 -0.0090158949334275713 0 -0.00052332509281374285 -0.0068247613836675573 0 -0.00027583760111772886 -0.0087408745599176791 0 -0.00052332509281374285 -0.0068247613836675573 0 -0.0002793752376782903 -0.0063784826075733939 0 -0.0002793752376782903 -0.0063784826075733939 0 -5.0197107287603632e-07 -0.0037036313657387498 0 -8.993081298371808e-05 -0.0036301851626129719 0 -0.00012405490406514454 -0.0086658934106932841 0 -0.0002793752376782903 -0.0063784826075733939 0 -4.116253732560951e-07 -0.0067542696135705002 0 -0.0002793752376782903 -0.0063784826075733939 0 -5.0197107287603632e-07 -0.0037036313657387498 0 -4.116253732560951e-07 -0.0067542696135705002 0 -5.0197107287603632e-07 -0.0037036313657387498 0 -8.993081298371808e-05 -0.0036301851626129719 0 3.2085481396776834e-07 -0.00065350922201540046 0 -8.993081298371808e-05 -0.0036301851626129719 0 3.2085481396776834e-07 -0.00065350922201540046 0 0.00030823777184599006 -0.00057218432500885663 0 3.2085481396776834e-07 -0.00065350922201540046 0 0.00030823777184599006 -0.00057218432500885663 0 -4.5071230113427677e-07 0.0023971573057941166 0 -8.993081298371808e-05 -0.0036301851626129719 0 0.00030823777184599006 -0.00057218432500885663 0 0.00098043409176984614 -0.0021922739903424801 0 0.00030823777184599006 -0.00057218432500885663 0 0.00049111929542745175 0.0012500028207118833 0 0.00098043409176984614 -0.0021922739903424801 0 0.00049111929542745175 0.0012500028207118833 0 0.0013507453719931888 -0.00025383269650767478 0 0.00098043409176984614 -0.0021922739903424801 0 0.00030823777184599006 -0.00057218432500885663 0 0.00049111929542745175 0.0012500028207118833 0 -4.5071230113427677e-07 0.0023971573057941166 0 0.00049111929542745175 0.0012500028207118833 0 0.00041928241218715099 0.0040074313250979543 0 0.00069968930242213082 0.0039199916629050801 0 -4.5071230113427677e-07 0.0023971573057941166 0 0.00041928241218715099 0.0040074313250979543 0 4.5687237748745946e-06 0.0054444407433392704 0 0.00049111929542745175 0.0012500028207118833 0 -4.5071230113427677e-07 0.0023971573057941166 0 0.00041928241218715099 0.0040074313250979543 0 -0.0020255168974125893 0.014359462985778719 0 -0.0010372155558843663 0.013382171315457807 0 -0.00015921486357380876 0.014516157852903982 0 6.2664080126611049e-07 0.0054513618311577668 0 6.8644201892208384e-05 0.0056877554717214918 0 6.2249574520043689e-06 0.0088835653669689148 0 -8.6424356678083624e-07 0.005450044800810943 0 -9.3210282409014831e-05 0.0077898398760316324 0 0.00041928241218715099 0.0040074313250979543 0 4.5687237748745946e-06 0.0054444407433392704 0 0.00057189180330691376 0.0040925235859045417 0 7.46739891450017e-05 0.0075772130706144364 0 -9.3210282409014831e-05 0.0077898398760316324 0 -0.0020255168974125893 0.014359462985778719 0 -0.0010372155558843663 0.013382171315457807 0 -0.0028728580759981954 0.01211960145127749 0 -9.3210282409014831e-05 0.0077898398760316324 0 -0.00086979136033893888 0.0062933066076238326 0 0.00049111929542745175 0.0012500028207118833 0 0.00069968930242213082 0.0039199916629050801 0 0.0013507453719931888 -0.00025383269650767478 0 -0.00086979136033893888 0.0062933066076238326 0 -0.001270486544909291 0.0041798286536610264 0 -0.0010372155558843663 0.013382171315457807 0 -0.0028728580759981954 0.01211960145127749 0 -0.0013686221917426273 0.010804552733991404 0 -0.0028728580759981954 0.01211960145127749 0 -0.0013686221917426273 0.010804552733991404 0 -0.0032749635865524278 0.0099487362789530392 0 -0.0013686221917426273 0.010804552733991404 0 -0.0032749635865524278 0.0099487362789530392 0 -0.0021850658735481361 0.0092509043564293764 0 0.00074325769062198548 -0.00086299247668239704 0 0.0012224318145996574 -0.00083301349823555119 0 0.00098043409176984614 -0.0021922739903424801 0 0.0011698026420723794 -0.002344198659747625 0 0.0014593023001023063 -0.0035045300881281008 0 0.0012224318145996574 -0.00083301349823555119 0 0.00098043409176984614 -0.0021922739903424801 0 0.0020926329355409 -0.00064632700759530831 0 0.0013507453719931888 -0.00025383269650767478 0 0.00074325769062198548 -0.00086299247668239704 0 0.00098043409176984614 -0.0021922739903424801 0 4.4630535467992427e-05 0.0152182309152252 0 1.8155132544786695e-05 0.014943907810651223 0 5.4891767208267992e-05 0.01543986513280369 0 1.8509069912824247e-05 0.015062261997873005 0 -3.2551561774646787e-05 0.014846252142710651 0 4.2092273722845858e-05 0.015239696303705559 0 -2.2394075132638371e-05 0.013592965962858153 0 -0.00011654030486495952 0.015202287369016932 0 4.4630535467992427e-05 0.0152182309152252 0 4.2092273722845858e-05 0.015239696303705559 0 7.2095301790609884e-05 0.015402408936291554 0 4.4630535467992427e-05 0.0152182309152252 0 1.8509069912824247e-05 0.015062261997873005 0 4.2092273722845858e-05 0.015239696303705559 0 4.4630535467992427e-05 0.0152182309152252 0 1.8509069912824247e-05 0.015062261997873005 0 1.8155132544786695e-05 0.014943907810651223 0 1.8411986897817923e-05 0.013941368821694569 0 5.0370262974675133e-06 0.013086685950789727 0 2.2531645221525712e-05 0.01224878652181929 0 1.8411986897817923e-05 0.013941368821694569 0 2.2531645221525712e-05 0.01224878652181929 0 5.4891767208267992e-05 0.01543986513280369 0 5.0370262974675133e-06 0.013086685950789727 0 5.3148109791867424e-08 0.011566853194065975 0 6.3259875224928377e-08 0.014625386295402868 0 1.8411986897817923e-05 0.013941368821694569 0 5.0370262974675133e-06 0.013086685950789727 0 6.3259875224928377e-08 0.014625386295402868 0 5.0370262974675133e-06 0.013086685950789727 0 2.2531645221525712e-05 0.01224878652181929 0 5.3148109791867424e-08 0.011566853194065975 0 2.2531645221525712e-05 0.01224878652181929 0 5.3148109791867424e-08 0.011566853194065975 0 6.2249574520043689e-06 0.0088835653669689148 0 1.8155132544786695e-05 0.014943907810651223 0 -3.2551561774646787e-05 0.014846252142710651 0 -6.5116894404231753e-05 0.014645436246165001 0 1.8509069912824247e-05 0.015062261997873005 0 1.8155132544786695e-05 0.014943907810651223 0 -3.2551561774646787e-05 0.014846252142710651 0 -0.0002031517851344273 0.014281185691070553 0 -6.5116894404231753e-05 0.014645436246165001 0 -7.242132687678015e-05 0.014732505986026795 0 -3.2551561774646787e-05 0.014846252142710651 0 -6.5116894404231753e-05 0.014645436246165001 0 -7.242132687678015e-05 0.014732505986026795 0 -0.0002031517851344273 0.014281185691070553 0 -6.5116894404231753e-05 0.014645436246165001 0 -0.00015921486357380876 0.014516157852903982 0 -2.2394075132638371e-05 0.013592965962858153 0 -0.00046882597008292336 0.012066283222286535 0 5.3148109791867424e-08 0.011566853194065975 0 6.2249574520043689e-06 0.0088835653669689148 0 -1.4280072367107348e-07 0.0085075963315971743 0 1.8155132544786695e-05 0.014943907810651223 0 -6.5116894404231753e-05 0.014645436246165001 0 -0.00015921486357380876 0.014516157852903982 0 6.2664080126611049e-07 0.0054513618311577668 0 6.2249574520043689e-06 0.0088835653669689148 0 -1.4280072367107348e-07 0.0085075963315971743 0 -9.3210282409014831e-05 0.0077898398760316324 0 -0.00046882597008292336 0.012066283222286535 0 -0.0010372155558843663 0.013382171315457807 0 -0.0002031517851344273 0.014281185691070553 0 -0.00015921486357380876 0.014516157852903982 0 -0.0010372155558843663 0.013382171315457807 0 -0.0002031517851344273 0.014281185691070553 0 1.8132369714496629e-05 0.014685337917051285 0 -0.0010372155558843663 0.013382171315457807 0 -0.0013686221917426273 0.010804552733991404 0 0.00015852997744971183 0.011633464348631082 0 -0.00098373160760891615 0.01351774901457751 0 -2.1974866916311839e-05 0.013181486461116998 0 -0.0013686221917426273 0.010804552733991404 0 6.8294760683676564e-05 0.01029881535092167 0 -0.00072008747782852914 0.0093393845571874499 0 -0.0013686221917426273 0.010804552733991404 0 6.8294760683676564e-05 0.01029881535092167 0 0.00015852997744971183 0.011633464348631082 0 -2.1974866916311839e-05 0.013181486461116998 0 0.0005169848398076291 0.013073719811796204 0 6.8294760683676564e-05 0.01029881535092167 0 0.00015852997744971183 0.011633464348631082 0 0.0010969511028225242 0.010353945568579435 0 -0.0002031517851344273 0.014281185691070553 0 1.8132369714496629e-05 0.014685337917051285 0 -7.242132687678015e-05 0.014732505986026795 0 1.8132369714496629e-05 0.014685337917051285 0 -7.242132687678015e-05 0.014732505986026795 0 -3.8072114179739705e-06 0.015614714641353286 0 -4.1075322428250605e-05 0.014839075912770748 0 -4.5891637023032758e-05 0.015439108379298495 0 -7.242132687678015e-05 0.014732505986026795 0 -3.8072114179739705e-06 0.015614714641353286 0 -0.000171625438139132 0.015694526009749195 0 -3.2551561774646787e-05 0.014846252142710651 0 -7.242132687678015e-05 0.014732505986026795 0 4.2092273722845858e-05 0.015239696303705559 0 -8.4260222630329912e-05 0.01590266980761194 0 -0.000171625438139132 0.015694526009749195 0 -4.4518167663123771e-05 0.016110767334856349 0 -3.8072114179739705e-06 0.015614714641353286 0 -8.4260222630329912e-05 0.01590266980761194 0 -0.000171625438139132 0.015694526009749195 0 0.0008928485547949421 0.012181888426144287 0 0.0035208750991603255 0.016325010281985727 0 0.0022029953357361491 0.0083891566026604875 0 0.0020441958288092447 0.0093411437770530032 0 0.002973644190128973 0.0084781067432740023 0 0.0022029953357361491 0.0083891566026604875 0 0.0020441958288092447 0.0093411437770530032 0 0.0017041439553453438 0.008756335477449367 0 0.0022029953357361491 0.0083891566026604875 0 0.0017041439553453438 0.008756335477449367 0 0.0017456958841404061 0.0083278501331422554 0 -8.4260222630329912e-05 0.01590266980761194 0 -4.3120451647181968e-05 0.016063795031382375 0 -2.3358327676974153e-05 0.016174359200753361 0 0.0005169848398076291 0.013073719811796204 0 0.0008928485547949421 0.012181888426144287 0 -3.8072114179739705e-06 0.015614714641353286 0 -8.4260222630329912e-05 0.01590266980761194 0 -4.3120451647181968e-05 0.016063795031382375 0 0.0010969511028225242 0.010353945568579435 0 0.0020441958288092447 0.0093411437770530032 0 0.00084902585015768177 0.0092122810311673943 0 0.0020441958288092447 0.0093411437770530032 0 0.0017041439553453438 0.008756335477449367 0 0.00084902585015768177 0.0092122810311673943 0 0.0017041439553453438 0.008756335477449367 0 0.0012032202634096646 0.0083952173545236188 0 0.00084902585015768177 0.0092122810311673943 0 0.0017041439553453438 0.008756335477449367 0 0.0017456958841404061 0.0083278501331422554 0 0.0012032202634096646 0.0083952173545236188 0 0.0012032202634096646 0.0083952173545236188 0 0.00084902585015768177 0.0092122810311673943 0 0.00016934956651603236 0.0078903031447568155 0 0.00084902585015768177 0.0092122810311673943 0 -0.00072008747782852914 0.0093393845571874499 0 0.00016934956651603236 0.0078903031447568155 0 6.8294760683676564e-05 0.01029881535092167 0 0.00084902585015768177 0.0092122810311673943 0 -0.00072008747782852914 0.0093393845571874499 0 6.8294760683676564e-05 0.01029881535092167 0 0.0010969511028225242 0.010353945568579435 0 0.00084902585015768177 0.0092122810311673943 0 -0.00072008747782852914 0.0093393845571874499 0 0.00016934956651603236 0.0078903031447568155 0 -0.0017578602191759931 0.0080418139565709493 0 -0.00090652545642998261 0.010684992769559884 0 -0.0027472584381112359 0.011849814272391913 0 -0.0025414966544930642 0.01425522650139166 0 -0.0024832744353928543 0.014400816353964126 0 -0.0027574097077342065 0.014131135101228849 0 -0.0025414966544930642 0.01425522650139166 0 -0.0025032667136532204 0.014491403394657192 0 -0.0024832744353928543 0.014400816353964126 0 -0.0025032667136532204 0.014491403394657192 0 -0.0024832744353928543 0.014400816353964126 0 -0.0024775233017423526 0.014605131868014308 0 -0.0024832744353928543 0.014400816353964126 0 -0.0024775233017423526 0.014605131868014308 0 -0.0024884257161472459 0.014614499077658745 0 0.0012032202634096646 0.0083952173545236188 0 0.00016934956651603236 0.0078903031447568155 0 0.0018662727867082647 0.0077695387161284277 0 -0.00090652545642998261 0.010684992769559884 0 -0.00077874628882666644 0.013553759631251508 0 0.0017456958841404061 0.0083278501331422554 0 0.0012032202634096646 0.0083952173545236188 0 0.0018662727867082647 0.0077695387161284277 0 -0.0023764751817468492 0.014110548969257166 0 -0.00077874628882666644 0.013553759631251508 0 -0.0024775233017423526 0.014605131868014308 0 -0.0024245537456542275 0.014766799509096071 0 -0.002423568904988755 0.01471958337813024 0 -0.0025032667136532204 0.014491403394657192 0 -0.0024775233017423526 0.014605131868014308 0 -0.0024721712248333165 0.014685927093238195 0 -0.0024775233017423526 0.014605131868014308 0 -0.0024721712248333165 0.014685927093238195 0 -0.0024245537456542275 0.014766799509096071 0 -0.0024245537456542275 0.014766799509096071 0 -0.002423568904988755 0.01471958337813024 0 -0.002388198031963619 0.014813919919500811 0 -0.0024245537456542275 0.014766799509096071 0 -0.002378900606146562 0.014891006491414368 0 -0.002388198031963619 0.014813919919500811 0 0.0031789867043624082 0.014788941618636725 0 0.002577979154915225 0.019385572559027831 0 -0.00077874628882666644 0.013553759631251508 0 0.002577979154915225 0.019385572559027831 0 0.00090766176753167508 0.016035703530728113 0 0.0016618967458294088 0.016455740028200747 0 0.0022103978364430153 0.015817190026256481 0 0.0022029953357361491 0.0083891566026604875 0 0.0018662727867082647 0.0077695387161284277 0 0.0024426365410163825 0.0081179691376659282 0 -0.00077874628882666644 0.013553759631251508 0 0.0031789867043624082 0.014788941618636725 0 0.0022029953357361491 0.0083891566026604875 0 0.0017456958841404061 0.0083278501331422554 0 0.0018662727867082647 0.0077695387161284277 0 0.0041925475337436131 0.011071773180892737 0 0.0031789867043624082 0.014788941618636725 0 0.0022029953357361491 0.0083891566026604875 0 0.0024221103812891026 0.0081605346211841429 0 0.002973644190128973 0.0084781067432740023 0 0.001241162930106668 0.00018847248005372197 0 0.00072936362438962531 0.00059820552974812263 0 0.0010378023266715292 -0.00028371741147100257 0 -0.0015477692319475394 0.006153917191743615 0 0.0022314895796751114 0.0010500930611232729 0 0.001241162930106668 0.00018847248005372197 0 0.00072936362438962531 0.00059820552974812263 0 0.00156938988749714 0.00057554510542548259 0 -0.0029361424982580746 0.013576519221879619 0 -0.0028743390767446554 0.013899158157718411 0 -0.0029077215504187655 0.013763980142623896 0 -0.00034446719128124821 0.001032875852634674 0 0.0012588110356995901 0.0012166011726484644 0 0.00021447379324001574 0.0038517167121236815 0 -0.00034446719128124821 0.001032875852634674 0 0.0012588110356995901 0.0012166011726484644 0 0.00156938988749714 0.00057554510542548259 0 0.0012588110356995901 0.0012166011726484644 0 0.00156938988749714 0.00057554510542548259 0 0.001821758208898451 0.0011987726261887045 0 0.002469761619217544 0.00080755609507885372 0 0.00156938988749714 0.00057554510542548259 0 0.001821758208898451 0.0011987726261887045 0 0.002469761619217544 0.00080755609507885372 0 0.00156938988749714 0.00057554510542548259 0 0.0016205253670625189 -0.00011361277584329301 0 0.001241162930106668 0.00018847248005372197 0 0.00156938988749714 0.00057554510542548259 0 0.0016205253670625189 -0.00011361277584329301 0 0.001241162930106668 0.00018847248005372197 0 0.0016205253670625189 -0.00011361277584329301 0 0.0010378023266715292 -0.00028371741147100257 0 0.0012224318145996574 -0.00083301349823555119 0 0.0016205253670625189 -0.00011361277584329301 0 0.0020926329355409 -0.00064632700759530831 0 0.0012224318145996574 -0.00083301349823555119 0 0.0016205253670625189 -0.00011361277584329301 0 0.0010378023266715292 -0.00028371741147100257 0 0.00074325769062198548 -0.00086299247668239704 0 0.0012224318145996574 -0.00083301349823555119 0 0.0010378023266715292 -0.00028371741147100257 0 0.00074325769062198548 -0.00086299247668239704 0 0.00072936362438962531 0.00059820552974812263 0 0.0010378023266715292 -0.00028371741147100257 0 -0.001270486544909291 0.0041798286536610264 0 -0.0015477692319475394 0.006153917191743615 0 -0.0032749635865524278 0.0099487362789530392 0 -0.0036384255912474601 0.0083051211320301927 0 -0.0021850658735481361 0.0092509043564293764 0 -0.0013686221917426273 0.010804552733991404 0 -0.00072008747782852914 0.0093393845571874499 0 -0.0021850658735481361 0.0092509043564293764 0 -0.00072008747782852914 0.0093393845571874499 0 -0.0021850658735481361 0.0092509043564293764 0 -0.0017578602191759931 0.0080418139565709493 0 -0.0036384255912474601 0.0083051211320301927 0 -0.0021850658735481361 0.0092509043564293764 0 -0.0017578602191759931 0.0080418139565709493 0 -0.0029361424982580746 0.013576519221879619 0 -0.0027574097077342065 0.014131135101228849 0 -0.0028743390767446554 0.013899158157718411 0 -0.0015477692319475394 0.006153917191743615 0 -0.0027472584381112359 0.011849814272391913 0 -0.0028743390767446554 0.013899158157718411 0 -0.0029053027327837046 0.013829632720068137 0 -0.0029077215504187655 0.013763980142623896 0 -0.0028743390767446554 0.013899158157718411 0 -0.0028175361610637182 0.014029567769343186 0 -0.0029184755931496104 0.013896969104549598 0 -0.0027574097077342065 0.014131135101228849 0 -0.0028743390767446554 0.013899158157718411 0 -0.0028175361610637182 0.014029567769343186 0 -0.0028743390767446554 0.013899158157718411 0 -0.0029184755931496104 0.013896969104549598 0 -0.0029053027327837046 0.013829632720068137 0 -0.0025414966544930642 0.01425522650139166 0 -0.0027574097077342065 0.014131135101228849 0 -0.0028175361610637182 0.014029567769343186 0 -0.0025414966544930642 0.01425522650139166 0 -0.0028175361610637182 0.014029567769343186 0 -0.0027662190826924964 0.013954325717009004 0 -0.0028175361610637182 0.014029567769343186 0 -0.0028843488778037725 0.013931845571493162 0 -0.0027662190826924964 0.013954325717009004 0 -0.0028175361610637182 0.014029567769343186 0 -0.0029184755931496104 0.013896969104549598 0 -0.0028843488778037725 0.013931845571493162 0 -0.0029184755931496104 0.013896969104549598 0 -0.003047969898573599 0.01399217930074086 0 -0.0028843488778037725 0.013931845571493162 0 -0.0029184755931496104 0.013896969104549598 0 -0.0028756303338500931 0.013756210279452495 0 -0.003047969898573599 0.01399217930074086 0 -0.00155387381085261 0.0081760852862387112 0 -0.0030305014846101919 0.0094766541859163424 0 -0.0029184755931496104 0.013896969104549598 0 -0.0029053027327837046 0.013829632720068137 0 -0.0028756303338500931 0.013756210279452495 0 -0.0015477692319475394 0.006153917191743615 0 -0.00155387381085261 0.0081760852862387112 0 -0.0029361424982580746 0.013576519221879619 0 -0.0028756303338500931 0.013756210279452495 0 -0.0029077215504187655 0.013763980142623896 0 -0.0029053027327837046 0.013829632720068137 0 -0.0028756303338500931 0.013756210279452495 0 -0.0029077215504187655 0.013763980142623896 0 -0.00017941612763193627 -0.0017376362745061371 0 -0.00047149415455624447 0.0014878675970874269 0 0.002144641876050425 0.0015569522901995726 0 0.001821758208898451 0.0011987726261887045 0 0.0015562102025514575 0.00153835849866781 0 0.0012588110356995901 0.0012166011726484644 0 0.00021447379324001574 0.0038517167121236815 0 0.001943344804955932 0.0042344156501905239 0 0.0012993198470704547 0.001970148968504446 0 -0.00047149415455624447 0.0014878675970874269 0 0.0012588110356995901 0.0012166011726484644 0 0.001821758208898451 0.0011987726261887045 0 0.0015562102025514575 0.00153835849866781 0 -0.00155387381085261 0.0081760852862387112 0 -0.00047149415455624447 0.0014878675970874269 0 -0.0026782676395736772 0.0055574891930027523 0 -0.0026872429716739135 0.0045963285938362131 0 -0.0029190046617104969 0.0045362033040724893 0 -0.00047149415455624447 0.0014878675970874269 0 -0.0032990672158234265 -0.00046699644815873399 0 -0.0029389678560938258 -0.0050972865602714381 0 -0.0028643174466743133 -0.0050254671680249746 0 -0.002993339365952584 -0.00517260759401826 0 -0.0023320581030696367 0.0056477559203942478 0 -0.0026782676395736772 0.0055574891930027523 0 -0.0026872429716739135 0.0045963285938362131 0 -0.0026872429716739135 0.0045963285938362131 0 -0.0029190046617104969 0.0045362033040724893 0 -0.0031014624155921082 0.0035896843054034986 0 -0.003047969898573599 0.01399217930074086 0 -0.0029426513700523595 0.0137943212975562 0 -0.0028843488778037725 0.013931845571493162 0 -0.003047969898573599 0.01399217930074086 0 -0.0029426513700523595 0.0137943212975562 0 -0.0038767260386345526 0.013771459086261128 0 -0.0030305014846101919 0.0094766541859163424 0 -0.0034459160346354215 0.009124059316975755 0 -0.0032990672158234265 -0.00046699644815873399 0 -0.0030312021593803819 -0.0013589324951650259 0 -0.0029190046617104969 0.0045362033040724893 0 -0.0031014624155921082 0.0035896843054034986 0 -0.0032216779207404601 0.0035606007114547 0 -0.0029426513700523595 0.0137943212975562 0 -0.0038767260386345526 0.013771459086261128 0 -0.0029513982288702383 0.013376354764292634 0 -0.0036058245536118405 0.0025583923567473231 0 -0.0031014624155921082 0.0035896843054034986 0 -0.0032216779207404601 0.0035606007114547 0 -0.0038767260386345526 0.013771459086261128 0 -0.0030380187489863295 0.012958539137088531 0 -0.0037862169511154037 0.009962377857691565 0 -0.0038767260386345526 0.013771459086261128 0 -0.0030380187489863295 0.012958539137088531 0 -0.0029513982288702383 0.013376354764292634 0 -0.0029426513700523595 0.0137943212975562 0 -0.0029513982288702383 0.013376354764292634 0 -0.0028608221103805999 0.013575064759096081 0 -0.0030380187489863295 0.012958539137088531 0 -0.0029040893776115365 0.013354147411301408 0 -0.0027634899347055018 0.013694937362809663 0 -0.0029513982288702383 0.013376354764292634 0 -0.0028608221103805999 0.013575064759096081 0 -0.0029040893776115365 0.013354147411301408 0 -0.0028608221103805999 0.013575064759096081 0 -0.002880721829442684 0.013551504495230845 0 -0.0029040893776115365 0.013354147411301408 0 -0.0030380187489863295 0.012958539137088531 0 -0.0029513982288702383 0.013376354764292634 0 -0.0029040893776115365 0.013354147411301408 0 -0.0029040893776115365 0.013354147411301408 0 -0.0028572784918384666 0.01354800966641256 0 -0.0027634899347055018 0.013694937362809663 0 -0.0020625130603711497 0.01192783235918172 0 -0.0057574655146877072 0.013189170642385367 0 -0.002880721829442684 0.013551504495230845 0 -0.0029040893776115365 0.013354147411301408 0 -0.0028572784918384666 0.01354800966641256 0 -0.002880721829442684 0.013551504495230845 0 -0.0028252773965037879 0.013660839069701005 0 -0.0028964843209039371 0.013678920239466055 0 -0.002880721829442684 0.013551504495230845 0 -0.0028572784918384666 0.01354800966641256 0 -0.0028252773965037879 0.013660839069701005 0 -0.0028572784918384666 0.01354800966641256 0 -0.0028252773965037879 0.013660839069701005 0 -0.0027634899347055018 0.013694937362809663 0 -0.0028252773965037879 0.013660839069701005 0 -0.0027720763630373793 0.013690620563255524 0 -0.0029387147762634982 0.013785446865169975 0 -0.0048093237954977691 0.013517982870967673 0 -0.0057574655146877072 0.013189170642385367 0 -0.0030380187489863295 0.012958539137088531 0 -0.00068584141083474575 0.0094904561596800361 0 -0.0037862169511154037 0.009962377857691565 0 -0.0068120214385891534 0.0066326797448097554 0 -0.00068584141083474575 0.0094904561596800361 0 -0.0037862169511154037 0.009962377857691565 0 -0.006410180146781113 0.0081092348714887057 0 -0.0038767260386345526 0.013771459086261128 0 -0.0037862169511154037 0.009962377857691565 0 -0.0069270078893794189 0.0080028235711515645 0 -0.0057574655146877072 0.013189170642385367 0 -0.0026694614142749734 0.014130010993972417 0 -0.0027519781084560046 0.013787076801814509 0 -0.0028327767810296515 0.013898666625046513 0 -0.0024546396923932358 0.013289448654818762 0 -0.0030701889229822949 0.014059298095490471 0 -0.0026694614142749734 0.014130010993972417 0 -0.0028465035402108017 0.013714256549067163 0 -0.0027519781084560046 0.013787076801814509 0 -0.0032756031264964971 0.013881478271379508 0 -0.0029387147762634982 0.013785446865169975 0 -0.0028465035402108017 0.013714256549067163 0 -0.0028252773965037879 0.013660839069701005 0 -0.0029387147762634982 0.013785446865169975 0 -0.0028964843209039371 0.013678920239466055 0 -0.002880721829442684 0.013551504495230845 0 -0.0028964843209039371 0.013678920239466055 0 -0.0028465035402108017 0.013714256549067163 0 -0.0029387147762634982 0.013785446865169975 0 -0.0028964843209039371 0.013678920239466055 0 -0.0028465035402108017 0.013714256549067163 0 -0.0028608221103805999 0.013575064759096081 0 -0.0028465035402108017 0.013714256549067163 0 -0.0027967166556820719 0.013786324608497443 0 -0.0028608221103805999 0.013575064759096081 0 -0.002880721829442684 0.013551504495230845 0 -0.0028465035402108017 0.013714256549067163 0 -0.0028465035402108017 0.013714256549067163 0 -0.0027519781084560046 0.013787076801814509 0 -0.0027967166556820719 0.013786324608497443 0 -0.0027519781084560046 0.013787076801814509 0 -0.0027967166556820719 0.013786324608497443 0 -0.0026540891377683363 0.013819274117571981 0 -0.0029426513700523595 0.0137943212975562 0 -0.0027967166556820719 0.013786324608497443 0 -0.0028843488778037725 0.013931845571493162 0 -0.0029426513700523595 0.0137943212975562 0 -0.0028608221103805999 0.013575064759096081 0 -0.0027967166556820719 0.013786324608497443 0 -0.0027967166556820719 0.013786324608497443 0 -0.0028843488778037725 0.013931845571493162 0 -0.0027662190826924964 0.013954325717009004 0 -0.0027967166556820719 0.013786324608497443 0 -0.0027662190826924964 0.013954325717009004 0 -0.0026540891377683363 0.013819274117571981 0 -0.0025414966544930642 0.01425522650139166 0 -0.0025032667136532204 0.014491403394657192 0 -0.0024288007886483533 0.014744481310644772 0 -0.0025414966544930642 0.01425522650139166 0 -0.0027662190826924964 0.013954325717009004 0 -0.0026540891377683363 0.013819274117571981 0 -0.0025400467018031696 0.014274323919635385 0 -0.0025573592746632994 0.014293746505640905 0 -0.0025032667136532204 0.014491403394657192 0 -0.0024840383511753944 0.014731209024955349 0 -0.0024288007886483533 0.014744481310644772 0 -0.0025032667136532204 0.014491403394657192 0 -0.0024721712248333165 0.014685927093238195 0 -0.0024840383511753944 0.014731209024955349 0 -0.0024288007886483533 0.014744481310644772 0 -0.0024757788880014377 0.014882685773586916 0 -0.0025614002552509598 0.014885176416764852 0 -0.0024840383511753944 0.014731209024955349 0 -0.0024288007886483533 0.014744481310644772 0 -0.0024757788880014377 0.014882685773586916 0 -0.0025573592746632994 0.014293746505640905 0 -0.002686554573361036 0.014384837094558728 0 -0.0024245537456542275 0.014766799509096071 0 -0.0024248750490139716 0.014858623626834053 0 -0.002378900606146562 0.014891006491414368 0 -0.0024248750490139716 0.014858623626834053 0 -0.0023455501863364377 0.014985501107074676 0 -0.002378900606146562 0.014891006491414368 0 -0.0024721712248333165 0.014685927093238195 0 -0.0024245537456542275 0.014766799509096071 0 -0.0024248750490139716 0.014858623626834053 0 -0.0024721712248333165 0.014685927093238195 0 -0.0024840383511753944 0.014731209024955349 0 -0.0024248750490139716 0.014858623626834053 0 -0.0024248750490139716 0.014858623626834053 0 -0.0024757788880014377 0.014882685773586916 0 -0.0023608631011865122 0.014996322596957707 0 -0.0024840383511753944 0.014731209024955349 0 -0.0024248750490139716 0.014858623626834053 0 -0.0024757788880014377 0.014882685773586916 0 -0.0024248750490139716 0.014858623626834053 0 -0.0023608631011865122 0.014996322596957707 0 -0.0023455501863364377 0.014985501107074676 0 -0.0023608631011865122 0.014996322596957707 0 -0.0023534535018800212 0.01500302567023758 0 -0.0022615825033703331 0.015120069502088093 0 -0.0023608631011865122 0.014996322596957707 0 -0.0024220579050474116 0.014936036347142884 0 -0.0023534535018800212 0.01500302567023758 0 -0.0024757788880014377 0.014882685773586916 0 -0.0023608631011865122 0.014996322596957707 0 -0.0024220579050474116 0.014936036347142884 0 -0.0024757788880014377 0.014882685773586916 0 -0.0024220579050474116 0.014936036347142884 0 -0.0025055340096875175 0.014877526646919414 0 -0.0024220579050474116 0.014936036347142884 0 -0.0024633687947434881 0.014851673947972127 0 -0.0025055340096875175 0.014877526646919414 0 -0.0024633687947434881 0.014851673947972127 0 -0.0023897718123422739 0.014934179187020617 0 -0.0024271011016865456 0.014858653306834706 0 -0.0024220579050474116 0.014936036347142884 0 -0.0024633687947434881 0.014851673947972127 0 -0.0023897718123422739 0.014934179187020617 0 -0.0024220579050474116 0.014936036347142884 0 -0.0023897718123422739 0.014934179187020617 0 -0.0023534535018800212 0.01500302567023758 0 -0.0023897718123422739 0.014934179187020617 0 -0.0023262388893341857 0.015013778993941566 0 -0.0023599149612896805 0.0149530164821033 0 -0.0023897718123422739 0.014934179187020617 0 -0.0023262388893341857 0.015013778993941566 0 -0.0023534535018800212 0.01500302567023758 0 -0.0027519781084560046 0.013787076801814509 0 -0.0026540891377683363 0.013819274117571981 0 -0.0028327767810296515 0.013898666625046513 0 -0.0024757788880014377 0.014882685773586916 0 -0.0025614002552509598 0.014885176416764852 0 -0.0025055340096875175 0.014877526646919414 0 -0.0025055340096875175 0.014877526646919414 0 -0.0027567911880313559 0.014509809864027315 0 -0.0025645287437101928 0.014719109788406686 0 -0.0025614002552509598 0.014885176416764852 0 -0.0025055340096875175 0.014877526646919414 0 -0.0027567911880313559 0.014509809864027315 0 -0.0024633687947434881 0.014851673947972127 0 -0.0025055340096875175 0.014877526646919414 0 -0.0025645287437101928 0.014719109788406686 0 -0.0026694614142749734 0.014130010993972417 0 -0.0028327767810296515 0.013898666625046513 0 -0.0027567911880313559 0.014509809864027315 0 -0.002686554573361036 0.014384837094558728 0 -0.0027474804073698796 0.014481143715412441 0 -0.0026694614142749734 0.014130010993972417 0 -0.0027567911880313559 0.014509809864027315 0 -0.0027657144380996853 0.01446446727334192 0 -0.0027567911880313559 0.014509809864027315 0 -0.0025919279640863233 0.014588733746590516 0 -0.0027657144380996853 0.01446446727334192 0 -0.0028705449947945979 0.01464505585454204 0 -0.0059950024447452243 0.017912654691762189 0 -0.0025645287437101928 0.014719109788406686 0 -0.0026027086468157156 0.014638813650314534 0 -0.0025127062036873226 0.014735709905938652 0 -0.0027567911880313559 0.014509809864027315 0 -0.0025645287437101928 0.014719109788406686 0 -0.0026027086468157156 0.014638813650314534 0 -0.0026027086468157156 0.014638813650314534 0 -0.0025919279640863233 0.014588733746590516 0 -0.0025127062036873226 0.014735709905938652 0 -0.0027567911880313559 0.014509809864027315 0 -0.0026027086468157156 0.014638813650314534 0 -0.0025919279640863233 0.014588733746590516 0 -0.0047998900482861973 0.023488837086192801 0 -0.0038271184185145728 0.022486074149899473 0 -0.0061579620142093033 0.022044512002630249 0 -0.0038181366673121025 0.015413545577965431 0 -0.0037857113782708289 0.015198871094083391 0 -0.0058357840916562201 0.015288980165093535 0 -0.0047998900482861973 0.023488837086192801 0 -0.0071516200362374887 0.023427072476718033 0 -0.0061579620142093033 0.022044512002630249 0 -0.0039320807444310699 0.018940434685410505 0 -0.0082242953250733358 0.022995981742668013 0 -0.0038181366673121025 0.015413545577965431 0 -0.0060066251391286581 0.015540995506726808 0 -0.0058357840916562201 0.015288980165093535 0 -0.012011767028390217 0.027052391265638659 0 -0.011468439846618524 0.027838133361870691 0 -0.010443103551575589 0.026387091561564584 0 -0.0082242953250733358 0.022995981742668013 0 -0.0077622641684180673 0.025897255430785263 0 -0.011794382526595988 0.028043071538749378 0 -0.011596690060488982 0.027764572308165644 0 -0.01290790612882855 0.027768561737058668 0 -0.0059950024447452243 0.017912654691762189 0 -0.0082242953250733358 0.022995981742668013 0 -0.0038181366673121025 0.015413545577965431 0 -0.0023436694473211901 0.014970385378897711 0 -0.0023837145814989331 0.01487234229769006 0 -0.0023436694473211901 0.014970385378897711 0 -0.0023837145814989331 0.01487234229769006 0 -0.0022945508790494814 0.015018080585814152 0 -0.0023436694473211901 0.014970385378897711 0 -0.0023200079942724641 0.015007009057885426 0 -0.0023599149612896805 0.0149530164821033 0 -0.0023436694473211901 0.014970385378897711 0 -0.0023200079942724641 0.015007009057885426 0 -0.0022945508790494814 0.015018080585814152 0 -0.0023262388893341857 0.015013778993941566 0 -0.0023200079942724641 0.015007009057885426 0 -0.0023599149612896805 0.0149530164821033 0 -0.0023436694473211901 0.014970385378897711 0 -0.0023599149612896805 0.0149530164821033 0 -0.0024271011016865456 0.014858653306834706 0 -0.0023897718123422739 0.014934179187020617 0 -0.0023599149612896805 0.0149530164821033 0 -0.0024271011016865456 0.014858653306834706 0 -0.0023436694473211901 0.014970385378897711 0 -0.0024271011016865456 0.014858653306834706 0 -0.0025127062036873226 0.014735709905938652 0 -0.0025919279640863233 0.014588733746590516 0 -0.0023436694473211901 0.014970385378897711 0 -0.0025127062036873226 0.014735709905938652 0 -0.0028705449947945979 0.01464505585454204 0 -0.0025846321793920211 0.015060499653115572 0 -0.0024633687947434881 0.014851673947972127 0 -0.0024271011016865456 0.014858653306834706 0 -0.0025127062036873226 0.014735709905938652 0 -0.0024633687947434881 0.014851673947972127 0 -0.0025645287437101928 0.014719109788406686 0 -0.0025127062036873226 0.014735709905938652 0 -0.0039320807444310699 0.018940434685410505 0 -0.0024628176455441502 0.019324439374380723 0 -0.0047998900482861973 0.023488837086192801 0 -0.0038271184185145728 0.022486074149899473 0 -0.0024863764365468657 0.023538825621603726 0 -0.0038181366673121025 0.015413545577965431 0 -0.0037857113782708289 0.015198871094083391 0 -0.0023837145814989331 0.01487234229769006 0 -0.0038271184185145728 0.022486074149899473 0 -0.0024863764365468657 0.023538825621603726 0 -0.0015518845610965129 0.022923171873240202 0 -0.0033647888120033561 0.025374831770261657 0 -0.00079515576251418859 0.026247575915453993 0 -0.0020494216236030269 0.025992406735041395 0 0.00033549355944587637 0.025320352863296348 0 0.00014218131330274257 0.029534210684301478 0 -0.0032774647588108916 0.028478084994200015 0 -0.0020494216236030269 0.025992406735041395 0 0.00014218131330274257 0.029534210684301478 0 -0.0032774647588108916 0.028478084994200015 0 -0.0020494216236030269 0.025992406735041395 0 -0.0059140241389717754 0.025073381040212554 0 -0.0020494216236030269 0.025992406735041395 0 -0.0034757207115569595 0.023421867190470274 0 -0.0019530223853222795 0.023803432268865967 0 -0.0020494216236030269 0.025992406735041395 0 -0.0034757207115569595 0.023421867190470274 0 -0.0059140241389717754 0.025073381040212554 0 -0.0020494216236030269 0.025992406735041395 0 0.00033549355944587637 0.025320352863296348 0 -0.0019530223853222795 0.023803432268865967 0 -0.010443103551575589 0.026387091561564584 0 -0.012515892232451841 0.025994113869406813 0 -0.012080987307655519 0.026554685692217857 0 -0.0077622641684180673 0.025897255430785263 0 -0.012748068573361488 0.02615456655824306 0 -0.0095282737371954647 0.024461217084942581 0 -0.0077964813623316882 0.027175057245001018 0 -0.012515892232451841 0.025994113869406813 0 -0.012011767028390217 0.027052391265638659 0 -0.010443103551575589 0.026387091561564584 0 -0.012080987307655519 0.026554685692217857 0 -0.0095282737371954647 0.024461217084942581 0 -0.0077964813623316882 0.027175057245001018 0 -0.0059140241389717754 0.025073381040212554 0 -0.0032774647588108916 0.028478084994200015 0 -0.0075778641399095572 0.027396546586596938 0 -0.0059140241389717754 0.025073381040212554 0 -0.0033647888120033561 0.025374831770261657 0 -0.0077622641684180673 0.025897255430785263 0 -0.0077622641684180673 0.025897255430785263 0 -0.006403002060836379 0.025550122353194881 0 -0.0034757207115569595 0.023421867190470274 0 -0.0079423438239023727 0.022619409731391725 0 -0.0087704137812114596 0.019364915923476399 0 -0.0034757207115569595 0.023421867190470274 0 -0.0059140241389717754 0.025073381040212554 0 -0.0079423438239023727 0.022619409731391725 0 -0.0095282737371954647 0.024461217084942581 0 -0.0059140241389717754 0.025073381040212554 0 -0.0079423438239023727 0.022619409731391725 0 -0.0079423438239023727 0.022619409731391725 0 -0.011093419973317043 0.020714998544507385 0 -0.0087704137812114596 0.019364915923476399 0 -0.0095282737371954647 0.024461217084942581 0 -0.011093419973317043 0.020714998544507385 0 -0.012515892232451841 0.025994113869406813 0 -0.0095282737371954647 0.024461217084942581 0 -0.0079423438239023727 0.022619409731391725 0 -0.011093419973317043 0.020714998544507385 0 -0.011093419973317043 0.020714998544507385 0 -0.012489874272122075 0.019567596893470637 0 -0.011943393783577692 0.019129716148645816 0 -0.011093419973317043 0.020714998544507385 0 -0.012628724487751812 0.020160870454386873 0 -0.01306422559391348 0.020158453621336482 0 -0.011093419973317043 0.020714998544507385 0 -0.012489874272122075 0.019567596893470637 0 -0.012628724487751812 0.020160870454386873 0 -0.010974901696904857 0.020346448452944241 0 -0.013819066638627539 0.023756541418518441 0 -0.012489874272122075 0.019567596893470637 0 -0.012628724487751812 0.020160870454386873 0 -0.013284275177889961 0.019448069828406033 0 -0.012628724487751812 0.020160870454386873 0 -0.012939399575510513 0.019996028758263604 0 -0.013284275177889961 0.019448069828406033 0 -0.012628724487751812 0.020160870454386873 0 -0.012907121930046008 0.020132992504565309 0 -0.012939399575510513 0.019996028758263604 0 -0.011093419973317043 0.020714998544507385 0 -0.01353035452304851 0.025980356494759323 0 -0.012515892232451841 0.025994113869406813 0 -0.012628724487751812 0.020160870454386873 0 -0.01306422559391348 0.020158453621336482 0 -0.012907121930046008 0.020132992504565309 0 -0.01353035452304851 0.025980356494759323 0 -0.012515892232451841 0.025994113869406813 0 -0.013035966506814264 0.026921610320804302 0 -0.012515892232451841 0.025994113869406813 0 -0.012080987307655519 0.026554685692217857 0 -0.013035966506814264 0.026921610320804302 0 -0.012797713419529981 0.019705850051727682 0 -0.012740382485641433 0.020010363842322937 0 -0.012890671120228223 0.020057638821636799 0 -0.012797713419529981 0.019705850051727682 0 -0.012740382485641433 0.020010363842322937 0 -0.012378431193043148 0.019563200288004998 0 -0.01306422559391348 0.020158453621336482 0 -0.012797713419529981 0.019705850051727682 0 -0.012890671120228223 0.020057638821636799 0 -0.01306422559391348 0.020158453621336482 0 -0.012890671120228223 0.020057638821636799 0 -0.012907121930046008 0.020132992504565309 0 -0.012740382485641433 0.020010363842322937 0 -0.012890671120228223 0.020057638821636799 0 -0.0129021445239466 0.020077893926576388 0 -0.012890671120228223 0.020057638821636799 0 -0.012907121930046008 0.020132992504565309 0 -0.0129021445239466 0.020077893926576388 0 -0.012740382485641433 0.020010363842322937 0 -0.0129021445239466 0.020077893926576388 0 -0.012527745570359225 0.020292623305641251 0 -0.013284275177889961 0.019448069828406033 0 -0.014084480389479287 0.019667054896886072 0 -0.014081376213665904 0.019405471072958994 0 -0.013284275177889961 0.019448069828406033 0 -0.014084480389479287 0.019667054896886072 0 -0.013447803707223283 0.017937767537213569 0 -0.013671567119436626 0.016997806174695252 0 -0.013490124222967534 0.017736755553201807 0 -0.0129021445239466 0.020077893926576388 0 -0.013284275177889961 0.019448069828406033 0 -0.012527745570359225 0.020292623305641251 0 -0.013240451479005648 0.019510013217502668 0 -0.013115559561104934 0.019613525520303408 0 -0.0129021445239466 0.020077893926576388 0 -0.012939399575510513 0.019996028758263604 0 -0.013284275177889961 0.019448069828406033 0 -0.012907121930046008 0.020132992504565309 0 -0.0129021445239466 0.020077893926576388 0 -0.012939399575510513 0.019996028758263604 0 -0.013630903376970623 0.015622074593083136 0 -0.014032633280019758 0.014853971994403197 0 -0.013770898162442397 0.016538286351955988 0 -0.013671567119436626 0.016997806174695252 0 -0.013296629695237065 0.016450059778433928 0 -0.014032633280019758 0.014853971994403197 0 -0.012952974588664885 0.014118716226975223 0 -0.012700987528460527 0.012078611777288159 0 -0.013630903376970623 0.015622074593083136 0 -0.013385205109811525 0.015134261464434738 0 -0.014032633280019758 0.014853971994403197 0 -0.013385205109811525 0.015134261464434738 0 -0.014032633280019758 0.014853971994403197 0 -0.012952974588664885 0.014118716226975223 0 -0.01233358421147321 0.014143735601793469 0 -0.012826958225355021 0.015001249770213304 0 -0.012018103269395992 0.014851934077648904 0 -0.011474566955351389 0.013498367367530706 0 -0.01233358421147321 0.014143735601793469 0 -0.012018103269395992 0.014851934077648904 0 -0.01233358421147321 0.014143735601793469 0 -0.012826958225355021 0.015001249770213304 0 -0.012952974588664885 0.014118716226975223 0 -0.013385205109811525 0.015134261464434738 0 -0.012826958225355021 0.015001249770213304 0 -0.012952974588664885 0.014118716226975223 0 -0.012952974588664885 0.014118716226975223 0 -0.012187655854444169 0.013226653886522187 0 -0.012700987528460527 0.012078611777288159 0 -0.01233358421147321 0.014143735601793469 0 -0.012952974588664885 0.014118716226975223 0 -0.012187655854444169 0.013226653886522187 0 -0.011474566955351389 0.013498367367530706 0 -0.01233358421147321 0.014143735601793469 0 -0.012187655854444169 0.013226653886522187 0 -0.012650264747070226 0.018993271187417921 0 -0.014081376213665904 0.019405471072958994 0 -0.01286978094985794 0.017903101634588213 0 -0.011416305586287612 0.012180853389541231 0 -0.012187655854444169 0.013226653886522187 0 -0.012700987528460527 0.012078611777288159 0 -0.011442782095780483 0.017350664974730257 0 -0.012650264747070226 0.018993271187417921 0 -0.01286978094985794 0.017903101634588213 0 -0.013115559561104934 0.019613525520303408 0 -0.012377985730535196 0.019301402680949653 0 -0.014084480389479287 0.019667054896886072 0 -0.012650264747070226 0.018993271187417921 0 -0.014081376213665904 0.019405471072958994 0 -0.012527745570359225 0.020292623305641251 0 -0.012378431193043148 0.019563200288004998 0 -0.011111049391183651 0.01951654769922263 0 -0.012740382485641433 0.020010363842322937 0 -0.012527745570359225 0.020292623305641251 0 -0.012378431193043148 0.019563200288004998 0 -0.011810740623015573 0.018713346701456877 0 -0.012378431193043148 0.019563200288004998 0 -0.012861223314416376 0.018950278977482037 0 -0.011810740623015573 0.018713346701456877 0 -0.012378431193043148 0.019563200288004998 0 -0.011111049391183651 0.01951654769922263 0 -0.0121634817721138 0.018518392895448675 0 -0.010080730879472595 0.020157204973305674 0 -0.0094960151638000603 0.018146633071066086 0 -0.011111049391183651 0.01951654769922263 0 -0.010232024946429033 0.018503900228967588 0 -0.010799886127691489 0.015918445034080641 0 -0.011442782095780483 0.017350664974730257 0 -0.01286978094985794 0.017903101634588213 0 -0.011810740623015573 0.018713346701456877 0 -0.011111049391183651 0.01951654769922263 0 -0.010232024946429033 0.018503900228967588 0 -0.0091968593598597756 0.012876589026162526 0 -0.012377985730535196 0.019301402680949653 0 -0.0121634817721138 0.018518392895448675 0 -0.010191004609860036 0.018538915870990821 0 -0.0096385570576095723 0.017348423161694479 0 -0.011588473372161758 0.018394397973448138 0 -0.010232024946429033 0.018503900228967588 0 -0.0096385570576095723 0.017348423161694479 0 -0.011750497727468574 0.0164226828733278 0 -0.011588473372161758 0.018394397973448138 0 -0.011750497727468574 0.0164226828733278 0 -0.011588473372161758 0.018394397973448138 0 -0.012944593095274459 0.018337914739195566 0 -0.0057574655146877072 0.013189170642385367 0 -0.010080730879472595 0.020157204973305674 0 -0.0027720763630373793 0.013690620563255524 0 -0.0029387147762634982 0.013785446865169975 0 -0.00298515933248134 0.014254185876121057 0 -0.0032756031264964971 0.013881478271379508 0 -0.0029387147762634982 0.013785446865169975 0 -0.00298515933248134 0.014254185876121057 0 -0.0024546396923932358 0.013289448654818762 0 -0.0059950024447452243 0.017912654691762189 0 -0.0032756031264964971 0.013881478271379508 0 -0.0035879645394574279 0.01428310818828156 0 -0.00298515933248134 0.014254185876121057 0 -0.011794382526595988 0.028043071538749378 0 -0.01290790612882855 0.027768561737058668 0 -0.014399928450634874 0.027970594789072965 0 -0.01353035452304851 0.025980356494759323 0 -0.013035966506814264 0.026921610320804302 0 -0.014399928450634874 0.027970594789072965 0 -0.01290790612882855 0.027768561737058668 0 -0.013035966506814264 0.026921610320804302 0 -0.014399928450634874 0.027970594789072965 0 -0.0059950024447452243 0.017912654691762189 0 -0.010080730879472595 0.020157204973305674 0 -0.0082242953250733358 0.022995981742668013 0 -0.01349768325099251 0.027061917162356636 0 -0.012011767028390217 0.027052391265638659 0 -0.011468439846618524 0.027838133361870691 0 -0.01290790612882855 0.027768561737058668 0 -0.012011767028390217 0.027052391265638659 0 -0.01290790612882855 0.027768561737058668 0 -0.013035966506814264 0.026921610320804302 0 -0.012011767028390217 0.027052391265638659 0 -0.012080987307655519 0.026554685692217857 0 -0.013035966506814264 0.026921610320804302 0 -0.013819066638627539 0.023756541418518441 0 -0.010080730879472595 0.020157204973305674 0 -0.01306422559391348 0.020158453621336482 0 -0.012797713419529981 0.019705850051727682 0 -0.012861223314416376 0.018950278977482037 0 -0.012797713419529981 0.019705850051727682 0 -0.012378431193043148 0.019563200288004998 0 -0.012861223314416376 0.018950278977482037 0 0.0013133226988004483 0.026272664955865731 0 0.0053872091472999374 0.032921290090768281 0 0.0049512632798850639 0.030705636102592321 0 0.0044160724360628482 0.031843874661466175 0 0.0051068139914650533 0.031839980414285866 0 0.0054874737467703171 0.031131502597471758 0 0.0049512632798850639 0.030705636102592321 0 0.0055606221346332805 0.03097078941838986 0 0.0054874737467703171 0.031131502597471758 0 0.0049512632798850639 0.030705636102592321 0 0.0051068139914650533 0.031839980414285866 0 -0.0021097262929136306 0.015958994346168903 0 -0.0018675278535971083 0.015645622701916568 0 -0.0021466841853094486 0.015531601152356862 0 0.0013133226988004483 0.026272664955865731 0 0.0017047831186843994 0.022945043733665332 0 0.0056395570064540126 0.030263166735102022 0 0.004129771884235499 0.029969415273444967 0 0.0044160724360628482 0.031843874661466175 0 0.0013133226988004483 0.026272664955865731 0 0.00091846534628941656 0.030729051786813202 0 -0.0011918350425266584 0.030967947939542755 0 -0.0029608763143964029 0.03073727565804265 0 -0.0018795547926745866 0.029664140858030694 0 0.0025122839157785386 0.029570077819150119 0 0.0031591608213063275 0.031056591044176542 0 0.0018886655300987785 0.030649386021322948 0 0.004129771884235499 0.029969415273444967 0 0.0025122839157785386 0.029570077819150119 0 0.0031591608213063275 0.031056591044176542 0 0.00091846534628941656 0.030729051786813202 0 -0.0013231625127987183 0.029712150097852195 0 0.0031591608213063275 0.031056591044176542 0 0.0031046801999716563 0.032568192736200284 0 0.0019493530352972268 0.031989254849630146 0 0.0031591608213063275 0.031056591044176542 0 0.0044160724360628482 0.031843874661466175 0 0.0031046801999716563 0.032568192736200284 0 0.004129771884235499 0.029969415273444967 0 0.0031591608213063275 0.031056591044176542 0 0.0044160724360628482 0.031843874661466175 0 0.0044160724360628482 0.031843874661466175 0 0.0039618739541185102 0.033040899842028015 0 0.0031046801999716563 0.032568192736200284 0 0.0044160724360628482 0.031843874661466175 0 0.0039618739541185102 0.033040899842028015 0 0.004746886180548214 0.032893390471167544 0 0.0039618739541185102 0.033040899842028015 0 0.0031046801999716563 0.032568192736200284 0 0.0033249878852009717 0.033824786725232162 0 0.0031046801999716563 0.032568192736200284 0 0.0033249878852009717 0.033824786725232162 0 0.0021801081487265038 0.033475218894832584 0 0.0033249878852009717 0.033824786725232162 0 0.0021801081487265038 0.033475218894832584 0 0.0026904440595848433 0.034798232235287864 0 0.0033249878852009717 0.033824786725232162 0 0.0041050685741659647 0.03398429633650929 0 0.0032769705416458065 0.034684255831949021 0 0.0026904440595848433 0.034798232235287864 0 0.0027814285049796105 0.035370452946833067 0 0.0032769705416458065 0.034684255831949021 0 0.0033249878852009717 0.033824786725232162 0 0.0026904440595848433 0.034798232235287864 0 0.0032769705416458065 0.034684255831949021 0 0.0039618739541185102 0.033040899842028015 0 0.0041050685741659647 0.03398429633650929 0 0.004746886180548214 0.032893390471167544 0 0.0039618739541185102 0.033040899842028015 0 0.0033249878852009717 0.033824786725232162 0 0.0041050685741659647 0.03398429633650929 0 0.0041050685741659647 0.03398429633650929 0 0.004746886180548214 0.032893390471167544 0 0.0052474669957617293 0.033697152545700881 0 0.004746886180548214 0.032893390471167544 0 0.0053303150097366823 0.032789822668146333 0 0.0052474669957617293 0.033697152545700881 0 0.004746886180548214 0.032893390471167544 0 0.0051068139914650533 0.031839980414285866 0 0.0053303150097366823 0.032789822668146333 0 0.0044160724360628482 0.031843874661466175 0 0.004746886180548214 0.032893390471167544 0 0.0051068139914650533 0.031839980414285866 0 0.0051068139914650533 0.031839980414285866 0 0.0053303150097366823 0.032789822668146333 0 0.0055861711771564562 0.032137609283790031 0 0.0054874737467703171 0.031131502597471758 0 0.0051068139914650533 0.031839980414285866 0 0.0055861711771564562 0.032137609283790031 0 0.0053303150097366823 0.032789822668146333 0 0.0055861711771564562 0.032137609283790031 0 0.0058556067609788322 0.033215285490338337 0 0.006129818523396312 0.032715861973875722 0 0.0055861711771564562 0.032137609283790031 0 0.0058556067609788322 0.033215285490338337 0 0.0054991242842719751 0.029675483187576731 0 0.0058657590178041712 0.030451285193740019 0 0.0048946692012547784 0.02635275642880271 0 0.0041273085983019346 0.02896743847618714 0 0.0059327673021784388 0.030678384229276632 0 0.0048946692012547784 0.02635275642880271 0 0.0041273085983019346 0.02896743847618714 0 0.0024602093650709692 0.027793497907460114 0 0.006129818523396312 0.032715861973875722 0 0.0055861711771564562 0.032137609283790031 0 0.0059327673021784388 0.030678384229276632 0 0.0054874737467703171 0.031131502597471758 0 0.0055861711771564562 0.032137609283790031 0 0.0059327673021784388 0.030678384229276632 0 0.0048946692012547784 0.02635275642880271 0 0.0026399999471504619 0.025315113473372175 0 0.0024602093650709692 0.027793497907460114 0 0.0048946692012547784 0.02635275642880271 0 0.0026399999471504619 0.025315113473372175 0 0.0034914515514826404 0.023338690100483481 0 0.00033549355944587637 0.025320352863296348 0 0.0026399999471504619 0.025315113473372175 0 0.0024602093650709692 0.027793497907460114 0 0.0041273085983019346 0.02896743847618714 0 0.0024602093650709692 0.027793497907460114 0 0.0033552784010542078 0.03065522413334822 0 0.00033549355944587637 0.025320352863296348 0 0.0024602093650709692 0.027793497907460114 0 0.00014218131330274257 0.029534210684301478 0 -0.0024628176455441502 0.019324439374380723 0 -0.0014922226041428797 0.01892826435056158 0 -0.0024863764365468657 0.023538825621603726 0 -0.0015518845610965129 0.022923171873240202 0 -0.00023873518921882798 0.023589188283856807 0 -0.00023873518921882798 0.023589188283856807 0 0.00066574934492075687 0.023336891578903615 0 0.0019949265896779872 0.023583463903898906 0 -0.0015518845610965129 0.022923171873240202 0 -0.00023873518921882798 0.023589188283856807 0 0.00066574934492075687 0.023336891578903615 0 -0.00079515576251418859 0.026247575915453993 0 0.0024074596502566652 0.026922204744635997 0 0.0024602093650709692 0.027793497907460114 0 0.00014218131330274257 0.029534210684301478 0 0.0033552784010542078 0.03065522413334822 0 -0.0014922226041428797 0.01892826435056158 0 0.0013818624126812075 0.023249232987613899 0 -0.0021645585137550884 0.015139871632031796 0 -0.0022597244607007365 0.015091091488694879 0 -0.0021709508687058161 0.01522514560569262 0 -0.0021645585137550884 0.015139871632031796 0 -0.0020638548717534888 0.015333971413848424 0 -0.0021709508687058161 0.01522514560569262 0 -0.0020638548717534888 0.015333971413848424 0 -0.0021059456687012351 0.015332149235452794 0 -0.0021709508687058161 0.01522514560569262 0 -0.0023837145814989331 0.01487234229769006 0 -0.0021645585137550884 0.015139871632031796 0 -0.0022945508790494814 0.015018080585814152 0 -0.0021645585137550884 0.015139871632031796 0 -0.0022597244607007365 0.015091091488694879 0 -0.0022945508790494814 0.015018080585814152 0 -0.0023262388893341857 0.015013778993941566 0 -0.0023200079942724641 0.015007009057885426 0 -0.0022597244607007365 0.015091091488694879 0 -0.0023200079942724641 0.015007009057885426 0 -0.0022597244607007365 0.015091091488694879 0 -0.0022945508790494814 0.015018080585814152 0 0.0059327673021784388 0.030678384229276632 0 0.0049703966078075718 0.031170930240025985 0 0.0055606221346332805 0.03097078941838986 0 0.0054874737467703171 0.031131502597471758 0 0.0059327673021784388 0.030678384229276632 0 0.0055606221346332805 0.03097078941838986 0 0.0041273085983019346 0.02896743847618714 0 0.0033552784010542078 0.03065522413334822 0 0.0059327673021784388 0.030678384229276632 0 0.0033552784010542078 0.03065522413334822 0 0.0059327673021784388 0.030678384229276632 0 0.0049703966078075718 0.031170930240025985 0 0.0024074596502566652 0.026922204744635997 0 0.0013818624126812075 0.023249232987613899 0 -0.0019046175035400794 0.015474947253600723 0 -0.0020638548717534888 0.015333971413848424 0 -0.0020165679847852433 0.015463903660674181 0 -0.0021645585137550884 0.015139871632031796 0 -0.0019046175035400794 0.015474947253600723 0 -0.0020638548717534888 0.015333971413848424 0 -0.0020638548717534888 0.015333971413848424 0 -0.0020165679847852433 0.015463903660674181 0 -0.0021059456687012351 0.015332149235452794 0 -0.0020165679847852433 0.015463903660674181 0 -0.0018675278535971083 0.015645622701916568 0 -0.0021466841853094486 0.015531601152356862 0 -0.0019046175035400794 0.015474947253600723 0 -0.0020165679847852433 0.015463903660674181 0 -0.0018675278535971083 0.015645622701916568 0 0.0013818624126812075 0.023249232987613899 0 0.0017047831186843994 0.022945043733665332 0 -0.0020165679847852433 0.015463903660674181 0 -0.0021466841853094486 0.015531601152356862 0 -0.0021329573573615839 0.015354302622983037 0 -0.0020165679847852433 0.015463903660674181 0 -0.0021329573573615839 0.015354302622983037 0 -0.0021059456687012351 0.015332149235452794 0 -0.0021329573573615839 0.015354302622983037 0 -0.0021059456687012351 0.015332149235452794 0 -0.0021932503634449893 0.015223193698249796 0 -0.0021329573573615839 0.015354302622983037 0 -0.0021932503634449893 0.015223193698249796 0 -0.0022261903996353316 0.015215457083145489 0 -0.0021466841853094486 0.015531601152356862 0 -0.0021329573573615839 0.015354302622983037 0 -0.0022261903996353316 0.015215457083145489 0 -0.0013106052516112957 0.021998565012536848 0 4.728711890570424e-06 0.021426049622952473 0 0.00030421287844016338 0.029324380851244856 0 0.0020561845509968544 0.027550305791097542 0 -0.00074353135529250166 0.027871861524262975 0 -0.0022597244607007365 0.015091091488694879 0 -0.0022615825033703331 0.015120069502088093 0 -0.0021709508687058161 0.01522514560569262 0 -0.0023262388893341857 0.015013778993941566 0 -0.0023534535018800212 0.01500302567023758 0 -0.0022615825033703331 0.015120069502088093 0 -0.0023262388893341857 0.015013778993941566 0 -0.0022597244607007365 0.015091091488694879 0 -0.0022615825033703331 0.015120069502088093 0 -0.0022615825033703331 0.015120069502088093 0 -0.0021709508687058161 0.01522514560569262 0 -0.0021932503634449893 0.015223193698249796 0 -0.0021059456687012351 0.015332149235452794 0 -0.0021709508687058161 0.01522514560569262 0 -0.0021932503634449893 0.015223193698249796 0 -0.0022615825033703331 0.015120069502088093 0 -0.0021932503634449893 0.015223193698249796 0 -0.002269333440660673 0.015112777786858687 0 -0.0021932503634449893 0.015223193698249796 0 -0.002269333440660673 0.015112777786858687 0 -0.0022261903996353316 0.015215457083145489 0 -0.0023608631011865122 0.014996322596957707 0 -0.0022615825033703331 0.015120069502088093 0 -0.002269333440660673 0.015112777786858687 0 -0.0023608631011865122 0.014996322596957707 0 -0.0023455501863364377 0.014985501107074676 0 -0.002269333440660673 0.015112777786858687 0 -0.0023455501863364377 0.014985501107074676 0 -0.002269333440660673 0.015112777786858687 0 -0.0023433627975517489 0.014995617646606207 0 -0.002269333440660673 0.015112777786858687 0 -0.0023433627975517489 0.014995617646606207 0 -0.0022261903996353316 0.015215457083145489 0 -0.0023455501863364377 0.014985501107074676 0 -0.0023433627975517489 0.014995617646606207 0 -0.002378900606146562 0.014891006491414368 0 0.0020561845509968544 0.027550305791097542 0 0.00084157494456861895 0.025855873251439922 0 -0.00074353135529250166 0.027871861524262975 0 0.0020561845509968544 0.027550305791097542 0 0.0024690987569468688 0.025454947617033735 0 0.00084157494456861895 0.025855873251439922 0 0.003928901180589384 0.025420141677362337 0 0.0020561845509968544 0.027550305791097542 0 0.0024690987569468688 0.025454947617033735 0 0.00063380250239317268 0.02016652894218075 0 4.728711890570424e-06 0.021426049622952473 0 0.0024690987569468688 0.025454947617033735 0 0.00084157494456861895 0.025855873251439922 0 0.0021187186635653952 0.024036173697242889 0 0.00084157494456861895 0.025855873251439922 0 -0.0010247892302618878 0.025866244177024801 0 -0.00074353135529250166 0.027871861524262975 0 0.00084157494456861895 0.025855873251439922 0 -0.0010247892302618878 0.025866244177024801 0 -3.2273618180062154e-05 0.024125729212289528 0 -0.0010247892302618878 0.025866244177024801 0 -0.0026113153350830901 0.026968109228793703 0 -0.0023720905210609542 0.02532174457609853 0 -0.0026113153350830901 0.026968109228793703 0 -0.00074353135529250166 0.027871861524262975 0 -0.0025665500185065773 0.028444426200050967 0 -0.0010247892302618878 0.025866244177024801 0 -0.0026113153350830901 0.026968109228793703 0 -0.00074353135529250166 0.027871861524262975 0 0.00030421287844016338 0.029324380851244856 0 -0.00074353135529250166 0.027871861524262975 0 -0.0018795547926745866 0.029664140858030694 0 -0.00074353135529250166 0.027871861524262975 0 -0.0025665500185065773 0.028444426200050967 0 -0.0018795547926745866 0.029664140858030694 0 -0.0011918350425266584 0.030967947939542755 0 0.00030421287844016338 0.029324380851244856 0 -0.0018795547926745866 0.029664140858030694 0 0.0013133226988004483 0.026272664955865731 0 -0.0013106052516112957 0.021998565012536848 0 -0.004574067709027959 0.030391097368562412 0 -0.0037136512463588831 0.029185592360638696 0 -0.0050076403210735686 0.029167575682853029 0 -0.0029608763143964029 0.03073727565804265 0 -0.004574067709027959 0.030391097368562412 0 -0.0037136512463588831 0.029185592360638696 0 -0.0029608763143964029 0.03073727565804265 0 -0.0018795547926745866 0.029664140858030694 0 -0.0037136512463588831 0.029185592360638696 0 -0.0025665500185065773 0.028444426200050967 0 -0.0037136512463588831 0.029185592360638696 0 -0.0036757115633622478 0.027927333452546922 0 -0.0025665500185065773 0.028444426200050967 0 -0.0018795547926745866 0.029664140858030694 0 -0.0037136512463588831 0.029185592360638696 0 -0.0037136512463588831 0.029185592360638696 0 -0.0046946446773877878 0.028056991821671429 0 -0.0050076403210735686 0.029167575682853029 0 -0.0037136512463588831 0.029185592360638696 0 -0.0046946446773877878 0.028056991821671429 0 -0.0036757115633622478 0.027927333452546922 0 -0.0046946446773877878 0.028056991821671429 0 -0.0041661154503049996 0.026939175040461113 0 -0.0051692556974036671 0.027410520194671734 0 -0.0046946446773877878 0.028056991821671429 0 -0.0036757115633622478 0.027927333452546922 0 -0.0041661154503049996 0.026939175040461113 0 -0.0026113153350830901 0.026968109228793703 0 -0.0025665500185065773 0.028444426200050967 0 -0.0036757115633622478 0.027927333452546922 0 -0.0026113153350830901 0.026968109228793703 0 -0.0036757115633622478 0.027927333452546922 0 -0.0041661154503049996 0.026939175040461113 0 -0.0026113153350830901 0.026968109228793703 0 -0.0034629639412339266 0.025964963850311593 0 -0.0041661154503049996 0.026939175040461113 0 -0.0026113153350830901 0.026968109228793703 0 -0.0034629639412339266 0.025964963850311593 0 -0.0023720905210609542 0.02532174457609853 0 -0.0034629639412339266 0.025964963850311593 0 -0.0041661154503049996 0.026939175040461113 0 -0.0045915241591988768 0.025632136366688575 0 -0.0041661154503049996 0.026939175040461113 0 -0.0056766995195307026 0.026616876150841202 0 -0.0066184124178919309 0.027480419214514152 0 -0.0042550019457340783 0.027039444644336042 0 -0.0059379591706310011 0.027431669058541313 0 -0.0041661154503049996 0.026939175040461113 0 -0.0056766995195307026 0.026616876150841202 0 -0.0045915241591988768 0.025632136366688575 0 -0.0045915241591988768 0.025632136366688575 0 -0.0050346013365367452 0.023983878095357809 0 -0.0069333740364593346 0.024998375133245609 0 -0.0050346013365367452 0.023983878095357809 0 -0.0069333740364593346 0.024998375133245609 0 -0.0066088771359624947 0.023234466809709062 0 -0.0050346013365367452 0.023983878095357809 0 -0.004760675713445712 0.022206744297247272 0 -0.0066088771359624947 0.023234466809709062 0 -0.0035919481867329184 0.023081227050927092 0 -0.0030389429011268292 0.021568217756773467 0 -0.004760675713445712 0.022206744297247272 0 -0.0050346013365367452 0.023983878095357809 0 -0.0035919481867329184 0.023081227050927092 0 -0.004760675713445712 0.022206744297247272 0 -0.0050346013365367452 0.023983878095357809 0 -0.0035919481867329184 0.023081227050927092 0 -0.0035577884227613646 0.024619888938837271 0 -0.0035919481867329184 0.023081227050927092 0 -0.0035577884227613646 0.024619888938837271 0 -0.002383391176109223 0.02354362104911464 0 -0.0045915241591988768 0.025632136366688575 0 -0.0050346013365367452 0.023983878095357809 0 -0.0035577884227613646 0.024619888938837271 0 -0.0034629639412339266 0.025964963850311593 0 -0.0045915241591988768 0.025632136366688575 0 -0.0035577884227613646 0.024619888938837271 0 -0.0034629639412339266 0.025964963850311593 0 -0.0035577884227613646 0.024619888938837271 0 -0.0023720905210609542 0.02532174457609853 0 -0.0035577884227613646 0.024619888938837271 0 -0.0023720905210609542 0.02532174457609853 0 -0.002383391176109223 0.02354362104911464 0 -0.0010247892302618878 0.025866244177024801 0 -0.0023720905210609542 0.02532174457609853 0 -0.0014107821710700593 0.024256591338763334 0 -0.0023720905210609542 0.02532174457609853 0 -0.0014107821710700593 0.024256591338763334 0 -0.002383391176109223 0.02354362104911464 0 -0.0010247892302618878 0.025866244177024801 0 -0.0014107821710700593 0.024256591338763334 0 -3.2273618180062154e-05 0.024125729212289528 0 -0.0014107821710700593 0.024256591338763334 0 -3.2273618180062154e-05 0.024125729212289528 0 -0.001242820100380669 0.022206018357504482 0 -3.2273618180062154e-05 0.024125729212289528 0 -0.001242820100380669 0.022206018357504482 0 0.00018123449285910705 0.022483539425672789 0 -0.001242820100380669 0.022206018357504482 0 -0.00038343734658142717 0.020968420521884485 0 0.00018123449285910705 0.022483539425672789 0 -0.001242820100380669 0.022206018357504482 0 -0.002383391176109223 0.02354362104911464 0 -0.0030389429011268292 0.021568217756773467 0 -0.0014107821710700593 0.024256591338763334 0 -0.001242820100380669 0.022206018357504482 0 -0.002383391176109223 0.02354362104911464 0 -0.0035919481867329184 0.023081227050927092 0 -0.002383391176109223 0.02354362104911464 0 -0.0030389429011268292 0.021568217756773467 0 -0.001242820100380669 0.022206018357504482 0 -0.0030389429011268292 0.021568217756773467 0 -0.0014457116142460769 0.019934437298089535 0 -0.0030389429011268292 0.021568217756773467 0 -0.0014457116142460769 0.019934437298089535 0 -0.0033845160400806395 0.019460919473843402 0 -0.001242820100380669 0.022206018357504482 0 -0.00038343734658142717 0.020968420521884485 0 -0.0014457116142460769 0.019934437298089535 0 -0.00038343734658142717 0.020968420521884485 0 -0.0014457116142460769 0.019934437298089535 0 0.00042216774256372783 0.019630635186430469 0 -0.0014457116142460769 0.019934437298089535 0 -0.00048900618597989788 0.018227604325621691 0 0.00042216774256372783 0.019630635186430469 0 -0.0014457116142460769 0.019934437298089535 0 -0.00048900618597989788 0.018227604325621691 0 -0.0017014096741123056 0.018152008903998294 0 -0.0017014096741123056 0.018152008903998294 0 -0.0033845160400806395 0.019460919473843402 0 -0.0034375737320774345 0.017768261585849137 0 -0.0014457116142460769 0.019934437298089535 0 -0.0017014096741123056 0.018152008903998294 0 -0.0033845160400806395 0.019460919473843402 0 -0.0042839017360552685 0.022003286832048215 0 -0.0016038917384621134 0.021171641899874142 0 -0.0033845160400806395 0.019460919473843402 0 -0.0061505417821580604 0.019299412879224088 0 -0.0034375737320774345 0.017768261585849137 0 -0.0033845160400806395 0.019460919473843402 0 -0.0061505417821580604 0.019299412879224088 0 -0.0047005642483976826 0.020443812758712543 0 7.1951277987396885e-05 0.024547770343382399 0 8.4521242103324285e-05 0.024800284507496252 0 0.00013464617061248739 0.024602620191109308 0 -0.0054371938125994225 0.022803356166671149 0 -0.0052165441463568919 0.022695833334786832 0 -0.0052209607528509025 0.022974866701035587 0 -0.0042839017360552685 0.022003286832048215 0 -0.0039204010128156387 0.025502124975850599 0 -0.0061902222902744039 0.019262319009830043 0 -0.0058304215235388474 0.020839030817837154 0 -0.0067730181527172958 0.019504826438019731 0 -0.0042839017360552685 0.022003286832048215 0 -0.0066801924735029015 0.022871189154680321 0 -0.0042839017360552685 0.022003286832048215 0 -0.0056879264898006734 0.019754990122645196 0 -0.0061902222902744039 0.019262319009830043 0 -0.0058304215235388474 0.020839030817837154 0 -0.0047005642483976826 0.020443812758712543 0 -0.0058304215235388474 0.020839030817837154 0 -0.004760675713445712 0.022206744297247272 0 -0.0047005642483976826 0.020443812758712543 0 -0.0058304215235388474 0.020839030817837154 0 -0.004760675713445712 0.022206744297247272 0 -0.0066088771359624947 0.023234466809709062 0 -0.0058304215235388474 0.020839030817837154 0 -0.0066088771359624947 0.023234466809709062 0 -0.0067730181527172958 0.019504826438019731 0 -0.0030389429011268292 0.021568217756773467 0 -0.004760675713445712 0.022206744297247272 0 -0.0047005642483976826 0.020443812758712543 0 -0.0030389429011268292 0.021568217756773467 0 -0.0033845160400806395 0.019460919473843402 0 -0.0047005642483976826 0.020443812758712543 0 0.002577979154915225 0.019385572559027831 0 0.0046786383635170998 0.023666234157190491 0 0.0053750822982320317 0.022219970861327785 0 0.0065185634141432525 0.022926030027398469 0 0.0044556574588525237 0.023470886833993183 0 0.0031789867043624082 0.014788941618636725 0 0.0035208750991603255 0.016325010281985727 0 0.0072624674911787746 0.021965626818859985 0 0.0063356377142345082 0.022123906397736995 0 0.0065185634141432525 0.022926030027398469 0 0.0072624674911787746 0.021965626818859985 0 0.0063356377142345082 0.022123906397736995 0 0.0061827336915465866 0.021383625275446346 0 0.0063356377142345082 0.022123906397736995 0 0.0053750822982320317 0.022219970861327785 0 0.0061827336915465866 0.021383625275446346 0 0.0041645282996691157 0.020893311795017935 0 0.0035208750991603255 0.016325010281985727 0 0.0063356377142345082 0.022123906397736995 0 0.0053750822982320317 0.022219970861327785 0 0.0065185634141432525 0.022926030027398469 0 -0.0023433627975517489 0.014995617646606207 0 -0.002378900606146562 0.014891006491414368 0 -0.002388198031963619 0.014813919919500811 0 0.00063380250239317268 0.02016652894218075 0 0.002577979154915225 0.019385572559027831 0 0.003928901180589384 0.025420141677362337 0 0.0024690987569468688 0.025454947617033735 0 0.0038507891956219274 0.023667378246857024 0 0.003928901180589384 0.025420141677362337 0 0.0056305517999586212 0.023267767351139588 0 0.0038507891956219274 0.023667378246857024 0 0.0053750822982320317 0.022219970861327785 0 0.0044556574588525237 0.023470886833993183 0 0.0034366499247606794 0.022189844896521524 0 0.0044556574588525237 0.023470886833993183 0 0.0034366499247606794 0.022189844896521524 0 0.0021187186635653952 0.024036173697242889 0 0.0034366499247606794 0.022189844896521524 0 0.0021187186635653952 0.024036173697242889 0 0.001540737349678242 0.021457498757095489 0 0.0024690987569468688 0.025454947617033735 0 0.0038507891956219274 0.023667378246857024 0 0.0021187186635653952 0.024036173697242889 0 0.0046786383635170998 0.023666234157190491 0 0.0020988045629090177 0.024001950608539789 0 -3.2273618180062154e-05 0.024125729212289528 0 0.0021187186635653952 0.024036173697242889 0 0.00018123449285910705 0.022483539425672789 0 0.00084157494456861895 0.025855873251439922 0 -3.2273618180062154e-05 0.024125729212289528 0 0.0021187186635653952 0.024036173697242889 0 0.0021187186635653952 0.024036173697242889 0 0.00018123449285910705 0.022483539425672789 0 0.001540737349678242 0.021457498757095489 0 -0.00038343734658142717 0.020968420521884485 0 0.001540737349678242 0.021457498757095489 0 0.00042216774256372783 0.019630635186430469 0 -0.00038343734658142717 0.020968420521884485 0 0.00018123449285910705 0.022483539425672789 0 0.001540737349678242 0.021457498757095489 0 0.00042216774256372783 0.019630635186430469 0 0.00044486098647868627 0.017650833527240287 0 0.0036100631685051007 0.019802216335889921 0 -0.00048900618597989788 0.018227604325621691 0 0.00042216774256372783 0.019630635186430469 0 0.00044486098647868627 0.017650833527240287 0 0.00044192234261774616 0.017484814157833831 0 0.0018687485858921167 0.018450200978681532 0 0.00044486098647868627 0.017650833527240287 0 0.00021840453355457989 0.0163534663052116 0 0.0002692076188817058 0.016675988633784434 0 0.001540737349678242 0.021457498757095489 0 0.00042216774256372783 0.019630635186430469 0 0.0036100631685051007 0.019802216335889921 0 0.0034366499247606794 0.022189844896521524 0 0.001540737349678242 0.021457498757095489 0 0.0036100631685051007 0.019802216335889921 0 0.0053750822982320317 0.022219970861327785 0 0.0034366499247606794 0.022189844896521524 0 0.0036100631685051007 0.019802216335889921 0 0.0018687485858921167 0.018450200978681532 0 0.0035208750991603255 0.016325010281985727 0 0.0053750822982320317 0.022219970861327785 0 0.0036100631685051007 0.019802216335889921 0 0.0062395026260827135 0.021356948329066188 0 0.00021840453355457989 0.0163534663052116 0 -2.3358327676974153e-05 0.016174359200753361 0 8.1561288012221467e-05 0.016388579428727582 0 0.00021840453355457989 0.0163534663052116 0 8.1561288012221467e-05 0.016388579428727582 0 0.0002692076188817058 0.016675988633784434 0 -4.3120451647181968e-05 0.016063795031382375 0 -2.3358327676974153e-05 0.016174359200753361 0 2.0199502397246354e-05 0.016087768694776228 0 0.00021840453355457989 0.0163534663052116 0 -2.3358327676974153e-05 0.016174359200753361 0 2.0199502397246354e-05 0.016087768694776228 0 4.2092273722845858e-05 0.015239696303705559 0 0.00012260229663791394 0.015553912275555429 0 7.2095301790609884e-05 0.015402408936291554 0 -4.5891637023032758e-05 0.015439108379298495 0 0.00015518677624764613 0.016126404621308911 0 4.2092273722845858e-05 0.015239696303705559 0 0.00012260229663791394 0.015553912275555429 0 0.00021545704449230758 0.015771071614233214 0 -0.000171625438139132 0.015694526009749195 0 -4.4518167663123771e-05 0.016110767334856349 0 0.00010752320920765423 0.016425423083110919 0 -8.4260222630329912e-05 0.01590266980761194 0 -2.3358327676974153e-05 0.016174359200753361 0 -4.4518167663123771e-05 0.016110767334856349 0 -2.3358327676974153e-05 0.016174359200753361 0 -4.4518167663123771e-05 0.016110767334856349 0 8.1561288012221467e-05 0.016388579428727582 0 -4.4518167663123771e-05 0.016110767334856349 0 8.1561288012221467e-05 0.016388579428727582 0 0.00010752320920765423 0.016425423083110919 0 8.1561288012221467e-05 0.016388579428727582 0 0.00010752320920765423 0.016425423083110919 0 0.0002692076188817058 0.016675988633784434 0 0.00012260229663791394 0.015553912275555429 0 0.00021545704449230758 0.015771071614233214 0 0.00017794091700492921 0.015742719023938083 0 0.00021545704449230758 0.015771071614233214 0 0.00017794091700492921 0.015742719023938083 0 0.0002240260743925811 0.015924611336376304 0 0.0002240260743925811 0.015924611336376304 0 0.00031708476013154525 0.016834815427041544 0 0.0002401610110089486 0.016427751731368186 0 0.00017794091700492921 0.015742719023938083 0 0.0001810158715496442 0.015891676505120043 0 0.0002240260743925811 0.015924611336376304 0 0.0001810158715496442 0.015891676505120043 0 0.0002240260743925811 0.015924611336376304 0 0.00013257609748871938 0.015963527581574873 0 0.00021545704449230758 0.015771071614233214 0 0.0002240260743925811 0.015924611336376304 0 0.00031708476013154525 0.016834815427041544 0 0.00027141113909485732 0.0160000623426527 0 0.00018250221656029939 0.016131170632213653 0 0.00010752320920765423 0.016425423083110919 0 0.0002692076188817058 0.016675988633784434 0 0.00031708476013154525 0.016834815427041544 0 0.00015518677624764613 0.016126404621308911 0 0.0002605955665174623 0.016727936509881657 0 0.00031708476013154525 0.016834815427041544 0 -2.4720235459122866e-05 0.016760341560314279 0 0.0002401610110089486 0.016427751731368186 0 0.00044486098647868627 0.017650833527240287 0 0.0002692076188817058 0.016675988633784434 0 0.00031708476013154525 0.016834815427041544 0 -0.00048900618597989788 0.018227604325621691 0 0.00044486098647868627 0.017650833527240287 0 9.9401051309681756e-05 0.017134794910491406 0 0.00044486098647868627 0.017650833527240287 0 0.00031708476013154525 0.016834815427041544 0 9.9401051309681756e-05 0.017134794910491406 0 9.9401051309681756e-05 0.017134794910491406 0 -2.4720235459122866e-05 0.016760341560314279 0 -0.00035486622718509199 0.016853656427283779 0 0.00031708476013154525 0.016834815427041544 0 9.9401051309681756e-05 0.017134794910491406 0 -2.4720235459122866e-05 0.016760341560314279 0 0.0001810158715496442 0.015891676505120043 0 0.00013257609748871938 0.015963527581574873 0 1.0199232750688509e-06 0.01601172484981371 0 0.00018250221656029939 0.016131170632213653 0 -7.9412783902410545e-05 0.017673457968566005 0 0.00015867533428081258 0.015637036169634261 0 -7.9412783902410545e-05 0.017673457968566005 0 4.175844740344913e-05 0.015875116078191191 0 -6.0870886309036442e-05 0.01591422839554588 0 -0.00023054739539008894 0.016157261114605744 0 -2.4720235459122866e-05 0.016760341560314279 0 0.0002401610110089486 0.016427751731368186 0 -0.00053749240657104689 0.016541871764493236 0 -0.00029025788363056313 0.019392672879268495 0 -0.00023414473558414013 0.019476445168628419 0 -0.00024575703128830619 0.019088982387276292 0 -0.00029025788363056313 0.019392672879268495 0 -0.00023414473558414013 0.019476445168628419 0 -2.022269275942536e-05 0.019788753687171489 0 -0.00024575703128830619 0.019088982387276292 0 -2.6388720308246088e-08 0.017683499519834701 0 -1.7035059452532704e-06 0.020742988756224733 0 -0.00023414473558414013 0.019476445168628419 0 -0.00024575703128830619 0.019088982387276292 0 -1.7035059452532704e-06 0.020742988756224733 0 -0.00024575703128830619 0.019088982387276292 0 -2.6388720308246088e-08 0.017683499519834701 0 -9.4323765791853146e-05 0.01802879720146356 0 -2.6388720308246088e-08 0.017683499519834701 0 -9.4323765791853146e-05 0.01802879720146356 0 -4.5348556914808825e-06 0.017041964004679194 0 0.00015867533428081258 0.015637036169634261 0 8.9718415668472147e-05 0.015778155274655703 0 -0.00029025788363056313 0.019392672879268495 0 -0.00024575703128830619 0.019088982387276292 0 -8.7538920710180759e-05 0.018314531415898908 0 4.175844740344913e-05 0.015875116078191191 0 -6.0870886309036442e-05 0.01591422839554588 0 8.318758159126663e-05 0.015754658341804138 0 -0.00024575703128830619 0.019088982387276292 0 -9.4323765791853146e-05 0.01802879720146356 0 -8.7538920710180759e-05 0.018314531415898908 0 -5.5435663044345055e-05 0.017318927764840859 0 -0.00015493651187474639 0.017005172179124811 0 -9.4323765791853146e-05 0.01802879720146356 0 -8.7538920710180759e-05 0.018314531415898908 0 -4.5348556914808825e-06 0.017041964004679194 0 4.175844740344913e-05 0.015875116078191191 0 8.318758159126663e-05 0.015754658341804138 0 0.00011158903322026637 0.015677139006837544 0 -0.00015493651187474639 0.017005172179124811 0 4.0357408672462062e-05 0.016068879722116111 0 -8.7538920710180759e-05 0.018314531415898908 0 -4.5348556914808825e-06 0.017041964004679194 0 9.4363525364860398e-05 0.015723725372645263 0 0.00017794091700492921 0.015742719023938083 0 0.0001810158715496442 0.015891676505120043 0 0.00011158903322026637 0.015677139006837544 0 8.318758159126663e-05 0.015754658341804138 0 0.00011158903322026637 0.015677139006837544 0 9.4363525364860398e-05 0.015723725372645263 0 0.00012260229663791394 0.015553912275555429 0 0.00017794091700492921 0.015742719023938083 0 9.4689929132906289e-05 0.015570540822436762 0 0.00017794091700492921 0.015742719023938083 0 0.00011158903322026637 0.015677139006837544 0 9.4689929132906289e-05 0.015570540822436762 0 0.00011158903322026637 0.015677139006837544 0 8.8761057426245006e-05 0.015587132081311414 0 9.4689929132906289e-05 0.015570540822436762 0 0.00011158903322026637 0.015677139006837544 0 9.4363525364860398e-05 0.015723725372645263 0 8.8761057426245006e-05 0.015587132081311414 0 -2.6388720308246088e-08 0.017683499519834701 0 -4.5348556914808825e-06 0.017041964004679194 0 6.3259875224928377e-08 0.014625386295402868 0 -4.5348556914808825e-06 0.017041964004679194 0 6.3259875224928377e-08 0.014625386295402868 0 9.4363525364860398e-05 0.015723725372645263 0 3.3794989702319449e-05 0.014802186463478289 0 5.4891767208267992e-05 0.01543986513280369 0 9.4363525364860398e-05 0.015723725372645263 0 6.3259875224928377e-08 0.014625386295402868 0 3.3794989702319449e-05 0.014802186463478289 0 9.4363525364860398e-05 0.015723725372645263 0 1.8411986897817923e-05 0.013941368821694569 0 6.3259875224928377e-08 0.014625386295402868 0 3.3794989702319449e-05 0.014802186463478289 0 1.8411986897817923e-05 0.013941368821694569 0 3.3794989702319449e-05 0.014802186463478289 0 5.4891767208267992e-05 0.01543986513280369 0 4.4630535467992427e-05 0.0152182309152252 0 5.4891767208267992e-05 0.01543986513280369 0 7.2095301790609884e-05 0.015402408936291554 0 5.4891767208267992e-05 0.01543986513280369 0 9.4363525364860398e-05 0.015723725372645263 0 8.8761057426245006e-05 0.015587132081311414 0 5.4891767208267992e-05 0.01543986513280369 0 8.8761057426245006e-05 0.015587132081311414 0 9.4689929132906289e-05 0.015570540822436762 0 5.4891767208267992e-05 0.01543986513280369 0 9.4689929132906289e-05 0.015570540822436762 0 7.2095301790609884e-05 0.015402408936291554 0 0.00012260229663791394 0.015553912275555429 0 9.4689929132906289e-05 0.015570540822436762 0 7.2095301790609884e-05 0.015402408936291554 0 -6.8462186964590629e-05 0.025042889199450767 0 4.5369423788454879e-06 0.024986920025617556 0 -8.8971789207459732e-05 0.025022495467493938 0 -7.915536112520378e-05 0.025077611582890784 0 -6.8462186964590629e-05 0.025042889199450767 0 -8.8971789207459732e-05 0.025022495467493938 0 -7.915536112520378e-05 0.025077611582890784 0 -6.8462186964590629e-05 0.025042889199450767 0 -0.00015115986412557981 0.025164339363500224 0 -7.915536112520378e-05 0.025077611582890784 0 -2.8723277633747724e-05 0.025130511759095153 0 -0.00015115986412557981 0.025164339363500224 0 -6.8462186964590629e-05 0.025042889199450767 0 4.5369423788454879e-06 0.024986920025617556 0 -0.00015115986412557981 0.025164339363500224 0 0.00010354605928034241 0.025093655338271129 0 4.5369423788454879e-06 0.024986920025617556 0 -0.00015115986412557981 0.025164339363500224 0 0.00010354605928034241 0.025093655338271129 0 0.0001801115945143237 0.024957344460491422 0 0.00033608977767486691 0.025297372571222429 0 0.00038007829440997855 0.027871788967546413 0 0.00022092168816175843 0.02738654681900483 0 0.00010354605928034241 0.025093655338271129 0 8.8100166052949589e-05 0.024955676030633853 0 0.0001801115945143237 0.024957344460491422 0 0.00010354605928034241 0.025093655338271129 0 8.8100166052949589e-05 0.024955676030633853 0 4.5369423788454879e-06 0.024986920025617556 0 0.00038007829440997855 0.027871788967546413 0 -0.0039204010128156387 0.025502124975850599 0 7.1951277987396885e-05 0.024547770343382399 0 8.4521242103324285e-05 0.024800284507496252 0 -0.00029157120983655256 0.024661825876380127 0 0.0001801115945143237 0.024957344460491422 0 8.4521242103324285e-05 0.024800284507496252 0 0.00013464617061248739 0.024602620191109308 0 8.8100166052949589e-05 0.024955676030633853 0 4.5369423788454879e-06 0.024986920025617556 0 8.4521242103324285e-05 0.024800284507496252 0 8.8100166052949589e-05 0.024955676030633853 0 0.0001801115945143237 0.024957344460491422 0 8.4521242103324285e-05 0.024800284507496252 0 8.4521242103324285e-05 0.024800284507496252 0 -0.00029157120983655256 0.024661825876380127 0 -0.00029274625478540938 0.024747859343852509 0 8.7738230315551359e-05 0.024714951459899489 0 -0.00013760062868809438 0.025343003607643046 0 4.5369423788454879e-06 0.024986920025617556 0 8.4521242103324285e-05 0.024800284507496252 0 -8.8971789207459732e-05 0.025022495467493938 0 -0.0017014096741123056 0.018152008903998294 0 -0.0034375737320774345 0.017768261585849137 0 -0.0010022483322528477 0.016280184177837814 0 -0.00013760062868809438 0.025343003607643046 0 -0.00094182791423181927 0.02015895633130543 0 -0.00029157120983655256 0.024661825876380127 0 -0.00029274625478540938 0.024747859343852509 0 -0.000534698446156276 0.024677732027302994 0 -0.0016038917384621134 0.021171641899874142 0 -0.00094182791423181927 0.02015895633130543 0 -0.0017014096741123056 0.018152008903998294 0 -0.00056875236023541025 0.017315563083627757 0 -0.0010022483322528477 0.016280184177837814 0 -0.00048900618597989788 0.018227604325621691 0 9.9401051309681756e-05 0.017134794910491406 0 -0.00056875236023541025 0.017315563083627757 0 -0.00048900618597989788 0.018227604325621691 0 -0.0017014096741123056 0.018152008903998294 0 -0.00056875236023541025 0.017315563083627757 0 -0.0012274736600425525 0.016697090055449681 0 -0.00094182791423181927 0.02015895633130543 0 -2.4720235459122866e-05 0.016760341560314279 0 -0.00035486622718509199 0.016853656427283779 0 -0.00053749240657104689 0.016541871764493236 0 -0.00056875236023541025 0.017315563083627757 0 -0.00035486622718509199 0.016853656427283779 0 -0.00074789072369681393 0.016567558885563473 0 9.9401051309681756e-05 0.017134794910491406 0 -0.00056875236023541025 0.017315563083627757 0 -0.00035486622718509199 0.016853656427283779 0 -0.00029025788363056313 0.019392672879268495 0 0.00017411642330553544 0.019333923772127851 0 -2.022269275942536e-05 0.019788753687171489 0 -5.5435663044345055e-05 0.017318927764840859 0 8.7361625765933543e-05 0.021253018669498955 0 -6.0870886309036442e-05 0.01591422839554588 0 -0.00023054739539008894 0.016157261114605744 0 -0.0003054311541057961 0.016108874258591446 0 -0.00035486622718509199 0.016853656427283779 0 -0.00053749240657104689 0.016541871764493236 0 -0.00074789072369681393 0.016567558885563473 0 -0.00094182791423181927 0.02015895633130543 0 8.7361625765933543e-05 0.021253018669498955 0 -7.9412783902410545e-05 0.017673457968566005 0 -0.00094182791423181927 0.02015895633130543 0 -0.00023054739539008894 0.016157261114605744 0 -0.0002764097223846119 0.016173975424913351 0 -0.0003054311541057961 0.016108874258591446 0 -9.9086905969723022e-05 0.025081799142379329 0 -2.8723277633747724e-05 0.025130511759095153 0 0.0001249973653075342 0.025176137318400269 0 -8.8971789207459732e-05 0.025022495467493938 0 -5.4179668974351111e-05 0.025018502218651456 0 -7.279030815065007e-05 0.025035953131812769 0 -7.915536112520378e-05 0.025077611582890784 0 -8.8971789207459732e-05 0.025022495467493938 0 -7.279030815065007e-05 0.025035953131812769 0 -7.915536112520378e-05 0.025077611582890784 0 -7.279030815065007e-05 0.025035953131812769 0 -2.8723277633747724e-05 0.025130511759095153 0 8.7361625765933543e-05 0.021253018669498955 0 -0.00063361437374292323 0.024739219511634464 0 -5.4179668974351111e-05 0.025018502218651456 0 -5.6083508107255155e-05 0.025004007702529408 0 -7.279030815065007e-05 0.025035953131812769 0 -9.9086905969723022e-05 0.025081799142379329 0 -7.279030815065007e-05 0.025035953131812769 0 -2.8723277633747724e-05 0.025130511759095153 0 8.7361625765933543e-05 0.021253018669498955 0 0.00017255458806451503 0.022981534952154582 0 -2.8723277633747724e-05 0.025130511759095153 0 0.0001249973653075342 0.025176137318400269 0 -0.00015115986412557981 0.025164339363500224 0 0.00017411642330553544 0.019333923772127851 0 0.00032175065560723906 0.020589841716067838 0 -2.022269275942536e-05 0.019788753687171489 0 -0.00023414473558414013 0.019476445168628419 0 -2.022269275942536e-05 0.019788753687171489 0 -1.7035059452532704e-06 0.020742988756224733 0 0.00032175065560723906 0.020589841716067838 0 -2.022269275942536e-05 0.019788753687171489 0 -1.7035059452532704e-06 0.020742988756224733 0 0.00032175065560723906 0.020589841716067838 0 -1.7035059452532704e-06 0.020742988756224733 0 3.0424359061314615e-06 0.023795798127112862 0 0.00017255458806451503 0.022981534952154582 0 -2.5332321680992776e-08 0.023800266261541934 0 0.0001249973653075342 0.025176137318400269 0 1.0300218608632149e-06 0.023804585320293489 0 -0.00021541612119625541 0.02513344461362586 0 1.0300218608632149e-06 0.023804585320293489 0 -1.3523270480051377e-06 0.025544955502281082 0 -0.00021541612119625541 0.02513344461362586 0 -1.3523270480051377e-06 0.025544955502281082 0 -0.00021541612119625541 0.02513344461362586 0 -0.00015642642206883817 0.025684654855653643 0 -0.00021541612119625541 0.02513344461362586 0 -0.00015115986412557981 0.025164339363500224 0 -0.00015642642206883817 0.025684654855653643 0 0.0001249973653075342 0.025176137318400269 0 -0.00021541612119625541 0.02513344461362586 0 -0.00015115986412557981 0.025164339363500224 0 0.00010354605928034241 0.025093655338271129 0 -0.00015115986412557981 0.025164339363500224 0 -0.00015642642206883817 0.025684654855653643 0 0.00010354605928034241 0.025093655338271129 0 0.00033608977767486691 0.025297372571222429 0 -0.00015642642206883817 0.025684654855653643 0 0.00033608977767486691 0.025297372571222429 0 1.5819369196649834e-06 0.027285978249056327 0 -0.00015642642206883817 0.025684654855653643 0 -1.3523270480051377e-06 0.025544955502281082 0 1.5819369196649834e-06 0.027285978249056327 0 -0.00015642642206883817 0.025684654855653643 0 0.00022092168816175843 0.02738654681900483 0 1.6295215693051e-07 0.027289396879633786 0 1.9390882767995068e-06 0.027292650915080794 0 -0.00026083593562357992 0.029259286879092506 0 -2.0944074566810922e-06 0.02952774036560216 0 0.00027536294950557841 0.029632445294542609 0 1.9390882767995068e-06 0.027292650915080794 0 -0.00026083593562357992 0.029259286879092506 0 -2.0944074566810922e-06 0.02952774036560216 0 -0.00042303425456606135 0.029853951456082647 0 2.3348498124293584e-06 0.031761254764784183 0 -0.00026083593562357992 0.029259286879092506 0 -2.0944074566810922e-06 0.02952774036560216 0 -0.00042303425456606135 0.029853951456082647 0 0.00041112268231801322 0.028168089681265985 0 -0.0022077261519990342 0.033485281914734669 0 -0.00042303425456606135 0.029853951456082647 0 -0.00028770832699415042 0.029917377817655463 0 -0.00050721467266615669 0.030008026739723526 0 -0.00026083593562357992 0.029259286879092506 0 -0.00042303425456606135 0.029853951456082647 0 -0.00028770832699415042 0.029917377817655463 0 0.00027536294950557841 0.029632445294542609 0 -0.00026083593562357992 0.029259286879092506 0 -0.00028770832699415042 0.029917377817655463 0 -3.8027649746236659e-05 0.030062478459919807 0 0.00027536294950557841 0.029632445294542609 0 -0.00028770832699415042 0.029917377817655463 0 -3.8027649746236659e-05 0.030062478459919807 0 -0.00028770832699415042 0.029917377817655463 0 -0.0003185282852658706 0.030131296377914542 0 -0.00028770832699415042 0.029917377817655463 0 -0.0003185282852658706 0.030131296377914542 0 -0.00050721467266615669 0.030008026739723526 0 -0.0073125154946873739 0.027280090417987037 0 -0.0022077261519990342 0.033485281914734669 0 -3.8027649746236659e-05 0.030062478459919807 0 -0.0003185282852658706 0.030131296377914542 0 -0.00014460884656501591 0.030202932902859875 0 -0.0073125154946873739 0.027280090417987037 0 -0.0039204010128156387 0.025502124975850599 0 0.0030827422855164138 0.043472050004648641 0 0.0030613191852566332 0.043536156687526445 0 0.0031221626124363676 0.043642983582343919 0 0.0030827422855164138 0.043472050004648641 0 0.0030080104752458112 0.043294509519531989 0 0.0030613191852566332 0.043536156687526445 0 0.0030827422855164138 0.043472050004648641 0 0.0030583172377696027 0.043184720276912877 0 0.0030080104752458112 0.043294509519531989 0 -0.0048336559221589864 0.034976089580005636 0 -0.0022077261519990342 0.033485281914734669 0 -0.012086598914503324 0.025876109795102381 0 -0.012081124511203996 0.025876098730163121 0 -0.011985428715188732 0.026022417133363493 0 -0.0022077261519990342 0.033485281914734669 0 0.0020036545421595483 0.035783671016533694 0 0.0030583172377696027 0.043184720276912877 0 0.0030080104752458112 0.043294509519531989 0 0.0029038939092690488 0.043045125486193617 0 0.0030080104752458112 0.043294509519531989 0 0.0029642343034288771 0.043383379500899481 0 0.0030613191852566332 0.043536156687526445 0 0.0020036545421595483 0.035783671016533694 0 0.0019837352805757279 0.042255455179757151 0 0.0030080104752458112 0.043294509519531989 0 0.0029038939092690488 0.043045125486193617 0 0.0029642343034288771 0.043383379500899481 0 0.0020036545421595483 0.035783671016533694 0 9.0891222326560829e-05 0.035477276747682224 0 -0.00042303425456606135 0.029853951456082647 0 0.00034945894740857859 0.028761601651539036 0 0.0016823586569502862 0.02979487084614886 0 -0.00042303425456606135 0.029853951456082647 0 0.0016823586569502862 0.02979487084614886 0 2.3348498124293584e-06 0.031761254764784183 0 1.912662799770211e-06 0.03176974693863624 0 -4.5863305997333303e-07 0.034789462817749986 0 3.9966269284878186e-05 0.035731747685435251 0 0.0020036545421595483 0.035783671016533694 0 6.7150630457642016e-07 0.031762554845469859 0 0.00039530154072746473 0.035722290421888632 0 1.912662799770211e-06 0.03176974693863624 0 3.9966269284878186e-05 0.035731747685435251 0 -4.5863305997333303e-07 0.034789462817749986 0 3.9966269284878186e-05 0.035731747685435251 0 -0.00036869441918176024 0.037002899414567594 0 -4.5863305997333303e-07 0.034789462817749986 0 -0.00036869441918176024 0.037002899414567594 0 -1.3058760163634585e-06 0.037815108304509244 0 -0.00036869441918176024 0.037002899414567594 0 -0.00044799827025708843 0.037455300480173398 0 3.0285973076127602e-05 0.037395746838899908 0 0.00085818267372363502 0.036639518541038182 0 5.4804992215174903e-05 0.036745139953856656 0 3.0285973076127602e-05 0.037395746838899908 0 3.9966269284878186e-05 0.035731747685435251 0 -0.00036869441918176024 0.037002899414567594 0 5.4804992215174903e-05 0.036745139953856656 0 -0.00036869441918176024 0.037002899414567594 0 5.4804992215174903e-05 0.036745139953856656 0 3.0285973076127602e-05 0.037395746838899908 0 0.00085818267372363502 0.036639518541038182 0 3.9966269284878186e-05 0.035731747685435251 0 5.4804992215174903e-05 0.036745139953856656 0 1.45400600775749e-06 0.040833514168998719 0 -0.00019701093085249585 0.03872621673875052 0 0.00024223410712195459 0.03878552397068994 0 -0.00036869441918176024 0.037002899414567594 0 -0.00019701093085249585 0.03872621673875052 0 -1.3058760163634585e-06 0.037815108304509244 0 1.45400600775749e-06 0.040833514168998719 0 -0.00019701093085249585 0.03872621673875052 0 -1.3058760163634585e-06 0.037815108304509244 0 -0.00036869441918176024 0.037002899414567594 0 -0.00019701093085249585 0.03872621673875052 0 -0.00044799827025708843 0.037455300480173398 0 -0.00019701093085249585 0.03872621673875052 0 0.00024223410712195459 0.03878552397068994 0 -0.00044799827025708843 0.037455300480173398 0 0.0012923584411971307 0.040537739767700705 0 0.0013552448826561361 0.040024206049464932 0 0.0025337825779722977 0.042251885754265819 0 0.0024914988084779551 0.043577388089008094 0 0.0033721493296895674 0.043071579276348713 0 0.0024914988084779551 0.043577388089008094 0 0.0033721493296895674 0.043071579276348713 0 0.003206605850004238 0.043867326709336893 0 0.0024914988084779551 0.043577388089008094 0 0.003206605850004238 0.043867326709336893 0 0.0029324204444191333 0.045034493401499912 0 0.0024914988084779551 0.043577388089008094 0 0.0029324204444191333 0.045034493401499912 0 0.0014092998938256298 0.045263428765820096 0 0.0013552448826561361 0.040024206049464932 0 0.0019837352805757279 0.042255455179757151 0 0.0033721493296895674 0.043071579276348713 0 0.0037565634155513668 0.043447062461951784 0 0.0034119412260069024 0.043563232742792661 0 0.0033721493296895674 0.043071579276348713 0 0.003206605850004238 0.043867326709336893 0 0.0034119412260069024 0.043563232742792661 0 0.003206605850004238 0.043867326709336893 0 0.0033046640837557399 0.04380441765393589 0 0.0031996529019917338 0.044250134334447973 0 0.003206605850004238 0.043867326709336893 0 0.0034119412260069024 0.043563232742792661 0 0.0033046640837557399 0.04380441765393589 0 0.0037565634155513668 0.043447062461951784 0 0.0034119412260069024 0.043563232742792661 0 0.0033046640837557399 0.04380441765393589 0 0.0033046640837557399 0.04380441765393589 0 0.0030613191852566332 0.043536156687526445 0 0.0031221626124363676 0.043642983582343919 0 0.0019837352805757279 0.042255455179757151 0 0.0035451577864720634 0.043951755498176405 0 0.0029642343034288771 0.043383379500899481 0 0.0033046640837557399 0.04380441765393589 0 0.0030613191852566332 0.043536156687526445 0 0.0033046640837557399 0.04380441765393589 0 0.0031221626124363676 0.043642983582343919 0 0.0031328055759130202 0.043828704555379822 0 0.0033046640837557399 0.04380441765393589 0 0.0031328055759130202 0.043828704555379822 0 0.0031996529019917338 0.044250134334447973 0 0.0031328055759130202 0.043828704555379822 0 0.0031996529019917338 0.044250134334447973 0 0.0032850702283558366 0.04398007973908459 0 0.0031328055759130202 0.043828704555379822 0 0.0030123610777578482 0.043415479378918528 0 0.0030791899290032727 0.043517573538148543 0 0.0031221626124363676 0.043642983582343919 0 0.0031328055759130202 0.043828704555379822 0 0.0030791899290032727 0.043517573538148543 0 0.003206605850004238 0.043867326709336893 0 0.0029324204444191333 0.045034493401499912 0 0.0031996529019917338 0.044250134334447973 0 0.0030721253080983604 0.045150234138186425 0 0.0032183628637213633 0.045211291661009533 0 0.0029324204444191333 0.045034493401499912 0 0.0031996529019917338 0.044250134334447973 0 0.0032850702283558366 0.04398007973908459 0 0.0029324204444191333 0.045034493401499912 0 0.0026873530356664489 0.047043949571589104 0 0.0014384801841136332 0.047124856229971632 0 0.0029324204444191333 0.045034493401499912 0 0.0038746906824906357 0.047301703669154337 0 0.0026873530356664489 0.047043949571589104 0 0.0034659923997958034 0.048481768183791768 0 0.0024021044813058797 0.049344619443589442 0 0.0019488657564895738 0.048445361142096889 0 0.0026873530356664489 0.047043949571589104 0 0.0034659923997958034 0.048481768183791768 0 0.0019488657564895738 0.048445361142096889 0 0.0038746906824906357 0.047301703669154337 0 0.0034659923997958034 0.048481768183791768 0 0.0044564410996995162 0.048634060019553366 0 0.0032183628637213633 0.045211291661009533 0 0.0052890363001127354 0.047715018363700304 0 0.0038746906824906357 0.047301703669154337 0 0.0026873530356664489 0.047043949571589104 0 0.0034659923997958034 0.048481768183791768 0 0.0034659923997958034 0.048481768183791768 0 0.0037869744271786668 0.049304140646182423 0 0.0024021044813058797 0.049344619443589442 0 0.0034659923997958034 0.048481768183791768 0 0.0037869744271786668 0.049304140646182423 0 0.0044564410996995162 0.048634060019553366 0 0.0037869744271786668 0.049304140646182423 0 0.0024021044813058797 0.049344619443589442 0 0.0027954944240765342 0.049842035337915584 0 0.0031328055759130202 0.043828704555379822 0 0.0032850702283558366 0.04398007973908459 0 0.0032181262145915385 0.043510077939999364 0 0.0031328055759130202 0.043828704555379822 0 0.0030123610777578482 0.043415479378918528 0 0.0032181262145915385 0.043510077939999364 0 0.0037869744271786668 0.049304140646182423 0 0.0044564410996995162 0.048634060019553366 0 0.0044897698615998368 0.049441260145349275 0 0.0052890363001127354 0.047715018363700304 0 -0.0038064791401792152 0.039219286101167629 0 0.0044564410996995162 0.048634060019553366 0 0.0052502631386970302 0.049254116969266001 0 0.0044897698615998368 0.049441260145349275 0 -0.013106919166891093 0.025393565248753282 0 -0.013084885094709156 0.026834064126389789 0 -0.014888027492468843 0.028288787175422079 0 -0.0051822571280535426 0.03390371545528395 0 -0.0038064791401792152 0.039219286101167629 0 0.0030123610777578482 0.043415479378918528 0 0.0032181262145915385 0.043510077939999364 0 0.0030314639930077336 0.043201903363578147 0 -0.013084885094709156 0.026834064126389789 0 -0.012427846196926098 0.027060996925006516 0 -0.012214277587579517 0.025843973938160937 0 -0.013084885094709156 0.026834064126389789 0 -0.012427846196926098 0.027060996925006516 0 -0.013117718393167461 0.027768788428882887 0 -0.012427846196926098 0.027060996925006516 0 -0.011326542090282095 0.026651195606618393 0 -0.011108994499111008 0.028087093280853907 0 -0.012427846196926098 0.027060996925006516 0 -0.012214277587579517 0.025843973938160937 0 -0.011326542090282095 0.026651195606618393 0 -0.012214277587579517 0.025843973938160937 0 -0.010887626487723772 0.025756488077669039 0 -0.011326542090282095 0.026651195606618393 0 -0.013106919166891093 0.025393565248753282 0 -0.013084885094709156 0.026834064126389789 0 -0.012214277587579517 0.025843973938160937 0 -0.013106919166891093 0.025393565248753282 0 -0.012727888196627157 0.025330995144481849 0 -0.012325972171625245 0.025586655059513422 0 -0.012727888196627157 0.025330995144481849 0 -0.011400212793770756 0.024982097405622319 0 -0.010690450392768875 0.023235200920018434 0 -0.012597243359617621 0.025197180971028681 0 -0.011332897547189873 0.024420353077326269 0 -0.0051822571280535426 0.03390371545528395 0 -0.0046168194450601123 0.034596880834281987 0 -0.013106919166891093 0.025393565248753282 0 -0.012214277587579517 0.025843973938160937 0 -0.012727888196627157 0.025330995144481849 0 -0.012214277587579517 0.025843973938160937 0 -0.011400212793770756 0.024982097405622319 0 -0.010887626487723772 0.025756488077669039 0 -0.012214277587579517 0.025843973938160937 0 -0.012727888196627157 0.025330995144481849 0 -0.011400212793770756 0.024982097405622319 0 -0.0099157521853116739 0.024313960016415163 0 -0.011400212793770756 0.024982097405622319 0 -0.010690450392768875 0.023235200920018434 0 -0.0099157521853116739 0.024313960016415163 0 -0.011400212793770756 0.024982097405622319 0 -0.010887626487723772 0.025756488077669039 0 -0.0099157521853116739 0.024313960016415163 0 -0.010887626487723772 0.025756488077669039 0 -0.0096288169928777263 0.025456594591431101 0 -0.010887626487723772 0.025756488077669039 0 -0.010010151653099285 0.026556014277305685 0 -0.0096288169928777263 0.025456594591431101 0 -0.011326542090282095 0.026651195606618393 0 -0.010010151653099285 0.026556014277305685 0 -0.011108994499111008 0.028087093280853907 0 -0.010887626487723772 0.025756488077669039 0 -0.011326542090282095 0.026651195606618393 0 -0.010010151653099285 0.026556014277305685 0 -0.010010151653099285 0.026556014277305685 0 -0.0086896192413259375 0.02583870132174626 0 -0.0080932993747375795 0.026958569055503916 0 -0.010010151653099285 0.026556014277305685 0 -0.0086896192413259375 0.02583870132174626 0 -0.0096288169928777263 0.025456594591431101 0 -0.0086896192413259375 0.02583870132174626 0 -0.0096288169928777263 0.025456594591431101 0 -0.0083888618935136789 0.024387601736958118 0 -0.0047452224915831591 0.025741946073562397 0 -0.0076717300874286484 0.026690534344886854 0 -0.0045915241591988768 0.025632136366688575 0 -0.0069333740364593346 0.024998375133245609 0 -0.0080932993747375795 0.026958569055503916 0 -0.0086896192413259375 0.02583870132174626 0 -0.0069333740364593346 0.024998375133245609 0 -0.0083888618935136789 0.024387601736958118 0 -0.0086896192413259375 0.02583870132174626 0 -0.0069333740364593346 0.024998375133245609 0 -0.0080932993747375795 0.026958569055503916 0 -0.0069333740364593346 0.024998375133245609 0 -0.0066088771359624947 0.023234466809709062 0 -0.0083888618935136789 0.024387601736958118 0 -0.0066088771359624947 0.023234466809709062 0 -0.0083888618935136789 0.024387601736958118 0 -0.0084460525562392499 0.021911837764376541 0 -0.0099157521853116739 0.024313960016415163 0 -0.0083888618935136789 0.024387601736958118 0 -0.0084460525562392499 0.021911837764376541 0 -0.0099157521853116739 0.024313960016415163 0 -0.0096288169928777263 0.025456594591431101 0 -0.0083888618935136789 0.024387601736958118 0 -0.010782951122216248 0.024043671660101497 0 -0.011332897547189873 0.024420353077326269 0 -0.012117160035368252 0.025786583474770083 0 -0.012151146902997789 0.025768897481353227 0 -0.012254789045392933 0.025664785922024223 0 -0.0099157521853116739 0.024313960016415163 0 -0.0084460525562392499 0.021911837764376541 0 -0.010690450392768875 0.023235200920018434 0 -0.0066088771359624947 0.023234466809709062 0 -0.0084460525562392499 0.021911837764376541 0 -0.0066612887379455922 0.021035602882653253 0 -0.0066326987708502302 0.021971011084246851 0 -0.0066801924735029015 0.022871189154680321 0 -0.012086598914503324 0.025876109795102381 0 -0.012087069274306349 0.025807904123260506 0 -0.012034716406582597 0.025802699438220819 0 -0.010782951122216248 0.024043671660101497 0 -0.0066801924735029015 0.022871189154680321 0 -0.012117160035368252 0.025786583474770083 0 -0.012032323658535259 0.025810048785688385 0 -0.012087069274306349 0.025807904123260506 0 -0.012032323658535259 0.025810048785688385 0 -0.012087069274306349 0.025807904123260506 0 -0.012034716406582597 0.025802699438220819 0 -0.0066801924735029015 0.022871189154680321 0 -0.0039204010128156387 0.025502124975850599 0 -0.012117160035368252 0.025786583474770083 0 -0.012087069274306349 0.025807904123260506 0 -0.012151146902997789 0.025768897481353227 0 -0.012086598914503324 0.025876109795102381 0 -0.012087069274306349 0.025807904123260506 0 -0.012151146902997789 0.025768897481353227 0 -0.012081124511203996 0.025876098730163121 0 -0.012151146902997789 0.025768897481353227 0 -0.012325972171625245 0.025586655059513422 0 -0.012086598914503324 0.025876109795102381 0 -0.012081124511203996 0.025876098730163121 0 -0.012151146902997789 0.025768897481353227 0 0.0030827422855164138 0.043472050004648641 0 0.0031221626124363676 0.043642983582343919 0 0.0030791899290032727 0.043517573538148543 0 -0.0048336559221589864 0.034976089580005636 0 -0.0046168194450601123 0.034596880834281987 0 -0.012727888196627157 0.025330995144481849 0 -0.012325972171625245 0.025586655059513422 0 -0.012254789045392933 0.025664785922024223 0 -0.012151146902997789 0.025768897481353227 0 -0.012325972171625245 0.025586655059513422 0 -0.012254789045392933 0.025664785922024223 0 4.1980266369400725e-07 0.055001405950691348 0 7.5183947567394045e-05 0.054849908932867078 0 -0.00014252330625657823 0.054602299856439301 0 4.8070159880812516e-08 0.055000029342762588 0 -0.00015217791709297367 0.055166497039162571 0 4.1980266369400725e-07 0.055001405950691348 0 9.1965424930180308e-05 0.054975868240208933 0 7.5183947567394045e-05 0.054849908932867078 0 -0.000420973241079659 0.055216295584085209 0 -0.0002100077330028149 0.055261078021722108 0 -0.0004700933719810351 0.055410949913918039 0 -0.000420973241079659 0.055216295584085209 0 -0.0002100077330028149 0.055261078021722108 0 -0.00032884425066812825 0.055055178723498507 0 9.1965424930180308e-05 0.054975868240208933 0 0.00020090380375501564 0.054907712479759792 0 0.00034325237103132475 0.054957924440858542 0 -0.00015217791709297367 0.055166497039162571 0 -0.00036347442632635597 0.053114987642527832 0 0.00020090380375501564 0.054907712479759792 0 7.5183947567394045e-05 0.054849908932867078 0 0.00037694833372399771 0.054863798726712501 0 9.1965424930180308e-05 0.054975868240208933 0 0.00020090380375501564 0.054907712479759792 0 7.5183947567394045e-05 0.054849908932867078 0 7.5183947567394045e-05 0.054849908932867078 0 0.00037694833372399771 0.054863798726712501 0 0.00024789779813209103 0.054462196616547692 0 0.00035761762133166577 0.054998874216714767 0 -0.00036347442632635597 0.053114987642527832 0 0.00020090380375501564 0.054907712479759792 0 0.00037694833372399771 0.054863798726712501 0 0.00034325237103132475 0.054957924440858542 0 4.1980266369400725e-07 0.055001405950691348 0 -0.00014252330625657823 0.054602299856439301 0 -1.2637336249858321e-06 0.054995523281649979 0 -0.00014252330625657823 0.054602299856439301 0 -1.2637336249858321e-06 0.054995523281649979 0 2.064543216529764e-06 0.051736086542225328 0 2.064543216529764e-06 0.051736086542225328 0 0.00024789779813209103 0.054462196616547692 0 0.00098889005487216093 0.054103707969790624 0 -0.00014252330625657823 0.054602299856439301 0 2.064543216529764e-06 0.051736086542225328 0 0.00024789779813209103 0.054462196616547692 0 0.00037694833372399771 0.054863798726712501 0 0.00024789779813209103 0.054462196616547692 0 0.00098889005487216093 0.054103707969790624 0 7.5183947567394045e-05 0.054849908932867078 0 -0.00014252330625657823 0.054602299856439301 0 0.00024789779813209103 0.054462196616547692 0 0.00078053666882955312 0.052000336284655467 0 -0.0014410268161981854 0.048741922712549519 0 0.00021199725228207122 0.048710629240194939 0 -0.00011886907718673562 0.048116411874079376 0 6.1280622398462951e-05 0.047884294726870287 0 2.993210589356291e-06 0.051723259390480787 0 0.00021199725228207122 0.048710629240194939 0 -2.0496602780401207e-06 0.048811403142443928 0 4.7931456751370693e-05 0.051365131882402867 0 0.00078053666882955312 0.052000336284655467 0 -2.0496602780401207e-06 0.048811403142443928 0 -0.00011886907718673562 0.048116411874079376 0 -0.00024463087531338207 0.047236224243530793 0 0.00021199725228207122 0.048710629240194939 0 -2.0496602780401207e-06 0.048811403142443928 0 -0.00011886907718673562 0.048116411874079376 0 -0.00011886907718673562 0.048116411874079376 0 6.1280622398462951e-05 0.047884294726870287 0 -0.00024739491942158895 0.047802159315921508 0 -0.0014410268161981854 0.048741922712549519 0 -0.0014012581813046727 0.044750904186656851 0 -0.0044034974471852395 0.043348007843527506 0 -0.0024734196349623897 0.044258603085487624 0 -0.0025110333577853766 0.042400112817714414 0 0.00037694833372399771 0.054863798726712501 0 0.00098889005487216093 0.054103707969790624 0 0.0011225090762607172 0.054953634936648399 0 0.00037694833372399771 0.054863798726712501 0 0.0011225090762607172 0.054953634936648399 0 0.00051787442441890278 0.055249183340602415 0 -0.0014410268161981854 0.048741922712549519 0 -0.00036347442632635597 0.053114987642527832 0 -0.0024964483460950234 0.049008999493260222 0 -0.0025808966852788533 0.048951075094673918 0 -0.0025742908072725035 0.049189737531019885 0 -0.000420973241079659 0.055216295584085209 0 -0.0004700933719810351 0.055410949913918039 0 -0.00070398044285278959 0.055116691541426004 0 -0.0024964483460950234 0.049008999493260222 0 -0.0023781977356672679 0.0490707815477886 0 -0.0025742908072725035 0.049189737531019885 0 -0.0024765040931346506 0.048885652414280154 0 -0.0024964483460950234 0.049008999493260222 0 -0.0025808966852788533 0.048951075094673918 0 -0.00036347442632635597 0.053114987642527832 0 -0.0018297422797236781 0.051918706101913931 0 -0.0024765040931346506 0.048885652414280154 0 -0.0024964483460950234 0.049008999493260222 0 -0.0023781977356672679 0.0490707815477886 0 -0.0044034974471852395 0.043348007843527506 0 -0.0037667720319562378 0.045255961394309013 0 -0.0024734196349623897 0.044258603085487624 0 -0.0037667720319562378 0.045255961394309013 0 -0.0024734196349623897 0.044258603085487624 0 -0.0024806082370597495 0.045789834709309814 0 -0.0014410268161981854 0.048741922712549519 0 -0.0033680988936641574 0.046580962387329825 0 -0.0024734196349623897 0.044258603085487624 0 -0.0014264035288339893 0.045439846884990906 0 -0.0024806082370597495 0.045789834709309814 0 -0.0024734196349623897 0.044258603085487624 0 -0.00096280545242662953 0.043648861366018227 0 -0.0014264035288339893 0.045439846884990906 0 -0.00096280545242662953 0.043648861366018227 0 5.4147050663768091e-05 0.045354235681004482 0 -0.0014264035288339893 0.045439846884990906 0 -0.00096280545242662953 0.043648861366018227 0 -0.00057506866249506009 0.042588866150980433 0 -0.0025110333577853766 0.042400112817714414 0 -0.00096280545242662953 0.043648861366018227 0 -0.00057506866249506009 0.042588866150980433 0 0.00047839755302036754 0.042581519184911848 0 -0.0024734196349623897 0.044258603085487624 0 -0.00096280545242662953 0.043648861366018227 0 -0.0025110333577853766 0.042400112817714414 0 -2.0496602780401207e-06 0.048811403142443928 0 -0.00024463087531338207 0.047236224243530793 0 1.0430284843785266e-07 0.044230304824154076 0 -0.00024739491942158895 0.047802159315921508 0 -0.00024463087531338207 0.047236224243530793 0 -5.5691273448888755e-05 0.046577193022625279 0 -0.00011886907718673562 0.048116411874079376 0 -0.00024739491942158895 0.047802159315921508 0 -0.00024463087531338207 0.047236224243530793 0 -0.0014012581813046727 0.044750904186656851 0 -0.00043931488097766002 0.044013741627869717 0 -0.00024463087531338207 0.047236224243530793 0 -5.5691273448888755e-05 0.046577193022625279 0 1.0430284843785266e-07 0.044230304824154076 0 -0.00057506866249506009 0.042588866150980433 0 -0.0025110333577853766 0.042400112817714414 0 -0.00063953417978121691 0.041427766121665918 0 -0.00057506866249506009 0.042588866150980433 0 -0.00063953417978121691 0.041427766121665918 0 0.00021188841418862711 0.041859424102405791 0 -0.00063953417978121691 0.041427766121665918 0 0.00021188841418862711 0.041859424102405791 0 0.00087130657218641367 0.040792024770679086 0 -0.00057506866249506009 0.042588866150980433 0 0.00021188841418862711 0.041859424102405791 0 0.00047839755302036754 0.042581519184911848 0 0.00021188841418862711 0.041859424102405791 0 0.00086629457506443486 0.041832057751226268 0 0.00047839755302036754 0.042581519184911848 0 0.00086629457506443486 0.041832057751226268 0 0.0015841103511527294 0.042182327475136151 0 0.00047839755302036754 0.042581519184911848 0 0.00086629457506443486 0.041832057751226268 0 0.00087130657218641367 0.040792024770679086 0 0.0015841103511527294 0.042182327475136151 0 0.00021188841418862711 0.041859424102405791 0 0.00086629457506443486 0.041832057751226268 0 0.00087130657218641367 0.040792024770679086 0 -0.00043931488097766002 0.044013741627869717 0 0.0004018330702422044 0.042333995271096957 0 -5.5691273448888755e-05 0.046577193022625279 0 1.0430284843785266e-07 0.044230304824154076 0 0.0001694581825861211 0.044102020047044395 0 -0.00063953417978121691 0.041427766121665918 0 0.0010550499858860141 0.040459361105262416 0 0.00087130657218641367 0.040792024770679086 0 8.8645822083630598e-07 0.040840357397546816 0 1.0430284843785266e-07 0.044230304824154076 0 0.0001694581825861211 0.044102020047044395 0 1.45400600775749e-06 0.040833514168998719 0 0.00024223410712195459 0.03878552397068994 0 0.0010550499858860141 0.040459361105262416 0 -1.0620602842782587e-07 0.04083926614508606 0 0.0004018330702422044 0.042333995271096957 0 0.0025337825779722977 0.042251885754265819 0 0.00087130657218641367 0.040792024770679086 0 0.0015841103511527294 0.042182327475136151 0 0.00024223410712195459 0.03878552397068994 0 0.0010550499858860141 0.040459361105262416 0 0.00087130657218641367 0.040792024770679086 0 0.0012923584411971307 0.040537739767700705 0 0.00078695242131616929 0.040679499437723414 0 0.0024914988084779551 0.043577388089008094 0 0.0015841103511527294 0.042182327475136151 0 0.00090876569806212836 0.043846614845220795 0 0.0025337825779722977 0.042251885754265819 0 0.0024914988084779551 0.043577388089008094 0 0.0015841103511527294 0.042182327475136151 0 -0.00096280545242662953 0.043648861366018227 0 0.00047839755302036754 0.042581519184911848 0 0.00090876569806212836 0.043846614845220795 0 0.0015841103511527294 0.042182327475136151 0 0.00047839755302036754 0.042581519184911848 0 0.00090876569806212836 0.043846614845220795 0 -0.00096280545242662953 0.043648861366018227 0 0.00090876569806212836 0.043846614845220795 0 5.4147050663768091e-05 0.045354235681004482 0 0.00090876569806212836 0.043846614845220795 0 0.0014092998938256298 0.045263428765820096 0 5.4147050663768091e-05 0.045354235681004482 0 0.0024914988084779551 0.043577388089008094 0 0.00090876569806212836 0.043846614845220795 0 0.0014092998938256298 0.045263428765820096 0 0.0029324204444191333 0.045034493401499912 0 0.0014092998938256298 0.045263428765820096 0 0.0014384801841136332 0.047124856229971632 0 0.0014092998938256298 0.045263428765820096 0 5.4147050663768091e-05 0.045354235681004482 0 7.0819825032605752e-05 0.047040688265105941 0 0.0014092998938256298 0.045263428765820096 0 7.0819825032605752e-05 0.047040688265105941 0 0.0014384801841136332 0.047124856229971632 0 7.0819825032605752e-05 0.047040688265105941 0 0.0014384801841136332 0.047124856229971632 0 0.00020346015657466261 0.048385389496813834 0 0.0026873530356664489 0.047043949571589104 0 0.0014384801841136332 0.047124856229971632 0 0.0019488657564895738 0.048445361142096889 0 0.0014384801841136332 0.047124856229971632 0 0.0019488657564895738 0.048445361142096889 0 0.00085038615855602276 0.048987086125668419 0 0.0024021044813058797 0.049344619443589442 0 0.0019488657564895738 0.048445361142096889 0 0.00082190635953781972 0.050040703967459611 0 0.0019488657564895738 0.048445361142096889 0 0.00082190635953781972 0.050040703967459611 0 0.00085038615855602276 0.048987086125668419 0 0.0024021044813058797 0.049344619443589442 0 0.00082190635953781972 0.050040703967459611 0 0.0011668758707495831 0.050652901527360739 0 0.00082190635953781972 0.050040703967459611 0 0.00085038615855602276 0.048987086125668419 0 -0.00016498400689408577 0.050537331409723704 0 0.00082190635953781972 0.050040703967459611 0 -0.00016498400689408577 0.050537331409723704 0 0.00024779343613555064 0.050872017061865234 0 0.00085038615855602276 0.048987086125668419 0 -0.00043603454619632311 0.049738649471482314 0 -0.00016498400689408577 0.050537331409723704 0 0.0014384801841136332 0.047124856229971632 0 0.00085038615855602276 0.048987086125668419 0 0.00020346015657466261 0.048385389496813834 0 0.00085038615855602276 0.048987086125668419 0 0.00020346015657466261 0.048385389496813834 0 -0.00043603454619632311 0.049738649471482314 0 0.00020346015657466261 0.048385389496813834 0 -0.00043603454619632311 0.049738649471482314 0 -0.0010646151456819406 0.048077594650919708 0 -0.00043603454619632311 0.049738649471482314 0 -0.00016498400689408577 0.050537331409723704 0 -0.00081642610369408216 0.051082887443341579 0 -0.00043603454619632311 0.049738649471482314 0 -0.0013355862013340518 0.051114235154965819 0 -0.0016353372868663785 0.050208614493727766 0 -0.00043603454619632311 0.049738649471482314 0 -0.00081642610369408216 0.051082887443341579 0 -0.0013355862013340518 0.051114235154965819 0 -0.0013355862013340518 0.051114235154965819 0 -0.0016353372868663785 0.050208614493727766 0 -0.0018405448986115718 0.051807828490974157 0 -0.001790948120136935 0.050019365715522839 0 -0.0025092652556653111 0.048587767344004294 0 -0.00043603454619632311 0.049738649471482314 0 -0.0016353372868663785 0.050208614493727766 0 -0.0010646151456819406 0.048077594650919708 0 -0.0010646151456819406 0.048077594650919708 0 -0.0016983836646003571 0.046677876441043945 0 -0.0030827527090074225 0.047408384823548415 0 -0.0016353372868663785 0.050208614493727766 0 -0.0010646151456819406 0.048077594650919708 0 -0.0030827527090074225 0.047408384823548415 0 7.0819825032605752e-05 0.047040688265105941 0 0.00020346015657466261 0.048385389496813834 0 -0.0010646151456819406 0.048077594650919708 0 7.0819825032605752e-05 0.047040688265105941 0 -0.0010646151456819406 0.048077594650919708 0 -0.00075970498640675667 0.046456178520005761 0 -0.0010646151456819406 0.048077594650919708 0 -0.00075970498640675667 0.046456178520005761 0 -0.0016983836646003571 0.046677876441043945 0 5.4147050663768091e-05 0.045354235681004482 0 7.0819825032605752e-05 0.047040688265105941 0 -0.00075970498640675667 0.046456178520005761 0 5.4147050663768091e-05 0.045354235681004482 0 -0.00075970498640675667 0.046456178520005761 0 -0.0014264035288339893 0.045439846884990906 0 -0.0024806082370597495 0.045789834709309814 0 -0.0016983836646003571 0.046677876441043945 0 -0.0030827527090074225 0.047408384823548415 0 -0.0014264035288339893 0.045439846884990906 0 -0.0024806082370597495 0.045789834709309814 0 -0.0016983836646003571 0.046677876441043945 0 -0.00075970498640675667 0.046456178520005761 0 -0.0014264035288339893 0.045439846884990906 0 -0.0016983836646003571 0.046677876441043945 0 -0.0033680988936641574 0.046580962387329825 0 -0.0025092652556653111 0.048587767344004294 0 -0.0023781977356672679 0.0490707815477886 0 -0.0025742908072725035 0.049189737531019885 0 -0.0021625039562387849 0.049430439686987626 0 -0.0037667720319562378 0.045255961394309013 0 -0.0024806082370597495 0.045789834709309814 0 -0.0030827527090074225 0.047408384823548415 0 -0.00070398044285278959 0.055116691541426004 0 -0.00061347794923139398 0.054797359062584643 0 -0.00032884425066812825 0.055055178723498507 0 -0.0018297422797236781 0.051918706101913931 0 -0.0018607256922418183 0.0521560419773026 0 -0.00070398044285278959 0.055116691541426004 0 -0.00061347794923139398 0.054797359062584643 0 -0.0013271023335511701 0.054514582654477173 0 -0.00061347794923139398 0.054797359062584643 0 -0.0013271023335511701 0.054514582654477173 0 -0.00055394568158606051 0.054228759781413921 0 -0.0025742908072725035 0.049189737531019885 0 -0.0025492874547159631 0.049731755436603332 0 -0.0021625039562387849 0.049430439686987626 0 -0.0013271023335511701 0.054514582654477173 0 -0.0018405448986115718 0.051807828490974157 0 -0.0010347959071755645 0.053254719176303915 0 -0.0016353372868663785 0.050208614493727766 0 -0.0025492874547159631 0.049731755436603332 0 -0.0021625039562387849 0.049430439686987626 0 -0.0016353372868663785 0.050208614493727766 0 -0.0025492874547159631 0.049731755436603332 0 -0.0018405448986115718 0.051807828490974157 0 -0.0018607256922418183 0.0521560419773026 0 -0.0018817993416403648 0.051846485656392299 0 -0.0018405448986115718 0.051807828490974157 0 -0.0012446492021063636 0.052311676643200189 0 -0.0010347959071755645 0.053254719176303915 0 -0.0013355862013340518 0.051114235154965819 0 -0.0018405448986115718 0.051807828490974157 0 -0.0012283967130875453 0.051787811927166236 0 -0.0012446492021063636 0.052311676643200189 0 -0.0005638060803495672 0.053524015623101641 0 -0.0010347959071755645 0.053254719176303915 0 -0.0012446492021063636 0.052311676643200189 0 -0.0005638060803495672 0.053524015623101641 0 -0.00070862245706074982 0.052910018919994715 0 -0.0005638060803495672 0.053524015623101641 0 -0.0010347959071755645 0.053254719176303915 0 -0.00055394568158606051 0.054228759781413921 0 -0.0013271023335511701 0.054514582654477173 0 -0.0010347959071755645 0.053254719176303915 0 -0.00055394568158606051 0.054228759781413921 0 -0.00010020206731020473 0.054377686997043387 0 -4.183772714945084e-05 0.054782250826228895 0 -0.00029118181633211476 0.054713026987991978 0 -0.0005638060803495672 0.053524015623101641 0 -0.00055394568158606051 0.054228759781413921 0 -0.00010020206731020473 0.054377686997043387 0 -0.00055394568158606051 0.054228759781413921 0 -0.00010020206731020473 0.054377686997043387 0 -0.00029118181633211476 0.054713026987991978 0 -0.0005638060803495672 0.053524015623101641 0 -0.00010020206731020473 0.054377686997043387 0 0.00010620874601476871 0.054104944134975984 0 -0.0005638060803495672 0.053524015623101641 0 0.00010620874601476871 0.054104944134975984 0 -0.00070862245706074982 0.052910018919994715 0 -0.00010020206731020473 0.054377686997043387 0 0.00010620874601476871 0.054104944134975984 0 3.2913467509593733e-07 0.05499954273939902 0 0.00010620874601476871 0.054104944134975984 0 3.2913467509593733e-07 0.05499954273939902 0 -5.6206816831950086e-07 0.054997358405709927 0 -0.00010020206731020473 0.054377686997043387 0 3.2913467509593733e-07 0.05499954273939902 0 -4.183772714945084e-05 0.054782250826228895 0 3.2913467509593733e-07 0.05499954273939902 0 -4.183772714945084e-05 0.054782250826228895 0 -1.0355546734109459e-07 0.054999583318388251 0 -4.183772714945084e-05 0.054782250826228895 0 -0.00029118181633211476 0.054713026987991978 0 -7.9967625792354705e-05 0.054990002316979925 0 -4.183772714945084e-05 0.054782250826228895 0 -1.0355546734109459e-07 0.054999583318388251 0 -7.9967625792354705e-05 0.054990002316979925 0 -0.00061347794923139398 0.054797359062584643 0 -0.00029118181633211476 0.054713026987991978 0 -0.00032884425066812825 0.055055178723498507 0 -0.00029118181633211476 0.054713026987991978 0 -0.00032884425066812825 0.055055178723498507 0 -7.9967625792354705e-05 0.054990002316979925 0 -0.00061347794923139398 0.054797359062584643 0 -0.00055394568158606051 0.054228759781413921 0 -0.00029118181633211476 0.054713026987991978 0 -0.0002100077330028149 0.055261078021722108 0 -0.00032884425066812825 0.055055178723498507 0 -7.9967625792354705e-05 0.054990002316979925 0 -0.000420973241079659 0.055216295584085209 0 -0.00070398044285278959 0.055116691541426004 0 -0.00032884425066812825 0.055055178723498507 0 3.7453967397798313e-10 0.055000606079775416 0 -0.0002100077330028149 0.055261078021722108 0 -7.9967625792354705e-05 0.054990002316979925 0 3.7453967397798313e-10 0.055000606079775416 0 -1.0355546734109459e-07 0.054999583318388251 0 -7.9967625792354705e-05 0.054990002316979925 0 -1.4736675505511957e-06 0.054992080263394749 0 2.6876654497496482e-08 0.054999915479533319 0 -9.5435184079174052e-09 0.055000002661796797 0 -0.00053143586904442325 0.052282647752220031 0 -0.00047688511630291681 0.052265718937456677 0 -0.00046554616804431583 0.052343263637090069 0 -0.00010601135575867393 0.053593996294097404 0 -0.00068695515274169174 0.051811892869232878 0 -0.00053143586904442325 0.052282647752220031 0 -0.00051021798712635135 0.052257419455619569 0 -0.00047688511630291681 0.052265718937456677 0 -0.00028812275285755497 0.05364781804058024 0 -0.00010601135575867393 0.053593996294097404 0 -1.4736675505511957e-06 0.054992080263394749 0 -9.5435184079174052e-09 0.055000002661796797 0 -1.8187167146319159e-06 0.054992632393949165 0 -9.5435184079174052e-09 0.055000002661796797 0 -1.8187167146319159e-06 0.054992632393949165 0 3.0647214053531338e-09 0.054999985378703105 0 -0.00010601135575867393 0.053593996294097404 0 8.348650277927461e-07 0.055001256475327068 0 0.00014290062835774692 0.054058223185819175 0 -0.00010601135575867393 0.053593996294097404 0 0.00010620874601476871 0.054104944134975984 0 0.00020757125205049379 0.054966329053449725 0 -5.6206816831950086e-07 0.054997358405709927 0 0.00010620874601476871 0.054104944134975984 0 3.1788064549320161e-05 0.052097367449921592 0 -0.00054768367219130434 0.052574069898532506 0 0.00010620874601476871 0.054104944134975984 0 -0.00054768367219130434 0.052574069898532506 0 -0.00070862245706074982 0.052910018919994715 0 3.1788064549320161e-05 0.052097367449921592 0 -0.0007525515393710648 0.052101596518267693 0 -0.0007806250179098423 0.05187405170154033 0 3.1788064549320161e-05 0.052097367449921592 0 -0.00054768367219130434 0.052574069898532506 0 -0.0007525515393710648 0.052101596518267693 0 -0.0007525515393710648 0.052101596518267693 0 -0.00090718738060948029 0.051971844878378436 0 -0.0007806250179098423 0.05187405170154033 0 -0.0007525515393710648 0.052101596518267693 0 -0.00099401754180754938 0.052182429620256383 0 -0.00090718738060948029 0.051971844878378436 0 -0.00054768367219130434 0.052574069898532506 0 -0.0007525515393710648 0.052101596518267693 0 -0.00099401754180754938 0.052182429620256383 0 -0.00054768367219130434 0.052574069898532506 0 -0.00099401754180754938 0.052182429620256383 0 -0.00070862245706074982 0.052910018919994715 0 -0.0012446492021063636 0.052311676643200189 0 -0.00099401754180754938 0.052182429620256383 0 -0.00070862245706074982 0.052910018919994715 0 -0.0018405448986115718 0.051807828490974157 0 -0.0012446492021063636 0.052311676643200189 0 -0.0012283967130875453 0.051787811927166236 0 -0.0012446492021063636 0.052311676643200189 0 -0.00099401754180754938 0.052182429620256383 0 -0.0012283967130875453 0.051787811927166236 0 -0.0012283967130875453 0.051787811927166236 0 -0.00090718738060948029 0.051971844878378436 0 -0.00072412270644225919 0.051913284946278615 0 -0.00099401754180754938 0.052182429620256383 0 -0.0012283967130875453 0.051787811927166236 0 -0.00090718738060948029 0.051971844878378436 0 -0.00090718738060948029 0.051971844878378436 0 -0.00064930027177856591 0.052011417488576024 0 -0.00072412270644225919 0.051913284946278615 0 -0.00090718738060948029 0.051971844878378436 0 -0.00064930027177856591 0.052011417488576024 0 -0.0007806250179098423 0.05187405170154033 0 -0.00064930027177856591 0.052011417488576024 0 -0.0007806250179098423 0.05187405170154033 0 -0.00042837661007681031 0.052264436989794896 0 -0.00068695515274169174 0.051811892869232878 0 -0.00039656945361263681 0.052352895890737258 0 -0.00047688511630291681 0.052265718937456677 0 -0.00042837661007681031 0.052264436989794896 0 -0.00046554616804431583 0.052343263637090069 0 -0.00064930027177856591 0.052011417488576024 0 -0.00042837661007681031 0.052264436989794896 0 -0.00031282212190900289 0.05213447187312073 0 -0.00042837661007681031 0.052264436989794896 0 -0.00031282212190900289 0.05213447187312073 0 -5.0230461427207951e-05 0.05227591911087931 0 -0.00031282212190900289 0.05213447187312073 0 -0.00030776413472439687 0.051995717385908788 0 0.00012958619162301425 0.052206030855692566 0 -0.00031282212190900289 0.05213447187312073 0 0.00012958619162301425 0.052206030855692566 0 -5.0230461427207951e-05 0.05227591911087931 0 -0.00030776413472439687 0.051995717385908788 0 6.7442125302346755e-05 0.05194975281540315 0 0.00012958619162301425 0.052206030855692566 0 -0.00031282212190900289 0.05213447187312073 0 -0.00030776413472439687 0.051995717385908788 0 -0.00072412270644225919 0.051913284946278615 0 -0.00064930027177856591 0.052011417488576024 0 -0.00031282212190900289 0.05213447187312073 0 -0.00072412270644225919 0.051913284946278615 0 -0.00030776413472439687 0.051995717385908788 0 -0.00072412270644225919 0.051913284946278615 0 -0.00042558553394520795 0.051558255790973957 0 -0.0012283967130875453 0.051787811927166236 0 -0.00072412270644225919 0.051913284946278615 0 -0.00042558553394520795 0.051558255790973957 0 -0.00081642610369408216 0.051082887443341579 0 -0.0012283967130875453 0.051787811927166236 0 -0.00042558553394520795 0.051558255790973957 0 -0.00081642610369408216 0.051082887443341579 0 -0.0013355862013340518 0.051114235154965819 0 -0.0012283967130875453 0.051787811927166236 0 -0.00016498400689408577 0.050537331409723704 0 -0.00081642610369408216 0.051082887443341579 0 -0.00042558553394520795 0.051558255790973957 0 -0.00016498400689408577 0.050537331409723704 0 -0.00042558553394520795 0.051558255790973957 0 0.00024779343613555064 0.050872017061865234 0 -0.00030776413472439687 0.051995717385908788 0 -0.00042558553394520795 0.051558255790973957 0 6.7442125302346755e-05 0.05194975281540315 0 -0.00042558553394520795 0.051558255790973957 0 0.00053513855367202858 0.051595121083066568 0 6.7442125302346755e-05 0.05194975281540315 0 -0.00042558553394520795 0.051558255790973957 0 0.00053513855367202858 0.051595121083066568 0 0.00024779343613555064 0.050872017061865234 0 0.00082190635953781972 0.050040703967459611 0 0.00024779343613555064 0.050872017061865234 0 0.0011668758707495831 0.050652901527360739 0 0.00053513855367202858 0.051595121083066568 0 0.00024779343613555064 0.050872017061865234 0 0.0011668758707495831 0.050652901527360739 0 0.0011668758707495831 0.050652901527360739 0 0.0013232150010024392 0.051279176401555805 0 0.0020602224921086368 0.050439518443372709 0 0.00053513855367202858 0.051595121083066568 0 0.0013232150010024392 0.051279176401555805 0 0.0010807859880597374 0.052181655926784629 0 0.00053513855367202858 0.051595121083066568 0 0.0011668758707495831 0.050652901527360739 0 0.0013232150010024392 0.051279176401555805 0 0.00053513855367202858 0.051595121083066568 0 0.00051351097619405962 0.052154222586006799 0 0.0010807859880597374 0.052181655926784629 0 0.00051351097619405962 0.052154222586006799 0 0.0010807859880597374 0.052181655926784629 0 0.00061517653431017569 0.05214734826869525 0 0.00051351097619405962 0.052154222586006799 0 6.7442125302346755e-05 0.05194975281540315 0 0.00012958619162301425 0.052206030855692566 0 0.00053513855367202858 0.051595121083066568 0 0.00051351097619405962 0.052154222586006799 0 6.7442125302346755e-05 0.05194975281540315 0 0.00051351097619405962 0.052154222586006799 0 0.00012958619162301425 0.052206030855692566 0 0.00039406753452665862 0.052145139276575311 0 0.00051351097619405962 0.052154222586006799 0 0.00039406753452665862 0.052145139276575311 0 0.00061517653431017569 0.05214734826869525 0 0.00039406753452665862 0.052145139276575311 0 0.00022313563002076352 0.052205201112094764 0 0.00026759208967521504 0.052032434702213429 0 0.00012958619162301425 0.052206030855692566 0 0.00039406753452665862 0.052145139276575311 0 0.00022313563002076352 0.052205201112094764 0 0.00022313563002076352 0.052205201112094764 0 0.00026759208967521504 0.052032434702213429 0 0.00013229515829322059 0.052297930759387601 0 0.00039406753452665862 0.052145139276575311 0 0.00026759208967521504 0.052032434702213429 0 0.00022140165437454072 0.051928742829369268 0 0.00026759208967521504 0.052032434702213429 0 0.00018304906214751829 0.051774548342583306 0 0.00010946060062298319 0.051639600507551085 0 0.00018304906214751829 0.051774548342583306 0 0.00019207016333137449 0.052247165544673978 0 0.00017564573880022598 0.052167361893104593 0 0.00026759208967521504 0.052032434702213429 0 0.00018304906214751829 0.051774548342583306 0 0.00019207016333137449 0.052247165544673978 0 0.00026759208967521504 0.052032434702213429 0 0.00019207016333137449 0.052247165544673978 0 0.00013229515829322059 0.052297930759387601 0 0.00019207016333137449 0.052247165544673978 0 4.9223460450370303e-05 0.052541036142004567 0 0.00013229515829322059 0.052297930759387601 0 0.00019207016333137449 0.052247165544673978 0 0.00010098598521397144 0.052748153551626611 0 0.00017564573880022598 0.052167361893104593 0 0.00019207016333137449 0.052247165544673978 0 4.9223460450370303e-05 0.052541036142004567 0 0.00010098598521397144 0.052748153551626611 0 4.9223460450370303e-05 0.052541036142004567 0 -4.2029540201596495e-05 0.052854536022117697 0 0.00010098598521397144 0.052748153551626611 0 4.9223460450370303e-05 0.052541036142004567 0 -9.8260888852064947e-05 0.052403369587608467 0 0.00013229515829322059 0.052297930759387601 0 -9.8260888852064947e-05 0.052403369587608467 0 0.00013229515829322059 0.052297930759387601 0 -5.0230461427207951e-05 0.05227591911087931 0 0.00012958619162301425 0.052206030855692566 0 0.00022313563002076352 0.052205201112094764 0 -5.0230461427207951e-05 0.05227591911087931 0 0.00022313563002076352 0.052205201112094764 0 0.00013229515829322059 0.052297930759387601 0 -5.0230461427207951e-05 0.05227591911087931 0 -0.00042837661007681031 0.052264436989794896 0 -9.8260888852064947e-05 0.052403369587608467 0 -5.0230461427207951e-05 0.05227591911087931 0 -0.00042837661007681031 0.052264436989794896 0 -9.8260888852064947e-05 0.052403369587608467 0 -0.00023889823378146711 0.052581995170404433 0 -0.00042837661007681031 0.052264436989794896 0 -0.00023889823378146711 0.052581995170404433 0 -0.00046554616804431583 0.052343263637090069 0 -0.00023889823378146711 0.052581995170404433 0 -0.0002728453732629226 0.052863639925042262 0 -0.00044574618035263209 0.052629016446668418 0 -0.00023889823378146711 0.052581995170404433 0 -0.00044574618035263209 0.052629016446668418 0 -0.00046554616804431583 0.052343263637090069 0 4.9223460450370303e-05 0.052541036142004567 0 -9.8260888852064947e-05 0.052403369587608467 0 -0.00023889823378146711 0.052581995170404433 0 4.9223460450370303e-05 0.052541036142004567 0 -0.00023889823378146711 0.052581995170404433 0 -4.2029540201596495e-05 0.052854536022117697 0 -4.2029540201596495e-05 0.052854536022117697 0 -8.0150665160674617e-06 0.053171056011309489 0 0.00010098598521397144 0.052748153551626611 0 -8.0150665160674617e-06 0.053171056011309489 0 -0.00014333536744591326 0.053318023053795641 0 -0.00017630533147886028 0.053957121583848459 0 -4.2029540201596495e-05 0.052854536022117697 0 -8.0150665160674617e-06 0.053171056011309489 0 -0.00014333536744591326 0.053318023053795641 0 -4.2029540201596495e-05 0.052854536022117697 0 -0.00014333536744591326 0.053318023053795641 0 -0.0002728453732629226 0.052863639925042262 0 -0.00023889823378146711 0.052581995170404433 0 -4.2029540201596495e-05 0.052854536022117697 0 -0.0002728453732629226 0.052863639925042262 0 -0.00014333536744591326 0.053318023053795641 0 -0.0002728453732629226 0.052863639925042262 0 -0.00067721613764251242 0.053012579507701073 0 -0.0002728453732629226 0.052863639925042262 0 -0.00067721613764251242 0.053012579507701073 0 -0.00044574618035263209 0.052629016446668418 0 -0.00067721613764251242 0.053012579507701073 0 -0.00032195415997436042 0.054479732561260992 0 -0.00017630533147886028 0.053957121583848459 0 -0.00014333536744591326 0.053318023053795641 0 -0.00067721613764251242 0.053012579507701073 0 -0.00017630533147886028 0.053957121583848459 0 6.0581626410887926e-08 0.054999547100861607 0 -7.5181951441023769e-05 0.055060012357146353 0 -0.00032195415997436042 0.054479732561260992 0 -0.0003641341060935317 0.054028991676887107 0 -0.00033420057235364044 0.054419954094134665 0 6.0581626410887926e-08 0.054999547100861607 0 -7.5181951441023769e-05 0.055060012357146353 0 -1.099652947175325e-07 0.0550002485486265 0 -7.5181951441023769e-05 0.055060012357146353 0 -1.099652947175325e-07 0.0550002485486265 0 -1.8359962990851716e-06 0.054993441263486806 0 -0.0003641341060935317 0.054028991676887107 0 -0.00031036491133950764 0.053725257078545537 0 -0.00067721613764251242 0.053012579507701073 0 -0.00044574618035263209 0.052629016446668418 0 -0.00061812555076417404 0.05244365685029051 0 -0.00044574618035263209 0.052629016446668418 0 -0.00046554616804431583 0.052343263637090069 0 -0.00061812555076417404 0.05244365685029051 0 -0.00053143586904442325 0.052282647752220031 0 -0.00046554616804431583 0.052343263637090069 0 -0.00061812555076417404 0.05244365685029051 0 2.6876654497496482e-08 0.054999915479533319 0 -1.099652947175325e-07 0.0550002485486265 0 -1.8359962990851716e-06 0.054993441263486806 0 -0.00028812275285755497 0.05364781804058024 0 -0.00031036491133950764 0.053725257078545537 0 -1.4736675505511957e-06 0.054992080263394749 0 2.6876654497496482e-08 0.054999915479533319 0 -1.8359962990851716e-06 0.054993441263486806 0 -0.0019060539107126758 0.035402808060639994 0 -0.0028403432086152275 0.034539423388181618 0 -0.00085508786240679759 0.034406792950273511 0 -0.0019060539107126758 0.035402808060639994 0 -0.0028403432086152275 0.034539423388181618 0 -0.0033669346814511961 0.035474308831798092 0 -0.0028403432086152275 0.034539423388181618 0 -0.0033669346814511961 0.035474308831798092 0 -0.0048432823238066828 0.03465864944989392 0 -0.0028777597811391609 0.036303137001788742 0 -0.0042295566796138563 0.036111752135671513 0 -0.0036113015780073181 0.037545908408188632 0 -0.0033669346814511961 0.035474308831798092 0 -0.0028777597811391609 0.036303137001788742 0 -0.0042295566796138563 0.036111752135671513 0 -0.0028777597811391609 0.036303137001788742 0 -0.002027014834391432 0.036431358869780321 0 -0.0025951601804511176 0.03687478409311401 0 -0.0019060539107126758 0.035402808060639994 0 -0.0033669346814511961 0.035474308831798092 0 -0.0028777597811391609 0.036303137001788742 0 -0.0019060539107126758 0.035402808060639994 0 -0.0028777597811391609 0.036303137001788742 0 -0.002027014834391432 0.036431358869780321 0 -0.0010522864451254341 0.036338846955836848 0 -0.0008789678718390283 0.036368828943473368 0 -0.00085508786240679759 0.034406792950273511 0 -0.0014997487641814926 0.032734438660750098 0 -0.0018113651264593394 0.032422665513869658 0 -0.0019060539107126758 0.035402808060639994 0 -0.002027014834391432 0.036431358869780321 0 -0.0010522864451254341 0.036338846955836848 0 -0.0013231625127987183 0.029712150097852195 0 -0.0018113651264593394 0.032422665513869658 0 -0.004574067709027959 0.030391097368562412 0 -0.0060155735130041138 0.030087029639308482 0 -0.0050076403210735686 0.029167575682853029 0 -0.0046946446773877878 0.028056991821671429 0 -0.0050076403210735686 0.029167575682853029 0 -0.0059762254593003997 0.028157639743054103 0 -0.0060155735130041138 0.030087029639308482 0 -0.0050076403210735686 0.029167575682853029 0 -0.0059762254593003997 0.028157639743054103 0 -0.0018113651264593394 0.032422665513869658 0 -0.0039348343829664892 0.030619835149097527 0 -0.0019060539107126758 0.035402808060639994 0 -0.0010522864451254341 0.036338846955836848 0 -0.00085508786240679759 0.034406792950273511 0 -0.0054971144312736886 0.027878475934034003 0 -0.0051692556974036671 0.027410520194671734 0 -0.0060050202946554119 0.027759919350715107 0 -0.0055138365018187769 0.028212808584647992 0 -0.0054971144312736886 0.027878475934034003 0 -0.0060050202946554119 0.027759919350715107 0 -0.0039348343829664892 0.030619835149097527 0 -0.0046870088229955167 0.027998866450805061 0 -0.0046946446773877878 0.028056991821671429 0 -0.0054971144312736886 0.027878475934034003 0 -0.0051692556974036671 0.027410520194671734 0 -0.0054307082818961109 0.027867851619304478 0 -0.0039348343829664892 0.030619835149097527 0 -0.0046946446773877878 0.028056991821671429 0 -0.0054966139465072407 0.028200030133062128 0 -0.0054971144312736886 0.027878475934034003 0 -0.0056766995195307026 0.026616876150841202 0 -0.0045915241591988768 0.025632136366688575 0 -0.0073156152178108658 0.02646096446102256 0 -0.0056766995195307026 0.026616876150841202 0 -0.0066184124178919309 0.027480419214514152 0 -0.0073156152178108658 0.02646096446102256 0 -0.0059379591706310011 0.027431669058541313 0 -0.0073805943067584345 0.028021263840084264 0 -0.0066184124178919309 0.027480419214514152 0 -0.0073156152178108658 0.02646096446102256 0 -0.0092615724425220633 0.028156178258116515 0 -0.0076717300874286484 0.026690534344886854 0 -0.011002421660579053 0.027950463796802862 0 -0.0073156152178108658 0.02646096446102256 0 -0.0092615724425220633 0.028156178258116515 0 -0.010808630997500308 0.027691939796676179 0 -0.0073805943067584345 0.028021263840084264 0 -0.010867181352811795 0.027942708406987142 0 -0.0092615724425220633 0.028156178258116515 0 -0.010808630997500308 0.027691939796676179 0 -0.012300015224113699 0.02907799825875601 0 -0.010010151653099285 0.026556014277305685 0 -0.0080932993747375795 0.026958569055503916 0 -0.011108994499111008 0.028087093280853907 0 -0.0064412126555011369 0.028455895725409672 0 -0.0060050202946554119 0.027759919350715107 0 -0.006677094213830702 0.028030367433725632 0 -0.0047086062426278811 0.031124866331970286 0 -0.0039348343829664892 0.030619835149097527 0 -0.0064412126555011369 0.028455895725409672 0 -0.0055138365018187769 0.028212808584647992 0 -0.0060050202946554119 0.027759919350715107 0 -0.0064412126555011369 0.028455895725409672 0 -0.006677094213830702 0.028030367433725632 0 -0.0069606509472608007 0.028302370201293808 0 -0.012427846196926098 0.027060996925006516 0 -0.011108994499111008 0.028087093280853907 0 -0.013117718393167461 0.027768788428882887 0 -0.011108994499111008 0.028087093280853907 0 -0.013117718393167461 0.027768788428882887 0 -0.014411563081381194 0.029140031699219294 0 -0.011002421660579053 0.027950463796802862 0 -0.014517894862969808 0.029350654411327733 0 -0.010808630997500308 0.027691939796676179 0 -0.012300015224113699 0.02907799825875601 0 -0.014693356602209729 0.02954389380752442 0 -0.010867181352811795 0.027942708406987142 0 -0.0049930648882680999 0.035917201219569574 0 -0.013117718393167461 0.027768788428882887 0 -0.014411563081381194 0.029140031699219294 0 -0.014888027492468843 0.028288787175422079 0 -0.011108994499111008 0.028087093280853907 0 -0.014693356602209729 0.02954389380752442 0 -0.014411563081381194 0.029140031699219294 0 -0.012300015224113699 0.02907799825875601 0 -0.014693356602209729 0.02954389380752442 0 -0.015474310711951331 0.030139778744200083 0 -0.013084885094709156 0.026834064126389789 0 -0.013117718393167461 0.027768788428882887 0 -0.014888027492468843 0.028288787175422079 0 -0.014693356602209729 0.02954389380752442 0 -0.014916379994033276 0.028882603281065049 0 -0.015474310711951331 0.030139778744200083 0 -0.0038064791401792152 0.039219286101167629 0 -0.0049930648882680999 0.035917201219569574 0 -0.014693356602209729 0.02954389380752442 0 -0.014411563081381194 0.029140031699219294 0 -0.014916379994033276 0.028882603281065049 0 -0.010840452257387093 0.030731357607052433 0 -0.0038064791401792152 0.039219286101167629 0 -0.0049930648882680999 0.035917201219569574 0 0.0037941569389756307 0.048465295497813539 0 0.0052502631386970302 0.049254116969266001 0 0.0044897698615998368 0.049441260145349275 0 0.0050355003929370198 0.049801493297807413 0 0.0042418937777616529 0.049896310708760348 0 0.0050355003929370198 0.049801493297807413 0 0.0038727104335507514 0.050380416438648198 0 0.0044897698615998368 0.049441260145349275 0 0.0042418937777616529 0.049896310708760348 0 0.0039523659049258142 0.04971539832761513 0 0.0044897698615998368 0.049441260145349275 0 0.0042418937777616529 0.049896310708760348 0 0.0050355003929370198 0.049801493297807413 0 -0.0013251319816183999 0.042924922908374616 0 -5.3207258694821336e-05 0.042934146651337789 0 -0.00074304702957893028 0.041672442508591874 0 -5.3207258694821336e-05 0.042934146651337789 0 -0.00047443917357375981 0.041668943269570463 0 -0.00074304702957893028 0.041672442508591874 0 -0.0049930648882680999 0.035917201219569574 0 -0.0033195124308687822 0.040104004364457643 0 -0.0072660638502558611 0.028205784164307537 0 -0.0072587212612278068 0.028579563392116536 0 -0.0075204212916212794 0.02882341097097434 0 -0.0072660638502558611 0.028205784164307537 0 -0.0072587212612278068 0.028579563392116536 0 -0.0071565757231961602 0.028394256621794595 0 -0.0072587212612278068 0.028579563392116536 0 -0.0071561943924701287 0.028811295983574525 0 -0.0075204212916212794 0.02882341097097434 0 -0.006797068343437033 0.030344255318311752 0 -0.0049601056246101208 0.034988162018254443 0 -0.0069606509472608007 0.028302370201293808 0 -0.0071565757231961602 0.028394256621794595 0 -0.0071961392098516342 0.028697799088991276 0 -0.0072587212612278068 0.028579563392116536 0 -0.0071565757231961602 0.028394256621794595 0 -0.0071961392098516342 0.028697799088991276 0 -0.0064412126555011369 0.028455895725409672 0 -0.0069606509472608007 0.028302370201293808 0 -0.0071961392098516342 0.028697799088991276 0 -0.006677094213830702 0.028030367433725632 0 -0.0072660638502558611 0.028205784164307537 0 -0.0069606509472608007 0.028302370201293808 0 -0.0072660638502558611 0.028205784164307537 0 -0.0069606509472608007 0.028302370201293808 0 -0.0071565757231961602 0.028394256621794595 0 0.0024021044813058797 0.049344619443589442 0 0.0011668758707495831 0.050652901527360739 0 0.0020602224921086368 0.050439518443372709 0 0.0024021044813058797 0.049344619443589442 0 0.0020602224921086368 0.050439518443372709 0 0.0027954944240765342 0.049842035337915584 0 0.0013232150010024392 0.051279176401555805 0 0.0020602224921086368 0.050439518443372709 0 0.0024197093142981261 0.050918970624826206 0 0.0020602224921086368 0.050439518443372709 0 0.0027954944240765342 0.049842035337915584 0 0.0029587362976837761 0.050313043100259802 0 0.0020602224921086368 0.050439518443372709 0 0.0029587362976837761 0.050313043100259802 0 0.0024197093142981261 0.050918970624826206 0 0.0029587362976837761 0.050313043100259802 0 0.0039175814729071933 0.050791158195631833 0 0.0024197093142981261 0.050918970624826206 0 0.0029587362976837761 0.050313043100259802 0 0.0037450978559830776 0.050188743399146418 0 0.0039175814729071933 0.050791158195631833 0 0.0029587362976837761 0.050313043100259802 0 0.0034482008064599069 0.049846988681507269 0 0.0037450978559830776 0.050188743399146418 0 0.0037869744271786668 0.049304140646182423 0 0.0027954944240765342 0.049842035337915584 0 0.0034482008064599069 0.049846988681507269 0 0.0027954944240765342 0.049842035337915584 0 0.0029587362976837761 0.050313043100259802 0 0.0034482008064599069 0.049846988681507269 0 0.0037869744271786668 0.049304140646182423 0 0.0044897698615998368 0.049441260145349275 0 0.0039523659049258142 0.04971539832761513 0 0.0037869744271786668 0.049304140646182423 0 0.0034482008064599069 0.049846988681507269 0 0.0039523659049258142 0.04971539832761513 0 0.0034482008064599069 0.049846988681507269 0 0.0039523659049258142 0.04971539832761513 0 0.0037450978559830776 0.050188743399146418 0 0.0042418937777616529 0.049896310708760348 0 0.0039523659049258142 0.04971539832761513 0 0.0037450978559830776 0.050188743399146418 0 0.0040193582960319591 0.049633839243932894 0 0.0037941569389756307 0.048465295497813539 0 0.0042418937777616529 0.049896310708760348 0 0.0037450978559830776 0.050188743399146418 0 0.0038727104335507514 0.050380416438648198 0 0.0026347706371235031 0.051479298274303718 0 0.0010807859880597374 0.052181655926784629 0 0.0037915754610686782 0.052198489050618559 0 0.0032270626011752113 0.050779315819709077 0 0.0026347706371235031 0.051479298274303718 0 0.0037915754610686782 0.052198489050618559 0 0.0037941569389756307 0.048465295497813539 0 -0.00020803521745067449 0.046050781888592018 0 0.0037941569389756307 0.048465295497813539 0 0.0025428085260878687 0.050430097867488442 0 0.0032270626011752113 0.050779315819709077 0 0.0026347706371235031 0.051479298274303718 0 0.0024197093142981261 0.050918970624826206 0 0.0026347706371235031 0.051479298274303718 0 0.0024197093142981261 0.050918970624826206 0 0.0010807859880597374 0.052181655926784629 0 0.0013232150010024392 0.051279176401555805 0 0.0024197093142981261 0.050918970624826206 0 0.0010807859880597374 0.052181655926784629 0 0.0010807859880597374 0.052181655926784629 0 0.00041810321095742375 0.052218578492171396 0 0.00061517653431017569 0.05214734826869525 0 0.0010807859880597374 0.052181655926784629 0 0.00041810321095742375 0.052218578492171396 0 -2.7430742306422771e-05 0.052551591459158449 0 0.0019740541620707017 0.053950762660160016 0 -0.00020803521745067449 0.046050781888592018 0 0.00041810321095742375 0.052218578492171396 0 0.00018036343408904724 0.052226676615793263 0 0.00026837885379797915 0.052148196332865236 0 0.00041810321095742375 0.052218578492171396 0 9.5766432476098679e-05 0.052334238350486229 0 -2.7430742306422771e-05 0.052551591459158449 0 0.00041810321095742375 0.052218578492171396 0 9.5766432476098679e-05 0.052334238350486229 0 0.00018036343408904724 0.052226676615793263 0 9.5766432476098679e-05 0.052334238350486229 0 0.00018036343408904724 0.052226676615793263 0 4.8913539626832874e-05 0.052271609732486388 0 0.00018036343408904724 0.052226676615793263 0 4.8913539626832874e-05 0.052271609732486388 0 6.6203024238208963e-05 0.052196981233545443 0 6.6203024238208963e-05 0.052196981233545443 0 1.9675395357091372e-05 0.05213234879111777 0 0.00026837885379797915 0.052148196332865236 0 0.00018036343408904724 0.052226676615793263 0 6.6203024238208963e-05 0.052196981233545443 0 0.00026837885379797915 0.052148196332865236 0 6.6203024238208963e-05 0.052196981233545443 0 1.9675395357091372e-05 0.05213234879111777 0 -1.9678791791093618e-05 0.052173713736936141 0 1.9675395357091372e-05 0.05213234879111777 0 0.00010743850814429774 0.052066866716265606 0 0.00026837885379797915 0.052148196332865236 0 1.9675395357091372e-05 0.05213234879111777 0 0.00010743850814429774 0.052066866716265606 0 -0.00010518100763039029 0.052052632369436226 0 0.00010743850814429774 0.052066866716265606 0 0.00026837885379797915 0.052148196332865236 0 0.00032418171182566167 0.052056884412956653 0 0.00041810321095742375 0.052218578492171396 0 0.00026837885379797915 0.052148196332865236 0 0.00061517653431017569 0.05214734826869525 0 0.00039406753452665862 0.052145139276575311 0 0.00032418171182566167 0.052056884412956653 0 0.00061517653431017569 0.05214734826869525 0 0.00026837885379797915 0.052148196332865236 0 0.00032418171182566167 0.052056884412956653 0 0.00061517653431017569 0.05214734826869525 0 -0.0047086062426278811 0.031124866331970286 0 -0.0049601056246101208 0.034988162018254443 0 -0.0033669346814511961 0.035474308831798092 0 -0.0048432823238066828 0.03465864944989392 0 -0.0042295566796138563 0.036111752135671513 0 -0.0029524854122970068 0.043913910435997267 0 -0.0030972288205367779 0.045503403083177095 0 -0.0021760842239455383 0.046019784587870274 0 -0.0049601056246101208 0.034988162018254443 0 -0.0029686346288770185 0.041588368129093188 0 -0.0029524854122970068 0.043913910435997267 0 -0.0039845053960764765 0.043962663179763189 0 -0.0037427504365651885 0.044325484669211851 0 -0.0049601056246101208 0.034988162018254443 0 -0.0033195124308687822 0.040104004364457643 0 -0.0029524854122970068 0.043913910435997267 0 -0.003503300954263479 0.044618522963758386 0 -0.0030972288205367779 0.045503403083177095 0 -0.0029524854122970068 0.043913910435997267 0 -0.0037427504365651885 0.044325484669211851 0 -0.003503300954263479 0.044618522963758386 0 -0.0035710817187255884 0.042913547072180043 0 -0.0023303708211349673 0.042856341963548344 0 -0.003061283517036344 0.044503336755436718 0 -0.00020803521745067449 0.046050781888592018 0 -0.0033195124308687822 0.040104004364457643 0 -0.0039845053960764765 0.043962663179763189 0 -0.0037427504365651885 0.044325484669211851 0 -0.0042064191833910422 0.044476256871155737 0 -0.0033195124308687822 0.040104004364457643 0 -0.0020644797826702547 0.04652431695846735 0 -0.0037427504365651885 0.044325484669211851 0 -0.0042064191833910422 0.044476256871155737 0 -0.0037648287754096675 0.044670838214051142 0 9.5766432476098679e-05 0.052334238350486229 0 -2.7430742306422771e-05 0.052551591459158449 0 -3.2533837677970644e-05 0.052366036003948763 0 -0.00020803521745067449 0.046050781888592018 0 -0.0020644797826702547 0.04652431695846735 0 4.8913539626832874e-05 0.052271609732486388 0 -3.2533837677970644e-05 0.052366036003948763 0 -6.5906420425120244e-05 0.052242787456721854 0 -0.0042064191833910422 0.044476256871155737 0 -0.0037648287754096675 0.044670838214051142 0 -0.0036067366118410871 0.045258204311670991 0 9.5766432476098679e-05 0.052334238350486229 0 4.8913539626832874e-05 0.052271609732486388 0 -3.2533837677970644e-05 0.052366036003948763 0 -0.003503300954263479 0.044618522963758386 0 -0.0036067366118410871 0.045258204311670991 0 -0.0030972288205367779 0.045503403083177095 0 -0.0037648287754096675 0.044670838214051142 0 -0.003503300954263479 0.044618522963758386 0 -0.0036067366118410871 0.045258204311670991 0 -0.0037427504365651885 0.044325484669211851 0 -0.0037648287754096675 0.044670838214051142 0 -0.003503300954263479 0.044618522963758386 0 -6.5906420425120244e-05 0.052242787456721854 0 -0.00010144562702872604 0.052126219659485933 0 -0.00030782607146594398 0.052031617388596373 0 -0.0036067366118410871 0.045258204311670991 0 -0.0030972288205367779 0.045503403083177095 0 -0.0032746910859656046 0.047043049217111811 0 -0.0042064191833910422 0.044476256871155737 0 -0.0036067366118410871 0.045258204311670991 0 -0.0032746910859656046 0.047043049217111811 0 -3.2533837677970644e-05 0.052366036003948763 0 -6.5906420425120244e-05 0.052242787456721854 0 -0.00030782607146594398 0.052031617388596373 0 -0.0030972288205367779 0.045503403083177095 0 -0.0028410044919938318 0.046534017273670146 0 -0.0032746910859656046 0.047043049217111811 0 -0.0020644797826702547 0.04652431695846735 0 -0.0017658369027563319 0.049932974196505484 0 -6.5906420425120244e-05 0.052242787456721854 0 -1.9678791791093618e-05 0.052173713736936141 0 -0.00010144562702872604 0.052126219659485933 0 4.8913539626832874e-05 0.052271609732486388 0 6.6203024238208963e-05 0.052196981233545443 0 -6.5906420425120244e-05 0.052242787456721854 0 6.6203024238208963e-05 0.052196981233545443 0 -6.5906420425120244e-05 0.052242787456721854 0 -1.9678791791093618e-05 0.052173713736936141 0 1.9675395357091372e-05 0.05213234879111777 0 -1.9678791791093618e-05 0.052173713736936141 0 -0.00010144562702872604 0.052126219659485933 0 -0.00010144562702872604 0.052126219659485933 0 -0.00010518100763039029 0.052052632369436226 0 -0.00030782607146594398 0.052031617388596373 0 1.9675395357091372e-05 0.05213234879111777 0 -0.00010144562702872604 0.052126219659485933 0 -0.00010518100763039029 0.052052632369436226 0 -0.0030972288205367779 0.045503403083177095 0 -0.0028410044919938318 0.046534017273670146 0 -0.0021760842239455383 0.046019784587870274 0 -0.0028410044919938318 0.046534017273670146 0 -0.0021760842239455383 0.046019784587870274 0 -0.0015511275268135054 0.047606648050445427 0 -0.0028410044919938318 0.046534017273670146 0 -0.0032746910859656046 0.047043049217111811 0 -0.0015782967159387444 0.047985570270763528 0 -0.0032746910859656046 0.047043049217111811 0 -0.0023705350557407415 0.049133857105678302 0 -0.0015782967159387444 0.047985570270763528 0 -0.0029686346288770185 0.041588368129093188 0 -0.0027530077633384806 0.044215808518181909 0 -0.0020164399363522267 0.047733099830856156 0 -0.0027530077633384806 0.044215808518181909 0 -0.00010518100763039029 0.052052632369436226 0 -0.00019255104370797946 0.05196097469409279 0 6.3836997254294289e-06 0.051942764206089356 0 -0.00010518100763039029 0.052052632369436226 0 -0.00030782607146594398 0.052031617388596373 0 -0.00019255104370797946 0.05196097469409279 0 -0.00030782607146594398 0.052031617388596373 0 -0.00019255104370797946 0.05196097469409279 0 -0.00035743545258512093 0.051797226855795304 0 -0.00019255104370797946 0.05196097469409279 0 -0.00035743545258512093 0.051797226855795304 0 6.3836997254294289e-06 0.051942764206089356 0 -0.00030782607146594398 0.052031617388596373 0 -0.00035743545258512093 0.051797226855795304 0 -0.00094329460410267621 0.051563349877002528 0 -0.00035743545258512093 0.051797226855795304 0 -8.3948185091796304e-05 0.0517003383432399 0 -0.00043248790063835286 0.051441992302056552 0 -0.00035743545258512093 0.051797226855795304 0 -0.00094329460410267621 0.051563349877002528 0 -0.00043248790063835286 0.051441992302056552 0 -0.0017658369027563319 0.049932974196505484 0 -0.0016526083868976141 0.050173339434822863 0 0.00039406753452665862 0.052145139276575311 0 0.00032418171182566167 0.052056884412956653 0 0.00022140165437454072 0.051928742829369268 0 0.00032418171182566167 0.052056884412956653 0 6.3836997254294289e-06 0.051942764206089356 0 0.00022140165437454072 0.051928742829369268 0 0.00010743850814429774 0.052066866716265606 0 0.00032418171182566167 0.052056884412956653 0 6.3836997254294289e-06 0.051942764206089356 0 0.00010743850814429774 0.052066866716265606 0 -0.00010518100763039029 0.052052632369436226 0 6.3836997254294289e-06 0.051942764206089356 0 6.3836997254294289e-06 0.051942764206089356 0 -8.3948185091796304e-05 0.0517003383432399 0 0.00022140165437454072 0.051928742829369268 0 -0.00035743545258512093 0.051797226855795304 0 6.3836997254294289e-06 0.051942764206089356 0 -8.3948185091796304e-05 0.0517003383432399 0 -8.3948185091796304e-05 0.0517003383432399 0 0.00022140165437454072 0.051928742829369268 0 0.00010946060062298319 0.051639600507551085 0 0.00026759208967521504 0.052032434702213429 0 0.00022140165437454072 0.051928742829369268 0 0.00010946060062298319 0.051639600507551085 0 0.00010946060062298319 0.051639600507551085 0 -0.00023833303707075537 0.051192544494014287 0 -5.0500798999743552e-05 0.051182771201077934 0 -8.3948185091796304e-05 0.0517003383432399 0 0.00010946060062298319 0.051639600507551085 0 -0.00023833303707075537 0.051192544494014287 0 -8.3948185091796304e-05 0.0517003383432399 0 -0.00023833303707075537 0.051192544494014287 0 -0.00043248790063835286 0.051441992302056552 0 -0.00023833303707075537 0.051192544494014287 0 -5.0500798999743552e-05 0.051182771201077934 0 -0.00055246916660939109 0.050376770120405152 0 0.00018304906214751829 0.051774548342583306 0 0.00010946060062298319 0.051639600507551085 0 -5.0500798999743552e-05 0.051182771201077934 0 0.00018304906214751829 0.051774548342583306 0 -5.0500798999743552e-05 0.051182771201077934 0 7.3625543143179928e-05 0.051444826539905876 0 -0.0016526083868976141 0.050173339434822863 0 -0.0015387035555823414 0.049850951051007605 0 -0.0023705350557407415 0.049133857105678302 0 -0.0014904444289207241 0.04977757210146351 0 -0.0015821842351054383 0.049604362369149425 0 -0.00094329460410267621 0.051563349877002528 0 -0.00075292970094851099 0.05072348819727053 0 -0.0014904444289207241 0.04977757210146351 0 -0.00023833303707075537 0.051192544494014287 0 -0.00075292970094851099 0.05072348819727053 0 -0.00043248790063835286 0.051441992302056552 0 -0.00094329460410267621 0.051563349877002528 0 -0.00075292970094851099 0.05072348819727053 0 -0.00043248790063835286 0.051441992302056552 0 -0.00023833303707075537 0.051192544494014287 0 -0.00075292970094851099 0.05072348819727053 0 -0.00055246916660939109 0.050376770120405152 0 -0.00075292970094851099 0.05072348819727053 0 -0.00055246916660939109 0.050376770120405152 0 -0.0014904444289207241 0.04977757210146351 0 -0.0019770342676292008 0.049435274196295995 0 -0.0015821842351054383 0.049604362369149425 0 -0.0016905852280443279 0.04883952305196014 0 -0.0014904444289207241 0.04977757210146351 0 -0.0015821842351054383 0.049604362369149425 0 -0.0016905852280443279 0.04883952305196014 0 -0.0025003094694973048 0.046279325429512255 0 -0.0020307197678201476 0.046562499218910848 0 -0.0019737769501319718 0.046397970799436944 0 -0.0025003094694973048 0.046279325429512255 0 -0.0020307197678201476 0.046562499218910848 0 -0.002449978101839295 0.047322040704681718 0 -0.0022544930338355604 0.047715743743187995 0 -0.0023969039081093713 0.047469736590130214 0 -0.0025003094694973048 0.046279325429512255 0 -0.0024250787419429799 0.045768377879875609 0 -0.0019737769501319718 0.046397970799436944 0 -0.0025003094694973048 0.046279325429512255 0 -0.0027154108426423827 0.045802929798296046 0 -0.0024250787419429799 0.045768377879875609 0 -0.0019770342676292008 0.049435274196295995 0 -0.0015821842351054383 0.049604362369149425 0 -0.0014007847483516857 0.049300225090203903 0 -0.0022544930338355604 0.047715743743187995 0 -0.0019342819008249762 0.047962488889311913 0 -0.0023705350557407415 0.049133857105678302 0 -0.0015821842351054383 0.049604362369149425 0 -0.0014007847483516857 0.049300225090203903 0 -0.0019342819008249762 0.047962488889311913 0 -0.0027530077633384806 0.044215808518181909 0 -0.0025389961303773257 0.04238332923980781 0 -0.0027530077633384806 0.044215808518181909 0 -0.0027154108426423827 0.045802929798296046 0 -0.0024250787419429799 0.045768377879875609 0 -0.0029234326181797375 0.045254644872489584 0 -0.0023705350557407415 0.049133857105678302 0 -0.0014007847483516857 0.049300225090203903 0 -0.0015782967159387444 0.047985570270763528 0 -0.0022859900097008082 0.03872015310365412 0 -0.0018652980757324223 0.037218958323979263 0 -0.0036113015780073181 0.037545908408188632 0 -0.0018652980757324223 0.037218958323979263 0 -0.0025951601804511176 0.03687478409311401 0 -0.0036113015780073181 0.037545908408188632 0 -0.002027014834391432 0.036431358869780321 0 -0.0018652980757324223 0.037218958323979263 0 -0.0025951601804511176 0.03687478409311401 0 -0.0028777597811391609 0.036303137001788742 0 -0.0025951601804511176 0.03687478409311401 0 -0.0036113015780073181 0.037545908408188632 0 0.0025122839157785386 0.029570077819150119 0 0.00078482234837698385 0.029224028198324981 0 0.0018886655300987785 0.030649386021322948 0 0.00078482234837698385 0.029224028198324981 0 0.0018886655300987785 0.030649386021322948 0 0.00067734501805538996 0.031238914533646803 0 -0.0018113651264593394 0.032422665513869658 0 9.2994958704354142e-05 0.034284982309079656 0 -0.00087720687334414055 0.036369968655485085 0 -0.0018652980757324223 0.037218958323979263 0 -0.00091656782174671762 0.038154018314880779 0 -0.002027014834391432 0.036431358869780321 0 -0.0010522864451254341 0.036338846955836848 0 -0.0018652980757324223 0.037218958323979263 0 -0.0010522864451254341 0.036338846955836848 0 -0.00087720687334414055 0.036369968655485085 0 -0.0018652980757324223 0.037218958323979263 0 -0.0022859900097008082 0.03872015310365412 0 -0.0018652980757324223 0.037218958323979263 0 -0.00091656782174671762 0.038154018314880779 0 0.0031591608213063275 0.031056591044176542 0 0.0018886655300987785 0.030649386021322948 0 0.0019493530352972268 0.031989254849630146 0 0.0018886655300987785 0.030649386021322948 0 0.00067734501805538996 0.031238914533646803 0 0.0019493530352972268 0.031989254849630146 0 0.0019493530352972268 0.031989254849630146 0 8.0254225481096001e-05 0.033507082056647444 0 0.0021801081487265038 0.033475218894832584 0 0.00067734501805538996 0.031238914533646803 0 0.0019493530352972268 0.031989254849630146 0 8.0254225481096001e-05 0.033507082056647444 0 0.0031046801999716563 0.032568192736200284 0 0.0019493530352972268 0.031989254849630146 0 0.0021801081487265038 0.033475218894832584 0 9.2994958704354142e-05 0.034284982309079656 0 -0.00064211754098770894 0.039108942828195756 0 -0.0022859900097008082 0.03872015310365412 0 -0.00091656782174671762 0.038154018314880779 0 -0.00096440745602446485 0.039906911177219756 0 -0.0025389961303773257 0.04238332923980781 0 -0.00064211754098770894 0.039108942828195756 0 -0.0015225871076217585 0.032169720733620399 0 0.00040817764989124777 0.033912277290219686 0 -0.0014715445153371922 0.046021148487275752 0 -0.00064211754098770894 0.039108942828195756 0 -0.0014685631191382769 0.036777553464721564 0 0.0021801081487265038 0.033475218894832584 0 0.0015831162283383815 0.034251128413537391 0 0.0026904440595848433 0.034798232235287864 0 8.0254225481096001e-05 0.033507082056647444 0 0.00040817764989124777 0.033912277290219686 0 0.0015831162283383815 0.034251128413537391 0 8.0254225481096001e-05 0.033507082056647444 0 0.0021801081487265038 0.033475218894832584 0 0.0015831162283383815 0.034251128413537391 0 0.00040817764989124777 0.033912277290219686 0 0.0015831162283383815 0.034251128413537391 0 0.0022696288403019995 0.036217394967113209 0 0.0022696288403019995 0.036217394967113209 0 0.0026904440595848433 0.034798232235287864 0 0.0027814285049796105 0.035370452946833067 0 0.0015831162283383815 0.034251128413537391 0 0.0022696288403019995 0.036217394967113209 0 0.0026904440595848433 0.034798232235287864 0 0.0022696288403019995 0.036217394967113209 0 0.0032726010579209458 0.043736573639516503 0 -0.0014715445153371922 0.046021148487275752 0 0.0022696288403019995 0.036217394967113209 0 0.0027814285049796105 0.035370452946833067 0 0.0028523530121479048 0.035394125756645675 0 0.0023616459911597019 0.036586942206996369 0 0.002868169478768931 0.039377819369924592 0 0.0027814285049796105 0.035370452946833067 0 0.0028523530121479048 0.035394125756645675 0 0.0034808822949120824 0.035076343525120297 0 -0.00064211754098770894 0.039108942828195756 0 -0.0018430042423518229 0.045828402647513457 0 -0.0020307197678201476 0.046562499218910848 0 -0.0014715445153371922 0.046021148487275752 0 -0.002449978101839295 0.047322040704681718 0 0.00040817764989124777 0.033912277290219686 0 0.0022696288403019995 0.036217394967113209 0 -0.0014715445153371922 0.046021148487275752 0 -0.0020307197678201476 0.046562499218910848 0 -0.0019737769501319718 0.046397970799436944 0 -0.0014715445153371922 0.046021148487275752 0 -0.0014715445153371922 0.046021148487275752 0 -0.0027764496326005677 0.047393698496160014 0 -0.002449978101839295 0.047322040704681718 0 -0.0014715445153371922 0.046021148487275752 0 0.0029503322907901506 0.048093347342411351 0 -0.0027764496326005677 0.047393698496160014 0 -0.00036260893446312016 0.047737293725794161 0 -0.00057832930515011485 0.048719819941687857 0 -0.0006073232429253838 0.04876142020976551 0 0.0022339137227119278 0.041963540931069632 0 -0.0017499157128757715 0.048949414170846223 0 0.0032726010579209458 0.043736573639516503 0 -0.0014715445153371922 0.046021148487275752 0 0.0029503322907901506 0.048093347342411351 0 0.0028523530121479048 0.035394125756645675 0 0.0030405350241424697 0.036030065976630984 0 0.0034808822949120824 0.035076343525120297 0 0.002868169478768931 0.039377819369924592 0 0.0022339137227119278 0.041963540931069632 0 -0.00036260893446312016 0.047737293725794161 0 -0.00035591765990291148 0.048428045093559316 0 -0.00014857827322574985 0.047984731127249609 0 0.0022339137227119278 0.041963540931069632 0 0.0018755140913844243 0.042599768973245397 0 -0.00036260893446312016 0.047737293725794161 0 -0.00046750352587083584 0.048462596551053921 0 -0.00035591765990291148 0.048428045093559316 0 -0.00036260893446312016 0.047737293725794161 0 -0.00057832930515011485 0.048719819941687857 0 -0.00046750352587083584 0.048462596551053921 0 -0.00057832930515011485 0.048719819941687857 0 -0.00051941394636350919 0.048803210023658665 0 -0.00063017439373895296 0.049029439841973686 0 -0.00057832930515011485 0.048719819941687857 0 -0.00046750352587083584 0.048462596551053921 0 -0.00051941394636350919 0.048803210023658665 0 -0.00046750352587083584 0.048462596551053921 0 -0.00051941394636350919 0.048803210023658665 0 -0.00035591765990291148 0.048428045093559316 0 -0.00051941394636350919 0.048803210023658665 0 -0.00035591765990291148 0.048428045093559316 0 -0.00034934525448886172 0.048776279755686471 0 -0.00035591765990291148 0.048428045093559316 0 -0.00034934525448886172 0.048776279755686471 0 -0.00014857827322574985 0.047984731127249609 0 -0.00034934525448886172 0.048776279755686471 0 -0.00010896402004437901 0.048726358979690368 0 -0.00014857827322574985 0.047984731127249609 0 -0.00070214968794640785 0.04962772044324771 0 -0.00063017439373895296 0.049029439841973686 0 -0.00072572855921691109 0.049594031874744926 0 -0.00063017439373895296 0.049029439841973686 0 -0.00062025684560038064 0.049272064089258626 0 -0.00072572855921691109 0.049594031874744926 0 -0.00051941394636350919 0.048803210023658665 0 -0.00063017439373895296 0.049029439841973686 0 -0.00062025684560038064 0.049272064089258626 0 -0.00057832930515011485 0.048719819941687857 0 -0.00063017439373895296 0.049029439841973686 0 -0.0006073232429253838 0.04876142020976551 0 -0.00063017439373895296 0.049029439841973686 0 -0.00067257356459016811 0.049346795627274731 0 -0.0006073232429253838 0.04876142020976551 0 -0.00070214968794640785 0.04962772044324771 0 -0.00063017439373895296 0.049029439841973686 0 -0.00067257356459016811 0.049346795627274731 0 -0.0011282889998091136 0.04891236462630514 0 -0.0017499157128757715 0.048949414170846223 0 -0.00067257356459016811 0.049346795627274731 0 -0.00066682773168205418 0.049576832461378832 0 -0.0006073232429253838 0.04876142020976551 0 -0.001564261950684036 0.048435304376792492 0 -0.0027764496326005677 0.047393698496160014 0 -0.002449978101839295 0.047322040704681718 0 -0.0019770342676292008 0.049435274196295995 0 -0.002449978101839295 0.047322040704681718 0 -0.0016905852280443279 0.04883952305196014 0 -0.001564261950684036 0.048435304376792492 0 -0.002449978101839295 0.047322040704681718 0 -0.0016905852280443279 0.04883952305196014 0 -0.001564261950684036 0.048435304376792492 0 -0.0016905852280443279 0.04883952305196014 0 -0.0011585836438135356 0.04947184402179286 0 -0.00055246916660939109 0.050376770120405152 0 -0.0014904444289207241 0.04977757210146351 0 -0.0011585836438135356 0.04947184402179286 0 -0.0014904444289207241 0.04977757210146351 0 -0.0016905852280443279 0.04883952305196014 0 -0.0011585836438135356 0.04947184402179286 0 -0.00055246916660939109 0.050376770120405152 0 -0.0011585836438135356 0.04947184402179286 0 -0.00054341020039496649 0.050060281228617394 0 -0.001564261950684036 0.048435304376792492 0 -0.0011585836438135356 0.04947184402179286 0 -0.00054341020039496649 0.050060281228617394 0 -0.00066682773168205418 0.049576832461378832 0 -0.00054341020039496649 0.050060281228617394 0 -0.00063480325831092221 0.049877014309192495 0 -0.0011282889998091136 0.04891236462630514 0 -0.00062039249177067159 0.04992729049052555 0 -5.0500798999743552e-05 0.051182771201077934 0 -0.00027373806233562802 0.050709038296192589 0 7.3625543143179928e-05 0.051444826539905876 0 -0.00055246916660939109 0.050376770120405152 0 -0.00054341020039496649 0.050060281228617394 0 -0.00027373806233562802 0.050709038296192589 0 -5.0500798999743552e-05 0.051182771201077934 0 -0.00055246916660939109 0.050376770120405152 0 -0.00027373806233562802 0.050709038296192589 0 -0.00054341020039496649 0.050060281228617394 0 -0.00027373806233562802 0.050709038296192589 0 -0.00035922713567981802 0.050614229457866665 0 -0.00054341020039496649 0.050060281228617394 0 -0.00035922713567981802 0.050614229457866665 0 -0.00056724741981756992 0.050222104136523379 0 -0.00027373806233562802 0.050709038296192589 0 -0.00035922713567981802 0.050614229457866665 0 7.3625543143179928e-05 0.051444826539905876 0 -0.00035238666048021674 0.050755057988344052 0 -0.00016906822013491499 0.051383447488612247 0 -0.00035922713567981802 0.050614229457866665 0 7.3625543143179928e-05 0.051444826539905876 0 0.00010887580887157347 0.051593273811072919 0 -0.00035922713567981802 0.050614229457866665 0 -0.00045401763997436698 0.05079333905497338 0 -0.00040510539700333039 0.051132284872240689 0 -0.00035922713567981802 0.050614229457866665 0 -0.00040055458032717533 0.051201178223044923 0 -0.00040510539700333039 0.051132284872240689 0 -0.00035922713567981802 0.050614229457866665 0 -0.0005169755627577585 0.050456793236073882 0 -0.00056724741981756992 0.050222104136523379 0 -0.00035922713567981802 0.050614229457866665 0 -0.0005169755627577585 0.050456793236073882 0 -0.00045401763997436698 0.05079333905497338 0 -0.0005169755627577585 0.050456793236073882 0 -0.00056132966329214165 0.05047179045250972 0 -0.00062185663911042328 0.050219110790236124 0 -0.00056132966329214165 0.05047179045250972 0 -0.00045401763997436698 0.05079333905497338 0 -0.00049000260468188412 0.050720312529886777 0 -0.00056132966329214165 0.05047179045250972 0 -0.00049000260468188412 0.050720312529886777 0 -0.00055870630659732106 0.050485538895346661 0 -0.0005169755627577585 0.050456793236073882 0 -0.00056132966329214165 0.05047179045250972 0 -0.00045401763997436698 0.05079333905497338 0 -0.00045401763997436698 0.05079333905497338 0 -0.00042738822135081117 0.051025271024394712 0 -0.00049000260468188412 0.050720312529886777 0 -0.00045401763997436698 0.05079333905497338 0 -0.00042738822135081117 0.051025271024394712 0 -0.00040510539700333039 0.051132284872240689 0 -0.00070214968794640785 0.04962772044324771 0 -0.00067257356459016811 0.049346795627274731 0 -0.00063480325831092221 0.049877014309192495 0 -0.00067257356459016811 0.049346795627274731 0 -0.00066682773168205418 0.049576832461378832 0 -0.00063480325831092221 0.049877014309192495 0 -0.00054341020039496649 0.050060281228617394 0 -0.00063480325831092221 0.049877014309192495 0 -0.00056724741981756992 0.050222104136523379 0 -0.00063480325831092221 0.049877014309192495 0 -0.00056724741981756992 0.050222104136523379 0 -0.00062185663911042328 0.050219110790236124 0 -0.0005169755627577585 0.050456793236073882 0 -0.00056724741981756992 0.050222104136523379 0 -0.00062185663911042328 0.050219110790236124 0 -0.00056132966329214165 0.05047179045250972 0 -0.00062185663911042328 0.050219110790236124 0 -0.00070308779441121262 0.050209865017892062 0 -0.00062185663911042328 0.050219110790236124 0 -0.00072880176850498627 0.049962844142799542 0 -0.00070308779441121262 0.050209865017892062 0 -0.00063480325831092221 0.049877014309192495 0 -0.00062185663911042328 0.050219110790236124 0 -0.00072880176850498627 0.049962844142799542 0 -0.00070214968794640785 0.04962772044324771 0 -0.00063480325831092221 0.049877014309192495 0 -0.00072880176850498627 0.049962844142799542 0 -0.00070214968794640785 0.04962772044324771 0 -0.00072880176850498627 0.049962844142799542 0 -0.00072572855921691109 0.049594031874744926 0 -0.00072880176850498627 0.049962844142799542 0 -0.00085134693760556611 0.050037615113770799 0 -0.00070308779441121262 0.050209865017892062 0 -0.00072880176850498627 0.049962844142799542 0 -0.00085134693760556611 0.050037615113770799 0 -0.00072572855921691109 0.049594031874744926 0 -0.00085134693760556611 0.050037615113770799 0 -0.00070308779441121262 0.050209865017892062 0 -0.00056701409943314229 0.050387789975922123 0 -0.00085134693760556611 0.050037615113770799 0 -0.0011071539928796555 0.050565587389647074 0 -0.0012404756615735206 0.050716103935887831 0 -0.00083799359831789673 0.050109894748819266 0 -0.00089560734374846836 0.050562622298177491 0 -0.0011071539928796555 0.050565587389647074 0 -0.00098137492370472396 0.050458886564928834 0 -0.0012110258720999286 0.050848943303639246 0 -0.00085134693760556611 0.050037615113770799 0 -0.0011071539928796555 0.050565587389647074 0 -0.00098137492370472396 0.050458886564928834 0 -0.00085134693760556611 0.050037615113770799 0 -0.00098137492370472396 0.050458886564928834 0 -0.00071220253872057878 0.049827068007440162 0 -0.00042738822135081117 0.051025271024394712 0 -0.00049000260468188412 0.050720312529886777 0 -0.00040273221726980083 0.051120338255078265 0 -0.0012404756615735206 0.050716103935887831 0 -0.0012740196784253909 0.050867359095073533 0 -0.0017613179345408096 0.051559243265969529 0 -0.00089560734374846836 0.050562622298177491 0 -0.0010792744484779875 0.051337974387935775 0 -0.00049000260468188412 0.050720312529886777 0 -0.00056701409943314229 0.050387789975922123 0 -0.00040273221726980083 0.051120338255078265 0 -0.00049000260468188412 0.050720312529886777 0 -0.00055870630659732106 0.050485538895346661 0 -0.00056701409943314229 0.050387789975922123 0 -0.00055870630659732106 0.050485538895346661 0 -0.00059720796032584097 0.050394723434863689 0 -0.00056701409943314229 0.050387789975922123 0 -0.00056132966329214165 0.05047179045250972 0 -0.00070308779441121262 0.050209865017892062 0 -0.00059720796032584097 0.050394723434863689 0 -0.00070308779441121262 0.050209865017892062 0 -0.00059720796032584097 0.050394723434863689 0 -0.00056701409943314229 0.050387789975922123 0 -0.00056132966329214165 0.05047179045250972 0 -0.00055870630659732106 0.050485538895346661 0 -0.00059720796032584097 0.050394723434863689 0 -0.0011071539928796555 0.050565587389647074 0 -0.0012740196784253909 0.050867359095073533 0 -0.0012110258720999286 0.050848943303639246 0 -0.0012740196784253909 0.050867359095073533 0 -0.0013595214849979522 0.051091010981950999 0 -0.0012110258720999286 0.050848943303639246 0 -0.0011071539928796555 0.050565587389647074 0 -0.0012404756615735206 0.050716103935887831 0 -0.0012740196784253909 0.050867359095073533 0 -0.0012740196784253909 0.050867359095073533 0 -0.0013595214849979522 0.051091010981950999 0 -0.0015043373855463244 0.051161898497119412 0 -0.0012740196784253909 0.050867359095073533 0 -0.0017613179345408096 0.051559243265969529 0 -0.0017418860067236726 0.051729537220148385 0 -0.0013160806145960605 0.050976028619977243 0 -0.0016346361332819307 0.05142533203557953 0 -0.0013595214849979522 0.051091010981950999 0 -0.0012110258720999286 0.050848943303639246 0 -0.0013941538274422321 0.051321338107752024 0 -0.0013595214849979522 0.051091010981950999 0 -0.0013941538274422321 0.051321338107752024 0 -0.0015240213957484689 0.051369358019801643 0 -0.0012110258720999286 0.050848943303639246 0 -0.0013941538274422321 0.051321338107752024 0 -0.0011424555306710708 0.050892627496415342 0 0.0015701994236564743 0.050534134734305312 0 0.0017554999033750471 0.050580809592728371 0 0.0015712539112821024 0.05025616683682331 0 0.00024205431016186186 0.051126408294779775 0 0.00021518630888322908 0.050720755347740815 0 0.001887558148886456 0.05091808668262101 0 0.0015701994236564743 0.050534134734305312 0 0.0017554999033750471 0.050580809592728371 0 0.001887558148886456 0.05091808668262101 0 0.0020050141531726515 0.051030894805599046 0 0.0017554999033750471 0.050580809592728371 0 -0.00098137492370472396 0.050458886564928834 0 -0.00088733006525797619 0.050488156427303525 0 -0.00071220253872057878 0.049827068007440162 0 -0.00098137492370472396 0.050458886564928834 0 -0.0012110258720999286 0.050848943303639246 0 -0.0011424555306710708 0.050892627496415342 0 -0.00098137492370472396 0.050458886564928834 0 -0.0011424555306710708 0.050892627496415342 0 -0.00088733006525797619 0.050488156427303525 0 0.00021518630888322908 0.050720755347740815 0 3.3503374892524977e-05 0.050430393043993264 0 0.0015701994236564743 0.050534134734305312 0 0.0014709097904669793 0.050210599453584845 0 0.0012636528892058165 0.050143187768572677 0 0.0015701994236564743 0.050534134734305312 0 0.0014709097904669793 0.050210599453584845 0 0.0015712539112821024 0.05025616683682331 0 0.0010699321141243551 0.050350347557508474 0 0.0012636528892058165 0.050143187768572677 0 0.00095917390931729172 0.04980693009232455 0 0.0015701994236564743 0.050534134734305312 0 0.0010699321141243551 0.050350347557508474 0 0.0012636528892058165 0.050143187768572677 0 0.0010699321141243551 0.050350347557508474 0 0.0001807533345483518 0.050138958922261868 0 0.00095917390931729172 0.04980693009232455 0 3.3503374892524977e-05 0.050430393043993264 0 -2.728047329023751e-05 0.050081832570861212 0 -0.00088733006525797619 0.050488156427303525 0 -0.00062159657454062003 0.050179837281661359 0 -0.00071220253872057878 0.049827068007440162 0 -0.00062159657454062003 0.050179837281661359 0 -0.00044060612102438216 0.049626824607944549 0 -0.00071220253872057878 0.049827068007440162 0 -2.728047329023751e-05 0.050081832570861212 0 -0.0013291157560564536 0.050710667274389436 0 0.0001807533345483518 0.050138958922261868 0 -0.00074932657034799022 0.049942875355024889 0 -0.00037463771159729377 0.049431621709234229 0 -0.00019349300523252306 0.050064615560496829 0 -0.00010907346782998691 0.049522381897988847 0 0.00041128801914360694 0.049550333316780222 0 -0.00019349300523252306 0.050064615560496829 0 -0.00044060612102438216 0.049626824607944549 0 -0.00010907346782998691 0.049522381897988847 0 -0.00062159657454062003 0.050179837281661359 0 -0.00019349300523252306 0.050064615560496829 0 -0.00044060612102438216 0.049626824607944549 0 -0.00044060612102438216 0.049626824607944549 0 -0.00029296320047502193 0.049194426092789838 0 -0.00047680990762897607 0.049178515078320773 0 -0.00044060612102438216 0.049626824607944549 0 -0.00010907346782998691 0.049522381897988847 0 -0.00029296320047502193 0.049194426092789838 0 -0.00010907346782998691 0.049522381897988847 0 -0.00029296320047502193 0.049194426092789838 0 6.6123432539015202e-05 0.048957506615029345 0 -0.00029296320047502193 0.049194426092789838 0 -0.00010896402004437901 0.048726358979690368 0 6.6123432539015202e-05 0.048957506615029345 0 -0.00029296320047502193 0.049194426092789838 0 -0.00034934525448886172 0.048776279755686471 0 -0.00010896402004437901 0.048726358979690368 0 -0.00051941394636350919 0.048803210023658665 0 -0.00047680990762897607 0.049178515078320773 0 -0.00062025684560038064 0.049272064089258626 0 -0.00051941394636350919 0.048803210023658665 0 -0.00034934525448886172 0.048776279755686471 0 -0.00047680990762897607 0.049178515078320773 0 -0.00029296320047502193 0.049194426092789838 0 -0.00034934525448886172 0.048776279755686471 0 -0.00047680990762897607 0.049178515078320773 0 -0.00047680990762897607 0.049178515078320773 0 -0.00062025684560038064 0.049272064089258626 0 -0.00071220253872057878 0.049827068007440162 0 -0.00062025684560038064 0.049272064089258626 0 -0.00072572855921691109 0.049594031874744926 0 -0.00071220253872057878 0.049827068007440162 0 -0.00085134693760556611 0.050037615113770799 0 -0.00072572855921691109 0.049594031874744926 0 -0.00071220253872057878 0.049827068007440162 0 -0.00044060612102438216 0.049626824607944549 0 -0.00047680990762897607 0.049178515078320773 0 -0.00071220253872057878 0.049827068007440162 0 1.1620254163808412e-05 0.054471969822394384 0 2.2894016857509357e-05 0.053939699565527091 0 1.6932821841170542e-08 0.054999144433223623 0 1.1620254163808412e-05 0.054471969822394384 0 1.8351490606764962e-08 0.054999365574266379 0 1.6932821841170542e-08 0.054999144433223623 0 1.1620254163808412e-05 0.054471969822394384 0 1.2123298625973095e-05 0.05400908979378978 0 2.2894016857509357e-05 0.053939699565527091 0 1.1620254163808412e-05 0.054471969822394384 0 1.2123298625973095e-05 0.05400908979378978 0 1.6959759357965684e-06 0.054375096611957968 0 1.2123298625973095e-05 0.05400908979378978 0 1.6959759357965684e-06 0.054375096611957968 0 6.6905544084681184e-06 0.053729184307224231 0 1.6959759357965684e-06 0.054375096611957968 0 3.7796606771195434e-06 0.054122502565627846 0 6.6905544084681184e-06 0.053729184307224231 0 1.1620254163808412e-05 0.054471969822394384 0 1.6959759357965684e-06 0.054375096611957968 0 1.8351490606764962e-08 0.054999365574266379 0 1.6959759357965684e-06 0.054375096611957968 0 1.8351490606764962e-08 0.054999365574266379 0 -5.2496402935789683e-08 0.054998971489089804 0 1.6959759357965684e-06 0.054375096611957968 0 -5.2496402935789683e-08 0.054998971489089804 0 3.7796606771195434e-06 0.054122502565627846 0 -6.5514342741934343e-07 0.054998521429753845 0 -0.00032195415997436042 0.054479732561260992 0 -0.00023316409851152062 0.054266425692056551 0 -4.0597988574683459e-08 0.05499966353590309 0 -0.00010348519594342199 0.054187356853497279 0 6.0581626410887926e-08 0.054999547100861607 0 -6.5514342741934343e-07 0.054998521429753845 0 -0.00032195415997436042 0.054479732561260992 0 -0.00032195415997436042 0.054479732561260992 0 -0.00017630533147886028 0.053957121583848459 0 -0.00023316409851152062 0.054266425692056551 0 -0.00010348519594342199 0.054187356853497279 0 -2.6383019391248939e-06 0.053596942454681933 0 3.7796606771195434e-06 0.054122502565627846 0 9.2367429842860088e-07 0.053443637078683957 0 6.6905544084681184e-06 0.053729184307224231 0 -0.00017630533147886028 0.053957121583848459 0 -0.00023316409851152062 0.054266425692056551 0 9.2367429842860088e-07 0.053443637078683957 0 -8.0150665160674617e-06 0.053171056011309489 0 -0.00017630533147886028 0.053957121583848459 0 9.2367429842860088e-07 0.053443637078683957 0 -8.0150665160674617e-06 0.053171056011309489 0 9.2367429842860088e-07 0.053443637078683957 0 0.00010098598521397144 0.052748153551626611 0 9.2367429842860088e-07 0.053443637078683957 0 -4.5580602932245289e-05 0.053030200358991891 0 6.8639159348066105e-05 0.052679359954417589 0 9.2367429842860088e-07 0.053443637078683957 0 6.6905544084681184e-06 0.053729184307224231 0 -4.5580602932245289e-05 0.053030200358991891 0 6.6905544084681184e-06 0.053729184307224231 0 -4.610559796411862e-06 0.053495514909397107 0 -4.5580602932245289e-05 0.053030200358991891 0 1.2123298625973095e-05 0.05400908979378978 0 -4.610559796411862e-06 0.053495514909397107 0 2.2894016857509357e-05 0.053939699565527091 0 1.2123298625973095e-05 0.05400908979378978 0 6.6905544084681184e-06 0.053729184307224231 0 -4.610559796411862e-06 0.053495514909397107 0 -4.610559796411862e-06 0.053495514909397107 0 -4.5580602932245289e-05 0.053030200358991891 0 -7.4705113874428723e-05 0.052894426279562902 0 -0.00019709472393972889 0.052480682186872539 0 -4.5580602932245289e-05 0.053030200358991891 0 -7.4705113874428723e-05 0.052894426279562902 0 -0.00019709472393972889 0.052480682186872539 0 -0.00029516093378822728 0.052027718537972015 0 -0.00031950828136466971 0.052003718637275181 0 -0.00019709472393972889 0.052480682186872539 0 -0.00029516093378822728 0.052027718537972015 0 -0.00030447546140244735 0.051940400538532681 0 -0.00019709472393972889 0.052480682186872539 0 -0.00031950828136466971 0.052003718637275181 0 -4.5580602932245289e-05 0.053030200358991891 0 0.00011046773984249919 0.052461013699058028 0 -4.5580602932245289e-05 0.053030200358991891 0 6.8639159348066105e-05 0.052679359954417589 0 -8.8162469329270069e-05 0.052246055867082461 0 -3.8679012181246897e-05 0.052889549487576175 0 9.2367429842860088e-07 0.053443637078683957 0 6.8639159348066105e-05 0.052679359954417589 0 0.00010098598521397144 0.052748153551626611 0 6.8639159348066105e-05 0.052679359954417589 0 0.00010098598521397144 0.052748153551626611 0 0.00017564573880022598 0.052167361893104593 0 6.8639159348066105e-05 0.052679359954417589 0 0.00013965656076541454 0.052051705386442132 0 0.00017564573880022598 0.052167361893104593 0 0.00011046773984249919 0.052461013699058028 0 6.8639159348066105e-05 0.052679359954417589 0 0.00013965656076541454 0.052051705386442132 0 0.00013965656076541454 0.052051705386442132 0 0.00017564573880022598 0.052167361893104593 0 7.3625543143179928e-05 0.051444826539905876 0 0.00018304906214751829 0.051774548342583306 0 0.00017564573880022598 0.052167361893104593 0 7.3625543143179928e-05 0.051444826539905876 0 0.00013965656076541454 0.052051705386442132 0 7.3625543143179928e-05 0.051444826539905876 0 0.00010887580887157347 0.051593273811072919 0 -0.00040055458032717533 0.051201178223044923 0 -0.00035886225942560762 0.051624884544673261 0 -0.00040510539700333039 0.051132284872240689 0 0.00011046773984249919 0.052461013699058028 0 0.00013965656076541454 0.052051705386442132 0 0.00010887580887157347 0.051593273811072919 0 -8.8162469329270069e-05 0.052246055867082461 0 -0.00016906822013491499 0.051383447488612247 0 -0.00031950828136466971 0.052003718637275181 0 -0.00040055458032717533 0.051201178223044923 0 -0.00035886225942560762 0.051624884544673261 0 -0.00029516093378822728 0.052027718537972015 0 -0.00031950828136466971 0.052003718637275181 0 -0.00035886225942560762 0.051624884544673261 0 -0.00029516093378822728 0.052027718537972015 0 -0.00035886225942560762 0.051624884544673261 0 -0.00030447546140244735 0.051940400538532681 0 -0.00035886225942560762 0.051624884544673261 0 -0.00038038127930638006 0.051372736537068059 0 -0.00030447546140244735 0.051940400538532681 0 -0.00035886225942560762 0.051624884544673261 0 -0.00038038127930638006 0.051372736537068059 0 -0.00040510539700333039 0.051132284872240689 0 -0.00042738822135081117 0.051025271024394712 0 -0.00038038127930638006 0.051372736537068059 0 -0.00040510539700333039 0.051132284872240689 0 -0.00042738822135081117 0.051025271024394712 0 -0.00038038127930638006 0.051372736537068059 0 -0.00040273221726980083 0.051120338255078265 0 -0.0010792744484779875 0.051337974387935775 0 -0.0011782874684221256 0.052127925836804298 0 -0.00038038127930638006 0.051372736537068059 0 -0.00040273221726980083 0.051120338255078265 0 -0.00030447546140244735 0.051940400538532681 0 -0.0017613179345408096 0.051559243265969529 0 -0.0019003004122242558 0.051925828210095434 0 -0.0020520676153926122 0.052313339789172714 0 -0.0018170191745453758 0.051661780111400123 0 -0.0015043373855463244 0.051161898497119412 0 -0.0016519768625690356 0.051500710557209242 0 -0.0019003004122242558 0.051925828210095434 0 -0.0020245933866113348 0.052189778498680492 0 -0.0017418860067236726 0.051729537220148385 0 -0.0019003004122242558 0.051925828210095434 0 -0.0020245933866113348 0.052189778498680492 0 -0.0020520676153926122 0.052313339789172714 0 -0.0018948655227379891 0.051939019311117489 0 -0.0016346361332819307 0.05142533203557953 0 -0.0015043373855463244 0.051161898497119412 0 -0.0015240213957484689 0.051369358019801643 0 -0.0016519768625690356 0.051500710557209242 0 -0.0017613179345408096 0.051559243265969529 0 -0.0019003004122242558 0.051925828210095434 0 -0.0017418860067236726 0.051729537220148385 0 -0.0013595214849979522 0.051091010981950999 0 -0.0015043373855463244 0.051161898497119412 0 -0.0015240213957484689 0.051369358019801643 0 -0.0015240213957484689 0.051369358019801643 0 -0.0017247247925099686 0.051747352157804009 0 -0.0016519768625690356 0.051500710557209242 0 -0.0013941538274422321 0.051321338107752024 0 -0.0015240213957484689 0.051369358019801643 0 -0.0017247247925099686 0.051747352157804009 0 0.001887558148886456 0.05091808668262101 0 0.0020050141531726515 0.051030894805599046 0 0.0018105581697127001 0.051485176906943042 0 0.00024205431016186186 0.051126408294779775 0 4.7947126832078497e-05 0.051619566180995988 0 0.0020050141531726515 0.051030894805599046 0 0.0018105581697127001 0.051485176906943042 0 0.0014253681426975885 0.05248272385551072 0 -0.0018170191745453758 0.051661780111400123 0 -0.0017247247925099686 0.051747352157804009 0 -0.0018764620732062635 0.051976815838854301 0 -0.0018170191745453758 0.051661780111400123 0 -0.0017247247925099686 0.051747352157804009 0 -0.0016519768625690356 0.051500710557209242 0 -0.0017247247925099686 0.051747352157804009 0 -0.0018764620732062635 0.051976815838854301 0 -0.0018977123540754161 0.052057073868150262 0 4.7947126832078497e-05 0.051619566180995988 0 -0.00051630522486351799 0.052174557925242032 0 0.0018105581697127001 0.051485176906943042 0 0.00079789076856542603 0.052272844187800357 0 0.0014253681426975885 0.05248272385551072 0 0.00075402383818814155 0.052788428472619359 0 0.00079789076856542603 0.052272844187800357 0 0.0014253681426975885 0.05248272385551072 0 0.00035121070950082562 0.052996003784349918 0 0.00079789076856542603 0.052272844187800357 0 -0.00012178007015269725 0.053174483603535522 0 0.00035121070950082562 0.052996003784349918 0 0.00075402383818814155 0.052788428472619359 0 0.00079789076856542603 0.052272844187800357 0 -0.0018764620732062635 0.051976815838854301 0 -0.0018977123540754161 0.052057073868150262 0 -0.0018761266361935311 0.052402875021676745 0 -0.0018977123540754161 0.052057073868150262 0 -0.0018761266361935311 0.052402875021676745 0 -0.0015482247949329144 0.05228722092448413 0 -0.0020245933866113348 0.052189778498680492 0 -0.0018761266361935311 0.052402875021676745 0 -0.0020520676153926122 0.052313339789172714 0 -0.0018948655227379891 0.051939019311117489 0 -0.0018628983414097258 0.052308497130727431 0 -0.0018170191745453758 0.051661780111400123 0 -0.0018764620732062635 0.051976815838854301 0 -0.0018761266361935311 0.052402875021676745 0 -0.0018761266361935311 0.052402875021676745 0 -0.0020520676153926122 0.052313339789172714 0 -0.0017345986968108596 0.053029877573624429 0 -0.0011782874684221256 0.052127925836804298 0 -0.00091333406560101759 0.052971636329434107 0 -0.00019709472393972889 0.052480682186872539 0 -0.00030447546140244735 0.051940400538532681 0 -7.4705113874428723e-05 0.052894426279562902 0 -0.0017345986968108596 0.053029877573624429 0 -0.0014888971608208426 0.052918780774460307 0 -0.0010148614519471216 0.053958948458404495 0 -0.00091333406560101759 0.052971636329434107 0 -0.00049888973716303252 0.053952198362660367 0 -4.610559796411862e-06 0.053495514909397107 0 -7.4705113874428723e-05 0.052894426279562902 0 2.2894016857509357e-05 0.053939699565527091 0 -0.0014888971608208426 0.052918780774460307 0 -0.0010190861920067059 0.053092474676660506 0 -0.0010148614519471216 0.053958948458404495 0 -0.0018761266361935311 0.052402875021676745 0 -0.0017345986968108596 0.053029877573624429 0 -0.0014888971608208426 0.052918780774460307 0 -0.0018761266361935311 0.052402875021676745 0 -0.0014888971608208426 0.052918780774460307 0 -0.0015482247949329144 0.05228722092448413 0 -0.00051630522486351799 0.052174557925242032 0 -0.0007777359056110666 0.052663717533076901 0 -0.00012178007015269725 0.053174483603535522 0 3.8407479670927429e-05 0.053386702315393608 0 -0.00019537034345593635 0.053619827757346424 0 0.00035121070950082562 0.052996003784349918 0 -0.00012178007015269725 0.053174483603535522 0 3.8407479670927429e-05 0.053386702315393608 0 -0.00012178007015269725 0.053174483603535522 0 -0.00028813010423853739 0.053802070698446947 0 -0.00030432221962709005 0.053953150304007019 0 -0.00012178007015269725 0.053174483603535522 0 -0.00032090428303176085 0.054220552750051977 0 -0.00030432221962709005 0.053953150304007019 0 -0.00028813010423853739 0.053802070698446947 0 -0.00019537034345593635 0.053619827757346424 0 -0.00027709094576222528 0.053776738695243513 0 -0.00028813010423853739 0.053802070698446947 0 -0.00030518099267712903 0.053904257820185715 0 -0.00029886591693307292 0.053844242940349327 0 -0.00012178007015269725 0.053174483603535522 0 -0.00028813010423853739 0.053802070698446947 0 -0.00019537034345593635 0.053619827757346424 0 -0.0014888971608208426 0.052918780774460307 0 -0.0015482247949329144 0.05228722092448413 0 -0.0010190861920067059 0.053092474676660506 0 -0.0007777359056110666 0.052663717533076901 0 -0.00049459588790853491 0.05386741015787655 0 -0.0015482247949329144 0.05228722092448413 0 -0.00070077631656892338 0.052408937268386871 0 -0.0010190861920067059 0.053092474676660506 0 -0.00070077631656892338 0.052408937268386871 0 -0.00025007426895790914 0.053231030176493818 0 -0.0010190861920067059 0.053092474676660506 0 -0.00049459588790853491 0.05386741015787655 0 -0.00018936426644029243 0.054093621262424993 0 -0.00032090428303176085 0.054220552750051977 0 -0.00030432221962709005 0.053953150304007019 0 -0.00028706822630363075 0.054215006183053881 0 -0.00032090428303176085 0.054220552750051977 0 -0.00028706822630363075 0.054215006183053881 0 -0.00018483213989761127 0.054456823270689701 0 -0.00030432221962709005 0.053953150304007019 0 -0.00028706822630363075 0.054215006183053881 0 -0.00028542432463559618 0.054135435007073615 0 -0.00028706822630363075 0.054215006183053881 0 -0.00028542432463559618 0.054135435007073615 0 -0.00018483213989761127 0.054456823270689701 0 -0.00028813010423853739 0.053802070698446947 0 -0.00030328594029073875 0.053991105448840199 0 -0.00030518099267712903 0.053904257820185715 0 -0.00028813010423853739 0.053802070698446947 0 -0.00030432221962709005 0.053953150304007019 0 -0.00030328594029073875 0.053991105448840199 0 -0.00030432221962709005 0.053953150304007019 0 -0.00028542432463559618 0.054135435007073615 0 -0.00030328594029073875 0.053991105448840199 0 -0.00028542432463559618 0.054135435007073615 0 -0.00030328594029073875 0.053991105448840199 0 -0.00029823139341006465 0.053969224731918286 0 -0.00032090428303176085 0.054220552750051977 0 -0.00018483213989761127 0.054456823270689701 0 -2.5688408252346756e-05 0.054928590650585606 0 -7.7789438046742266e-08 0.054999686293901083 0 -0.00010298940420740844 0.054549334794463521 0 2.7148896511776268e-07 0.054998089535172642 0 -0.00018483213989761127 0.054456823270689701 0 -0.00015543444851360945 0.054002998734670779 0 -0.00028542432463559618 0.054135435007073615 0 -0.00018483213989761127 0.054456823270689701 0 -0.00015543444851360945 0.054002998734670779 0 2.7148896511776268e-07 0.054998089535172642 0 -0.00018483213989761127 0.054456823270689701 0 -2.5688408252346756e-05 0.054928590650585606 0 2.7148896511776268e-07 0.054998089535172642 0 -2.5688408252346756e-05 0.054928590650585606 0 -1.1631311426134911e-07 0.055000395571491292 0 -9.8791442828777902e-05 0.054923702518293746 0 -3.9152550479863184e-05 0.054963582512799709 0 -3.1984525599702322e-05 0.055000546792807407 0 -0.00049459588790853491 0.05386741015787655 0 0.00012207205958072466 0.054810416247644614 0 -9.8791442828777902e-05 0.054923702518293746 0 -2.5688408252346756e-05 0.054928590650585606 0 -3.9152550479863184e-05 0.054963582512799709 0 -2.5688408252346756e-05 0.054928590650585606 0 -3.9152550479863184e-05 0.054963582512799709 0 -1.1631311426134911e-07 0.055000395571491292 0 -3.9152550479863184e-05 0.054963582512799709 0 -1.1631311426134911e-07 0.055000395571491292 0 -3.1984525599702322e-05 0.055000546792807407 0 -0.00025007426895790914 0.053231030176493818 0 -0.00053089346901266979 0.054121475809530528 0 2.5463776916981678e-07 0.054996850435076176 0 -0.00018936426644029243 0.054093621262424993 0 -2.8104711045053881e-08 0.054999629106379129 0 -1.1631311426134911e-07 0.055000395571491292 0 -3.1984525599702322e-05 0.055000546792807407 0 4.8087520505192902e-08 0.054999822375600922 0 -0.00025007426895790914 0.053231030176493818 0 -0.0010190861920067059 0.053092474676660506 0 -0.00053089346901266979 0.054121475809530528 0 -0.0010190861920067059 0.053092474676660506 0 -0.00053089346901266979 0.054121475809530528 0 -0.0010148614519471216 0.053958948458404495 0 -0.00049888973716303252 0.053952198362660367 0 -8.7232053392307853e-08 0.054999651342922715 0 -0.00053089346901266979 0.054121475809530528 0 -0.0010148614519471216 0.053958948458404495 0 -1.1907729852904093e-08 0.055001754836532982 0 -0.00053089346901266979 0.054121475809530528 0 -1.1907729852904093e-08 0.055001754836532982 0 2.5463776916981678e-07 0.054996850435076176 0 1.6402399608478096e-05 0.054992503932572184 0 2.9773894112893486e-05 0.054969026311867723 0 -1.5671664946502242e-08 0.054999836377429188 0 1.6402399608478096e-05 0.054992503932572184 0 -1.5671664946502242e-08 0.054999836377429188 0 2.5192865263051471e-08 0.055000048085674116 0 1.6402399608478096e-05 0.054992503932572184 0 6.3142448430428139e-05 0.054981965109448881 0 2.9773894112893486e-05 0.054969026311867723 0 1.6402399608478096e-05 0.054992503932572184 0 6.3142448430428139e-05 0.054981965109448881 0 2.8054319762949683e-05 0.054998777670478456 0 6.3142448430428139e-05 0.054981965109448881 0 2.9773894112893486e-05 0.054969026311867723 0 6.369401593690451e-05 0.054929296179816164 0 6.3142448430428139e-05 0.054981965109448881 0 6.369401593690451e-05 0.054929296179816164 0 0.00011401134903342967 0.054895101351580114 0 2.9773894112893486e-05 0.054969026311867723 0 6.369401593690451e-05 0.054929296179816164 0 2.3713355626227635e-05 0.054919304230750969 0 2.9773894112893486e-05 0.054969026311867723 0 -1.5671664946502242e-08 0.054999836377429188 0 2.3713355626227635e-05 0.054919304230750969 0 7.6888144251525298e-09 0.055000038026702253 0 -4.2682081792527923e-09 0.05499994605665872 0 1.7509555433965244e-05 0.054996387767035818 0 1.3259782074530028e-07 0.054999887468981011 0 -0.00012321156286919174 0.055056701065165352 0 -4.5169237240745733e-07 0.055000649716822822 0 0.00015861318009921792 0.053828047957234872 0 -4.2682081792527923e-09 0.05499994605665872 0 1.7509555433965244e-05 0.054996387767035818 0 3.96532429083423e-05 0.054960291606415218 0 2.9177979112357135e-09 0.054999989662232414 0 -1.0834713253636263e-06 0.054995959001563344 0 -1.8722373526452924e-06 0.05498744049331631 0 4.638336396198503e-10 0.055000000209119417 0 -1.8228204663522976e-09 0.054999995171209182 0 -1.0834713253636263e-06 0.054995959001563344 0 2.9177979112357135e-09 0.054999989662232414 0 -1.8228204663522976e-09 0.054999995171209182 0 -1.0834713253636263e-06 0.054995959001563344 0 -0.00030562735503164199 0.053883142887244669 0 -0.00029823139341006465 0.053969224731918286 0 -0.00030605986372895155 0.053883758267680847 0 -0.00030562735503164199 0.053883142887244669 0 -0.00030605986372895155 0.053883758267680847 0 -0.00029807237585704614 0.053831241548875822 0 -0.00030562735503164199 0.053883142887244669 0 -0.00030518099267712903 0.053904257820185715 0 -0.00029823139341006465 0.053969224731918286 0 -0.00030562735503164199 0.053883142887244669 0 -0.00030518099267712903 0.053904257820185715 0 -0.00029886591693307292 0.053844242940349327 0 -0.00030328594029073875 0.053991105448840199 0 -0.00030518099267712903 0.053904257820185715 0 -0.00029823139341006465 0.053969224731918286 0 -0.00028542432463559618 0.054135435007073615 0 -0.00015543444851360945 0.054002998734670779 0 -0.00029823139341006465 0.053969224731918286 0 -0.00015543444851360945 0.054002998734670779 0 -0.00029823139341006465 0.053969224731918286 0 -0.00030605986372895155 0.053883758267680847 0 -0.00010298940420740844 0.054549334794463521 0 0.00015861318009921792 0.053828047957234872 0 -0.00015543444851360945 0.054002998734670779 0 -0.00030605986372895155 0.053883758267680847 0 -0.00028080504514244606 0.053795961037104247 0 -0.00030605986372895155 0.053883758267680847 0 -0.00028080504514244606 0.053795961037104247 0 -0.00031008915485687406 0.053842423998410126 0 0.00021671092830422641 0.053243816035378672 0 0.00043199707088254678 0.053459425012631241 0 0.0009385705637444899 0.053089913743518367 0 -0.00028080504514244606 0.053795961037104247 0 -0.00030680197973985922 0.053815640340543994 0 -0.00031008915485687406 0.053842423998410126 0 6.369401593690451e-05 0.054929296179816164 0 2.3713355626227635e-05 0.054919304230750969 0 7.5642469571309454e-05 0.054857890473959066 0 0.00015861318009921792 0.053828047957234872 0 0.0012475184326757728 0.052442951816098676 0 6.369401593690451e-05 0.054929296179816164 0 7.5642469571309454e-05 0.054857890473959066 0 0.00011401134903342967 0.054895101351580114 0 0.00033679019523950209 0.053441087028755975 0 0.0012475184326757728 0.052442951816098676 0 0.00015861318009921792 0.053828047957234872 0 0.00033679019523950209 0.053441087028755975 0 1.7509555433965244e-05 0.054996387767035818 0 3.96532429083423e-05 0.054960291606415218 0 4.3436717216724435e-05 0.054962920529871021 0 -0.00012321156286919174 0.055056701065165352 0 0.00033679019523950209 0.053441087028755975 0 0.00033679019523950209 0.053441087028755975 0 0.0014507350075651316 0.052260060695574845 0 0.0022220536828907221 0.050632641112631237 0 0.0016350017405160299 0.050557540233542857 0 0.0026086986274832381 0.05044041296459225 0 0.0018464150480909599 0.051060307097557087 0 0.0022582842699468758 0.050852932198259676 0 0.0025067804531847928 0.051220582382396934 0 0.0014507350075651316 0.052260060695574845 0 0.0019197848186312269 0.050777677439477621 0 0.0018464150480909599 0.051060307097557087 0 0.0019742792703785479 0.050715366467411066 0 0.0022582842699468758 0.050852932198259676 0 0.0019742792703785479 0.050715366467411066 0 0.0022220536828907221 0.050632641112631237 0 0.0022582842699468758 0.050852932198259676 0 0.0019742792703785479 0.050715366467411066 0 0.0022220536828907221 0.050632641112631237 0 0.0016350017405160299 0.050557540233542857 0 0.0014706386435700601 0.050679907089664501 0 0.0018691327013269914 0.051090551413680602 0 0.0016350017405160299 0.050557540233542857 0 0.0018691327013269914 0.051090551413680602 0 0.0019742792703785479 0.050715366467411066 0 0.0016350017405160299 0.050557540233542857 0 0.0022376602585347932 0.050914365636320361 0 0.0022670176154582751 0.050877699166908354 0 0.0023364633979599111 0.050841336561323128 0 0.0012475184326757728 0.052442951816098676 0 0.00062378328810645573 0.052983999988529172 0 -0.00030680197973985922 0.053815640340543994 0 -0.00031008915485687406 0.053842423998410126 0 -0.00033333829130307934 0.053847489483121402 0 0.0012475184326757728 0.052442951816098676 0 0.0026336415140918207 0.050452145763879942 0 -0.00011161377844652794 0.05331711565143999 0 0.00062378328810645573 0.052983999988529172 0 -0.00031008915485687406 0.053842423998410126 0 -0.00029819143385244898 0.053836724570246623 0 -0.00026706899042306704 0.053847390351723513 0 -0.00030605986372895155 0.053883758267680847 0 -0.00029819143385244898 0.053836724570246623 0 -0.00029807237585704614 0.053831241548875822 0 -0.00030605986372895155 0.053883758267680847 0 -0.00031008915485687406 0.053842423998410126 0 -0.00029819143385244898 0.053836724570246623 0 -0.00029819143385244898 0.053836724570246623 0 -0.00026706899042306704 0.053847390351723513 0 -0.00026459264322758243 0.053781820069306596 0 -0.00026706899042306704 0.053847390351723513 0 -0.00019029011649814202 0.053751117122562565 0 -0.00026459264322758243 0.053781820069306596 0 0.00062378328810645573 0.052983999988529172 0 -0.00012255673998743104 0.053595514165853821 0 -0.00019537034345593635 0.053619827757346424 0 -0.00019029011649814202 0.053751117122562565 0 -0.00026459264322758243 0.053781820069306596 0 3.8407479670927429e-05 0.053386702315393608 0 -0.00019537034345593635 0.053619827757346424 0 -0.00019029011649814202 0.053751117122562565 0 -0.00019537034345593635 0.053619827757346424 0 -0.00027709094576222528 0.053776738695243513 0 -0.00026459264322758243 0.053781820069306596 0 -0.00027709094576222528 0.053776738695243513 0 -0.00029886591693307292 0.053844242940349327 0 -0.00029807237585704614 0.053831241548875822 0 -0.00028813010423853739 0.053802070698446947 0 -0.00027709094576222528 0.053776738695243513 0 -0.00029886591693307292 0.053844242940349327 0 -0.00030562735503164199 0.053883142887244669 0 -0.00029886591693307292 0.053844242940349327 0 -0.00029807237585704614 0.053831241548875822 0 -0.00029819143385244898 0.053836724570246623 0 -0.00029807237585704614 0.053831241548875822 0 -0.00026459264322758243 0.053781820069306596 0 -0.00027709094576222528 0.053776738695243513 0 -0.00029807237585704614 0.053831241548875822 0 -0.00026459264322758243 0.053781820069306596 0 0.00062378328810645573 0.052983999988529172 0 0.0014342290476814816 0.052042142965379734 0 0.0022670176154582751 0.050877699166908354 0 0.0023364633979599111 0.050841336561323128 0 0.0023559344141268319 0.050812324145991919 0 -0.00033700726583079776 0.053932163314802481 0 -0.00019029011649814202 0.053751117122562565 0 0.00038346816690226754 0.053450132722269506 0 3.8407479670927429e-05 0.053386702315393608 0 -0.00019029011649814202 0.053751117122562565 0 0.00038346816690226754 0.053450132722269506 0 0.00035121070950082562 0.052996003784349918 0 3.8407479670927429e-05 0.053386702315393608 0 0.00038346816690226754 0.053450132722269506 0 0.0025949984057811611 0.050549343124094051 0 0.0029887092100233438 0.050943871926528612 0 0.0026115101297942886 0.050568871405756388 0 0.0025067804531847928 0.051220582382396934 0 0.0031463673067187916 0.051557346523364384 0 0.0026086986274832381 0.05044041296459225 0 0.0026115101297942886 0.050568871405756388 0 0.0026179823744248874 0.050510924954654778 0 0.0022220536828907221 0.050632641112631237 0 0.0026115101297942886 0.050568871405756388 0 0.0022582842699468758 0.050852932198259676 0 0.0022220536828907221 0.050632641112631237 0 0.0026086986274832381 0.05044041296459225 0 0.0026115101297942886 0.050568871405756388 0 0.0026115101297942886 0.050568871405756388 0 0.0022582842699468758 0.050852932198259676 0 0.0025067804531847928 0.051220582382396934 0 0.0014507350075651316 0.052260060695574845 0 0.0026399459613304149 0.051557993695058223 0 0.0018464150480909599 0.051060307097557087 0 0.0025067804531847928 0.051220582382396934 0 0.0026505792575533915 0.051999972759596093 0 0.0025067804531847928 0.051220582382396934 0 0.0026505792575533915 0.051999972759596093 0 0.0031463673067187916 0.051557346523364384 0 0.00063056839346173549 0.053775258481884206 0 0.0014507350075651316 0.052260060695574845 0 0.0016745107367085268 0.051069558771353663 0 0.0019378540287156242 0.051926506243788514 0 0.0026505792575533915 0.051999972759596093 0 0.0013315244141384696 0.052243872385746064 0 0.0016745107367085268 0.051069558771353663 0 0.0019378540287156242 0.051926506243788514 0 0.0013315244141384696 0.052243872385746064 0 0.0019378540287156242 0.051926506243788514 0 0.0021479787898106609 0.052454888578099559 0 0.0021479787898106609 0.052454888578099559 0 0.0026505792575533915 0.051999972759596093 0 0.0029824128813093335 0.052582041385871151 0 0.0019378540287156242 0.051926506243788514 0 0.0021479787898106609 0.052454888578099559 0 0.0026505792575533915 0.051999972759596093 0 0.0031463673067187916 0.051557346523364384 0 0.0037289013689205202 0.052549038534531384 0 0.0029824128813093335 0.052582041385871151 0 0.0026505792575533915 0.051999972759596093 0 0.0031463673067187916 0.051557346523364384 0 0.0029824128813093335 0.052582041385871151 0 0.0029887092100233438 0.050943871926528612 0 0.0023851683958396601 0.051326988270253671 0 0.002406609968104159 0.050208001711173435 0 0.0023554360538156744 0.049749199939849227 0 0.0029476138380585145 0.049548490257461116 0 0.0026447213061027118 0.04955945251934174 0 0.0023851683958396601 0.051326988270253671 0 0.0025313205433059654 0.05028997423820835 0 0.002406609968104159 0.050208001711173435 0 0.0025289716472241849 0.050083842214423337 0 0.0025313205433059654 0.05028997423820835 0 0.0026382055588084026 0.050268585826671382 0 0.0025289716472241849 0.050083842214423337 0 0.0025313205433059654 0.05028997423820835 0 0.0026382055588084026 0.050268585826671382 0 0.0026031227102105152 0.050442121713278325 0 0.0026115101297942886 0.050568871405756388 0 0.0026382055588084026 0.050268585826671382 0 0.0026031227102105152 0.050442121713278325 0 0.0026115101297942886 0.050568871405756388 0 0.0026031227102105152 0.050442121713278325 0 0.0026179823744248874 0.050510924954654778 0 0.0026031227102105152 0.050442121713278325 0 0.0026179823744248874 0.050510924954654778 0 0.002548370438795348 0.050482397088808507 0 0.0023364633979599111 0.050841336561323128 0 0.0023559344141268319 0.050812324145991919 0 0.0023408016390493113 0.050793987141766757 0 0.0014342290476814816 0.052042142965379734 0 0.0017738944731862376 0.051644845205733758 0 0.0026336415140918207 0.050452145763879942 0 0.0024061094290918185 0.050739760708261909 0 0.0026086986274832381 0.05044041296459225 0 0.0026179823744248874 0.050510924954654778 0 0.0025975652315788304 0.050614705064813935 0 0.00075402383818814155 0.052788428472619359 0 0.00038346816690226754 0.053450132722269506 0 0.0014253681426975885 0.05248272385551072 0 0.0026179823744248874 0.050510924954654778 0 0.0025975652315788304 0.050614705064813935 0 0.002548370438795348 0.050482397088808507 0 0.00035121070950082562 0.052996003784349918 0 0.00075402383818814155 0.052788428472619359 0 0.00038346816690226754 0.053450132722269506 0 0.0022917759149264014 0.050817158615558959 0 0.0023408016390493113 0.050793987141766757 0 0.0021852040027334251 0.050867514238052025 0 0.0025975652315788304 0.050614705064813935 0 0.0023953661959371249 0.050484335566673616 0 0.0021852040027334251 0.050867514238052025 0 0.0023559344141268319 0.050812324145991919 0 0.0022917759149264014 0.050817158615558959 0 0.0023408016390493113 0.050793987141766757 0 0.0024061094290918185 0.050739760708261909 0 0.002217199863211471 0.050835699671288974 0 0.0025975652315788304 0.050614705064813935 0 0.002548370438795348 0.050482397088808507 0 0.0023953661959371249 0.050484335566673616 0 0.0025313205433059654 0.05028997423820835 0 0.0023953661959371249 0.050484335566673616 0 0.002406609968104159 0.050208001711173435 0 0.0025313205433059654 0.05028997423820835 0 0.002548370438795348 0.050482397088808507 0 0.0023953661959371249 0.050484335566673616 0 0.0025313205433059654 0.05028997423820835 0 0.0026031227102105152 0.050442121713278325 0 0.002548370438795348 0.050482397088808507 0 0.0023953661959371249 0.050484335566673616 0 0.0021088004613914186 0.050610054307931265 0 0.0020806260806248409 0.050269706237283572 0 0.0023953661959371249 0.050484335566673616 0 0.0020806260806248409 0.050269706237283572 0 0.002406609968104159 0.050208001711173435 0 0.0019496871353532938 0.051146161378522161 0 0.0017738944731862376 0.051644845205733758 0 0.0023953661959371249 0.050484335566673616 0 0.0021852040027334251 0.050867514238052025 0 0.0021088004613914186 0.050610054307931265 0 0.0020050141531726515 0.051030894805599046 0 0.0022917759149264014 0.050817158615558959 0 0.0021852040027334251 0.050867514238052025 0 0.0020050141531726515 0.051030894805599046 0 0.0021088004613914186 0.050610054307931265 0 0.0018297439612144054 0.050365076780875179 0 0.0020050141531726515 0.051030894805599046 0 0.0021852040027334251 0.050867514238052025 0 0.0021088004613914186 0.050610054307931265 0 0.0021088004613914186 0.050610054307931265 0 0.0020806260806248409 0.050269706237283572 0 0.0018297439612144054 0.050365076780875179 0 0.0020806260806248409 0.050269706237283572 0 0.0020759281739093096 0.049910569125088462 0 0.0017625581262211115 0.04996708161653287 0 0.0020806260806248409 0.050269706237283572 0 0.0020759281739093096 0.049910569125088462 0 0.002406609968104159 0.050208001711173435 0 0.0020759281739093096 0.049910569125088462 0 0.002406609968104159 0.050208001711173435 0 0.0023554360538156744 0.049749199939849227 0 0.0020759281739093096 0.049910569125088462 0 0.0023554360538156744 0.049749199939849227 0 0.0021450301837726143 0.049603874399183151 0 0.0023554360538156744 0.049749199939849227 0 0.0023791569372625921 0.049421428753109301 0 0.0029476138380585145 0.049548490257461116 0 0.0023554360538156744 0.049749199939849227 0 0.0021450301837726143 0.049603874399183151 0 0.0023791569372625921 0.049421428753109301 0 0.0020759281739093096 0.049910569125088462 0 0.0021450301837726143 0.049603874399183151 0 0.0019105016083658174 0.049630716675241472 0 0.0020759281739093096 0.049910569125088462 0 0.0019105016083658174 0.049630716675241472 0 0.0017625581262211115 0.04996708161653287 0 0.0019105016083658174 0.049630716675241472 0 0.0020887969699320288 0.049369232063404142 0 0.0018409188923338927 0.049258102007178221 0 0.0019609358582353851 0.04921638876521716 0 0.0020474787456561932 0.047380043664522517 0 0.0021450301837726143 0.049603874399183151 0 0.0019105016083658174 0.049630716675241472 0 0.0020887969699320288 0.049369232063404142 0 0.0021450301837726143 0.049603874399183151 0 0.0020887969699320288 0.049369232063404142 0 0.0023791569372625921 0.049421428753109301 0 0.0019609358582353851 0.04921638876521716 0 0.0023143656394834485 0.049402358854442746 0 0.0017237311155713683 0.049088041301897749 0 0.0023791569372625921 0.049421428753109301 0 0.0018974823733743545 0.048553404925043078 0 0.0023791569372625921 0.049421428753109301 0 0.0025046771325195638 0.048562051010741618 0 0.0018974823733743545 0.048553404925043078 0 0.0018974823733743545 0.048553404925043078 0 0.0014845810730085549 0.04812524167575781 0 0.0010496124546357207 0.048746330070071862 0 0.0017237311155713683 0.049088041301897749 0 0.0018974823733743545 0.048553404925043078 0 0.0010496124546357207 0.048746330070071862 0 0.0011216882627858402 0.04865091315891807 0 0.0020474787456561932 0.047380043664522517 0 0.0014845810730085549 0.04812524167575781 0 0.0012953806481837077 0.047340573323272399 0 0.0018410433301017828 0.047443756055478181 0 0.0018974823733743545 0.048553404925043078 0 0.0014845810730085549 0.04812524167575781 0 0.0018410433301017828 0.047443756055478181 0 0.0014845810730085549 0.04812524167575781 0 0.0012953806481837077 0.047340573323272399 0 0.0010018961549848621 0.047644189876625831 0 0.001027942792510485 0.05398659691297597 0 0.00090157513390732929 0.053990474699033612 0 0.00099235821281348389 0.053861246987331329 0 5.5238029505721673e-05 0.051566713147744643 0 0.0015328849602184538 0.050448978715993548 0 0.001227840861409336 0.046591816238488688 0 0.0012953806481837077 0.047340573323272399 0 0.0018410433301017828 0.047443756055478181 0 0.00090157513390732929 0.053990474699033612 0 0.0010493834112247382 0.053826232038303855 0 0.00095850052153390844 0.053893737527653911 0 0.00090157513390732929 0.053990474699033612 0 0.00099235821281348389 0.053861246987331329 0 0.00095850052153390844 0.053893737527653911 0 0.0025046771325195638 0.048562051010741618 0 0.0018974823733743545 0.048553404925043078 0 0.0018410433301017828 0.047443756055478181 0 0.0010139281111842581 0.053729190272727954 0 0.00099235821281348389 0.053861246987331329 0 0.00096211234873572876 0.053803665309458404 0 0.00099235821281348389 0.053861246987331329 0 0.00096211234873572876 0.053803665309458404 0 0.00095850052153390844 0.053893737527653911 0 0.0016830287522071434 0.051197583604011797 0 0.0015328849602184538 0.050448978715993548 0 0.00096211234873572876 0.053803665309458404 0 0.00095850052153390844 0.053893737527653911 0 0.00093347654228394901 0.053840907602488462 0 0.00096211234873572876 0.053803665309458404 0 0.00093347654228394901 0.053840907602488462 0 0.00091537136538970905 0.053790102502582558 0 0.00095850052153390844 0.053893737527653911 0 0.00098756480467245152 0.053877560540546578 0 0.00093347654228394901 0.053840907602488462 0 0.0010493834112247382 0.053826232038303855 0 0.00095850052153390844 0.053893737527653911 0 0.00098756480467245152 0.053877560540546578 0 0.00098756480467245152 0.053877560540546578 0 0.00091654415592898125 0.053904583181183317 0 0.00093347654228394901 0.053840907602488462 0 0.00091654415592898125 0.053904583181183317 0 0.00088451197457343144 0.053849438988338758 0 0.00093347654228394901 0.053840907602488462 0 0.00091654415592898125 0.053904583181183317 0 0.00088451197457343144 0.053849438988338758 0 0.00080593418411612221 0.053865196309648505 0 0.00080483246443055533 0.053729798469565555 0 0.0014953465742978899 0.053770759234410451 0 0.00088451197457343144 0.053849438988338758 0 0.00093347654228394901 0.053840907602488462 0 0.0008664745759406308 0.053788631051562306 0 0.00093347654228394901 0.053840907602488462 0 0.00091537136538970905 0.053790102502582558 0 0.00085613626686694333 0.05381147885056585 0 0.00096211234873572876 0.053803665309458404 0 0.00091537136538970905 0.053790102502582558 0 0.00089775116876685609 0.053701264498736904 0 0.0020011709433909817 0.053877778876868065 0 0.0014953465742978899 0.053770759234410451 0 0.00091537136538970905 0.053790102502582558 0 0.00089775116876685609 0.053701264498736904 0 0.00085613626686694333 0.05381147885056585 0 0.0032594845769222114 0.05342345021447701 0 0.0025983416807905941 0.053626396488110607 0 0.0027834209085591212 0.054284517882414798 0 0.0010139281111842581 0.053729190272727954 0 0.00096211234873572876 0.053803665309458404 0 0.00089775116876685609 0.053701264498736904 0 0.0010139281111842581 0.053729190272727954 0 0.00089775116876685609 0.053701264498736904 0 0.00096340866493173404 0.053558761363956563 0 0.0016830287522071434 0.051197583604011797 0 0.0023851683958396601 0.051326988270253671 0 0.0023791569372625921 0.049421428753109301 0 0.0025046771325195638 0.048562051010741618 0 0.0029476138380585145 0.049548490257461116 0 0.0032594845769222114 0.05342345021447701 0 0.0037289013689205202 0.052549038534531384 0 0.0029824128813093335 0.052582041385871151 0 0.0020011709433909817 0.053877778876868065 0 0.0023851683958396601 0.051326988270253671 0 0.0032594845769222114 0.05342345021447701 0 0.0029824128813093335 0.052582041385871151 0 0.0023759209111012133 0.052978189068257416 0 0.0021479787898106609 0.052454888578099559 0 0.0029824128813093335 0.052582041385871151 0 0.0023759209111012133 0.052978189068257416 0 0.0013315244141384696 0.052243872385746064 0 0.0021479787898106609 0.052454888578099559 0 0.0016808906611775888 0.052988462377491531 0 0.0021479787898106609 0.052454888578099559 0 0.0023759209111012133 0.052978189068257416 0 0.0016808906611775888 0.052988462377491531 0 0.00062126753646946401 0.053544850094776636 0 0.00044019612727549501 0.053671065752160393 0 0.00031801349528138038 0.053399664984762653 0 0.0023759209111012133 0.052978189068257416 0 0.0016808906611775888 0.052988462377491531 0 0.0018878935707004327 0.053850538118129836 0 0.0016808906611775888 0.052988462377491531 0 0.0018878935707004327 0.053850538118129836 0 0.0009830676698557399 0.05342075480364309 0 0.0013422140642114291 0.053674877255627647 0 0.00033334653604627816 0.0541910533899067 0 0.0032594845769222114 0.05342345021447701 0 0.0023759209111012133 0.052978189068257416 0 0.0025983416807905941 0.053626396488110607 0 0.0018878935707004327 0.053850538118129836 0 0.0025983416807905941 0.053626396488110607 0 0.0027834209085591212 0.054284517882414798 0 0.0023759209111012133 0.052978189068257416 0 0.0018878935707004327 0.053850538118129836 0 0.0025983416807905941 0.053626396488110607 0 0.00090980551017354314 0.053691704777210768 0 0.00080593418411612221 0.053865196309648505 0 0.00065374295473038396 0.05377755429031806 0 0.0013422140642114291 0.053674877255627647 0 0.0014953465742978899 0.053770759234410451 0 0.00062126753646946401 0.053544850094776636 0 0.00090980551017354314 0.053691704777210768 0 0.00065374295473038396 0.05377755429031806 0 0.0014953465742978899 0.053770759234410451 0 0.00086292032564482576 0.053946543794146755 0 0.00088451197457343144 0.053849438988338758 0 0.0008664745759406308 0.053788631051562306 0 0.00080593418411612221 0.053865196309648505 0 0.00078854578339115715 0.054097961267126481 0 0.00080593418411612221 0.053865196309648505 0 0.00063778912292070653 0.053987214613876039 0 0.00078854578339115715 0.054097961267126481 0 0.00091654415592898125 0.053904583181183317 0 0.00080593418411612221 0.053865196309648505 0 0.00080593418411612221 0.053865196309648505 0 0.00063778912292070653 0.053987214613876039 0 0.00065374295473038396 0.05377755429031806 0 0.0004259358269143978 0.054086777343800962 0 0.00063778912292070653 0.053987214613876039 0 0.00049263983051318016 0.053892738106034663 0 0.00063778912292070653 0.053987214613876039 0 0.00049263983051318016 0.053892738106034663 0 0.00065374295473038396 0.05377755429031806 0 0.00049263983051318016 0.053892738106034663 0 0.00065374295473038396 0.05377755429031806 0 0.00044019612727549501 0.053671065752160393 0 0.00062126753646946401 0.053544850094776636 0 0.00065374295473038396 0.05377755429031806 0 0.00044019612727549501 0.053671065752160393 0 0.00044019612727549501 0.053671065752160393 0 0.00019732182078217416 0.053746397997963248 0 0.00031801349528138038 0.053399664984762653 0 0.00049263983051318016 0.053892738106034663 0 0.00044019612727549501 0.053671065752160393 0 0.00019732182078217416 0.053746397997963248 0 0.00049263983051318016 0.053892738106034663 0 0.00025144384792037097 0.053985898448389677 0 0.00019732182078217416 0.053746397997963248 0 0.00025647067171702907 0.054173061564199987 0 0.0004259358269143978 0.054086777343800962 0 0.00025144384792037097 0.053985898448389677 0 0.0004259358269143978 0.054086777343800962 0 0.00049263983051318016 0.053892738106034663 0 0.00025144384792037097 0.053985898448389677 0 2.4814416838829618e-08 0.055000089652223381 0 -2.9513351562293385e-06 0.054997422003753862 0 1.2539906205208146e-06 0.054997004102386331 0 1.7472952577822464e-05 0.054590419690312822 0 7.4839402640404029e-05 0.054379673546615763 0 4.5625459515360502e-06 0.054165574395249293 0 0.00025144384792037097 0.053985898448389677 0 0.00019732182078217416 0.053746397997963248 0 2.4814416838829618e-08 0.055000089652223381 0 1.2539906205208146e-06 0.054997004102386331 0 -8.4439114059755487e-09 0.05499995815568344 0 1.2539906205208146e-06 0.054997004102386331 0 -8.4439114059755487e-09 0.05499995815568344 0 1.7167448384660683e-06 0.054997668971598412 0 1.7167448384660683e-06 0.054997668971598412 0 3.6036401182653811e-06 0.054994011056124135 0 2.9212645086818449e-06 0.05500103446861463 0 -8.4439114059755487e-09 0.05499995815568344 0 2.5192865263051471e-08 0.055000048085674116 0 2.9212645086818449e-06 0.05500103446861463 0 -8.4439114059755487e-09 0.05499995815568344 0 1.7167448384660683e-06 0.054997668971598412 0 2.9212645086818449e-06 0.05500103446861463 0 1.2539906205208146e-06 0.054997004102386331 0 1.7167448384660683e-06 0.054997668971598412 0 3.6036401182653811e-06 0.054994011056124135 0 7.4839402640404029e-05 0.054379673546615763 0 0.00033334653604627816 0.0541910533899067 0 0.0013315244141384696 0.052243872385746064 0 0.0016808906611775888 0.052988462377491531 0 0.0009830676698557399 0.05342075480364309 0 6.3142448430428139e-05 0.054981965109448881 0 3.7127294475539417e-05 0.055016484477622696 0 2.8054319762949683e-05 0.054998777670478456 0 0.00063056839346173549 0.053775258481884206 0 0.00033334653604627816 0.0541910533899067 0 3.7127294475539417e-05 0.055016484477622696 0 2.8054319762949683e-05 0.054998777670478456 0 2.9212645086818449e-06 0.05500103446861463 0 1.6402399608478096e-05 0.054992503932572184 0 2.8054319762949683e-05 0.054998777670478456 0 2.9212645086818449e-06 0.05500103446861463 0 0.00033334653604627816 0.0541910533899067 0 -9.9010836690013441e-06 0.055096543849630981 0 1.6402399608478096e-05 0.054992503932572184 0 2.5192865263051471e-08 0.055000048085674116 0 2.9212645086818449e-06 0.05500103446861463 0 -0.0013496407554881883 0.047760663370659408 0 -0.0016690387442504899 0.045583382180507122 0 -0.0033791092356516088 0.046466229978662892 0 -0.0013496407554881883 0.047760663370659408 0 -0.00012619966634830541 0.04599691390730503 0 -0.0016690387442504899 0.045583382180507122 0 -0.0013496407554881883 0.047760663370659408 0 0.00029332062433184861 0.047388971707847512 0 -0.00012619966634830541 0.04599691390730503 0 -0.00012619966634830541 0.04599691390730503 0 0.001384967514397837 0.046238237983898353 0 0.00069566730502612347 0.044967967415830749 0 0.00029332062433184861 0.047388971707847512 0 -0.00012619966634830541 0.04599691390730503 0 0.001384967514397837 0.046238237983898353 0 -0.00012619966634830541 0.04599691390730503 0 -0.0016690387442504899 0.045583382180507122 0 -0.00041845406136629574 0.043111590748024814 0 -0.0016690387442504899 0.045583382180507122 0 -0.0033791092356516088 0.046466229978662892 0 -0.0030263803642959779 0.044201767180078212 0 -0.0011785051848449343 0.047430533449538785 0 -0.00050387570407816782 0.047910716704754955 0 -0.0013822719767797689 0.048018071853323463 0 -0.0017238175667061029 0.041277987287854166 0 -0.0019424931467791496 0.047667828909418439 0 -0.0054573804557419298 0.04498031367231374 0 -0.0033791092356516088 0.046466229978662892 0 -0.0030263803642959779 0.044201767180078212 0 -0.00050387570407816782 0.047910716704754955 0 -0.00098846940419386117 0.048510956596988793 0 -0.0013822719767797689 0.048018071853323463 0 -0.00050387570407816782 0.047910716704754955 0 -0.00046734420611766175 0.048784663581114128 0 -0.00098846940419386117 0.048510956596988793 0 -0.0006181007170590364 0.048037445558223771 0 -0.0019424931467791496 0.047667828909418439 0 0.00018706862233923988 0.04843208526884072 0 -0.00050387570407816782 0.047910716704754955 0 -0.00046734420611766175 0.048784663581114128 0 -0.00046734420611766175 0.048784663581114128 0 -0.00098846940419386117 0.048510956596988793 0 -0.0010935292728491872 0.048974977632905245 0 -0.00074932657034799022 0.049942875355024889 0 -0.0010935292728491872 0.048974977632905245 0 -0.0016737390219113343 0.04920143000874444 0 -0.00046734420611766175 0.048784663581114128 0 -0.0010935292728491872 0.048974977632905245 0 -0.00037463771159729377 0.049431621709234229 0 -0.00074932657034799022 0.049942875355024889 0 -0.0010935292728491872 0.048974977632905245 0 -0.00037463771159729377 0.049431621709234229 0 -0.00046734420611766175 0.048784663581114128 0 -0.00037463771159729377 0.049431621709234229 0 0.00022172987113793833 0.049318691335781602 0 0.0001807533345483518 0.050138958922261868 0 -0.00037463771159729377 0.049431621709234229 0 0.00022172987113793833 0.049318691335781602 0 0.00018706862233923988 0.04843208526884072 0 0.00022172987113793833 0.049318691335781602 0 0.00088090806523620339 0.049071393039468218 0 0.00018706862233923988 0.04843208526884072 0 -0.00046734420611766175 0.048784663581114128 0 0.00022172987113793833 0.049318691335781602 0 -0.0006181007170590364 0.048037445558223771 0 0.00061514614138900132 0.049007783367320187 0 -0.0013496407554881883 0.047760663370659408 0 0.00029332062433184861 0.047388971707847512 0 0.00036650936856105797 0.048864023841630924 0 0.00022172987113793833 0.049318691335781602 0 0.00088090806523620339 0.049071393039468218 0 0.00095917390931729172 0.04980693009232455 0 0.0001807533345483518 0.050138958922261868 0 0.00022172987113793833 0.049318691335781602 0 0.00095917390931729172 0.04980693009232455 0 0.00036650936856105797 0.048864023841630924 0 0.001205454356758201 0.049548150853899194 0 0.0014508771327209659 0.049911592081087301 0 0.00088090806523620339 0.049071393039468218 0 0.00095917390931729172 0.04980693009232455 0 0.0014508771327209659 0.049911592081087301 0 0.0012636528892058165 0.050143187768572677 0 0.00095917390931729172 0.04980693009232455 0 0.0014508771327209659 0.049911592081087301 0 0.0014709097904669793 0.050210599453584845 0 0.0012636528892058165 0.050143187768572677 0 0.0014508771327209659 0.049911592081087301 0 0.001205454356758201 0.049548150853899194 0 0.0014508771327209659 0.049911592081087301 0 0.0015269361558339371 0.049973975451663571 0 0.0014709097904669793 0.050210599453584845 0 0.0014508771327209659 0.049911592081087301 0 0.0015712539112821024 0.05025616683682331 0 0.0014508771327209659 0.049911592081087301 0 0.0015269361558339371 0.049973975451663571 0 0.0015712539112821024 0.05025616683682331 0 0.001205454356758201 0.049548150853899194 0 0.0015269361558339371 0.049973975451663571 0 0.0014984086339346358 0.049927176409402356 0 0.0012843078096787259 0.049520915204471237 0 0.0019971785558465477 0.048749084367686754 0 0.001205454356758201 0.049548150853899194 0 0.0012050013999985142 0.047908829223120078 0 0.0026790303238448956 0.047466206887376072 0 0.00036650936856105797 0.048864023841630924 0 0.001205454356758201 0.049548150853899194 0 0.0012050013999985142 0.047908829223120078 0 0.00029332062433184861 0.047388971707847512 0 0.00036650936856105797 0.048864023841630924 0 0.0012050013999985142 0.047908829223120078 0 0.00061514614138900132 0.049007783367320187 0 0.001419716373662557 0.04978437521814278 0 0.0017554999033750471 0.050580809592728371 0 0.001669366576286733 0.050260291443669655 0 0.0018297439612144054 0.050365076780875179 0 0.0020050141531726515 0.051030894805599046 0 0.0017554999033750471 0.050580809592728371 0 0.0018297439612144054 0.050365076780875179 0 0.0017554999033750471 0.050580809592728371 0 0.001669366576286733 0.050260291443669655 0 0.0015712539112821024 0.05025616683682331 0 0.0015269361558339371 0.049973975451663571 0 0.001669366576286733 0.050260291443669655 0 0.0015712539112821024 0.05025616683682331 0 0.0015269361558339371 0.049973975451663571 0 0.0016239631696921548 0.050068280149102661 0 0.0014984086339346358 0.049927176409402356 0 0.0015269361558339371 0.049973975451663571 0 0.001669366576286733 0.050260291443669655 0 0.0016239631696921548 0.050068280149102661 0 0.0020806260806248409 0.050269706237283572 0 0.0018297439612144054 0.050365076780875179 0 0.0017625581262211115 0.04996708161653287 0 0.001669366576286733 0.050260291443669655 0 0.0016239631696921548 0.050068280149102661 0 0.0018297439612144054 0.050365076780875179 0 0.0016239631696921548 0.050068280149102661 0 0.0018297439612144054 0.050365076780875179 0 0.0017625581262211115 0.04996708161653287 0 0.0017625581262211115 0.04996708161653287 0 0.0016207328205667189 0.049662344428158194 0 0.0014984086339346358 0.049927176409402356 0 0.0016239631696921548 0.050068280149102661 0 0.0017625581262211115 0.04996708161653287 0 0.0014984086339346358 0.049927176409402356 0 0.0029151688306041377 0.047529092479740805 0 0.0019971785558465477 0.048749084367686754 0 0.0019105016083658174 0.049630716675241472 0 0.0017625581262211115 0.04996708161653287 0 0.0016207328205667189 0.049662344428158194 0 0.0037296053946814039 0.045759367436723097 0 0.0026790303238448956 0.047466206887376072 0 0.001384967514397837 0.046238237983898353 0 0.0037296053946814039 0.045759367436723097 0 0.001384967514397837 0.046238237983898353 0 0.0021378630886017863 0.044458698017260947 0 0.0012050013999985142 0.047908829223120078 0 0.0026790303238448956 0.047466206887376072 0 0.001384967514397837 0.046238237983898353 0 0.00029332062433184861 0.047388971707847512 0 0.0012050013999985142 0.047908829223120078 0 0.001384967514397837 0.046238237983898353 0 0.001384967514397837 0.046238237983898353 0 0.00069566730502612347 0.044967967415830749 0 0.0021378630886017863 0.044458698017260947 0 0.00069566730502612347 0.044967967415830749 0 0.0021378630886017863 0.044458698017260947 0 0.00060585117388893312 0.043624251097578302 0 0.0021378630886017863 0.044458698017260947 0 0.0033180295996900282 0.043458438661684404 0 0.0018236865030927614 0.042717971829067121 0 0.0021378630886017863 0.044458698017260947 0 0.0018236865030927614 0.042717971829067121 0 0.00060585117388893312 0.043624251097578302 0 0.0037296053946814039 0.045759367436723097 0 0.0035557567750504012 0.044500401800428732 0 0.0047735943649927859 0.044210164610869233 0 0.0029151688306041377 0.047529092479740805 0 0.0020474787456561932 0.047380043664522517 0 0.0019105016083658174 0.049630716675241472 0 0.0016207328205667189 0.049662344428158194 0 0.0018409188923338927 0.049258102007178221 0 0.0037296053946814039 0.045759367436723097 0 0.0021378630886017863 0.044458698017260947 0 0.0035557567750504012 0.044500401800428732 0 0.0021378630886017863 0.044458698017260947 0 0.0035557567750504012 0.044500401800428732 0 0.0033180295996900282 0.043458438661684404 0 0.0035557567750504012 0.044500401800428732 0 0.0033180295996900282 0.043458438661684404 0 0.0047735943649927859 0.044210164610869233 0 -0.00017652360295811794 0.048250604283117948 0 0.0009371657180370312 0.048223147061774198 0 0.0010550038587858505 0.048819196119766588 0 0.0016905061553598461 0.045798468451671195 0 0.0020474787456561932 0.047380043664522517 0 0.0014845810730085549 0.04812524167575781 0 0.0009371657180370312 0.048223147061774198 0 0.0010550038587858505 0.048819196119766588 0 -0.00017652360295811794 0.048250604283117948 0 0.0009371657180370312 0.048223147061774198 0 0.0010018961549848621 0.047644189876625831 0 0.0014845810730085549 0.04812524167575781 0 0.0009371657180370312 0.048223147061774198 0 0.0010018961549848621 0.047644189876625831 0 -0.00017652360295811794 0.048250604283117948 0 0.0010018961549848621 0.047644189876625831 0 0.00012328112966541739 0.047059861282707206 0 -0.00017652360295811794 0.048250604283117948 0 0.00012328112966541739 0.047059861282707206 0 -0.00087350598632438784 0.046756348670508152 0 -0.0001712556074710933 0.046095465518811614 0 0.00012328112966541739 0.047059861282707206 0 -0.00087350598632438784 0.046756348670508152 0 -0.0001712556074710933 0.046095465518811614 0 0.00012328112966541739 0.047059861282707206 0 0.00088270129444539391 0.046503751386640368 0 0.0010018961549848621 0.047644189876625831 0 0.00012328112966541739 0.047059861282707206 0 0.00088270129444539391 0.046503751386640368 0 0.0010104592722733373 0.047613970709288009 0 0.00084668108865645973 0.046555178328750411 0 0.0012953806481837077 0.047340573323272399 0 0.0010018961549848621 0.047644189876625831 0 0.00096167717389715045 0.047074412858064622 0 0.001227840861409336 0.046591816238488688 0 0.0012953806481837077 0.047340573323272399 0 0.00096167717389715045 0.047074412858064622 0 0.00013512067114280251 0.045086688998632905 0 -0.0012603372855569878 0.044743836811704567 0 0.0018236865030927614 0.042717971829067121 0 0.00035336169852173352 0.041993855926569408 0 0.00060585117388893312 0.043624251097578302 0 -0.00017652360295811794 0.048250604283117948 0 -0.0015165118686316743 0.047525896373289231 0 -0.00087350598632438784 0.046756348670508152 0 0.0016905061553598461 0.045798468451671195 0 0.00013512067114280251 0.045086688998632905 0 -0.0015165118686316743 0.047525896373289231 0 -0.00087350598632438784 0.046756348670508152 0 -0.0015989593345916316 0.046060096113734759 0 -0.0001712556074710933 0.046095465518811614 0 -0.00087350598632438784 0.046756348670508152 0 -0.0015989593345916316 0.046060096113734759 0 -0.0026370227332714125 0.045632414582239399 0 -0.0015989593345916316 0.046060096113734759 0 -0.0027787407161038958 0.046780812129912509 0 -0.0015165118686316743 0.047525896373289231 0 -0.0015989593345916316 0.046060096113734759 0 -0.0027787407161038958 0.046780812129912509 0 -0.0012603372855569878 0.044743836811704567 0 -0.0012413862721998492 0.039974415939925484 0 -0.0012413862721998492 0.039974415939925484 0 -0.00084083738270799646 0.041530258868201081 0 -0.0024556048772484142 0.037179778995938072 0 -0.0014047019501947492 0.037711095462005857 0 -0.0020218589596778854 0.039225995605890428 0 0.00035336169852173352 0.041993855926569408 0 -0.0011085075333793892 0.041259994156960599 0 -0.00076453912604867351 0.04289461171156312 0 -0.0014047019501947492 0.037711095462005857 0 -0.00088520494190935987 0.040388060192420625 0 -0.0020218589596778854 0.039225995605890428 0 -0.0035055456390852818 0.045507743538012548 0 -0.0027787407161038958 0.046780812129912509 0 -0.0039260401961619907 0.046078568795563428 0 -0.0018990127941812241 0.033787920637621593 0 -0.0012413862721998492 0.039974415939925484 0 -0.00088520494190935987 0.040388060192420625 0 -0.0020218589596778854 0.039225995605890428 0 -0.002405162923565522 0.041542309771212559 0 0.00035336169852173352 0.041993855926569408 0 -0.00076453912604867351 0.04289461171156312 0 0.00060585117388893312 0.043624251097578302 0 -0.00076453912604867351 0.04289461171156312 0 0.00060585117388893312 0.043624251097578302 0 -0.00041315039433022948 0.044513919927532085 0 -0.00088520494190935987 0.040388060192420625 0 -0.00041845406136629574 0.043111590748024814 0 -0.002405162923565522 0.041542309771212559 0 -0.00084083738270799646 0.041530258868201081 0 -0.00042310529759699415 0.043858912995901181 0 -0.00041845406136629574 0.043111590748024814 0 -0.0030263803642959779 0.044201767180078212 0 -0.002405162923565522 0.041542309771212559 0 -0.0016690387442504899 0.045583382180507122 0 -0.00041845406136629574 0.043111590748024814 0 -0.0030263803642959779 0.044201767180078212 0 -0.0001266109151847788 0.045818954671390515 0 -0.00042310529759699415 0.043858912995901181 0 0.00069566730502612347 0.044967967415830749 0 0.00060585117388893312 0.043624251097578302 0 -0.00041315039433022948 0.044513919927532085 0 -0.00012619966634830541 0.04599691390730503 0 0.00069566730502612347 0.044967967415830749 0 -0.00041315039433022948 0.044513919927532085 0 -0.0021792086735860456 0.035382248223331129 0 -0.0013242411467565536 0.033089483990350034 0 -0.0029067420242515816 0.03320439439868357 0 -0.0054573804557419298 0.04498031367231374 0 -0.0030263803642959779 0.044201767180078212 0 -0.0044984816253727539 0.042448685222278813 0 -0.0017238175667061029 0.041277987287854166 0 -0.0031489819871094553 0.037667899365754848 0 -0.0030263803642959779 0.044201767180078212 0 -0.002405162923565522 0.041542309771212559 0 -0.0044984816253727539 0.042448685222278813 0 -0.002405162923565522 0.041542309771212559 0 -0.0044984816253727539 0.042448685222278813 0 -0.0035062031105689878 0.039857571693402143 0 -0.0031489819871094553 0.037667899365754848 0 -0.0018648811962325041 0.035221331875817427 0 -0.0013242411467565536 0.033089483990350034 0 -0.0021440758947997587 0.031631603596393824 0 -0.0005238524118569253 0.030908432879660202 0 -0.0013242411467565536 0.033089483990350034 0 -0.0021440758947997587 0.031631603596393824 0 -0.0029067420242515816 0.03320439439868357 0 -0.0021440758947997587 0.031631603596393824 0 -0.0018287066070308876 0.03038577941471941 0 -0.0005238524118569253 0.030908432879660202 0 -0.0020218589596778854 0.039225995605890428 0 -0.002405162923565522 0.041542309771212559 0 -0.0035062031105689878 0.039857571693402143 0 -0.0024556048772484142 0.037179778995938072 0 -0.0020218589596778854 0.039225995605890428 0 -0.0035062031105689878 0.039857571693402143 0 -0.0018990127941812241 0.033787920637621593 0 -0.0018648811962325041 0.035221331875817427 0 0.00026277705735309391 0.028874051519512521 0 -0.0005238524118569253 0.030908432879660202 0 -0.001111703515623608 0.029498750877414888 0 -0.0018287066070308876 0.03038577941471941 0 -0.0005238524118569253 0.030908432879660202 0 -0.001111703515623608 0.029498750877414888 0 -0.0018287066070308876 0.03038577941471941 0 -0.001111703515623608 0.029498750877414888 0 -0.0022210275499455292 0.029194593690930522 0 -0.0032295890793170379 0.029048721086945353 0 -0.0041720697068313838 0.029903990499668402 0 -0.0030409042733356866 0.030470609486711941 0 -0.0032295890793170379 0.029048721086945353 0 -0.0022210275499455292 0.029194593690930522 0 -0.0030409042733356866 0.030470609486711941 0 -0.0018287066070308876 0.03038577941471941 0 -0.0022210275499455292 0.029194593690930522 0 -0.0030409042733356866 0.030470609486711941 0 -0.0039763503034994452 0.028376334836877466 0 -0.0032295890793170379 0.029048721086945353 0 -0.0041720697068313838 0.029903990499668402 0 -0.0039763503034994452 0.028376334836877466 0 -0.0041720697068313838 0.029903990499668402 0 -0.0052335598639078025 0.029483637047973514 0 -0.0049218103920720428 0.020030741984332936 0 -0.0073007687504750033 0.022294342291761794 0 -0.0041720697068313838 0.029903990499668402 0 -0.005019535004687165 0.029667625427000341 0 -0.005041788596137302 0.030754845228676608 0 -0.0029839645706621534 0.028728941035709964 0 -0.0073007687504750033 0.022294342291761794 0 -0.0041720697068313838 0.029903990499668402 0 -0.0040661205334111793 0.030854457736561341 0 -0.0030409042733356866 0.030470609486711941 0 -0.0041720697068313838 0.029903990499668402 0 -0.0040661205334111793 0.030854457736561341 0 -0.005041788596137302 0.030754845228676608 0 -0.0040661205334111793 0.030854457736561341 0 -0.0046436613393458981 0.031376600877133974 0 -0.005041788596137302 0.030754845228676608 0 -0.0040661205334111793 0.030854457736561341 0 -0.0046436613393458981 0.031376600877133974 0 -0.003491602218631441 0.031715146205265429 0 -0.0021440758947997587 0.031631603596393824 0 -0.0030409042733356866 0.030470609486711941 0 -0.003491602218631441 0.031715146205265429 0 -0.0040661205334111793 0.030854457736561341 0 -0.0030409042733356866 0.030470609486711941 0 -0.003491602218631441 0.031715146205265429 0 -0.0021440758947997587 0.031631603596393824 0 -0.0018287066070308876 0.03038577941471941 0 -0.0030409042733356866 0.030470609486711941 0 -0.0065291998610243927 0.01822695640092923 0 -0.0074807025211955716 0.016005773299153963 0 -0.0051188097743507729 0.017016835299426762 0 -0.0065291998610243927 0.01822695640092923 0 -0.0089830103691111943 0.01740356317660996 0 -0.0074807025211955716 0.016005773299153963 0 -0.006280204409216927 0.011085466433299872 0 -0.0073007687504750033 0.022294342291761794 0 -0.0073007687504750033 0.022294342291761794 0 -0.0079859736648868803 0.024673387253817982 0 -0.005019535004687165 0.029667625427000341 0 -0.005041788596137302 0.030754845228676608 0 -0.0058082076246701135 0.030582386512935836 0 -0.0046436613393458981 0.031376600877133974 0 -0.005041788596137302 0.030754845228676608 0 -0.0053449110185962781 0.031538894793644426 0 -0.005041788596137302 0.030754845228676608 0 -0.0057510696234572634 0.031167336897880652 0 -0.0053449110185962781 0.031538894793644426 0 -0.005041788596137302 0.030754845228676608 0 -0.0058082076246701135 0.030582386512935836 0 -0.0057510696234572634 0.031167336897880652 0 -0.0074807025211955716 0.016005773299153963 0 -0.0059203636816265396 0.014547991203692108 0 -0.0051188097743507729 0.017016835299426762 0 -0.0058082076246701135 0.030582386512935836 0 -0.0057510696234572634 0.031167336897880652 0 -0.0063324952759246751 0.031137503725747282 0 -0.0079859736648868803 0.024673387253817982 0 -0.0011897237835429811 0.01286209695380346 0 0.0048978206357441975 0.01465726760183049 0 0.0055049555367667558 0.014453154293727104 0 0.0050649190089200368 0.015319941135019719 0 0.0048978206357441975 0.01465726760183049 0 0.0048023843961640883 0.014031884879564051 0 0.0055049555367667558 0.014453154293727104 0 -0.0011897237835429811 0.01286209695380346 0 0.00070011263721554045 0.023354080875000367 0 -0.0057510696234572634 0.031167336897880652 0 -0.0063324952759246751 0.031137503725747282 0 -0.0057425632022342823 0.0316400225902677 0 -0.0057425632022342823 0.0316400225902677 0 -0.0053449110185962781 0.031538894793644426 0 -0.005242479611289352 0.031910142302026455 0 0.00070011263721554045 0.023354080875000367 0 -0.001875044644281929 0.026838881989203825 0 -0.0057510696234572634 0.031167336897880652 0 -0.0057425632022342823 0.0316400225902677 0 -0.0053449110185962781 0.031538894793644426 0 -0.0044766325299642343 0.032821602373828064 0 -0.001875044644281929 0.026838881989203825 0 -0.0053449110185962781 0.031538894793644426 0 -0.0052332167210921449 0.033005355751259353 0 -0.0043660587134004168 0.032309201911161031 0 0.0055049555367667558 0.014453154293727104 0 0.0063683013848282091 0.014950764639502265 0 0.0058644606223916132 0.0154190270991792 0 0.0063683013848282091 0.014950764639502265 0 0.0058644606223916132 0.0154190270991792 0 0.0067113541949986467 0.016123137488967907 0 -0.001875044644281929 0.026838881989203825 0 0.0025453403885329498 0.020230134369622545 0 0.0055049555367667558 0.014453154293727104 0 0.0058644606223916132 0.0154190270991792 0 0.0050649190089200368 0.015319941135019719 0 0.0058644606223916132 0.0154190270991792 0 0.0050649190089200368 0.015319941135019719 0 0.0057972611673652473 0.016487631116146827 0 0.0053371095338125962 0.01567372823264571 0 0.005340417243122164 0.015464113915779194 0 -0.0021440758947997587 0.031631603596393824 0 -0.003491602218631441 0.031715146205265429 0 -0.0029067420242515816 0.03320439439868357 0 -0.003491602218631441 0.031715146205265429 0 -0.0043660587134004168 0.032309201911161031 0 -0.0029067420242515816 0.03320439439868357 0 -0.0046436613393458981 0.031376600877133974 0 -0.003491602218631441 0.031715146205265429 0 -0.0043660587134004168 0.032309201911161031 0 -0.0046436613393458981 0.031376600877133974 0 -0.0053449110185962781 0.031538894793644426 0 -0.0043660587134004168 0.032309201911161031 0 -0.00090221837926089503 0.027275261510454857 0 -0.00069224216602181861 0.027421425044223447 0 -0.00082428282738830193 0.027534537996081545 0 -0.00069224216602181861 0.027421425044223447 0 -0.00050577718171257891 0.02756653976555988 0 -0.00082428282738830193 0.027534537996081545 0 -0.0043660587134004168 0.032309201911161031 0 -0.0041129379121608222 0.033866216221059425 0 -0.0029067420242515816 0.03320439439868357 0 -0.0052332167210921449 0.033005355751259353 0 -0.0043660587134004168 0.032309201911161031 0 -0.0041129379121608222 0.033866216221059425 0 -0.001875044644281929 0.026838881989203825 0 -0.0024062371211753366 0.03057911595112096 0 -0.0024062371211753366 0.03057911595112096 0 -0.001812528439402174 0.033286114127698496 0 -0.0021792086735860456 0.035382248223331129 0 -0.0029067420242515816 0.03320439439868357 0 -0.0029693055860268067 0.034792249968385612 0 -0.0041129379121608222 0.033866216221059425 0 -0.0029067420242515816 0.03320439439868357 0 -0.0029693055860268067 0.034792249968385612 0 -0.0017238175667061029 0.041277987287854166 0 -0.00016746359545256604 0.043268191539758298 0 -0.0017238175667061029 0.041277987287854166 0 -0.001812528439402174 0.033286114127698496 0 0.00059622277057892325 0.03667287314152088 0 0.00068518801518745588 0.037878132628554571 0 -0.000279900038099414 0.038620404507822705 0 0.0015398784569195972 0.037242833846676968 0 0.00059622277057892325 0.03667287314152088 0 0.00068518801518745588 0.037878132628554571 0 0.0015398784569195972 0.037242833846676968 0 0.00068518801518745588 0.037878132628554571 0 0.00087787798534813707 0.038989767521022102 0 0.00087787798534813707 0.038989767521022102 0 -0.000279900038099414 0.038620404507822705 0 0.00018656050553668245 0.040785002031697874 0 -0.00016746359545256604 0.043268191539758298 0 -0.000951738464795571 0.046495596016738056 0 0.00068518801518745588 0.037878132628554571 0 0.00087787798534813707 0.038989767521022102 0 -0.000279900038099414 0.038620404507822705 0 -0.000279900038099414 0.038620404507822705 0 -0.0013629263440763457 0.039137808984451988 0 0.00018656050553668245 0.040785002031697874 0 0.008408576970642935 0.03351883204323123 0 0.0082244717363775376 0.03333015806515631 0 0.0081630483134169773 0.034289391912102042 0 0.002608058277508683 0.035893335956782985 0 -0.000951738464795571 0.046495596016738056 0 -0.000279900038099414 0.038620404507822705 0 -0.0013629263440763457 0.039137808984451988 0 -0.0014752679664711192 0.038576192244150549 0 0.002608058277508683 0.035893335956782985 0 0.0014010035080631925 0.028659811621083404 0 0.0040554123299061046 0.031258245226147591 0 0.00071541277585081026 0.027880749836194738 0 0.0028761435234129855 0.025889678405146572 0 0.002608058277508683 0.035893335956782985 0 0.0044277774109199265 0.02574196270185633 0 0.0044277774109199265 0.02574196270185633 0 0.0014010035080631925 0.028659811621083404 0 -0.001812528439402174 0.033286114127698496 0 0.0014010035080631925 0.028659811621083404 0 -0.00050577718171257891 0.02756653976555988 0 -0.00075726531742030913 0.027785025899431322 0 -0.00082428282738830193 0.027534537996081545 0 0.0014010035080631925 0.028659811621083404 0 0.0025453403885329498 0.020230134369622545 0 0.00059622277057892325 0.03667287314152088 0 -0.000279900038099414 0.038620404507822705 0 -0.0014752679664711192 0.038576192244150549 0 0.0070161791054133178 0.017616968615605258 0 0.0067113541949986467 0.016123137488967907 0 0.0057972611673652473 0.016487631116146827 0 0.0058644606223916132 0.0154190270991792 0 0.0067113541949986467 0.016123137488967907 0 0.0057972611673652473 0.016487631116146827 0 0.0044277774109199265 0.02574196270185633 0 0.005340417243122164 0.015464113915779194 0 0.0068453996572268461 0.017778674785764208 0 0.0070161791054133178 0.017616968615605258 0 0.0057972611673652473 0.016487631116146827 0 0.0050649190089200368 0.015319941135019719 0 0.0057496462157883834 0.015984053754318467 0 0.0049818327518890444 0.016030652500653459 0 0.0057496462157883834 0.015984053754318467 0 0.0049818327518890444 0.016030652500653459 0 0.0053646200933738395 0.016676117441789134 0 0.0049818327518890444 0.016030652500653459 0 0.0053646200933738395 0.016676117441789134 0 0.004523261210803594 0.01655999302373435 0 0.0053646200933738395 0.016676117441789134 0 0.0056427963812770892 0.017442061436233027 0 0.0048655715439201433 0.017303194165375117 0 0.0053646200933738395 0.016676117441789134 0 0.0048655715439201433 0.017303194165375117 0 0.004523261210803594 0.01655999302373435 0 0.0064276675796891584 0.016743051074285756 0 0.0053646200933738395 0.016676117441789134 0 0.0056427963812770892 0.017442061436233027 0 0.0064276675796891584 0.016743051074285756 0 0.0057496462157883834 0.015984053754318467 0 0.0053646200933738395 0.016676117441789134 0 0.0082244717363775376 0.03333015806515631 0 0.0074015672053315907 0.034252037964584342 0 0.0081630483134169773 0.034289391912102042 0 0.0044277774109199265 0.02574196270185633 0 0.0070851048891843469 0.025438210467304056 0 0.0074015672053315907 0.034252037964584342 0 0.0079097002928973214 0.035286252995152735 0 0.0081630483134169773 0.034289391912102042 0 0.0056427963812770892 0.017442061436233027 0 0.0048655715439201433 0.017303194165375117 0 0.0048866172716859899 0.018152460946287519 0 0.0070851048891843469 0.025438210467304056 0 0.0052962905980586481 0.027246599525515478 0 0.0074015672053315907 0.034252037964584342 0 0.0073152153672928159 0.03537155456996121 0 0.0068346944114456654 0.034903928023779493 0 0.0073152153672928159 0.03537155456996121 0 0.0068346944114456654 0.034903928023779493 0 0.006639365575395898 0.035765806573179564 0 0.0073152153672928159 0.03537155456996121 0 0.0079097002928973214 0.035286252995152735 0 0.0076634079687406369 0.035884509562333813 0 0.0074015672053315907 0.034252037964584342 0 0.0073152153672928159 0.03537155456996121 0 0.0079097002928973214 0.035286252995152735 0 0.0089320072219943054 0.0351088679864427 0 0.0084687871258981289 0.03658565394290076 0 0.0096813402029866189 0.037769405234953778 0 -0.0023702004044556424 0.048564190159823356 0 -0.0016737390219113343 0.04920143000874444 0 -0.0018736301334904277 0.049821339672633184 0 0.003443964164673209 0.04250758318414153 0 0.003221353942075482 0.044213344089506085 0 0.0079097002928973214 0.035286252995152735 0 0.0089320072219943054 0.0351088679864427 0 0.0084687871258981289 0.03658565394290076 0 -0.0023702004044556424 0.048564190159823356 0 -0.0016737390219113343 0.04920143000874444 0 -0.0018859189069257961 0.048325032049981509 0 -0.0010935292728491872 0.048974977632905245 0 -0.0016737390219113343 0.04920143000874444 0 -0.0018859189069257961 0.048325032049981509 0 -0.00098846940419386117 0.048510956596988793 0 -0.0010935292728491872 0.048974977632905245 0 -0.0015509488774197687 0.048553737979746547 0 -0.0010935292728491872 0.048974977632905245 0 -0.0017165415077111867 0.047900697090395475 0 -0.0018859189069257961 0.048325032049981509 0 -0.00098846940419386117 0.048510956596988793 0 -0.0013822719767797689 0.048018071853323463 0 -0.0015509488774197687 0.048553737979746547 0 -0.000951738464795571 0.046495596016738056 0 -0.0017209547438599099 0.048160664052787093 0 -0.0010723874998084064 0.04920913695739141 0 -0.000951738464795571 0.046495596016738056 0 0.002608058277508683 0.035893335956782985 0 0.003443964164673209 0.04250758318414153 0 0.0079097002928973214 0.035286252995152735 0 0.0089320072219943054 0.0351088679864427 0 0.0081630483134169773 0.034289391912102042 0 0.008408576970642935 0.03351883204323123 0 0.0089320072219943054 0.0351088679864427 0 0.0081630483134169773 0.034289391912102042 0 -0.0030358905601669977 0.045546446237495708 0 -0.0023702004044556424 0.048564190159823356 0 -0.0014713180884363753 0.047322575672360423 0 -0.0023702004044556424 0.048564190159823356 0 -0.0014713180884363753 0.047322575672360423 0 -0.0018859189069257961 0.048325032049981509 0 0.0062448504289560076 0.0079065211822257325 0 0.0017162660194081926 0.0070192228912444431 0 0.0023081627455323736 0.011003368424555559 0 0.0017162660194081926 0.0070192228912444431 0 0.0023081627455323736 0.011003368424555559 0 -0.00087159335282910885 0.0080471285064015532 0 0.0062448504289560076 0.0079065211822257325 0 0.0017162660194081926 0.0070192228912444431 0 0.0013152236513513586 0.0027321781906302824 0 0.0023081627455323736 0.011003368424555559 0 -0.0021101353122461647 0.010494311071991466 0 -7.6828560329564029e-05 0.015004104599528105 0 0.0023081627455323736 0.011003368424555559 0 -0.00087159335282910885 0.0080471285064015532 0 -0.0021101353122461647 0.010494311071991466 0 0.0062448504289560076 0.0079065211822257325 0 0.0023081627455323736 0.011003368424555559 0 0.0065844822765997344 0.012495089742858085 0 0.0023081627455323736 0.011003368424555559 0 0.0065844822765997344 0.012495089742858085 0 0.0043883653948825069 0.015126862239958504 0 0.0048713025955298521 0.01215615553690487 0 0.0064387482374760824 0.022524397687082535 0 0.0030242833794773111 0.017664333831908092 0 0.0041552835999586184 0.017515143088087215 0 0.0041145448274108251 0.018892584287255286 0 0.0062448504289560076 0.0079065211822257325 0 0.0065844822765997344 0.012495089742858085 0 0.011146716178097614 0.013156602896608362 0 0.0048866172716859899 0.018152460946287519 0 0.0041552835999586184 0.017515143088087215 0 0.0041145448274108251 0.018892584287255286 0 0.0068346944114456654 0.034903928023779493 0 0.0062998672456005466 0.035368051680660685 0 0.006639365575395898 0.035765806573179564 0 0.0052962905980586481 0.027246599525515478 0 0.0064387482374760824 0.022524397687082535 0 0.0048655715439201433 0.017303194165375117 0 0.0048866172716859899 0.018152460946287519 0 0.0041552835999586184 0.017515143088087215 0 0.0030242833794773111 0.017664333831908092 0 0.0041552835999586184 0.017515143088087215 0 0.0034916026525070283 0.016550345095650638 0 0.0048655715439201433 0.017303194165375117 0 0.0041552835999586184 0.017515143088087215 0 0.004523261210803594 0.01655999302373435 0 0.0041552835999586184 0.017515143088087215 0 0.0034916026525070283 0.016550345095650638 0 0.004523261210803594 0.01655999302373435 0 0.0034916026525070283 0.016550345095650638 0 0.004523261210803594 0.01655999302373435 0 0.0041987141899326131 0.015746980771348541 0 0.0049818327518890444 0.016030652500653459 0 0.004523261210803594 0.01655999302373435 0 0.0041987141899326131 0.015746980771348541 0 0.0050649190089200368 0.015319941135019719 0 0.0049818327518890444 0.016030652500653459 0 0.0041987141899326131 0.015746980771348541 0 0.0034916026525070283 0.016550345095650638 0 0.0041987141899326131 0.015746980771348541 0 0.002975040404923926 0.015547056716215563 0 0.0010944691195569761 0.0070979230735402788 0 0.00065899846168704737 0.0069597541992826896 0 0.0034916026525070283 0.016550345095650638 0 0.002975040404923926 0.015547056716215563 0 0.0019188266032922729 0.016401703588294611 0 0.0030242833794773111 0.017664333831908092 0 0.0034916026525070283 0.016550345095650638 0 0.0019188266032922729 0.016401703588294611 0 0.0048713025955298521 0.01215615553690487 0 0.00065899846168704737 0.0069597541992826896 0 0.0017162660194081926 0.0070192228912444431 0 0.0013152236513513586 0.0027321781906302824 0 -0.0021129071963280999 0.0057674918970904527 0 -0.001378155732917483 -0.00033595062140420024 0 -0.0013672713244283468 -0.0015170241157644552 0 -0.0026069679651815544 -0.00081620200882832395 0 5.9000077095489936e-05 -0.0023837553667756433 0 -0.001378155732917483 -0.00033595062140420024 0 -0.0013672713244283468 -0.0015170241157644552 0 0.00065899846168704737 0.0069597541992826896 0 -0.0033732337385416122 -0.001850245054803163 0 5.9000077095489936e-05 -0.0023837553667756433 0 -0.0013672713244283468 -0.0015170241157644552 0 -0.0015670043830119424 -0.0028639753210583396 0 -0.0013672713244283468 -0.0015170241157644552 0 -0.0015670043830119424 -0.0028639753210583396 0 -0.0026069679651815544 -0.00081620200882832395 0 5.9000077095489936e-05 -0.0023837553667756433 0 -0.0015670043830119424 -0.0028639753210583396 0 -0.00071896321100467606 -0.0035824519313685755 0 -0.0015670043830119424 -0.0028639753210583396 0 -0.0017079505303982927 -0.0041838623060614045 0 -0.003026205537230891 -0.0046387450496581202 0 -0.0017079505303982927 -0.0041838623060614045 0 -0.00071896321100467606 -0.0035824519313685755 0 -0.0011901660043052327 -0.0048023468528345095 0 -0.0015670043830119424 -0.0028639753210583396 0 -0.0017079505303982927 -0.0041838623060614045 0 -0.00071896321100467606 -0.0035824519313685755 0 5.9000077095489936e-05 -0.0023837553667756433 0 -0.00071896321100467606 -0.0035824519313685755 0 0.00087890368457618252 -0.0036770033430014791 0 -0.00071896321100467606 -0.0035824519313685755 0 -0.00058020043369058204 -0.0044751763587588846 0 0.00087890368457618252 -0.0036770033430014791 0 -0.00058020043369058204 -0.0044751763587588846 0 -0.0008374908577160852 -0.0047937547636467161 0 -0.0005245393677799279 -0.004801734359766335 0 -0.0007912020518229451 -0.0042526449004873009 0 0.00071338654493172495 -0.0052681272422436818 0 -0.00058020043369058204 -0.0044751763587588846 0 -0.0008374908577160852 -0.0047937547636467161 0 -0.0011901660043052327 -0.0048023468528345095 0 -0.0008374908577160852 -0.0047937547636467161 0 -0.0011901660043052327 -0.0048023468528345095 0 -0.00092473244056033165 -0.0049354668373893908 0 -0.0011901660043052327 -0.0048023468528345095 0 -0.002296304270583666 -0.0050505238194262746 0 -0.002914572031068572 -0.0062594894219994779 0 -0.0017079505303982927 -0.0041838623060614045 0 -0.0011901660043052327 -0.0048023468528345095 0 -0.002296304270583666 -0.0050505238194262746 0 -0.00071896321100467606 -0.0035824519313685755 0 -0.00058020043369058204 -0.0044751763587588846 0 -0.0011901660043052327 -0.0048023468528345095 0 0.0050649190089200368 0.015319941135019719 0 0.0041987141899326131 0.015746980771348541 0 0.0039539143893351824 0.014776085977849967 0 0.0048978206357441975 0.01465726760183049 0 0.0050649190089200368 0.015319941135019719 0 0.0039539143893351824 0.014776085977849967 0 0.0041987141899326131 0.015746980771348541 0 0.002975040404923926 0.015547056716215563 0 0.0039539143893351824 0.014776085977849967 0 0.0010944691195569761 0.0070979230735402788 0 0.0036082420690611828 0.004038062926530292 0 -0.00058020043369058204 -0.0044751763587588846 0 0.00087890368457618252 -0.0036770033430014791 0 0.00013567619657643343 -0.0046831005218858851 0 0.00087890368457618252 -0.0036770033430014791 0 0.00083688488743516244 -0.0043781109806432456 0 0.00013567619657643343 -0.0046831005218858851 0 0.0048978206357441975 0.01465726760183049 0 0.0048023843961640883 0.014031884879564051 0 0.0039539143893351824 0.014776085977849967 0 -0.0011897237835429811 0.01286209695380346 0 0.0036082420690611828 0.004038062926530292 0 0.001506708134969677 -0.0043176465828925889 0 0.00087890368457618252 -0.0036770033430014791 0 0.00083688488743516244 -0.0043781109806432456 0 0.001506708134969677 -0.0043176465828925889 0 0.00083688488743516244 -0.0043781109806432456 0 0.00073575419138775398 -0.0049320637273166986 0 -0.0011897237835429811 0.01286209695380346 0 -0.0013324278846307289 0.0037061229281034141 0 -0.0059203636816265396 0.014547991203692108 0 -0.0036819747735074649 0.015749195508111692 0 -0.0051188097743507729 0.017016835299426762 0 -0.00037850505702963233 -0.0048946779564021711 0 -0.0005245393677799279 -0.004801734359766335 0 -0.00069825552190908968 -0.0050926296376999159 0 0.00083688488743516244 -0.0043781109806432456 0 0.00073575419138775398 -0.0049320637273166986 0 0.00013567619657643343 -0.0046831005218858851 0 -0.0013324278846307289 0.0037061229281034141 0 0.00071338654493172495 -0.0052681272422436818 0 -0.0011743113904351061 0.0085058551632903531 0 -0.00087084722168500716 0.0090109474414845261 0 -0.0016731600417162794 0.0093233271990383181 0 -0.0013324278846307289 0.0037061229281034141 0 -0.001263639570674188 0.0019408016926534314 0 -0.00085810770559060752 0.0095482267799738615 0 -0.00087084722168500716 0.0090109474414845261 0 -0.0016731600417162794 0.0093233271990383181 0 -0.00061599731457661635 0.0083110600014836347 0 -0.00087084722168500716 0.0090109474414845261 0 -0.00037138441385598658 0.0091042398326286935 0 -0.0013324278846307289 0.0037061229281034141 0 -0.0035534091218156218 0.013533854650104706 0 -0.00085810770559060752 0.0095482267799738615 0 -0.00087084722168500716 0.0090109474414845261 0 -0.00037138441385598658 0.0091042398326286935 0 -0.006280204409216927 0.011085466433299872 0 -0.0035534091218156218 0.013533854650104706 0 -0.0011901660043052327 -0.0048023468528345095 0 -0.0027546877711753961 -0.0080882667428369987 0 -0.002914572031068572 -0.0062594894219994779 0 -0.0011901660043052327 -0.0048023468528345095 0 -0.00092473244056033165 -0.0049354668373893908 0 -0.0010434316548825944 -0.0050337292959784169 0 -0.0012389448955979912 -0.0046668953308114172 0 -0.0017229177201831967 -0.0070161196070732063 0 -0.00092473244056033165 -0.0049354668373893908 0 -0.00091906461875724437 -0.0050607677814654218 0 -0.0010434316548825944 -0.0050337292959784169 0 -0.0008374908577160852 -0.0047937547636467161 0 -0.0005245393677799279 -0.004801734359766335 0 -0.00092473244056033165 -0.0049354668373893908 0 -0.0005245393677799279 -0.004801734359766335 0 -0.00092473244056033165 -0.0049354668373893908 0 -0.00069825552190908968 -0.0050926296376999159 0 -0.00092473244056033165 -0.0049354668373893908 0 -0.00069825552190908968 -0.0050926296376999159 0 -0.00091906461875724437 -0.0050607677814654218 0 -0.0046619386390801265 0.0081123479189681765 0 -0.0019447619824419368 0.0082095933493788777 0 -0.0016731600417162794 0.0093233271990383181 0 -0.0019447619824419368 0.0082095933493788777 0 -0.0011743113904351061 0.0085058551632903531 0 -0.0016731600417162794 0.0093233271990383181 0 -0.0026751279968410119 0.0019200715110573761 0 -0.001263639570674188 0.0019408016926534314 0 -0.00097936625434075415 -0.0051957767576706225 0 -0.00091906461875724437 -0.0050607677814654218 0 -0.0010434316548825944 -0.0050337292959784169 0 -0.00097936625434075415 -0.0051957767576706225 0 -0.00069825552190908968 -0.0050926296376999159 0 -0.00091906461875724437 -0.0050607677814654218 0 -0.004213606838398362 -0.0051772608577117553 0 -0.0017229177201831967 -0.0070161196070732063 0 -0.0027546877711753961 -0.0080882667428369987 0 -0.0043827960239392 -0.0074390944911921575 0 -0.0042183509304390288 -0.0087425149319107186 0 -0.0039897215414784765 -0.0099742860877021916 0 -0.0027546877711753961 -0.0080882667428369987 0 -0.0042183509304390288 -0.0087425149319107186 0 -0.0027546877711753961 -0.0080882667428369987 0 -0.0043827960239392 -0.0074390944911921575 0 -0.002914572031068572 -0.0062594894219994779 0 -0.0043827960239392 -0.0074390944911921575 0 -0.002914572031068572 -0.0062594894219994779 0 -0.0046023739856196335 -0.0057857305707473168 0 -0.0043827960239392 -0.0074390944911921575 0 -0.0058332818977306173 -0.0070098927104834266 0 -0.0046023739856196335 -0.0057857305707473168 0 -0.0043827960239392 -0.0074390944911921575 0 -0.0055362508053670191 -0.0085649890013798774 0 -0.0058332818977306173 -0.0070098927104834266 0 -0.0046291982868765132 -0.0095452327578195873 0 -0.0042183509304390288 -0.0087425149319107186 0 -0.0055362508053670191 -0.0085649890013798774 0 -0.0043827960239392 -0.0074390944911921575 0 -0.0042183509304390288 -0.0087425149319107186 0 -0.0055362508053670191 -0.0085649890013798774 0 -0.0055362508053670191 -0.0085649890013798774 0 -0.0068332143798435479 -0.008735944385486168 0 -0.0066049519509786747 -0.0078106868795907733 0 -0.0062358371404053099 -0.0094652515686952376 0 -0.0055362508053670191 -0.0085649890013798774 0 -0.0068332143798435479 -0.008735944385486168 0 -0.0068332143798435479 -0.008735944385486168 0 -0.007425559269920513 -0.0079132689157411663 0 -0.0080623492464157315 -0.0089375171955932645 0 -0.0071598786060909749 -0.0095940376711982096 0 -0.0068332143798435479 -0.008735944385486168 0 -0.0080623492464157315 -0.0089375171955932645 0 -0.0068332143798435479 -0.008735944385486168 0 -0.007425559269920513 -0.0079132689157411663 0 -0.0066049519509786747 -0.0078106868795907733 0 -0.0066049519509786747 -0.0078106868795907733 0 -0.0058332818977306173 -0.0070098927104834266 0 -0.0073013353324790581 -0.0068818293559034299 0 -0.007425559269920513 -0.0079132689157411663 0 -0.0066049519509786747 -0.0078106868795907733 0 -0.0073013353324790581 -0.0068818293559034299 0 -0.0055362508053670191 -0.0085649890013798774 0 -0.0066049519509786747 -0.0078106868795907733 0 -0.0058332818977306173 -0.0070098927104834266 0 -0.0058332818977306173 -0.0070098927104834266 0 -0.0058800840175767194 -0.0057972238774417857 0 -0.0046023739856196335 -0.0057857305707473168 0 -0.0058332818977306173 -0.0070098927104834266 0 -0.0058800840175767194 -0.0057972238774417857 0 -0.0073013353324790581 -0.0068818293559034299 0 -0.0058800840175767194 -0.0057972238774417857 0 -0.0073013353324790581 -0.0068818293559034299 0 -0.0075866796868894592 -0.0056841614610573105 0 -0.0075866796868894592 -0.0056841614610573105 0 -0.0065267271784845548 -0.0050309469028838273 0 -0.0073056120073717928 -0.0046072460552266719 0 -0.0058800840175767194 -0.0057972238774417857 0 -0.0075866796868894592 -0.0056841614610573105 0 -0.0065267271784845548 -0.0050309469028838273 0 -0.0058800840175767194 -0.0057972238774417857 0 -0.0065267271784845548 -0.0050309469028838273 0 -0.0058178647780089332 -0.0043295032591991987 0 -0.004421352188222572 -0.0044092453897010171 0 -0.003026205537230891 -0.0046387450496581202 0 -0.0046023739856196335 -0.0057857305707473168 0 -0.0058800840175767194 -0.0057972238774417857 0 -0.004421352188222572 -0.0044092453897010171 0 -0.0058178647780089332 -0.0043295032591991987 0 -0.0015670043830119424 -0.0028639753210583396 0 -0.004421352188222572 -0.0044092453897010171 0 -0.003026205537230891 -0.0046387450496581202 0 -0.003026205537230891 -0.0046387450496581202 0 -0.002296304270583666 -0.0050505238194262746 0 -0.002914572031068572 -0.0062594894219994779 0 -0.003026205537230891 -0.0046387450496581202 0 -0.002914572031068572 -0.0062594894219994779 0 -0.0046023739856196335 -0.0057857305707473168 0 -0.0017079505303982927 -0.0041838623060614045 0 -0.003026205537230891 -0.0046387450496581202 0 -0.002296304270583666 -0.0050505238194262746 0 -0.0058800840175767194 -0.0057972238774417857 0 -0.004421352188222572 -0.0044092453897010171 0 -0.0046023739856196335 -0.0057857305707473168 0 -0.01104861779778292 -0.0083293749133790812 0 -0.010337289231726714 -0.0082001014836745149 0 -0.010632503447042068 -0.0072609323162152444 0 -0.010337289231726714 -0.0082001014836745149 0 -0.010732340895801537 -0.0090587247887960534 0 -0.0099303874159010676 -0.0090979979077879941 0 -0.01104861779778292 -0.0083293749133790812 0 -0.010337289231726714 -0.0082001014836745149 0 -0.010732340895801537 -0.0090587247887960534 0 -0.010337289231726714 -0.0082001014836745149 0 -0.0099303874159010676 -0.0090979979077879941 0 -0.0094501580186127209 -0.008183258854907019 0 -0.0099303874159010676 -0.0090979979077879941 0 -0.0094501580186127209 -0.008183258854907019 0 -0.0092041829364014633 -0.0091428566472910675 0 -0.0094501580186127209 -0.008183258854907019 0 -0.0091559017823921018 -0.0073226372314289202 0 -0.0098848429482420678 -0.0073747695765121217 0 -0.010337289231726714 -0.0082001014836745149 0 -0.0094501580186127209 -0.008183258854907019 0 -0.0098848429482420678 -0.0073747695765121217 0 -0.0094501580186127209 -0.008183258854907019 0 -0.0087217038503653293 -0.0085237263995836202 0 -0.0084179697004903384 -0.007769322684818513 0 -0.0094501580186127209 -0.008183258854907019 0 -0.0084179697004903384 -0.007769322684818513 0 -0.0091559017823921018 -0.0073226372314289202 0 -0.0087217038503653293 -0.0085237263995836202 0 -0.0092041829364014633 -0.0091428566472910675 0 -0.0080623492464157315 -0.0089375171955932645 0 -0.0094501580186127209 -0.008183258854907019 0 -0.0087217038503653293 -0.0085237263995836202 0 -0.0092041829364014633 -0.0091428566472910675 0 -0.007425559269920513 -0.0079132689157411663 0 -0.0080623492464157315 -0.0089375171955932645 0 -0.0084179697004903384 -0.007769322684818513 0 -0.0087217038503653293 -0.0085237263995836202 0 -0.0080623492464157315 -0.0089375171955932645 0 -0.0084179697004903384 -0.007769322684818513 0 -0.007425559269920513 -0.0079132689157411663 0 -0.0073013353324790581 -0.0068818293559034299 0 -0.0084179697004903384 -0.007769322684818513 0 -0.0073013353324790581 -0.0068818293559034299 0 -0.0084179697004903384 -0.007769322684818513 0 -0.0085012184356336451 -0.0066867288951584858 0 -0.0073013353324790581 -0.0068818293559034299 0 -0.0075866796868894592 -0.0056841614610573105 0 -0.0085012184356336451 -0.0066867288951584858 0 -0.0075866796868894592 -0.0056841614610573105 0 -0.0085012184356336451 -0.0066867288951584858 0 -0.0088239918489023718 -0.0058862802980646752 0 -0.0075866796868894592 -0.0056841614610573105 0 -0.0088239918489023718 -0.0058862802980646752 0 -0.008407570564485144 -0.0050116553621682809 0 -0.0085012184356336451 -0.0066867288951584858 0 -0.0088239918489023718 -0.0058862802980646752 0 -0.0094347188108345418 -0.006619054273835908 0 -0.0088239918489023718 -0.0058862802980646752 0 -0.0094347188108345418 -0.006619054273835908 0 -0.009860630877122736 -0.0059282305832721047 0 -0.0085012184356336451 -0.0066867288951584858 0 -0.0094347188108345418 -0.006619054273835908 0 -0.0091559017823921018 -0.0073226372314289202 0 -0.0084179697004903384 -0.007769322684818513 0 -0.0085012184356336451 -0.0066867288951584858 0 -0.0091559017823921018 -0.0073226372314289202 0 -0.0094347188108345418 -0.006619054273835908 0 -0.0091559017823921018 -0.0073226372314289202 0 -0.0098848429482420678 -0.0073747695765121217 0 -0.0094347188108345418 -0.006619054273835908 0 -0.0098848429482420678 -0.0073747695765121217 0 -0.010082105105250167 -0.0067022216667261686 0 -0.009860630877122736 -0.0059282305832721047 0 -0.010082105105250167 -0.0067022216667261686 0 -0.010519611244113013 -0.0063454575083788031 0 -0.0094347188108345418 -0.006619054273835908 0 -0.009860630877122736 -0.0059282305832721047 0 -0.010082105105250167 -0.0067022216667261686 0 -0.01098343923070727 -0.0067172393693179832 0 -0.010519611244113013 -0.0063454575083788031 0 -0.010632503447042068 -0.0072609323162152444 0 -0.010082105105250167 -0.0067022216667261686 0 -0.010519611244113013 -0.0063454575083788031 0 -0.010632503447042068 -0.0072609323162152444 0 -0.01098343923070727 -0.0067172393693179832 0 -0.010956330363154184 -0.0061859616846831724 0 -0.010519611244113013 -0.0063454575083788031 0 -0.010337289231726714 -0.0082001014836745149 0 -0.0098848429482420678 -0.0073747695765121217 0 -0.010632503447042068 -0.0072609323162152444 0 -0.0098848429482420678 -0.0073747695765121217 0 -0.010082105105250167 -0.0067022216667261686 0 -0.010632503447042068 -0.0072609323162152444 0 -0.01120507387634021 -0.0058984444904924722 0 -0.010674385863683619 -0.0052547137909528365 0 -0.010539280806498033 -0.0056287045970757109 0 -0.01120507387634021 -0.0058984444904924722 0 -0.010674385863683619 -0.0052547137909528365 0 -0.010841693841425285 -0.0048795022057690684 0 -0.010484450556769378 -0.0047449460867326548 0 -0.010674385863683619 -0.0052547137909528365 0 -0.010841693841425285 -0.0048795022057690684 0 -0.010484450556769378 -0.0047449460867326548 0 -0.010674385863683619 -0.0052547137909528365 0 -0.010354644059257505 -0.0051062285461181489 0 -0.010674385863683619 -0.0052547137909528365 0 -0.010539280806498033 -0.0056287045970757109 0 -0.010354644059257505 -0.0051062285461181489 0 -0.009860630877122736 -0.0059282305832721047 0 -0.010519611244113013 -0.0063454575083788031 0 -0.010539280806498033 -0.0056287045970757109 0 -0.010956330363154184 -0.0061859616846831724 0 -0.010519611244113013 -0.0063454575083788031 0 -0.010539280806498033 -0.0056287045970757109 0 -0.009860630877122736 -0.0059282305832721047 0 -0.0099736705056291692 -0.005195711497687351 0 -0.0093081633633571598 -0.0051841536090306336 0 -0.009860630877122736 -0.0059282305832721047 0 -0.010539280806498033 -0.0056287045970757109 0 -0.0099736705056291692 -0.005195711497687351 0 -0.0099736705056291692 -0.005195711497687351 0 -0.01007047527011105 -0.0047277791428970047 0 -0.0095800593663175112 -0.0046578364734074229 0 -0.0099736705056291692 -0.005195711497687351 0 -0.010354644059257505 -0.0051062285461181489 0 -0.01007047527011105 -0.0047277791428970047 0 -0.010539280806498033 -0.0056287045970757109 0 -0.0099736705056291692 -0.005195711497687351 0 -0.010354644059257505 -0.0051062285461181489 0 -0.010484450556769378 -0.0047449460867326548 0 -0.010354644059257505 -0.0051062285461181489 0 -0.01007047527011105 -0.0047277791428970047 0 -0.010484450556769378 -0.0047449460867326548 0 -0.01007047527011105 -0.0047277791428970047 0 -0.010253225954589319 -0.0044318603194184302 0 -0.01007047527011105 -0.0047277791428970047 0 -0.0097685697011724148 -0.0042643126277616388 0 -0.010253225954589319 -0.0044318603194184302 0 -0.01007047527011105 -0.0047277791428970047 0 -0.0095800593663175112 -0.0046578364734074229 0 -0.0097685697011724148 -0.0042643126277616388 0 -0.0093319729486126563 -0.0042619187330317897 0 -0.0089836387032323894 -0.0036597488005794044 0 -0.0097685697011724148 -0.0042643126277616388 0 -0.0093319729486126563 -0.0042619187330317897 0 -0.0095800593663175112 -0.0046578364734074229 0 -0.0097685697011724148 -0.0042643126277616388 0 -0.0093319729486126563 -0.0042619187330317897 0 -0.0089757732148479097 -0.004478621716588564 0 -0.0089836387032323894 -0.0036597488005794044 0 -0.0093319729486126563 -0.0042619187330317897 0 -0.0089757732148479097 -0.004478621716588564 0 -0.0095800593663175112 -0.0046578364734074229 0 -0.0089757732148479097 -0.004478621716588564 0 -0.0095800593663175112 -0.0046578364734074229 0 -0.0093081633633571598 -0.0051841536090306336 0 -0.0088239918489023718 -0.0058862802980646752 0 -0.009860630877122736 -0.0059282305832721047 0 -0.0093081633633571598 -0.0051841536090306336 0 -0.0088239918489023718 -0.0058862802980646752 0 -0.0093081633633571598 -0.0051841536090306336 0 -0.008407570564485144 -0.0050116553621682809 0 -0.0099736705056291692 -0.005195711497687351 0 -0.0095800593663175112 -0.0046578364734074229 0 -0.0093081633633571598 -0.0051841536090306336 0 -0.0089757732148479097 -0.004478621716588564 0 -0.0093081633633571598 -0.0051841536090306336 0 -0.008407570564485144 -0.0050116553621682809 0 -0.0089757732148479097 -0.004478621716588564 0 -0.008407570564485144 -0.0050116553621682809 0 -0.0081231061586063118 -0.0042596872224840475 0 -0.008407570564485144 -0.0050116553621682809 0 -0.0081231061586063118 -0.0042596872224840475 0 -0.0073056120073717928 -0.0046072460552266719 0 -0.0081231061586063118 -0.0042596872224840475 0 -0.0089836387032323894 -0.0036597488005794044 0 -0.0068342112620614851 -0.0035119457190775269 0 -0.0089757732148479097 -0.004478621716588564 0 -0.0081231061586063118 -0.0042596872224840475 0 -0.0089836387032323894 -0.0036597488005794044 0 -0.015124287266385419 0.0068282053503646517 0 -0.01433617545196557 0.0086876541748765364 0 -0.011771391919915993 0.0071725424124705148 0 -0.015124287266385419 0.0068282053503646517 0 -0.01433617545196557 0.0086876541748765364 0 -0.015715666261031727 0.0077955994331809228 0 -0.01433617545196557 0.0086876541748765364 0 -0.014012438544061406 0.011035361192412529 0 -0.01210884217016427 0.0095235923726010516 0 -0.014012438544061406 0.011035361192412529 0 -0.015757234118175849 0.010313816736600548 0 -0.015572111152640148 0.01442173781439565 0 -0.01433617545196557 0.0086876541748765364 0 -0.014012438544061406 0.011035361192412529 0 -0.015757234118175849 0.010313816736600548 0 -0.01433617545196557 0.0086876541748765364 0 -0.015757234118175849 0.010313816736600548 0 -0.015715666261031727 0.0077955994331809228 0 -0.015757234118175849 0.010313816736600548 0 -0.01719518873671563 0.0099924522901646464 0 -0.015715666261031727 0.0077955994331809228 0 -0.015697936102422833 0.0078130762001250437 0 -0.018123443018845234 0.0089272160470132526 0 -0.01719518873671563 0.0099924522901646464 0 -0.015715666261031727 0.0077955994331809228 0 -0.019263374964099873 0.0095272040785101628 0 -0.015757234118175849 0.010313816736600548 0 -0.01719518873671563 0.0099924522901646464 0 -0.016425566408005382 0.01163121754228739 0 -0.015124287266385419 0.0068282053503646517 0 -0.015715666261031727 0.0077955994331809228 0 -0.016237896792964175 0.0079510129950465247 0 -0.0089836387032323894 -0.0036597488005794044 0 -0.0097685697011724148 -0.0042643126277616388 0 -0.01039451972096957 -0.0040772370452018588 0 -0.011983066727901209 0.001572481128214264 0 -0.01310621534866525 0.0015888074228985727 0 -0.015715666261031727 0.0077955994331809228 0 -0.016237896792964175 0.0079510129950465247 0 -0.016273299683606413 0.00804147458100859 0 -0.0097685697011724148 -0.0042643126277616388 0 -0.010253225954589319 -0.0044318603194184302 0 -0.01039451972096957 -0.0040772370452018588 0 -0.010484450556769378 -0.0047449460867326548 0 -0.010253225954589319 -0.0044318603194184302 0 -0.010517829799987288 -0.0044192490703224424 0 -0.010253225954589319 -0.0044318603194184302 0 -0.010517829799987288 -0.0044192490703224424 0 -0.01039451972096957 -0.0040772370452018588 0 -0.010517829799987288 -0.0044192490703224424 0 -0.01039451972096957 -0.0040772370452018588 0 -0.010762183156228134 -0.0043698209694405148 0 -0.01719518873671563 0.0099924522901646464 0 -0.018584755968113275 0.010623778676829882 0 -0.017762175301862096 0.011809173301303015 0 -0.01719518873671563 0.0099924522901646464 0 -0.018584755968113275 0.010623778676829882 0 -0.019263374964099873 0.0095272040785101628 0 -0.018584755968113275 0.010623778676829882 0 -0.019263374964099873 0.0095272040785101628 0 -0.020057001106323847 0.011103527323728039 0 -0.016410667426370578 0.008036436097789517 0 -0.016237896792964175 0.0079510129950465247 0 -0.016273299683606413 0.00804147458100859 0 -0.016410667426370578 0.008036436097789517 0 -0.016273299683606413 0.00804147458100859 0 -0.016393513894840509 0.0080605836754433589 0 -0.011075501027525603 -0.0042939504907510166 0 -0.01039451972096957 -0.0040772370452018588 0 -0.010762183156228134 -0.0043698209694405148 0 -0.019263374964099873 0.0095272040785101628 0 -0.020057001106323847 0.011103527323728039 0 -0.022024269972381237 0.010813064490106239 0 -0.018123443018845234 0.0089272160470132526 0 -0.017282851283343302 0.0086074687183551515 0 -0.014183392122242539 0.0038971278160853337 0 -0.01310621534866525 0.0015888074228985727 0 -0.011075501027525603 -0.0042939504907510166 0 -0.010959642770249184 -0.0044420790278665969 0 -0.010762183156228134 -0.0043698209694405148 0 -0.011071850966095555 -0.0045919291043717975 0 -0.010959642770249184 -0.0044420790278665969 0 -0.010898835898724535 -0.0046217876991655402 0 -0.010898835898724535 -0.0046217876991655402 0 -0.010762183156228134 -0.0043698209694405148 0 -0.010697329639793703 -0.0045685946585446698 0 -0.010959642770249184 -0.0044420790278665969 0 -0.010898835898724535 -0.0046217876991655402 0 -0.010762183156228134 -0.0043698209694405148 0 -0.010517829799987288 -0.0044192490703224424 0 -0.010762183156228134 -0.0043698209694405148 0 -0.010697329639793703 -0.0045685946585446698 0 -0.010484450556769378 -0.0047449460867326548 0 -0.010697329639793703 -0.0045685946585446698 0 -0.010841693841425285 -0.0048795022057690684 0 -0.010484450556769378 -0.0047449460867326548 0 -0.010517829799987288 -0.0044192490703224424 0 -0.010697329639793703 -0.0045685946585446698 0 -0.010898835898724535 -0.0046217876991655402 0 -0.010697329639793703 -0.0045685946585446698 0 -0.010841693841425285 -0.0048795022057690684 0 -0.0048819371218594516 0.0039943622511901256 0 -0.0049836345453666778 0.00053745284096587507 0 -0.0071467472380360667 0.0043503838402123903 0 -0.0048819371218594516 0.0039943622511901256 0 -0.0035220186276208351 0.0021026025735653544 0 -0.0049836345453666778 0.00053745284096587507 0 -0.0048819371218594516 0.0039943622511901256 0 -0.0071467472380360667 0.0043503838402123903 0 -0.0064457945607878262 0.006863801113619534 0 -0.0048819371218594516 0.0039943622511901256 0 -0.0033131601288074698 0.0041821272956837482 0 -0.0038433143684817803 0.0059986418739144572 0 -0.0048819371218594516 0.0039943622511901256 0 -0.0033131601288074698 0.0041821272956837482 0 -0.0035220186276208351 0.0021026025735653544 0 -0.0033131601288074698 0.0041821272956837482 0 -0.0019585874783104302 0.0025942863449276848 0 -0.0021129071963280999 0.0057674918970904527 0 0.0011112482793804062 0.002485512074812026 0 -0.0019585874783104302 0.0025942863449276848 0 -0.0021129071963280999 0.0057674918970904527 0 0.00065899846168704737 0.0069597541992826896 0 -0.00110102903983921 0.0044982260067110138 0 0.0011112482793804062 0.002485512074812026 0 -0.0019585874783104302 0.0025942863449276848 0 -0.0026069679651815544 -0.00081620200882832395 0 -0.0033131601288074698 0.0041821272956837482 0 -0.0019585874783104302 0.0025942863449276848 0 -0.0035220186276208351 0.0021026025735653544 0 -0.0035220186276208351 0.0021026025735653544 0 -0.0026069679651815544 -0.00081620200882832395 0 -0.0049836345453666778 0.00053745284096587507 0 -0.0015630140687551526 -0.0028444853811889232 0 -0.0046922877269717804 -0.0014346526174504961 0 -0.0015670043830119424 -0.0028639753210583396 0 -0.0026069679651815544 -0.00081620200882832395 0 -0.0049836345453666778 0.00053745284096587507 0 -0.0015670043830119424 -0.0028639753210583396 0 -0.004421352188222572 -0.0044092453897010171 0 -0.0046236348736377756 -0.0032543538325168898 0 -0.0019585874783104302 0.0025942863449276848 0 -0.0035220186276208351 0.0021026025735653544 0 -0.0026069679651815544 -0.00081620200882832395 0 -0.004421352188222572 -0.0044092453897010171 0 -0.0046236348736377756 -0.0032543538325168898 0 -0.0058178647780089332 -0.0043295032591991987 0 -0.0065267271784845548 -0.0050309469028838273 0 -0.0058178647780089332 -0.0043295032591991987 0 -0.0073056120073717928 -0.0046072460552266719 0 -0.0058178647780089332 -0.0043295032591991987 0 -0.0073056120073717928 -0.0046072460552266719 0 -0.0068342112620614851 -0.0035119457190775269 0 -0.0046236348736377756 -0.0032543538325168898 0 -0.0058178647780089332 -0.0043295032591991987 0 -0.0068342112620614851 -0.0035119457190775269 0 -0.0075866796868894592 -0.0056841614610573105 0 -0.008407570564485144 -0.0050116553621682809 0 -0.0073056120073717928 -0.0046072460552266719 0 -0.0081231061586063118 -0.0042596872224840475 0 -0.0073056120073717928 -0.0046072460552266719 0 -0.0068342112620614851 -0.0035119457190775269 0 -0.015124287266385419 0.0068282053503646517 0 -0.010439450966255563 0.0037333889704507846 0 -0.011771391919915993 0.0071725424124705148 0 -0.011983066727901209 0.001572481128214264 0 -0.008555671665763662 9.0500993736412173e-05 0 -0.010439450966255563 0.0037333889704507846 0 -0.0089336698757091701 0.0060130397400851854 0 -0.011771391919915993 0.0071725424124705148 0 -0.0046922877269717804 -0.0014346526174504961 0 -0.008555671665763662 9.0500993736412173e-05 0 -0.0049836345453666778 0.00053745284096587507 0 -0.010439450966255563 0.0037333889704507846 0 -0.0071467472380360667 0.0043503838402123903 0 -0.010439450966255563 0.0037333889704507846 0 -0.0071467472380360667 0.0043503838402123903 0 -0.0089336698757091701 0.0060130397400851854 0 -0.0071467472380360667 0.0043503838402123903 0 -0.0089336698757091701 0.0060130397400851854 0 -0.0064457945607878262 0.006863801113619534 0 -0.0089336698757091701 0.0060130397400851854 0 -0.0093130264625090938 0.00828267104710796 0 -0.0064457945607878262 0.006863801113619534 0 -0.0089336698757091701 0.0060130397400851854 0 -0.0093130264625090938 0.00828267104710796 0 -0.011771391919915993 0.0071725424124705148 0 -0.0093130264625090938 0.00828267104710796 0 -0.0068420512815453105 0.010316123016527743 0 -0.0064457945607878262 0.006863801113619534 0 -0.0093130264625090938 0.00828267104710796 0 -0.011771391919915993 0.0071725424124705148 0 -0.01210884217016427 0.0095235923726010516 0 -0.01433617545196557 0.0086876541748765364 0 -0.011771391919915993 0.0071725424124705148 0 -0.01210884217016427 0.0095235923726010516 0 -0.0093130264625090938 0.00828267104710796 0 -0.01210884217016427 0.0095235923726010516 0 -0.0099441254870024677 0.01065760754818677 0 -0.0099441254870024677 0.01065760754818677 0 -0.0098939124035725707 0.013270481667219067 0 -0.012236996643701264 0.012745148534880324 0 -0.01210884217016427 0.0095235923726010516 0 -0.0099441254870024677 0.01065760754818677 0 -0.012236996643701264 0.012745148534880324 0 -0.014012438544061406 0.011035361192412529 0 -0.01210884217016427 0.0095235923726010516 0 -0.012236996643701264 0.012745148534880324 0 -0.0093130264625090938 0.00828267104710796 0 -0.0068420512815453105 0.010316123016527743 0 -0.0099441254870024677 0.01065760754818677 0 -0.0099441254870024677 0.01065760754818677 0 -0.0071877407276152456 0.013444380691153012 0 -0.0098939124035725707 0.013270481667219067 0 -0.0068420512815453105 0.010316123016527743 0 -0.0099441254870024677 0.01065760754818677 0 -0.0071877407276152456 0.013444380691153012 0 -0.0068420512815453105 0.010316123016527743 0 -0.0057169370676498476 0.012167714240674232 0 -0.0071877407276152456 0.013444380691153012 0 -0.0068420512815453105 0.010316123016527743 0 -0.0057169370676498476 0.012167714240674232 0 -0.0039457069876558323 0.011390046706938568 0 -0.0057169370676498476 0.012167714240674232 0 -0.0039457069876558323 0.011390046706938568 0 -0.0044125203308165448 0.013690975202999708 0 -0.0039457069876558323 0.011390046706938568 0 -0.0045133967681362233 0.008956559259594923 0 -0.0012281231245471955 0.01036804297280324 0 -0.0068420512815453105 0.010316123016527743 0 -0.0039457069876558323 0.011390046706938568 0 -0.0045133967681362233 0.008956559259594923 0 -0.0068420512815453105 0.010316123016527743 0 -0.0045133967681362233 0.008956559259594923 0 -0.0064457945607878262 0.006863801113619534 0 -0.0045133967681362233 0.008956559259594923 0 -0.0038433143684817803 0.0059986418739144572 0 -0.0064457945607878262 0.006863801113619534 0 -0.0048819371218594516 0.0039943622511901256 0 -0.0038433143684817803 0.0059986418739144572 0 -0.0064457945607878262 0.006863801113619534 0 -0.0038433143684817803 0.0059986418739144572 0 -0.00087159335282910885 0.0080471285064015532 0 -0.0021101353122461647 0.010494311071991466 0 -0.0035462314408722245 0.0065782672553604503 0 -0.0018359436267897258 0.0099966718039798987 0 0.0017162660194081926 0.0070192228912444431 0 -0.0021129071963280999 0.0057674918970904527 0 -0.00087159335282910885 0.0080471285064015532 0 -0.0045133967681362233 0.008956559259594923 0 -0.0038433143684817803 0.0059986418739144572 0 -0.0012281231245471955 0.01036804297280324 0 -0.0033131601288074698 0.0041821272956837482 0 -0.0038433143684817803 0.0059986418739144572 0 -0.0021129071963280999 0.0057674918970904527 0 -0.0038433143684817803 0.0059986418739144572 0 -0.0021129071963280999 0.0057674918970904527 0 -0.00087159335282910885 0.0080471285064015532 0 -0.0018359436267897258 0.0099966718039798987 0 0.00060271410269761405 0.017206079183479113 0 -0.0039457069876558323 0.011390046706938568 0 -0.0012281231245471955 0.01036804297280324 0 -0.0026092358689540195 0.013173696579948385 0 -0.0012281231245471955 0.01036804297280324 0 -0.0026092358689540195 0.013173696579948385 0 -0.00062787740359674738 0.014946235815592828 0 -0.0012281231245471955 0.01036804297280324 0 -0.00062787740359674738 0.014946235815592828 0 0.0010300526588842619 0.014985789961660171 0 -0.0026092358689540195 0.013173696579948385 0 -0.0027887857002684216 0.015468676590276266 0 -0.00062787740359674738 0.014946235815592828 0 -0.0027887857002684216 0.015468676590276266 0 -0.00134154377949063 0.016549093180414698 0 -0.00062787740359674738 0.014946235815592828 0 -0.0027887857002684216 0.015468676590276266 0 -0.00134154377949063 0.016549093180414698 0 -0.0032681753803879975 0.017299753734058957 0 -0.00019268935076666155 0.015935346661306637 0 0.00015542534938147462 0.017236901734256904 0 0.001084884397193623 0.014990617591560076 0 -0.00062787740359674738 0.014946235815592828 0 -0.00019268935076666155 0.015935346661306637 0 0.001084884397193623 0.014990617591560076 0 3.5463829494972014e-05 0.016427459943233382 0 0.00060271410269761405 0.017206079183479113 0 -0.00134154377949063 0.016549093180414698 0 -0.00019268935076666155 0.015935346661306637 0 0.00015542534938147462 0.017236901734256904 0 -0.00134154377949063 0.016549093180414698 0 -0.00062787740359674738 0.014946235815592828 0 -0.00019268935076666155 0.015935346661306637 0 0.00015542534938147462 0.017236901734256904 0 0.00016079003665578999 0.019607964774127289 0 0.0014439705430059763 0.01891215610929492 0 0.00015542534938147462 0.017236901734256904 0 -0.0016397582657811506 0.018379787514584512 0 0.00016079003665578999 0.019607964774127289 0 -0.00134154377949063 0.016549093180414698 0 0.00015542534938147462 0.017236901734256904 0 -0.0016397582657811506 0.018379787514584512 0 -0.0016397582657811506 0.018379787514584512 0 -0.003483847502003931 0.019454162417587351 0 -0.0032681753803879975 0.017299753734058957 0 -0.00134154377949063 0.016549093180414698 0 -0.0016397582657811506 0.018379787514584512 0 -0.0032681753803879975 0.017299753734058957 0 -0.0016397582657811506 0.018379787514584512 0 -0.0016900250322762313 0.020108266497413436 0 -0.003483847502003931 0.019454162417587351 0 -0.0016900250322762313 0.020108266497413436 0 -0.003483847502003931 0.019454162417587351 0 -0.0026594597107015569 0.021299967139079064 0 -0.0016900250322762313 0.020108266497413436 0 0.00016079003665578999 0.019607964774127289 0 -0.00078448852605478552 0.021789662444205923 0 -0.0016397582657811506 0.018379787514584512 0 -0.0016900250322762313 0.020108266497413436 0 0.00016079003665578999 0.019607964774127289 0 -0.0056905627956961354 0.019788885585129156 0 -0.003483847502003931 0.019454162417587351 0 -0.005313061025559852 0.017890514718072729 0 -0.0056905627956961354 0.019788885585129156 0 -0.005313061025559852 0.017890514718072729 0 -0.0076666745935360494 0.018464893492244474 0 -0.0056905627956961354 0.019788885585129156 0 -0.003483847502003931 0.019454162417587351 0 -0.0045147087155362458 0.02143039853145785 0 -0.0032681753803879975 0.017299753734058957 0 -0.005313061025559852 0.017890514718072729 0 -0.0048889081213329072 0.015849866688006357 0 -0.003483847502003931 0.019454162417587351 0 -0.0032681753803879975 0.017299753734058957 0 -0.005313061025559852 0.017890514718072729 0 -0.005313061025559852 0.017890514718072729 0 -0.0048889081213329072 0.015849866688006357 0 -0.0068182992776640071 0.016486214005536192 0 -0.0048889081213329072 0.015849866688006357 0 -0.0071877407276152456 0.013444380691153012 0 -0.0068182992776640071 0.016486214005536192 0 -0.0027887857002684216 0.015468676590276266 0 -0.0048889081213329072 0.015849866688006357 0 -0.0044125203308165448 0.013690975202999708 0 -0.0027887857002684216 0.015468676590276266 0 -0.0032681753803879975 0.017299753734058957 0 -0.0048889081213329072 0.015849866688006357 0 -0.0039457069876558323 0.011390046706938568 0 -0.0026092358689540195 0.013173696579948385 0 -0.0044125203308165448 0.013690975202999708 0 -0.0026092358689540195 0.013173696579948385 0 -0.0027887857002684216 0.015468676590276266 0 -0.0044125203308165448 0.013690975202999708 0 -0.0057169370676498476 0.012167714240674232 0 -0.0044125203308165448 0.013690975202999708 0 -0.0071877407276152456 0.013444380691153012 0 -0.0048889081213329072 0.015849866688006357 0 -0.0044125203308165448 0.013690975202999708 0 -0.0071877407276152456 0.013444380691153012 0 -0.0071877407276152456 0.013444380691153012 0 -0.0098939124035725707 0.013270481667219067 0 -0.0087396592334884841 0.015487387404246853 0 -0.0087396592334884841 0.015487387404246853 0 -0.011001767098994487 0.015111039326393754 0 -0.0098341443083936036 0.017397982760054033 0 -0.0098939124035725707 0.013270481667219067 0 -0.0087396592334884841 0.015487387404246853 0 -0.011001767098994487 0.015111039326393754 0 -0.0071877407276152456 0.013444380691153012 0 -0.0087396592334884841 0.015487387404246853 0 -0.0068182992776640071 0.016486214005536192 0 -0.0098939124035725707 0.013270481667219067 0 -0.012236996643701264 0.012745148534880324 0 -0.011001767098994487 0.015111039326393754 0 -0.012236996643701264 0.012745148534880324 0 -0.011001767098994487 0.015111039326393754 0 -0.012935286847386479 0.015999124706878341 0 -0.011001767098994487 0.015111039326393754 0 -0.012935286847386479 0.015999124706878341 0 -0.011803527554230296 0.018371953643496551 0 -0.012935286847386479 0.015999124706878341 0 -0.011803527554230296 0.018371953643496551 0 -0.015374971260548079 0.018987615773367005 0 -0.011001767098994487 0.015111039326393754 0 -0.011803527554230296 0.018371953643496551 0 -0.0098341443083936036 0.017397982760054033 0 -0.011803527554230296 0.018371953643496551 0 -0.0098341443083936036 0.017397982760054033 0 -0.0095764429788432175 0.020686851047894101 0 -0.011803527554230296 0.018371953643496551 0 -0.0095764429788432175 0.020686851047894101 0 -0.012100695734262928 0.021179627479980843 0 -0.011803527554230296 0.018371953643496551 0 -0.012100695734262928 0.021179627479980843 0 -0.015374971260548079 0.018987615773367005 0 -0.0087396592334884841 0.015487387404246853 0 -0.0068182992776640071 0.016486214005536192 0 -0.0076666745935360494 0.018464893492244474 0 -0.005313061025559852 0.017890514718072729 0 -0.0068182992776640071 0.016486214005536192 0 -0.0076666745935360494 0.018464893492244474 0 -0.0087396592334884841 0.015487387404246853 0 -0.0098341443083936036 0.017397982760054033 0 -0.0076666745935360494 0.018464893492244474 0 -0.0098341443083936036 0.017397982760054033 0 -0.0076666745935360494 0.018464893492244474 0 -0.0095764429788432175 0.020686851047894101 0 -0.0056905627956961354 0.019788885585129156 0 -0.0076666745935360494 0.018464893492244474 0 -0.0069566883121934611 0.021119889901763049 0 -0.0076666745935360494 0.018464893492244474 0 -0.0069566883121934611 0.021119889901763049 0 -0.0095764429788432175 0.020686851047894101 0 -0.0069566883121934611 0.021119889901763049 0 -0.0095764429788432175 0.020686851047894101 0 -0.0079275588822304115 0.023293127694496166 0 -0.0095764429788432175 0.020686851047894101 0 -0.0079275588822304115 0.023293127694496166 0 -0.010490325318555187 0.023460263251916018 0 -0.0079275588822304115 0.023293127694496166 0 -0.0063181247030744646 0.025584221796228268 0 -0.0054090930159298566 0.023400146423995655 0 -0.0069566883121934611 0.021119889901763049 0 -0.0079275588822304115 0.023293127694496166 0 -0.0054090930159298566 0.023400146423995655 0 -0.0095764429788432175 0.020686851047894101 0 -0.012100695734262928 0.021179627479980843 0 -0.010490325318555187 0.023460263251916018 0 -0.012100695734262928 0.021179627479980843 0 -0.010490325318555187 0.023460263251916018 0 -0.013700319893053429 0.024065062946722476 0 -0.011034154957848371 0.025860194471119487 0 -0.013700319893053429 0.024065062946722476 0 -0.011853774620069101 0.028405769202128579 0 -0.013168448642533486 0.02439163360245419 0 -0.012022884732908568 0.027886094429830456 0 -0.010490325318555187 0.023460263251916018 0 -0.011034154957848371 0.025860194471119487 0 -0.013700319893053429 0.024065062946722476 0 -0.010490325318555187 0.023460263251916018 0 -0.011034154957848371 0.025860194471119487 0 -0.0087545975864447376 0.025551493391735167 0 -0.011034154957848371 0.025860194471119487 0 -0.0098710368383703919 0.027397101944216178 0 -0.011853774620069101 0.028405769202128579 0 -0.0079275588822304115 0.023293127694496166 0 -0.0087545975864447376 0.025551493391735167 0 -0.0063181247030744646 0.025584221796228268 0 -0.0079275588822304115 0.023293127694496166 0 -0.010490325318555187 0.023460263251916018 0 -0.0087545975864447376 0.025551493391735167 0 -0.0087545975864447376 0.025551493391735167 0 -0.0098710368383703919 0.027397101944216178 0 -0.0072316162171457022 0.027791254502478855 0 -0.011034154957848371 0.025860194471119487 0 -0.0087545975864447376 0.025551493391735167 0 -0.0098710368383703919 0.027397101944216178 0 -0.0087545975864447376 0.025551493391735167 0 -0.0072316162171457022 0.027791254502478855 0 -0.0063181247030744646 0.025584221796228268 0 -0.0063181247030744646 0.025584221796228268 0 -0.0042652272178098031 0.025312230537653725 0 -0.0046411084223897106 0.027990615504408393 0 -0.0072316162171457022 0.027791254502478855 0 -0.0063181247030744646 0.025584221796228268 0 -0.0046411084223897106 0.027990615504408393 0 -0.0063181247030744646 0.025584221796228268 0 -0.0042652272178098031 0.025312230537653725 0 -0.0054090930159298566 0.023400146423995655 0 -0.0042652272178098031 0.025312230537653725 0 -0.0022745182536521849 0.02602930428554126 0 -0.0028473076493675787 0.023500028011515427 0 -0.0042652272178098031 0.025312230537653725 0 -0.0046411084223897106 0.027990615504408393 0 -0.0022745182536521849 0.02602930428554126 0 -0.0046411084223897106 0.027990615504408393 0 -0.0008660601936933619 0.028352518627630295 0 -0.0022745182536521849 0.02602930428554126 0 -0.0008660601936933619 0.028352518627630295 0 -0.00033266871687805908 0.025154151491902747 0 0.0012836400838593118 0.026937815880136978 0 -0.0008660601936933619 0.028352518627630295 0 -0.00033266871687805908 0.025154151491902747 0 -0.0022745182536521849 0.02602930428554126 0 -0.00033266871687805908 0.025154151491902747 0 -0.0022745182536521849 0.02602930428554126 0 -0.0028473076493675787 0.023500028011515427 0 -0.00033266871687805908 0.025154151491902747 0 -0.0028473076493675787 0.023500028011515427 0 -0.00078448852605478552 0.021789662444205923 0 -0.00033266871687805908 0.025154151491902747 0 -0.00078448852605478552 0.021789662444205923 0 0.00095082644537208046 0.022839674386701307 0 0.00016079003665578999 0.019607964774127289 0 -0.00078448852605478552 0.021789662444205923 0 0.00081420564586313958 0.021406153305601219 0 -0.00078448852605478552 0.021789662444205923 0 0.00081420564586313958 0.021406153305601219 0 0.00095082644537208046 0.022839674386701307 0 -0.0016900250322762313 0.020108266497413436 0 -0.00078448852605478552 0.021789662444205923 0 -0.0026594597107015569 0.021299967139079064 0 -0.0028473076493675787 0.023500028011515427 0 -0.00078448852605478552 0.021789662444205923 0 -0.0026594597107015569 0.021299967139079064 0 -0.003483847502003931 0.019454162417587351 0 -0.0026594597107015569 0.021299967139079064 0 -0.0045147087155362458 0.02143039853145785 0 -0.0028473076493675787 0.023500028011515427 0 -0.0026594597107015569 0.021299967139079064 0 -0.0045147087155362458 0.02143039853145785 0 -0.0069566883121934611 0.021119889901763049 0 -0.0045147087155362458 0.02143039853145785 0 -0.0054090930159298566 0.023400146423995655 0 -0.0056905627956961354 0.019788885585129156 0 -0.0069566883121934611 0.021119889901763049 0 -0.0045147087155362458 0.02143039853145785 0 -0.0042652272178098031 0.025312230537653725 0 -0.0028473076493675787 0.023500028011515427 0 -0.0054090930159298566 0.023400146423995655 0 -0.0028473076493675787 0.023500028011515427 0 -0.0045147087155362458 0.02143039853145785 0 -0.0054090930159298566 0.023400146423995655 0 -0.017793177073087085 0.0096805186759215869 0 -0.017902931911501118 0.0098359505998234301 0 -0.017980590698671937 0.0097339684854930008 0 -0.017696865258543901 0.0097269311575810761 0 -0.017793177073087085 0.0096805186759215869 0 -0.017902931911501118 0.0098359505998234301 0 -0.017696865258543901 0.0097269311575810761 0 -0.017730764757114246 0.0099265833591339024 0 -0.017902931911501118 0.0098359505998234301 0 -0.017282851283343302 0.0086074687183551515 0 -0.019109676439060429 0.011556002327638813 0 -0.020057001106323847 0.011103527323728039 0 -0.022024269972381237 0.010813064490106239 0 -0.020115186104286694 0.012953733405742561 0 -0.020115186104286694 0.012953733405742561 0 -0.016830624959351847 0.013459712340001814 0 -0.017762175301862096 0.011809173301303015 0 -0.018584755968113275 0.010623778676829882 0 -0.020057001106323847 0.011103527323728039 0 -0.017762175301862096 0.011809173301303015 0 -0.020057001106323847 0.011103527323728039 0 -0.020115186104286694 0.012953733405742561 0 -0.017762175301862096 0.011809173301303015 0 -0.020115186104286694 0.012953733405742561 0 -0.018149160181814072 0.015094531233577494 0 -0.016830624959351847 0.013459712340001814 0 -0.017902931911501118 0.0098359505998234301 0 -0.01812852666808995 0.0098600252294691309 0 -0.017980590698671937 0.0097339684854930008 0 -0.019109676439060429 0.011556002327638813 0 -0.018549857663222865 0.011825696312232495 0 -0.016267725520820758 0.015245240423857297 0 -0.016830624959351847 0.013459712340001814 0 -0.014329084863178286 0.014917018245300707 0 -0.018149160181814072 0.015094531233577494 0 -0.016267725520820758 0.015245240423857297 0 -0.016830624959351847 0.013459712340001814 0 -0.015757234118175849 0.010313816736600548 0 -0.016425566408005382 0.01163121754228739 0 -0.015037695442399697 0.012552912122759484 0 -0.016830624959351847 0.013459712340001814 0 -0.017762175301862096 0.011809173301303015 0 -0.016425566408005382 0.01163121754228739 0 -0.01719518873671563 0.0099924522901646464 0 -0.017762175301862096 0.011809173301303015 0 -0.016425566408005382 0.01163121754228739 0 -0.016830624959351847 0.013459712340001814 0 -0.016425566408005382 0.01163121754228739 0 -0.015037695442399697 0.012552912122759484 0 -0.015754816610085116 0.010870922183090896 0 -0.015320676580812433 0.013204716719246338 0 -0.014012438544061406 0.011035361192412529 0 -0.012236996643701264 0.012745148534880324 0 -0.015572111152640148 0.01442173781439565 0 -0.012236996643701264 0.012745148534880324 0 -0.012935286847386479 0.015999124706878341 0 -0.015572111152640148 0.01442173781439565 0 -0.013393415558157208 0.016569912237419236 0 -0.014451635262970856 0.017965430537315488 0 -0.016830624959351847 0.013459712340001814 0 -0.015037695442399697 0.012552912122759484 0 -0.014329084863178286 0.014917018245300707 0 -0.015320676580812433 0.013204716719246338 0 -0.014451635262970856 0.017965430537315488 0 -0.012935286847386479 0.015999124706878341 0 -0.015572111152640148 0.01442173781439565 0 -0.014659679151979707 0.018075394190621819 0 -0.014451635262970856 0.017965430537315488 0 -0.016640989596496288 0.018075301263515892 0 -0.016267725520820758 0.015245240423857297 0 -0.014329084863178286 0.014917018245300707 0 -0.016207863188328543 0.017224773196213756 0 -0.012100695734262928 0.021179627479980843 0 -0.015374971260548079 0.018987615773367005 0 -0.013700319893053429 0.024065062946722476 0 -0.01400952337966373 0.019838952279640658 0 -0.01453002607596054 0.022645144216494936 0 -0.012739496843694362 0.024133311498215217 0 -0.01400952337966373 0.019838952279640658 0 -0.01453002607596054 0.022645144216494936 0 -0.01688630038747968 0.023391990017800207 0 -0.014451635262970856 0.017965430537315488 0 -0.013168448642533486 0.02439163360245419 0 -0.01453002607596054 0.022645144216494936 0 -0.012739496843694362 0.024133311498215217 0 -0.013984044292619806 0.026553099805213032 0 -0.01453002607596054 0.022645144216494936 0 -0.013984044292619806 0.026553099805213032 0 -0.01688630038747968 0.023391990017800207 0 -0.012739496843694362 0.024133311498215217 0 -0.013984044292619806 0.026553099805213032 0 -0.011853774620069101 0.028405769202128579 0 -0.013984044292619806 0.026553099805213032 0 -0.016058110629758777 0.024486540315476143 0 -0.016226003679508955 0.026909178396744456 0 -0.013984044292619806 0.026553099805213032 0 -0.016058110629758777 0.024486540315476143 0 -0.016146115395620685 0.023549380447390914 0 -0.013419955975599309 0.027583750101258294 0 -0.016640989596496288 0.018075301263515892 0 -0.016226003679508955 0.026909178396744456 0 -0.017768324695115609 0.025418373390785662 0 -0.020059254772493575 0.028296429538930006 0 -0.016058110629758777 0.024486540315476143 0 -0.016226003679508955 0.026909178396744456 0 -0.017768324695115609 0.025418373390785662 0 -0.016058110629758777 0.024486540315476143 0 -0.017016033416795345 0.024865560736970434 0 -0.016146115395620685 0.023549380447390914 0 -0.017632179530337359 0.019410692364786805 0 -0.016640989596496288 0.018075301263515892 0 -0.017592620757195213 0.022763076069926853 0 -0.017632179530337359 0.019410692364786805 0 -0.018383130632713185 0.0096627499459163799 0 -0.018543254429163391 0.0099173796620966245 0 -0.01820083656476168 0.0097724153647611653 0 -0.01812852666808995 0.0098600252294691309 0 -0.018543254429163391 0.0099173796620966245 0 -0.01820083656476168 0.0097724153647611653 0 -0.018149160181814072 0.015094531233577494 0 -0.016267725520820758 0.015245240423857297 0 -0.016207863188328543 0.017224773196213756 0 -0.018549857663222865 0.011825696312232495 0 -0.016640989596496288 0.018075301263515892 0 -0.01812852666808995 0.0098600252294691309 0 -0.017980590698671937 0.0097339684854930008 0 -0.01820083656476168 0.0097724153647611653 0 -0.017980590698671937 0.0097339684854930008 0 -0.01820083656476168 0.0097724153647611653 0 -0.018028240683937262 0.0096108648925193035 0 -0.018383130632713185 0.0096627499459163799 0 -0.018028240683937262 0.0096108648925193035 0 -0.017800536909759811 0.0092610230512122412 0 -0.018383130632713185 0.0096627499459163799 0 -0.01820083656476168 0.0097724153647611653 0 -0.018028240683937262 0.0096108648925193035 0 -0.017632179530337359 0.019410692364786805 0 -0.015629030812378139 0.012915752250943602 0 -0.017632179530337359 0.019410692364786805 0 -0.014407289417855816 0.020765204254206276 0 -0.018028240683937262 0.0096108648925193035 0 -0.01782023797787307 0.0094607420203950566 0 -0.017800536909759811 0.0092610230512122412 0 -0.018028240683937262 0.0096108648925193035 0 -0.01782023797787307 0.0094607420203950566 0 -0.017829226131360197 0.0095703663179909568 0 -0.01782023797787307 0.0094607420203950566 0 -0.01770406677397833 0.0093602542892624561 0 -0.017730549461211189 0.0094475043551373334 0 -0.01782023797787307 0.0094607420203950566 0 -0.01770406677397833 0.0093602542892624561 0 -0.017800536909759811 0.0092610230512122412 0 -0.01782023797787307 0.0094607420203950566 0 -0.017730549461211189 0.0094475043551373334 0 -0.017829226131360197 0.0095703663179909568 0 -0.017704950784238931 0.0094956151485564022 0 -0.017730549461211189 0.0094475043551373334 0 -0.017829226131360197 0.0095703663179909568 0 -0.017704950784238931 0.0094956151485564022 0 -0.017698103762103481 0.0095528225091371811 0 -0.017829226131360197 0.0095703663179909568 0 -0.017980590698671937 0.0097339684854930008 0 -0.018028240683937262 0.0096108648925193035 0 -0.017829226131360197 0.0095703663179909568 0 -0.017793177073087085 0.0096805186759215869 0 -0.017980590698671937 0.0097339684854930008 0 -0.017829226131360197 0.0095703663179909568 0 -0.017685744314293008 0.0096034364576643161 0 -0.017698103762103481 0.0095528225091371811 0 -0.017793177073087085 0.0096805186759215869 0 -0.017698103762103481 0.0095528225091371811 0 -0.017793177073087085 0.0096805186759215869 0 -0.017829226131360197 0.0095703663179909568 0 -0.013565802149683498 0.019990313307639937 0 -0.013482167960076208 0.018780504837406634 0 -0.012103756286928195 0.018088688743953703 0 -0.013565802149683498 0.019990313307639937 0 -0.011773038511496629 0.017822659195158203 0 -0.012039259530925519 0.019340531226303404 0 -0.013565802149683498 0.019990313307639937 0 -0.012039259530925519 0.019340531226303404 0 -0.011528836763536089 0.021303951575643344 0 -0.012444358944705603 0.018667464731523101 0 -0.014407289417855816 0.020765204254206276 0 -0.014104897701547249 0.019364248145106202 0 -0.013565802149683498 0.019990313307639937 0 -0.013482167960076208 0.018780504837406634 0 -0.014484567047007313 0.01855306429446962 0 -0.013482167960076208 0.018780504837406634 0 -0.013210382573058295 0.017894738467355051 0 -0.016301172197104429 0.014352752038957337 0 -0.015629030812378139 0.012915752250943602 0 -0.013482167960076208 0.018780504837406634 0 -0.013210382573058295 0.017894738467355051 0 -0.012103756286928195 0.018088688743953703 0 -0.017631903209598565 0.0094120782054874248 0 -0.01770406677397833 0.0093602542892624561 0 -0.017800536909759811 0.0092610230512122412 0 -0.018292415833207364 0.0096624845679535946 0 -0.015629030812378139 0.012915752250943602 0 -0.015629030812378139 0.012915752250943602 0 -0.014407289417855816 0.020765204254206276 0 -0.017705554713857284 0.018454107358195367 0 -0.014628306750019675 0.01682368793209427 0 -0.01619542426337725 0.016578902206692107 0 -0.011773038511496629 0.017822659195158203 0 -0.010921531477750646 0.018717627251287706 0 -0.012039259530925519 0.019340531226303404 0 -0.012039259530925519 0.019340531226303404 0 -0.010598144716151753 0.019482661592585587 0 -0.011528836763536089 0.021303951575643344 0 -0.010921531477750646 0.018717627251287706 0 -0.012039259530925519 0.019340531226303404 0 -0.010598144716151753 0.019482661592585587 0 -0.010008694600959203 0.020318793500200567 0 -0.010598144716151753 0.019482661592585587 0 -0.0087972634530971601 0.019472523358759472 0 -0.010598144716151753 0.019482661592585587 0 -0.009249078511582921 0.018206117331915996 0 -0.0087972634530971601 0.019472523358759472 0 -0.010921531477750646 0.018717627251287706 0 -0.010598144716151753 0.019482661592585587 0 -0.009249078511582921 0.018206117331915996 0 -0.010008694600959203 0.020318793500200567 0 -0.0087972634530971601 0.019472523358759472 0 -0.0087031746432763308 0.020295396208176313 0 -0.011773038511496629 0.017822659195158203 0 -0.010921531477750646 0.018717627251287706 0 -0.009249078511582921 0.018206117331915996 0 -0.016226003679508955 0.026909178396744456 0 -0.020059254772493575 0.028296429538930006 0 -0.015754153743066983 0.029202341432543636 0 -0.014407289417855816 0.020765204254206276 0 -0.012759547179544363 0.0239436096323139 0 -0.015754153743066983 0.029202341432543636 0 -0.011853774620069101 0.028405769202128579 0 -0.011453742258795431 0.030533011307248139 0 -0.012759547179544363 0.0239436096323139 0 -0.008935392889013313 0.02458503052734556 0 -0.013984044292619806 0.026553099805213032 0 -0.015754153743066983 0.029202341432543636 0 -0.011853774620069101 0.028405769202128579 0 -0.013984044292619806 0.026553099805213032 0 -0.016226003679508955 0.026909178396744456 0 -0.015754153743066983 0.029202341432543636 0 -0.0087972634530971601 0.019472523358759472 0 -0.0075538112089016231 0.019862768953972407 0 -0.0066034382236902275 0.018654775240563033 0 -0.009249078511582921 0.018206117331915996 0 -0.0087972634530971601 0.019472523358759472 0 -0.0066034382236902275 0.018654775240563033 0 -0.0087972634530971601 0.019472523358759472 0 -0.0087031746432763308 0.020295396208176313 0 -0.0075538112089016231 0.019862768953972407 0 -0.0080341682017677132 0.021083585595372892 0 -0.0088327305837141434 0.022228014796067484 0 -0.0070686703980864509 0.021740715896471519 0 -0.0075538112089016231 0.019862768953972407 0 -0.0080341682017677132 0.021083585595372892 0 -0.0067804235905565401 0.020740891665438268 0 -0.0087031746432763308 0.020295396208176313 0 -0.0075538112089016231 0.019862768953972407 0 -0.0080341682017677132 0.021083585595372892 0 -0.0087031746432763308 0.020295396208176313 0 -0.0080341682017677132 0.021083585595372892 0 -0.0094321525644480951 0.021050055546597016 0 -0.0080341682017677132 0.021083585595372892 0 -0.0088327305837141434 0.022228014796067484 0 -0.0094321525644480951 0.021050055546597016 0 -0.011943393783577692 0.019129716148645816 0 -0.013427839817071937 0.017187422673314284 0 -0.0087704137812114596 0.019364915923476399 0 -0.01110052239813398 0.019715412742245621 0 -0.0074214369887784697 0.021268718812175118 0 -0.012489874272122075 0.019567596893470637 0 -0.011943393783577692 0.019129716148645816 0 -0.013447803707223283 0.017937767537213569 0 -0.011943393783577692 0.019129716148645816 0 -0.013447803707223283 0.017937767537213569 0 -0.013427839817071937 0.017187422673314284 0 -0.012489874272122075 0.019567596893470637 0 -0.013284275177889961 0.019448069828406033 0 -0.013447803707223283 0.017937767537213569 0 -0.013447803707223283 0.017937767537213569 0 -0.013427839817071937 0.017187422673314284 0 -0.013770898162442397 0.016538286351955988 0 -0.014032633280019758 0.014853971994403197 0 -0.013447803707223283 0.017937767537213569 0 -0.013770898162442397 0.016538286351955988 0 -0.013427839817071937 0.017187422673314284 0 -0.013770898162442397 0.016538286351955988 0 -0.013622601377146536 0.016551032456455901 0 -0.010008694600959203 0.020318793500200567 0 -0.010598144716151753 0.019482661592585587 0 -0.011528836763536089 0.021303951575643344 0 -0.01110052239813398 0.019715412742245621 0 -0.012576924670888053 0.018865096112039733 0 -0.010008694600959203 0.020318793500200567 0 -0.0094321525644480951 0.021050055546597016 0 -0.011528836763536089 0.021303951575643344 0 -0.0088327305837141434 0.022228014796067484 0 -0.0094321525644480951 0.021050055546597016 0 -0.011528836763536089 0.021303951575643344 0 -0.010008694600959203 0.020318793500200567 0 -0.0087031746432763308 0.020295396208176313 0 -0.0094321525644480951 0.021050055546597016 0 -0.013622601377146536 0.016551032456455901 0 -0.0133693759410309 0.015808553588872034 0 -0.012597633003465957 0.016250993444769248 0 -0.013770898162442397 0.016538286351955988 0 -0.013622601377146536 0.016551032456455901 0 -0.0133693759410309 0.015808553588872034 0 -0.013630903376970623 0.015622074593083136 0 -0.013770898162442397 0.016538286351955988 0 -0.0133693759410309 0.015808553588872034 0 -0.013385205109811525 0.015134261464434738 0 -0.012826958225355021 0.015001249770213304 0 -0.0133693759410309 0.015808553588872034 0 -0.013630903376970623 0.015622074593083136 0 -0.013385205109811525 0.015134261464434738 0 -0.0133693759410309 0.015808553588872034 0 -0.0133693759410309 0.015808553588872034 0 -0.012592518379389038 0.015522851386512142 0 -0.012597633003465957 0.016250993444769248 0 -0.012826958225355021 0.015001249770213304 0 -0.012592518379389038 0.015522851386512142 0 -0.012018103269395992 0.014851934077648904 0 -0.012826958225355021 0.015001249770213304 0 -0.0133693759410309 0.015808553588872034 0 -0.012592518379389038 0.015522851386512142 0 -0.01158330015677485 0.015186657175227923 0 -0.012018103269395992 0.014851934077648904 0 -0.012066085629795918 0.015575352781053851 0 -0.012592518379389038 0.015522851386512142 0 -0.012018103269395992 0.014851934077648904 0 -0.012066085629795918 0.015575352781053851 0 -0.011381541137175771 0.01585743897274712 0 -0.012066085629795918 0.015575352781053851 0 -0.012597633003465957 0.016250993444769248 0 -0.012592518379389038 0.015522851386512142 0 -0.012066085629795918 0.015575352781053851 0 -0.012597633003465957 0.016250993444769248 0 -0.01177927248414103 0.017093548567918983 0 -0.013622601377146536 0.016551032456455901 0 -0.012597633003465957 0.016250993444769248 0 -0.011381541137175771 0.01585743897274712 0 -0.01177927248414103 0.017093548567918983 0 -0.012597633003465957 0.016250993444769248 0 -0.014017856771043795 0.020388212258054931 0 -0.013565802149683498 0.019990313307639937 0 -0.011528836763536089 0.021303951575643344 0 -0.012940476345335225 0.0194422901057082 0 -0.012576924670888053 0.018865096112039733 0 -0.0050786420551599655 0.025634768294438955 0 -0.0010547056373275761 0.026243325036717932 0 -0.0039689319944992696 0.019130085237187764 0 -0.0044839098394251946 0.021238779893234298 0 -0.0027216417195358895 0.020998843020971023 0 -0.0039689319944992696 0.019130085237187764 0 -0.0011524122391338688 0.019639714925871885 0 -0.0027216417195358895 0.020998843020971023 0 -0.0046411084223897106 0.027990615504408393 0 -0.0008660601936933619 0.028352518627630295 0 -0.0007668569054668881 0.033419754184207139 0 -0.0008660601936933619 0.028352518627630295 0 -0.0007668569054668881 0.033419754184207139 0 0.0020292325808042599 0.030076072017164016 0 -0.0072316162171457022 0.027791254502478855 0 -0.0046411084223897106 0.027990615504408393 0 -0.0062891454509670774 0.032091380977862877 0 -0.0046411084223897106 0.027990615504408393 0 -0.0062891454509670774 0.032091380977862877 0 -0.0007668569054668881 0.033419754184207139 0 -0.0072316162171457022 0.027791254502478855 0 -0.0062891454509670774 0.032091380977862877 0 -0.0089775330339891286 0.02917904152947022 0 -0.0062891454509670774 0.032091380977862877 0 -0.0089775330339891286 0.02917904152947022 0 -0.011453742258795431 0.030533011307248139 0 -0.0098710368383703919 0.027397101944216178 0 -0.0072316162171457022 0.027791254502478855 0 -0.0089775330339891286 0.02917904152947022 0 -0.0098710368383703919 0.027397101944216178 0 -0.0089775330339891286 0.02917904152947022 0 -0.011853774620069101 0.028405769202128579 0 -0.0089775330339891286 0.02917904152947022 0 -0.011853774620069101 0.028405769202128579 0 -0.011453742258795431 0.030533011307248139 0 -0.0075538112089016231 0.019862768953972407 0 -0.0066034382236902275 0.018654775240563033 0 -0.006583739969609456 0.019728743280330755 0 -0.0066034382236902275 0.018654775240563033 0 -0.006583739969609456 0.019728743280330755 0 -0.0055750032419810283 0.019970721646542768 0 -0.006583739969609456 0.019728743280330755 0 -0.0055750032419810283 0.019970721646542768 0 -0.0067804235905565401 0.020740891665438268 0 -0.0075538112089016231 0.019862768953972407 0 -0.006583739969609456 0.019728743280330755 0 -0.0067804235905565401 0.020740891665438268 0 -0.0039689319944992696 0.019130085237187764 0 -0.0066034382236902275 0.018654775240563033 0 -0.0055750032419810283 0.019970721646542768 0 -0.0039689319944992696 0.019130085237187764 0 -0.0055750032419810283 0.019970721646542768 0 -0.0044839098394251946 0.021238779893234298 0 -0.0050786420551599655 0.025634768294438955 0 -0.008935392889013313 0.02458503052734556 0 -0.0055750032419810283 0.019970721646542768 0 -0.0044839098394251946 0.021238779893234298 0 -0.0057706092125776641 0.021632102869906213 0 -0.0044839098394251946 0.021238779893234298 0 -0.0057706092125776641 0.021632102869906213 0 -0.0045761995173884918 0.022394323556806279 0 -0.0044839098394251946 0.021238779893234298 0 -0.0045761995173884918 0.022394323556806279 0 -0.0032599908984981513 0.022385697007669871 0 -0.0055750032419810283 0.019970721646542768 0 -0.0067804235905565401 0.020740891665438268 0 -0.0057706092125776641 0.021632102869906213 0 -0.0080341682017677132 0.021083585595372892 0 -0.0067804235905565401 0.020740891665438268 0 -0.0070686703980864509 0.021740715896471519 0 -0.0067804235905565401 0.020740891665438268 0 -0.0057706092125776641 0.021632102869906213 0 -0.0070686703980864509 0.021740715896471519 0 -0.011093419973317043 0.020714998544507385 0 -0.011943393783577692 0.019129716148645816 0 -0.0087704137812114596 0.019364915923476399 0 -0.0088327305837141434 0.022228014796067484 0 -0.0070686703980864509 0.021740715896471519 0 -0.0059614497212050069 0.023035830756746496 0 -0.0057706092125776641 0.021632102869906213 0 -0.0070686703980864509 0.021740715896471519 0 -0.0059614497212050069 0.023035830756746496 0 -0.0037903400821106214 0.023122560217818333 0 -0.0074214369887784697 0.021268718812175118 0 -0.0034757207115569595 0.023421867190470274 0 -0.0059614497212050069 0.023035830756746496 0 -0.0045761995173884918 0.022394323556806279 0 -0.0057706092125776641 0.021632102869906213 0 -0.0059614497212050069 0.023035830756746496 0 -0.0045761995173884918 0.022394323556806279 0 -0.0034757207115569595 0.023421867190470274 0 -0.0032599908984981513 0.022385697007669871 0 -0.0019530223853222795 0.023803432268865967 0 -0.0034757207115569595 0.023421867190470274 0 -0.0045761995173884918 0.022394323556806279 0 -0.0032599908984981513 0.022385697007669871 0 -0.0032599908984981513 0.022385697007669871 0 -0.0027216417195358895 0.020998843020971023 0 -0.0010942865165095594 0.022476251192055759 0 -0.0044839098394251946 0.021238779893234298 0 -0.0032599908984981513 0.022385697007669871 0 -0.0027216417195358895 0.020998843020971023 0 -0.0011524122391338688 0.019639714925871885 0 -0.0027216417195358895 0.020998843020971023 0 -0.0010942865165095594 0.022476251192055759 0 0.00033549355944587637 0.025320352863296348 0 -0.0010942865165095594 0.022476251192055759 0 -0.0019530223853222795 0.023803432268865967 0 -0.0032599908984981513 0.022385697007669871 0 -0.0010942865165095594 0.022476251192055759 0 -0.0019530223853222795 0.023803432268865967 0 0.00033549355944587637 0.025320352863296348 0 0.0026399999471504619 0.025315113473372175 0 0.0012515836969932603 0.022386515906143836 0 0.00033549355944587637 0.025320352863296348 0 -0.0010942865165095594 0.022476251192055759 0 0.0012515836969932603 0.022386515906143836 0 0.0026399999471504619 0.025315113473372175 0 0.0034914515514826404 0.023338690100483481 0 0.0012515836969932603 0.022386515906143836 0 0.004227310528248907 0.027190245598019965 0 0.0032026088814079245 0.029997325282572526 0 0.0052914593597295587 0.032753719047883698 0 0.0043711711861334629 0.031361960030835877 0 0.0057715677981986218 0.032640345131941771 0 0.0034914515514826404 0.023338690100483481 0 0.0012515836969932603 0.022386515906143836 0 0.0020612848583444303 0.020501880828760619 0 -0.0011524122391338688 0.019639714925871885 0 -0.0010942865165095594 0.022476251192055759 0 0.0012515836969932603 0.022386515906143836 0 -0.0011524122391338688 0.019639714925871885 0 0.0012515836969932603 0.022386515906143836 0 0.0020612848583444303 0.020501880828760619 0 0.0032026088814079245 0.029997325282572526 0 0.0027561838706950475 0.03192787032893496 0 -0.0007668569054668881 0.033419754184207139 0 0.0039978421317571735 0.034220023810152739 0 0.0020292325808042599 0.030076072017164016 0 -0.0010547056373275761 0.026243325036717932 0 0.0032026088814079245 0.029997325282572526 0 0.0044281276604244916 0.034178013275899706 0 0.0058286175217947076 0.033067804496548989 0 0.0047233487601941633 0.031434034912227342 0 0.0058286175217947076 0.033067804496548989 0 0.0047233487601941633 0.031434034912227342 0 0.005908346370479294 0.031279309106009651 0 0.0047233487601941633 0.031434034912227342 0 0.005908346370479294 0.031279309106009651 0 0.0057603968425864347 0.029990930539403823 0 0.005908346370479294 0.031279309106009651 0 0.0057603968425864347 0.029990930539403823 0 0.0063234862727127106 0.029650732777942463 0 0.0047233487601941633 0.031434034912227342 0 0.0057603968425864347 0.029990930539403823 0 0.0040165441363026405 0.029585286572500841 0 0.0044281276604244916 0.034178013275899706 0 0.0047233487601941633 0.031434034912227342 0 0.0020292325808042599 0.030076072017164016 0 0.0047233487601941633 0.031434034912227342 0 0.0040165441363026405 0.029585286572500841 0 0.0020292325808042599 0.030076072017164016 0 0.0064725570976226412 0.03386732275593636 0 0.0064656943794675565 0.033374220715651548 0 0.0063846401923831654 0.034335695869268087 0 0.0064725570976226412 0.03386732275593636 0 0.0063846401923831654 0.034335695869268087 0 0.0061938681680559701 0.034986184602393292 0 0.0058238839164037543 0.031573921427215837 0 0.0077598695897225668 0.031806979087362824 0 0.005908346370479294 0.031279309106009651 0 0.0064725570976226412 0.03386732275593636 0 0.0064656943794675565 0.033374220715651548 0 0.005908346370479294 0.031279309106009651 0 0.009043399356820421 0.030188571603011125 0 0.0074048544755106914 0.029302112957187633 0 0.0058286175217947076 0.033067804496548989 0 0.005908346370479294 0.031279309106009651 0 0.0064656943794675565 0.033374220715651548 0 0.0058286175217947076 0.033067804496548989 0 0.0064656943794675565 0.033374220715651548 0 0.0067080179381458632 0.03401933241669497 0 0.0032026088814079245 0.029997325282572526 0 0.0064235132021932678 0.033785929036965624 0 0.0044281276604244916 0.034178013275899706 0 0.0058286175217947076 0.033067804496548989 0 0.0067080179381458632 0.03401933241669497 0 0.0063846401923831654 0.034335695869268087 0 0.0067080179381458632 0.03401933241669497 0 0.0057127099013121333 0.034096419349040633 0 0.0064656943794675565 0.033374220715651548 0 0.0063846401923831654 0.034335695869268087 0 0.0067080179381458632 0.03401933241669497 0 0.0057715677981986218 0.032640345131941771 0 0.0058556067609788322 0.033215285490338337 0 0.0057127099013121333 0.034096419349040633 0 0.0064235132021932678 0.033785929036965624 0 0.0055857056557889603 0.033828634174111152 0 0.0052914593597295587 0.032753719047883698 0 0.0057715677981986218 0.032640345131941771 0 0.0058556067609788322 0.033215285490338337 0 0.0054991242842719751 0.029675483187576731 0 0.004227310528248907 0.027190245598019965 0 0.006129818523396312 0.032715861973875722 0 0.0052914593597295587 0.032753719047883698 0 0.0058556067609788322 0.033215285490338337 0 0.0058556067609788322 0.033215285490338337 0 0.0052474669957617293 0.033697152545700881 0 0.0057127099013121333 0.034096419349040633 0 0.0053303150097366823 0.032789822668146333 0 0.0058556067609788322 0.033215285490338337 0 0.0052474669957617293 0.033697152545700881 0 0.0057127099013121333 0.034096419349040633 0 0.0046062720462991015 0.034562802193132403 0 0.004891670265222272 0.035180960136926058 0 0.0052474669957617293 0.033697152545700881 0 0.0057127099013121333 0.034096419349040633 0 0.0046062720462991015 0.034562802193132403 0 0.0027814285049796105 0.035370452946833067 0 0.0032769705416458065 0.034684255831949021 0 0.0034808822949120824 0.035076343525120297 0 0.0041050685741659647 0.03398429633650929 0 0.0032769705416458065 0.034684255831949021 0 0.0034808822949120824 0.035076343525120297 0 0.0041050685741659647 0.03398429633650929 0 0.0052474669957617293 0.033697152545700881 0 0.0046062720462991015 0.034562802193132403 0 0.0041050685741659647 0.03398429633650929 0 0.0034808822949120824 0.035076343525120297 0 0.0046062720462991015 0.034562802193132403 0 0.0034808822949120824 0.035076343525120297 0 0.0042000952398121918 0.035613119991475851 0 0.0046062720462991015 0.034562802193132403 0 0.0042000952398121918 0.035613119991475851 0 0.0046062720462991015 0.034562802193132403 0 0.004891670265222272 0.035180960136926058 0 0.0030405350241424697 0.036030065976630984 0 0.0034808822949120824 0.035076343525120297 0 0.0042000952398121918 0.035613119991475851 0 0.0022339137227119278 0.041963540931069632 0 0.0045489128423412501 0.035182836499952727 0 0.0039651890032115483 0.036519929679103391 0 0.0042000952398121918 0.035613119991475851 0 0.0042733749623989157 0.036157976756830142 0 0.0039651890032115483 0.036519929679103391 0 0.0042733749623989157 0.036157976756830142 0 0.0040261829264152749 0.036853068214350228 0 0.0042000952398121918 0.035613119991475851 0 0.0042733749623989157 0.036157976756830142 0 0.004891670265222272 0.035180960136926058 0 0.0042733749623989157 0.036157976756830142 0 0.0048540976039966261 0.035983863701085937 0 0.004891670265222272 0.035180960136926058 0 0.0042733749623989157 0.036157976756830142 0 0.0048540976039966261 0.035983863701085937 0 0.0043332745685190415 0.036846219306878487 0 0.0048540976039966261 0.035983863701085937 0 0.0043332745685190415 0.036846219306878487 0 0.0048080686290879306 0.036997787363708956 0 0.0042733749623989157 0.036157976756830142 0 0.0043332745685190415 0.036846219306878487 0 0.0040261829264152749 0.036853068214350228 0 0.0063846401923831654 0.034335695869268087 0 0.0057127099013121333 0.034096419349040633 0 0.0056330953272137382 0.035015947186958912 0 0.0057127099013121333 0.034096419349040633 0 0.004891670265222272 0.035180960136926058 0 0.0056330953272137382 0.035015947186958912 0 0.0048540976039966261 0.035983863701085937 0 0.004891670265222272 0.035180960136926058 0 0.0056330953272137382 0.035015947186958912 0 0.0048540976039966261 0.035983863701085937 0 0.0053872715203801208 0.03589783334287671 0 0.0048080686290879306 0.036997787363708956 0 0.0056330953272137382 0.035015947186958912 0 0.0053872715203801208 0.03589783334287671 0 0.0061938681680559701 0.034986184602393292 0 0.0048540976039966261 0.035983863701085937 0 0.0056330953272137382 0.035015947186958912 0 0.0053872715203801208 0.03589783334287671 0 0.0064725570976226412 0.03386732275593636 0 0.0061938681680559701 0.034986184602393292 0 0.006248968284369761 0.034837900597044641 0 0.0053872715203801208 0.03589783334287671 0 0.0061938681680559701 0.034986184602393292 0 0.0060612172782678322 0.036383812778418255 0 0.0064706529402829213 0.035739153799317962 0 0.0084228855163808666 0.033634707880358578 0 0.0063846401923831654 0.034335695869268087 0 0.0056330953272137382 0.035015947186958912 0 0.0061938681680559701 0.034986184602393292 0 0.0077598695897225668 0.031806979087362824 0 0.0084228855163808666 0.033634707880358578 0 0.011785805405332882 0.029590611111083298 0 0.010867958693483759 0.027810998501111791 0 0.0097380747114955771 0.028610964736428178 0 0.0053872715203801208 0.03589783334287671 0 0.0060612172782678322 0.036383812778418255 0 0.0048080686290879306 0.036997787363708956 0 0.0084228855163808666 0.033634707880358578 0 0.0055058673879728702 0.036636311747596108 0 0.0083326913694685961 0.036119134660879515 0 0.0070117592771996645 0.03795072158497504 0 0.0060591683626462587 0.0366371054458638 0 0.0070117592771996645 0.03795072158497504 0 0.0077131248599114077 0.038670642782494248 0 0.0060269668734242452 0.039366800595649502 0 0.0083326913694685961 0.036119134660879515 0 0.0070117592771996645 0.03795072158497504 0 0.0077133937665133942 0.038659166754910455 0 0.0086327061466839796 0.037050497863613419 0 0.0087117708039047316 0.033729825864531743 0 0.012500486907314807 0.026697439420179121 0 0.010473169108302332 0.026434864928290377 0 0.010867958693483759 0.027810998501111791 0 0.0084228855163808666 0.033634707880358578 0 0.0087117708039047316 0.033729825864531743 0 0.011785805405332882 0.029590611111083298 0 0.012500486907314807 0.026697439420179121 0 0.010867958693483759 0.027810998501111791 0 -0.00010896402004437901 0.048726358979690368 0 -0.00014857827322574985 0.047984731127249609 0 0.00024291690667135532 0.048724956050300597 0 0.0018755140913844243 0.042599768973245397 0 0.0025833104876649732 0.042492086947008401 0 0.0043332745685190415 0.036846219306878487 0 0.0040261829264152749 0.036853068214350228 0 0.0040945998026687145 0.037612337149589906 0 -0.00010896402004437901 0.048726358979690368 0 6.6123432539015202e-05 0.048957506615029345 0 0.00024291690667135532 0.048724956050300597 0 0.00013697820970754625 0.044839273971194041 0 0.0025833104876649732 0.042492086947008401 0 0.0043332745685190415 0.036846219306878487 0 0.0040945998026687145 0.037612337149589906 0 0.0048080686290879306 0.036997787363708956 0 0.0025833104876649732 0.042492086947008401 0 0.0055058673879728702 0.036636311747596108 0 0.0037952102862796413 0.037183424228001832 0 0.0060591683626462587 0.0366371054458638 0 0.0054300282050814197 0.038105620252063585 0 0.0054300282050814197 0.038105620252063585 0 0.0042420959839623599 0.03916350388574999 0 0.0060269668734242452 0.039366800595649502 0 0.0070117592771996645 0.03795072158497504 0 0.0060591683626462587 0.0366371054458638 0 0.0054300282050814197 0.038105620252063585 0 0.0070117592771996645 0.03795072158497504 0 0.0054300282050814197 0.038105620252063585 0 0.0060269668734242452 0.039366800595649502 0 6.6123432539015202e-05 0.048957506615029345 0 0.00028126772863341394 0.048890890862480607 0 0.00041128801914360694 0.049550333316780222 0 -0.00010907346782998691 0.049522381897988847 0 6.6123432539015202e-05 0.048957506615029345 0 0.00041128801914360694 0.049550333316780222 0 0.0037952102862796413 0.037183424228001832 0 0.0054300282050814197 0.038105620252063585 0 0.0042420959839623599 0.03916350388574999 0 0.0025833104876649732 0.042492086947008401 0 0.0023337724532927358 0.044652185165347809 0 0.0023337724532927358 0.044652185165347809 0 0.003221353942075482 0.044213344089506085 0 -0.00019349300523252306 0.050064615560496829 0 0.00041128801914360694 0.049550333316780222 0 0.00052666680966797087 0.050013592994314258 0 0.0042420959839623599 0.03916350388574999 0 0.0060269668734242452 0.039366800595649502 0 0.0046781081177151547 0.041144495413194294 0 0.0060269668734242452 0.039366800595649502 0 0.0046781081177151547 0.041144495413194294 0 0.0071027824526380939 0.041153178860136967 0 0.0084687871258981289 0.03658565394290076 0 0.0096813402029866189 0.037769405234953778 0 0.0071870139403813482 0.037681434101228609 0 0.003221353942075482 0.044213344089506085 0 0.0075402329828931748 0.037137522468806597 0 -0.0013291157560564536 0.050710667274389436 0 0.003221353942075482 0.044213344089506085 0 -0.00074932657034799022 0.049942875355024889 0 -0.0016737390219113343 0.04920143000874444 0 -0.0018736301334904277 0.049821339672633184 0 0.012500486907314807 0.026697439420179121 0 0.010473169108302332 0.026434864928290377 0 0.011108237186162769 0.025181331622217404 0 0.0093058588243871664 0.028824548864259468 0 0.0083333882304785084 0.029488234916572372 0 0.0087117708039047316 0.033729825864531743 0 0.0093058588243871664 0.028824548864259468 0 0.0081751167627587464 0.032988901583362894 0 0.0080945441591944427 0.032895894796330344 0 0.0082069134815682503 0.032848281888023287 0 0.0087117708039047316 0.033729825864531743 0 0.0075402329828931748 0.037137522468806597 0 0.0077131248599114077 0.038670642782494248 0 0.0060269668734242452 0.039366800595649502 0 0.0071027824526380939 0.041153178860136967 0 0.0079097002928973214 0.035286252995152735 0 0.0084687871258981289 0.03658565394290076 0 0.0071870139403813482 0.037681434101228609 0 0.0078570282278213922 0.035267934093607539 0 0.0075402329828931748 0.037137522468806597 0 0.0075402329828931748 0.037137522468806597 0 0.0083333882304785084 0.029488234916572372 0 0.0073152153672928159 0.03537155456996121 0 0.0076634079687406369 0.035884509562333813 0 0.006639365575395898 0.035765806573179564 0 0.0080945441591944427 0.032895894796330344 0 0.0082069134815682503 0.032848281888023287 0 0.0080145761936236577 0.032792432248209283 0 0.0083333882304785084 0.029488234916572372 0 0.0083371198299649445 0.021724716450040375 0 0.0096971996003885896 0.023686907982249605 0 0.0089490083413337092 0.025404460314954417 0 0.0073914318578399427 0.023591458424905752 0 0.0078110670098470048 0.024610227784170335 0 0.0080779648416097818 0.024908157216263924 0 0.0075301351733032627 0.024860306993750629 0 0.0064387482374760824 0.022524397687082535 0 0.0083333882304785084 0.029488234916572372 0 0.010473169108302332 0.026434864928290377 0 0.011108237186162769 0.025181331622217404 0 0.0089490083413337092 0.025404460314954417 0 0.011108237186162769 0.025181331622217404 0 0.0096971996003885896 0.023686907982249605 0 0.0089490083413337092 0.025404460314954417 0 0.010473169108302332 0.026434864928290377 0 0.0089490083413337092 0.025404460314954417 0 0.0091148347517299028 0.026763602489857773 0 0.0089490083413337092 0.025404460314954417 0 0.0071716912801224964 0.025551924506978747 0 0.0073914318578399427 0.023591458424905752 0 0.0071716912801224964 0.025551924506978747 0 0.0073914318578399427 0.023591458424905752 0 0.0062861145905539631 0.025703515447980788 0 0.0071716912801224964 0.025551924506978747 0 0.0062861145905539631 0.025703515447980788 0 0.0065625600489152783 0.026620521209714951 0 0.0089490083413337092 0.025404460314954417 0 0.0071716912801224964 0.025551924506978747 0 0.0078016961809370235 0.026676793409937286 0 0.0065844822765997344 0.012495089742858085 0 0.011146716178097614 0.013156602896608362 0 0.0088214233469422979 0.015272676145856333 0 0.0064387482374760824 0.022524397687082535 0 0.0083371198299649445 0.021724716450040375 0 0.0084945408395197056 0.022322612244471397 0 0.0051662157108203705 0.022267973762114597 0 0.005218405337149741 0.023804621650360527 0 0.0065844822765997344 0.012495089742858085 0 0.0088214233469422979 0.015272676145856333 0 0.0043883653948825069 0.015126862239958504 0 0.0083371198299649445 0.021724716450040375 0 0.0048876654672842818 0.018661561366193579 0 0.0051662157108203705 0.022267973762114597 0 0.0034912510020853908 0.023860636956739775 0 0.005218405337149741 0.023804621650360527 0 0.0048876654672842818 0.018661561366193579 0 0.00060271410269761405 0.017206079183479113 0 0.0051662157108203705 0.022267973762114597 0 0.0018650724133681869 0.022237562371073147 0 0.0034912510020853908 0.023860636956739775 0 0.0023081627455323736 0.011003368424555559 0 0.0043883653948825069 0.015126862239958504 0 -7.6828560329564029e-05 0.015004104599528105 0 0.001084884397193623 0.014990617591560076 0 0.0014439705430059763 0.01891215610929492 0 0.004027896639014289 0.022075429060493191 0 0.00060271410269761405 0.017206079183479113 0 0.0042080872104501964 0.024819276769561662 0 0.0018650724133681869 0.022237562371073147 0 0.0034912510020853908 0.023860636956739775 0 0.0041377945574002399 0.026818168112902288 0 0.0034912510020853908 0.023860636956739775 0 0.0043387286031039436 0.02499972485736834 0 0.0041377945574002399 0.026818168112902288 0 0.00015542534938147462 0.017236901734256904 0 0.001084884397193623 0.014990617591560076 0 0.0014439705430059763 0.01891215610929492 0 0.0034912510020853908 0.023860636956739775 0 0.0043387286031039436 0.02499972485736834 0 0.005218405337149741 0.023804621650360527 0 0.0043387286031039436 0.02499972485736834 0 0.0046782794700281479 0.025851681638595025 0 0.0041377945574002399 0.026818168112902288 0 0.0018207968189989604 0.020644565215306585 0 0.0014439705430059763 0.01891215610929492 0 0.004027896639014289 0.022075429060493191 0 0.00016079003665578999 0.019607964774127289 0 0.0018207968189989604 0.020644565215306585 0 0.00081420564586313958 0.021406153305601219 0 0.00016079003665578999 0.019607964774127289 0 0.0018207968189989604 0.020644565215306585 0 0.0014439705430059763 0.01891215610929492 0 0.0083371198299649445 0.021724716450040375 0 0.0045704300474131709 0.026208286191799504 0 0.0084945408395197056 0.022322612244471397 0 0.005218405337149741 0.023804621650360527 0 0.0046782794700281479 0.025851681638595025 0 0.0073914318578399427 0.023591458424905752 0 0.0046782794700281479 0.025851681638595025 0 0.0062861145905539631 0.025703515447980788 0 0.0043387286031039436 0.02499972485736834 0 0.005218405337149741 0.023804621650360527 0 0.0046782794700281479 0.025851681638595025 0 0.0062861145905539631 0.025703515447980788 0 0.0056811993334349052 0.02698339215374565 0 0.0065625600489152783 0.026620521209714951 0 0.0056811993334349052 0.02698339215374565 0 0.0065625600489152783 0.026620521209714951 0 0.0068332571950668972 0.027716404355817424 0 0.0046782794700281479 0.025851681638595025 0 0.0062861145905539631 0.025703515447980788 0 0.0056811993334349052 0.02698339215374565 0 0.0046782794700281479 0.025851681638595025 0 0.0056811993334349052 0.02698339215374565 0 0.0041377945574002399 0.026818168112902288 0 0.0056811993334349052 0.02698339215374565 0 0.0041377945574002399 0.026818168112902288 0 0.0060405506885072005 0.028414959639834154 0 0.0056811993334349052 0.02698339215374565 0 0.0060405506885072005 0.028414959639834154 0 0.0068332571950668972 0.027716404355817424 0 0.004027896639014289 0.022075429060493191 0 0.0021609334686282524 0.024234056662918588 0 0.0034319582518817899 0.026664664735878384 0 0.00081420564586313958 0.021406153305601219 0 0.001952877168898873 0.02215114456923941 0 0.00095082644537208046 0.022839674386701307 0 0.0018207968189989604 0.020644565215306585 0 0.00081420564586313958 0.021406153305601219 0 0.001952877168898873 0.02215114456923941 0 0.0018207968189989604 0.020644565215306585 0 0.001952877168898873 0.02215114456923941 0 0.004027896639014289 0.022075429060493191 0 0.001952877168898873 0.02215114456923941 0 0.004027896639014289 0.022075429060493191 0 0.0021609334686282524 0.024234056662918588 0 -0.00033266871687805908 0.025154151491902747 0 0.0021609334686282524 0.024234056662918588 0 0.00095082644537208046 0.022839674386701307 0 0.001952877168898873 0.02215114456923941 0 0.0021609334686282524 0.024234056662918588 0 0.00095082644537208046 0.022839674386701307 0 -0.00033266871687805908 0.025154151491902747 0 0.0021609334686282524 0.024234056662918588 0 0.0012836400838593118 0.026937815880136978 0 0.0021609334686282524 0.024234056662918588 0 0.0034319582518817899 0.026664664735878384 0 0.0012836400838593118 0.026937815880136978 0 0.0040165441363026405 0.029585286572500841 0 0.0020292325808042599 0.030076072017164016 0 0.0034319582518817899 0.026664664735878384 0 0.0020292325808042599 0.030076072017164016 0 0.0034319582518817899 0.026664664735878384 0 0.0012836400838593118 0.026937815880136978 0 -0.0008660601936933619 0.028352518627630295 0 0.0020292325808042599 0.030076072017164016 0 0.0012836400838593118 0.026937815880136978 0 0.0057603968425864347 0.029990930539403823 0 0.0041377945574002399 0.026818168112902288 0 0.0060405506885072005 0.028414959639834154 0 0.0056591647008570828 0.029463962095387122 0 0.0042080872104501964 0.024819276769561662 0 0.0057603968425864347 0.029990930539403823 0 0.004027896639014289 0.022075429060493191 0 0.0034319582518817899 0.026664664735878384 0 0.0057603968425864347 0.029990930539403823 0 0.0040165441363026405 0.029585286572500841 0 0.0034319582518817899 0.026664664735878384 0 0.0057603968425864347 0.029990930539403823 0 0.0060405506885072005 0.028414959639834154 0 0.0063234862727127106 0.029650732777942463 0 0.0060405506885072005 0.028414959639834154 0 0.0063234862727127106 0.029650732777942463 0 0.0074048544755106914 0.029302112957187633 0 0.005908346370479294 0.031279309106009651 0 0.0063234862727127106 0.029650732777942463 0 0.0074048544755106914 0.029302112957187633 0 0.009043399356820421 0.030188571603011125 0 0.0074048544755106914 0.029302112957187633 0 0.0082156024723404521 0.027993898066730531 0 0.0060405506885072005 0.028414959639834154 0 0.0074048544755106914 0.029302112957187633 0 0.0068332571950668972 0.027716404355817424 0 0.0074048544755106914 0.029302112957187633 0 0.0068332571950668972 0.027716404355817424 0 0.0082156024723404521 0.027993898066730531 0 0.009043399356820421 0.030188571603011125 0 0.011785805405332882 0.029590611111083298 0 0.0097380747114955771 0.028610964736428178 0 0.009043399356820421 0.030188571603011125 0 0.0097380747114955771 0.028610964736428178 0 0.0082156024723404521 0.027993898066730531 0 0.0097380747114955771 0.028610964736428178 0 0.0091148347517299028 0.026763602489857773 0 0.0082156024723404521 0.027993898066730531 0 0.010867958693483759 0.027810998501111791 0 0.0097380747114955771 0.028610964736428178 0 0.0091148347517299028 0.026763602489857773 0 0.010473169108302332 0.026434864928290377 0 0.010867958693483759 0.027810998501111791 0 0.0091148347517299028 0.026763602489857773 0 0.0089490083413337092 0.025404460314954417 0 0.0091148347517299028 0.026763602489857773 0 0.0078016961809370235 0.026676793409937286 0 0.0091148347517299028 0.026763602489857773 0 0.0078016961809370235 0.026676793409937286 0 0.0082156024723404521 0.027993898066730531 0 0.0078016961809370235 0.026676793409937286 0 0.0065625600489152783 0.026620521209714951 0 0.0068332571950668972 0.027716404355817424 0 0.0071716912801224964 0.025551924506978747 0 0.0078016961809370235 0.026676793409937286 0 0.0065625600489152783 0.026620521209714951 0 0.0078016961809370235 0.026676793409937286 0 0.0068332571950668972 0.027716404355817424 0 0.0082156024723404521 0.027993898066730531 0 
</DataArray>
</PointData>
<CellData Scalars="region_id,cross_section_updated," Vectors="" Tensors="stress,">
<DataArray type="Float64" Name="region_id" format="ascii">
5 5 5 5 5 5 6 5 5 5 6 5 5 5 6 5 5 5 5 5 5 6 6 5 5 5 5 6 6 5 6 6 5 6 5 5 5 6 5 5 6 5 5 5 5 5 5 5 6 5 5 5 5 5 5 5 5 6 5 5 6 5 6 5 6 5 6 5 5 5 5 5 5 5 5 5 5 5 5 5 5 5 5 6 5 5 5 5 5 5 5 5 6 5 5 6 6 5 5 5 5 5 5 5 5 5 5 5 5 6 5 5 5 5 5 6 5 5 6 5 5 5 5 5 5 5 5 5 5 5 5 5 5 5 5 5 5 5 6 5 5 5 5 5 6 5 5 5 5 5 5 5 5 5 5 5 5 5 5 5 5 5 5 5 5 5 5 5 5 6 5 6 5 5 5 6 5 5 5 6 5 5 5 6 6 5 5 6 5 5 5 5 6 5 5 5 5 5 6 5 5 5 5 6 5 6 5 5 6 5 5 5 6 5 5 6 5 5 5 5 5 5 5 5 5 5 6 5 5 6 5 5 5 5 5 5 5 6 5 5 5 5 5 5 5 5 5 5 5 5 5 5 5 5 5 5 5 5 5 6 5 6 5 5 5 5 5 6 5 5 5 5 5 5 5 5 6 5 5 5 6 5 5 6 5 5 5 5 6 5 5 6 5 5 5 5 5 6 5 6 5 5 5 5 5 5 5 5 5 5 5 5 5 5 5 5 5 5 6 5 5 5 5 5 6 6 5 5 5 5 5 5 5 5 5 5 6 5 5 5 5 5 5 5 5 5 6 5 5 6 6 5 5 5 6 5 5 6 5 5 5 5 5 5 5 5 5 5 5 5 5 5 5 6 5 5 5 5 5 5 5 5 6 5 5 6 5 5 5 5 6 5 5 5 5 5 5 5 5 5 5 5 5 5 5 6 6 5 5 6 6 5 6 5 6 5 6 5 5 6 5 5 5 5 5 5 5 5 5 6 6 5 5 6 5 5 5 5 5 6 5 5 6 5 5 5 5 6 5 5 5 6 5 5 5 6 5 6 5 5 6 5 5 5 5 5 5 5 5 5 5 5 6 5 5 5 5 5 5 6 5 5 5 6 5 5 5 5 5 5 5 6 5 5 5 5 5 6 5 6 5 5 5 5 5 6 6 5 5 5 6 6 5 6 5 5 5 5 5 5 5 6 5 5 5 5 5 5 5 5 5 5 5 5 5 5 6 5 5 6 5 6 5 5 5 5 5 5 5 5 5 5 5 5 5 5 6 5 5 5 5 5 5 5 5 5 5 5 5 5 5 5 5 6 5 5 5 5 5 5 5 5 5 5 5 6 6 5 5 5 5 5 5 5 5 5 5 5 5 5 5 5 5 6 5 5 5 5 5 5 5 6 5 5 5 5 5 5 5 5 6 5 5 5 6 5 5 5 5 5 5 5 5 5 5 5 5 5 5 5 5 5 5 5 5 5 5 5 5 5 5 5 5 6 5 6 5 5 5 5 5 5 5 5 5 5 5 5 5 6 5 5 5 6 5 5 5 5 5 5 5 5 5 5 5 5 5 6 6 5 5 5 5 5 5 5 6 5 5 5 5 5 5 5 5 5 5 5 6 5 5 5 5 5 5 5 6 5 5 5 5 5 5 5 5 5 5 5 5 5 5 5 5 5 6 5 5 5 5 5 5 5 5 5 5 6 5 5 5 5 5 6 5 5 5 6 5 5 5 5 6 5 5 5 5 5 5 5 6 5 6 5 5 6 5 6 5 5 5 5 5 5 5 5 5 5 5 5 5 5 5 5 5 5 5 5 5 5 5 5 5 5 5 5 5 5 5 5 5 5 5 6 5 6 6 5 5 5 5 5 5 5 5 5 5 5 6 5 5 5 5 5 5 5 6 5 6 5 6 5 5 5 5 5 5 6 5 6 6 5 5 5 5 5 5 5 5 5 5 5 5 5 5 5 5 5 6 5 5 5 5 5 5 5 5 5 5 5 5 5 5 6 5 5 5 5 5 5 5 5 5 5 5 5 5 6 5 5 5 5 5 5 5 5 5 6 5 5 5 5 5 6 6 5 5 5 5 6 6 5 5 5 5 5 5 5 5 5 5 5 6 5 5 5 5 6 5 5 5 5 5 5 6 5 5 6 5 6 5 5 5 6 5 5 5 5 5 5 5 6 5 5 5 5 6 6 5 5 6 5 5 5 6 6 6 6 5 5 6 5 5 5 5 5 5 5 5 6 6 5 5 5 5 5 5 6 5 6 5 5 5 6 5 5 5 5 5 5 5 5 5 5 5 5 5 5 5 5 5 5 5 5 5 5 5 5 5 5 5 5 6 5 5 5 5 5 5 5 5 5 5 5 5 5 5 5 5 5 5 5 5 5 6 5 5 5 5 5 5 5 5 5 6 5 5 5 5 5 5 6 5 5 5 5 5 6 5 5 5 5 5 6 5 5 5 5 5 5 5 5 5 5 6 5 5 5 5 6 6 5 5 6 5 5 5 5 6 5 5 6 5 5 5 5 5 6 6 5 5 5 5 5 5 6 5 5 5 5 5 5 5 6 6 5 5 5 6 5 5 5 6 5 5 6 5 6 5 5 5 6 5 5 6 6 5 5 5 5 5 5 6 5 6 5 6 5 5 5 6 6 5 6 5 5 5 5 5 5 5 5 5 5 5 5 5 5 5 5 6 5 5 5 5 5 5 5 6 5 5 5 5 5 6 5 5 5 6 5 5 5 5 6 5 6 5 6 5 5 5 5 6 5 5 6 5 5 5 5 5 5 5 5 5 5 5 6 5 5 5 5 6 5 5 5 5 6 5 5 5 5 5 5 6 5 5 5 6 5 6 6 5 5 5 5 5 5 5 5 5 5 5 5 5 5 5 5 5 5 5 5 5 5 5 5 5 5 5 5 6 5 5 6 6 5 6 5 5 5 5 6 5 5 6 5 5 5 5 5 5 5 5 5 5 5 5 5 5 5 5 5 5 5 5 5 5 5 5 5 5 5 5 6 5 5 5 5 5 5 5 5 6 5 5 5 5 5 5 5 6 5 6 5 5 5 6 5 5 5 5 5 5 5 6 5 6 5 5 5 5 5 6 5 5 5 5 5 5 5 5 5 5 5 5 5 5 5 5 5 5 5 5 5 5 5 5 5 5 5 5 5 5 5 5 5 5 5 5 5 5 5 6 6 5 5 6 5 5 5 6 5 5 5 6 6 5 5 6 5 5 5 5 5 5 5 5 5 5 5 5 5 5 5 5 5 5 5 5 5 6 5 6 5 5 5 5 5 5 5 5 5 5 5 5 5 5 5 5 5 5 5 5 5 5 5 5 5 5 5 5 5 5 5 5 5 5 5 5 5 5 5 5 5 5 5 5 5 6 5 6 5 6 5 5 6 5 5 5 5 5 5 5 5 5 5 5 5 5 5 5 5 5 5 5 5 5 5 5 5 5 5 5 6 5 5 5 5 5 5 5 5 5 5 5 5 5 5 5 5 5 5 5 5 5 5 5 5 5 5 5 5 5 5 5 5 5 5 5 5 5 5 5 5 5 5 5 5 5 5 5 5 5 6 5 5 5 5 6 5 5 5 5 5 5 5 5 6 5 5 5 5 5 6 6 6 5 5 5 5 6 6 5 5 6 5 5 5 5 5 5 5 5 5 5 5 5 5 5 6 6 5 6 5 5 5 5 5 5 5 5 5 5 5 5 5 5 5 5 5 5 6 5 5 5 5 5 5 6 5 5 5 5 5 5 5 5 5 5 5 5 5 5 5 5 5 5 6 5 5 5 5 5 5 5 5 5 6 5 5 6 5 5 5 5 5 5 5 5 5 5 5 5 5 5 5 5 6 5 6 5 5 5 5 6 5 6 5 5 6 6 5 5 6 5 5 5 6 5 5 5 5 5 5 6 5 5 5 6 5 5 5 5 6 5 5 5 5 5 5 5 6 5 5 5 5 5 6 5 5 6 5 5 5 5 5 5 5 6 5 5 5 6 6 5 5 5 6 5 5 5 5 5 6 6 6 5 5 5 5 5 5 5 5 5 6 6 5 6 5 5 5 5 5 6 5 5 6 5 6 5 5 5 6 5 5 6 5 5 5 5 5 5 5 6 5 5 6 6 5 5 6 5 6 5 5 6 5 5 6 5 6 5 5 5 6 5 5 6 5 6 5 5 6 5 6 5 5 5 5 6 6 5 5 5 5 5 5 5 5 5 6 5 5 5 5 5 5 5 5 5 5 5 5 5 5 5 5 5 5 6 6 5 5 5 6 5 5 5 5 6 5 5 6 5 5 5 6 5 5 6 5 5 5 5 6 5 5 5 5 5 6 5 5 5 6 6 5 5 6 5 5 5 5 5 6 6 5 5 5 5 6 5 5 5 5 6 5 5 5 5 5 5 5 5 5 5 5 5 5 5 5 5 5 5 5 5 5 5 5 5 5 5 5 5 6 5 5 5 5 5 5 5 5 5 5 5 6 5 5 5 5 6 5 5 5 6 5 5 6 5 5 5 5 5 6 5 5 5 5 5 5 5 5 5 5 5 5 5 5 5 5 5 5 5 5 6 5 5 5 5 5 6 5 5 5 5 5 5 5 6 5 5 5 5 5 5 5 5 5 5 5 5 5 6 5 5 5 5 5 6 6 5 5 5 5 6 5 6 5 5 5 6 6 5 5 6 5 5 5 6 5 5 5 5 6 5 5 6 6 5 5 5 5 5 5 6 5 5 6 5 5 5 5 6 5 5 5 5 5 5 5 5 5 5 5 5 5 5 5 5 5 5 5 6 5 6 5 5 5 6 5 6 5 6 5 5 6 5 5 6 6 6 5 5 5 6 5 5 5 5 5 5 6 5 5 5 5 5 5 5 6 5 6 5 5 5 5 5 5 5 6 5 5 5 5 5 5 5 5 5 5 5 6 5 5 6 5 5 5 5 5 5 5 5 5 5 5 5 5 5 5 5 6 5 5 5 5 5 5 5 5 5 5 5 5 5 5 5 5 5 5 5 5 5 6 5 5 5 6 5 5 5 5 5 5 5 5 5 5 6 5 5 5 5 5 5 5 5 5 5 6 5 5 5 5 5 5 6 5 5 5 6 5 5 5 5 5 5 5 5 5 5 5 5 5 5 5 5 5 5 5 5 5 6 5 5 5 5 5 6 5 5 6 5 5 5 5 5 5 6 5 5 5 5 6 5 5 5 5 5 5 5 5 5 5 5 5 5 5 5 5 5 5 6 5 5 5 5 5 6 5 5 5 6 5 6 5 5 5 5 5 5 5 6 5 5 5 6 6 5 5 5 5 5 6 5 5 5 6 5 5 5 5 5 5 5 5 5 5 5 5 5 5 5 6 5 5 5 5 5 5 6 5 5 5 5 5 5 5 5 5 5 5 6 5 5 5 5 5 5 5 5 5 6 5 5 5 5 6 6 5 5 5 5 5 5 5 5 6 6 5 6 5 5 5 5 5 6 5 5 5 5 5 5 6 5 6 5 5 5 5 5 5 5 5 5 5 6 5 5 5 5 5 5 6 5 5 5 5 5 5 5 5 6 5 5 5 5 5 6 5 5 6 5 5 5 5 5 5 6 5 5 5 5 5 5 5 5 6 5 5 5 5 6 5 5 5 5 5 5 5 5 5 5 6 5 5 5 5 5 5 5 5 5 6 5 5 5 5 6 5 5 5 5 5 5 5 5 6 5 6 5 5 5 6 5 5 5 5 5 5 5 5 6 5 5 5 6 5 5 5 6 5 5 6 5 5 5 5 5 5 5 5 5 5 5 5 5 5 5 5 5 5 5 5 5 5 5 5 5 5 5 5 5 5 5 5 5 5 5 5 5 5 5 5 5 5 5 5 5 5 5 5 5 5 5 5 5 6 5 5 5 6 5 5 5 5 5 5 6 5 6 5 5 5 5 6 6 5 5 5 5 5 5 5 5 5 5 5 5 5 5 5 5 5 5 5 5 5 5 6 5 5 6 5 5 5 6 5 5 5 5 5 5 5 5 5 5 5 5 5 5 6 5 6 5 6 5 5 5 5 5 5 5 5 5 5 5 5 5 5 5 5 5 6 5 5 5 5 5 5 5 5 5 5 5 5 5 5 5 5 5 5 5 5 5 5 5 5 5 5 5 5 5 5 5 5 5 6 5 5 5 5 5 5 6 5 5 6 5 6 5 5 6 5 5 5 6 5 5 5 5 5 5 5 5 5 5 5 5 5 5 5 5 5 5 5 5 5 5 5 5 5 6 5 5 5 5 6 5 5 6 5 5 5 5 5 5 5 5 5 5 5 5 5 5 5 5 5 5 5 5 5 5 5 5 5 5 5 5 5 5 6 5 5 5 6 5 5 5 5 6 5 5 5 5 5 6 5 5 5 5 6 5 5 5 5 5 5 5 5 5 5 5 5 5 5 6 6 5 6 5 6 5 5 5 5 5 5 5 5 5 5 5 5 5 5 5 5 5 5 5 5 5 5 5 5 5 6 6 5 5 6 5 5 6 5 5 5 5 5 5 5 5 5 5 5 6 5 5 6 5 5 5 5 5 5 5 5 5 5 5 5 5 5 6 6 5 6 6 5 5 5 5 6 5 5 5 6 6 5 5 5 5 5 5 5 6 5 5 5 5 5 5 5 5 5 5 5 5 5 5 5 5 6 5 5 5 5 6 5 5 5 5 5 5 5 6 5 5 5 5 5 5 5 6 5 5 6 5 5 5 5 5 5 5 5 5 5 5 5 5 5 5 6 5 5 5 5 5 5 5 5 6 5 5 5 5 5 5 5 6 5 5 5 5 5 6 5 5 5 5 6 5 5 5 5 5 5 5 5 5 5 5 5 6 5 5 5 5 5 5 5 5 5 5 5 5 5 5 6 5 5 5 5 5 5 5 5 5 5 5 5 5 6 6 5 5 6 5 5 5 5 6 5 5 5 6 5 5 6 5 5 5 5 6 5 5 5 5 5 5 5 5 5 5 5 5 5 5 5 5 5 5 5 5 5 5 5 5 5 5 5 5 5 5 5 5 5 5 6 5 5 5 6 5 6 5 5 5 5 5 5 5 5 5 5 5 5 5 5 6 5 5 5 5 5 5 5 5 6 5 5 5 6 5 5 5 5 5 5 5 6 5 6 5 5 5 5 5 5 5 5 5 5 5 5 5 5 6 5 5 6 5 5 5 5 5 5 5 6 5 5 5 5 5 5 5 5 5 5 5 5 5 5 5 5 5 5 5 5 5 5 5 5 5 5 5 6 5 5 6 5 5 5 6 5 5 6 5 5 5 5 5 5 5 5 5 5 5 5 5 5 5 5 5 5 5 6 5 5 5 5 5 5 5 5 5 5 5 5 5 6 5 5 5 5 5 5 5 5 5 5 5 5 5 5 5 5 5 5 5 6 5 5 5 5 5 5 5 5 5 5 5 5 5 5 5 5 6 5 5 6 5 5 5 6 5 5 6 5 5 5 5 5 5 5 5 5 5 5 5 5 5 6 5 5 6 5 5 5 5 5 5 5 5 5 5 5 5 5 5 5 5 5 5 5 5 5 5 5 5 5 5 5 5 5 5 5 5 5 5 5 5 6 5 5 5 5 6 5 5 5 5 5 5 5 5 5 5 5 5 5 5 5 6 5 6 6 5 5 6 5 6 5 5 5 5 5 5 5 5 6 5 5 6 5 5 5 5 6 6 5 6 5 5 5 5 5 5 5 5 5 5 5 5 5 5 5 5 5 5 5 5 5 6 5 5 5 5 5 5 5 5 5 5 5 5 5 5 5 5 5 5 5 5 5 5 5 5 5 6 5 5 5 5 5 6 5 5 5 5 5 5 5 5 5 6 5 5 5 5 5 5 5 5 5 5 5 5 5 5 5 5 5 6 6 5 5 6 5 5 5 6 5 5 5 5 5 5 5 5 5 5 6 5 5 6 5 6 5 5 5 5 6 5 5 5 6 5 5 5 5 5 5 6 5 5 5 5 5 5 6 5 5 5 5 5 5 5 5 5 5 5 5 5 5 6 5 5 6 5 5 5 6 6 5 5 5 5 5 5 5 5 5 5 6 5 5 5 6 5 5 5 5 6 5 5 5 5 5 5 5 5 6 5 5 5 5 5 6 6 5 5 5 6 5 6 6 5 5 5 5 5 6 5 5 5 5 5 5 6 5 5 5 5 5 5 5 6 5 5 6 5 5 6 5 5 5 5 5 5 5 5 5 5 5 5 5 5 6 5 5 5 6 5 5 6 5 5 5 5 6 5 5 5 5 5 5 5 5 6 5 5 5 5 6 5 5 5 5 5 5 5 5 6 5 5 5 5 5 5 5 5 5 6 5 5 5 6 5 5 6 5 5 6 5 5 5 5 5 5 5 5 5 6 5 5 5 5 5 5 5 5 5 5 5 5 5 5 5 5 6 5 5 5 5 5 5 5 5 5 5 5 5 5 5 5 5 5 5 5 5 5 5 5 5 5 5 6 5 6 5 5 5 5 5 5 5 5 5 5 6 5 5 6 5 5 5 5 5 5 5 5 5 5 5 5 5 5 5 5 5 5 5 5 5 6 5 5 5 5 5 5 5 5 5 6 5 6 5 5 5 5 5 5 5 6 5 6 5 5 5 5 5 5 5 5 5 5 5 6 5 5 5 5 6 5 6 5 5 5 5 5 5 6 5 5 6 5 5 6 5 5 5 6 6 6 5 5 5 5 5 5 5 5 5 5 5 5 5 6 5 5 5 5 5 5 5 6 5 6 5 6 5 5 6 6 5 5 5 5 5 5 6 5 5 5 5 6 5 6 5 6 5 6 5 5 5 5 6 5 5 5 5 5 6 5 5 5 5 5 5 5 5 5 5 5 5 5 5 6 5 5 5 5 5 6 5 5 5 6 5 5 5 5 5 5 5 5 5 5 5 5 5 5 5 5 5 6 5 5 5 5 6 5 5 5 5 5 5 6 5 5 5 5 5 5 5 5 5 5 6 5 5 6 5 6 5 5 5 5 5 5 5 5 5 5 5 6 5 5 5 5 5 5 6 5 6 6 5 6 5 5 5 5 5 5 5 6 5 5 5 5 5 5 5 5 5 5 5 5 5 5 5 5 6 5 5 5 5 5 5 5 5 5 5 6 5 5 5 5 5 5 5 5 5 5 6 5 5 5 5 6 5 5 5 5 5 6 5 5 5 5 6 5 5 5 5 5 5 5 5 5 5 5 5 5 5 5 5 5 5 6 5 5 5 5 5 5 5 5 6 5 6 6 5 5 5 5 5 6 5 5 5 5 5 5 5 5 5 5 5 5 5 5 6 5 5 6 5 6 6 5 5 5 5 5 5 6 5 5 5 5 6 5 6 5 5 6 5 5 5 5 5 5 6 6 5 5 5 5 5 5 5 5 5 5 5 5 5 5 5 6 5 5 5 5 5 5 5 6 5 6 5 5 5 6 5 6 5 5 5 5 5 5 5 5 6 5 5 5 5 5 6 5 6 5 5 5 5 6 5 5 5 5 5 6 5 5 5 5 5 5 5 5 5 5 5 5 5 5 5 5 5 5 5 5 5 5 5 5 6 5 5 5 6 5 6 5 5 5 6 5 5 5 5 5 5 5 5 5 5 5 5 5 5 5 5 5 6 6 6 6 5 5 5 5 5 5 6 5 5 5 6 5 5 5 5 5 5 5 5 5 5 6 6 6 5 5 6 6 5 5 5 5 5 5 5 5 5 6 5 5 5 5 5 5 5 5 6 6 5 5 5 6 5 5 5 5 5 5 5 5 5 5 5 6 5 6 5 5 5 5 5 6 6 5 5 6 6 5 5 5 5 5 5 5 5 5 5 5 5 5 5 5 5 5 5 5 5 5 5 5 5 5 5 5 5 5 5 5 5 5 5 5 5 5 5 5 5 5 5 6 6 5 5 5 5 5 5 5 5 5 5 5 5 5 5 5 5 5 5 5 5 6 5 5 5 5 5 5 5 5 5 5 5 5 5 5 5 5 6 5 6 5 5 5 5 5 5 5 5 6 5 5 5 5 5 5 5 5 5 5 5 6 5 5 6 5 5 6 5 5 5 5 6 5 5 5 5 6 5 5 6 5 6 5 5 5 5 5 6 5 5 5 5 5 5 5 6 5 5 5 5 5 5 5 5 5 5 5 5 5 5 5 5 5 5 5 5 5 5 5 5 6 5 5 5 6 5 5 6 5 5 5 6 5 5 5 5 6 5 6 5 5 5 5 5 5 5 5 6 5 5 5 5 5 5 5 5 5 5 6 5 5 6 5 5 6 5 5 6 6 5 5 5 5 5 5 5 6 6 5 5 5 6 5 5 6 6 5 5 5 6 6 5 6 5 5 6 5 5 5 5 6 5 6 6 5 5 5 6 5 6 6 5 6 6 6 6 5 6 5 6 5 6 5 5 5 6 5 5 6 5 6 6 5 5 5 5 6 5 6 6 5 5 5 6 6 5 5 6 6 5 5 5 5 6 5 5 5 5 6 5 5 5 5 6 5 6 5 6 5 6 5 6 5 6 5 5 5 5 5 6 5 5 6 6 6 5 5 6 6 5 6 5 5 6 5 5 5 5 5 5 6 5 5 6 5 6 5 5 5 5 6 5 6 5 6 5 5 5 6 5 5 6 5 6 5 6 5 5 5 5 5 6 5 5 5 5 5 5 5 5 5 5 6 5 5 5 5 6 5 5 6 5 5 5 5 5 6 5 5 6 5 5 5 6 5 6 5 5 5 6 5 5 5 5 6 5 5 5 5 6 6 5 5 5 5 5 5 6 5 5 6 5 5 5 5 5 5 5 5 5 5 5 5 5 5 5 5 5 5 5 5 5 5 5 5 5 5 5 5 5 5 5 5 5 5 5 5 5 5 5 5 5 5 5 5 5 5 5 5 5 5 5 5 5 5 5 5 5 5 6 5 5 5 5 5 5 5 5 5 5 5 5 6 5 5 6 5 5 5 6 5 5 5 5 5 5 5 5 5 5 5 5 5 5 5 6 5 5 5 5 5 5 5 5 5 5 5 5 5 5 5 5 6 5 5 5 5 5 5 5 5 5 5 5 5 5 6 5 5 6 5 5 6 5 6 5 5 5 5 5 5 5 6 5 5 5 5 5 5 5 5 5 5 5 5 6 5 5 5 6 5 5 5 5 5 5 5 5 5 6 5 5 5 5 5 5 6 5 5 5 5 5 5 6 5 5 5 6 5 5 5 5 5 5 5 6 5 5 5 5 5 5 5 5 5 5 6 5 5 5 5 5 5 5 5 5 5 5 5 5 5 5 5 6 5 6 5 5 5 5 5 5 5 5 5 5 6 5 6 5 5 5 5 5 5 5 5 5 5 5 6 5 5 5 5 5 5 5 5 5 5 5 6 5 5 5 5 5 5 5 6 5 5 5 5 5 5 5 6 5 5 5 5 5 5 5 5 5 5 5 6 5 5 5 5 5 5 5 5 6 5 6 5 5 5 5 5 5 5 5 5 5 6 5 5 5 6 5 5 5 5 5 5 5 5 5 6 5 5 5 5 5 5 5 5 5 5 5 5 5 5 5 5 6 5 5 5 5 5 5 5 5 5 5 5 5 5 5 5 5 5 5 6 5 5 6 5 5 6 5 5 5 5 5 6 5 5 5 5 5 5 5 5 5 5 5 5 5 5 5 5 5 5 5 5 5 5 5 5 5 5 5 5 5 5 5 5 5 5 5 5 5 5 5 5 5 5 5 5 5 5 5 5 5 5 5 5 5 5 5 5 5 5 5 6 5 5 6 5 5 5 5 5 5 5 5 5 5 5 5 5 5 5 5 5 5 5 5 5 5 5 5 6 6 5 5 5 5 5 5 5 5 5 5 5 5 5 5 5 5 6 6 5 5 5 5 5 5 5 6 5 6 5 5 6 6 5 5 5 5 5 5 5 5 5 5 5 6 5 6 5 5 5 6 5 5 5 6 5 6 5 5 5 5 5 6 6 5 5 5 5 5 5 5 5 5 5 5 5 5 5 5 5 5 5 5 5 5 5 5 5 5 5 5 5 5 5 5 5 5 5 5 5 5 5 5 5 5 5 5 5 5 5 5 5 5 5 5 5 5 5 5 5 5 5 5 5 5 5 5 5 5 5 5 5 5 5 5 5 5 5 5 5 5 5 5 5 5 5 5 5 5 5 5 5 5 5 5 5 5 5 5 5 5 5 5 5 5 5 5 5 6 6 5 6 5 6 5 5 6 5 5 5 5 6 5 5 5 5 5 5 5 6 6 6 5 5 5 5 5 6 6 5 5 5 5 5 5 5 5 5 5 5 5 5 5 5 5 5 5 5 5 5 5 5 5 5 5 5 5 5 5 5 5 5 5 6 5 5 6 5 5 5 5 5 5 5 5 5 5 5 6 5 5 5 5 5 5 5 6 5 5 5 5 5 5 5 5 5 5 5 5 5 5 5 5 6 5 5 6 5 5 5 5 5 5 5 5 5 5 5 5 5 5 5 5 5 5 5 5 5 5 5 6 5 5 6 5 5 6 5 5 5 5 5 5 5 6 5 5 5 5 5 5 6 5 5 6 5 5 5 5 6 5 6 5 5 6 5 5 5 5 6 5 6 5 5 6 5 5 5 5 5 5 5 5 5 5 5 5 6 5 5 5 6 5 5 6 5 5 5 5 6 5 5 5 5 5 5 5 5 5 5 6 5 5 5 5 5 5 5 5 5 5 6 5 5 5 5 5 5 5 5 5 5 5 5 6 5 5 6 5 5 5 5 5 5 5 5 5 5 6 5 5 5 5 5 6 5 6 6 5 5 6 5 5 5 5 5 5 5 5 5 6 6 5 5 5 5 5 5 6 5 5 5 5 5 5 5 5 5 5 5 5 5 5 5 5 5 5 5 5 5 5 5 5 5 6 5 5 5 5 5 5 5 5 5 5 5 5 5 5 5 5 5 5 5 5 5 5 5 5 5 5 5 5 5 5 5 5 5 5 5 5 5 5 5 5 6 5 5 5 5 5 5 5 5 5 5 6 5 5 5 6 5 6 5 5 5 6 5 5 5 6 5 6 5 6 5 6 6 5 5 6 5 5 5 6 5 5 5 5 5 6 5 5 5 5 6 5 5 5 6 5 5 5 5 6 5 6 5 5 5 5 5 5 5 5 5 5 5 5 5 5 6 5 5 5 5 6 5 5 6 5 5 6 6 5 5 6 5 6 5 5 5 6 6 6 6 5 5 6 5 5 5 5 6 5 6 5 5 6 6 6 5 6 5 5 6 6 6 5 5 5 5 5 5 5 5 5 6 6 5 5 5 5 6 6 5 5 5 6 5 6 5 5 5 5 5 5 5 5 5 5 5 6 5 5 5 5 5 5 5 5 5 5 5 5 5 5 5 5 5 5 5 5 5 5 5 6 5 5 5 5 5 5 5 5 5 5 5 5 5 5 5 5 6 5 5 6 5 5 5 5 5 5 5 5 5 6 5 5 5 6 6 5 5 6 5 5 5 5 5 6 5 6 5 5 5 6 5 5 5 5 5 5 5 6 5 5 6 5 5 5 5 6 5 5 5 6 6 5 5 6 5 5 5 6 5 5 5 5 5 5 5 6 5 5 6 5 6 6 6 5 6 5 6 6 5 5 5 5 5 5 6 5 5 6 5 5 5 5 5 5 5 5 5 5 5 5 5 5 5 5 5 5 5 5 5 5 5 5 5 5 5 5 5 5 5 5 5 5 5 6 6 5 5 5 5 5 5 5 5 6 6 6 6 5 5 6 5 5 5 5 5 5 5 5 6 5 5 6 5 5 5 6 5 5 5 5 6 5 5 5 5 5 5 5 5 5 5 5 5 5 5 6 5 5 5 5 5 6 5 5 5 5 5 5 5 5 6 5 5 5 6 6 5 5 6 6 5 5 5 5 5 6 5 5 5 5 5 5 6 5 6 5 5 5 5 5 5 5 5 6 6 5 6 6 6 5 6 5 5 5 5 5 5 6 5 5 5 5 5 5 5 6 5 5 5 5 5 5 5 5 5 5 5 5 5 5 5 5 5 5 5 5 5 5 5 5 5 5 5 5 5 5 5 5 5 5 5 5 5 5 5 5 5 5 5 5 5 5 5 5 5 5 5 5 5 5 5 5 5 6 5 5 5 5 5 5 5 6 5 5 6 5 5 5 6 5 6 5 5 6 5 5 5 5 5 5 5 6 5 5 5 6 5 5 5 5 5 5 5 6 5 6 5 5 5 5 5 5 5 5 5 5 5 5 5 5 5 5 5 5 5 5 5 5 5 5 5 6 6 5 6 5 5 5 5 5 5 5 6 5 6 5 6 6 6 5 5 6 5 5 6 5 5 5 6 5 5 5 5 5 5 5 6 6 5 5 6 5 5 5 6 5 5 5 5 6 5 6 5 5 5 5 5 5 6 5 6 5 5 5 5 5 6 5 5 6 5 5 5 5 5 5 5 5 5 5 5 5 5 5 5 5 6 5 5 6 6 5 6 5 5 5 5 5 5 5 5 6 5 5 5 5 5 5 5 5 5 5 5 5 5 5 5 5 6 5 5 5 6 5 5 6 5 5 5 5 5 5 6 5 5 5 5 5 5 5 5 5 5 5 5 5 5 5 5 5 5 5 6 6 5 5 5 5 5 5 5 6 5 5 5 6 5 5 6 5 6 5 5 6 5 6 6 5 6 5 6 5 6 5 5 5 5 5 5 5 5 5 5 5 5 5 5 5 6 6 5 5 5 5 5 5 5 6 5 5 5 5 5 5 5 5 5 5 5 5 5 5 5 6 5 6 5 5 5 5 5 5 6 5 5 5 6 5 5 5 6 5 5 5 5 5 5 5 5 5 5 5 5 5 5 5 5 5 5 5 5 5 6 5 5 5 5 6 5 5 5 5 5 6 5 5 5 6 5 5 5 5 5 5 5 5 5 5 5 5 6 5 5 5 5 6 5 5 5 5 5 5 5 5 6 5 5 5 5 5 5 5 6 5 5 5 5 6 5 5 5 5 5 5 5 5 6 5 5 5 5 5 5 5 5 5 6 5 5 5 5 5 5 5 5 5 5 5 5 5 5 5 5 5 5 5 5 5 5 5 5 5 5 5 5 6 5 5 5 5 5 5 5 6 5 5 5 5 5 5 5 5 5 5 5 5 5 5 5 5 5 5 5 5 5 5 5 5 5 5 5 5 5 6 5 5 5 5 5 5 5 5 5 5 5 5 5 5 5 5 5 5 5 5 5 5 5 5 5 5 5 5 5 5 5 5 6 5 5 6 5 5 5 5 6 5 5 6 5 5 5 5 6 5 5 5 6 5 5 5 6 5 5 5 5 5 5 5 5 5 5 6 5 5 6 5 5 5 5 5 5 6 5 5 5 5 5 6 5 5 5 5 6 5 5 5 5 5 5 5 5 5 5 6 5 5 5 5 5 5 5 5 5 6 5 5 5 5 5 5 5 5 5 5 5 5 5 6 5 5 5 5 5 5 5 6 5 5 5 5 5 6 5 5 5 5 5 5 5 5 5 5 5 5 5 5 6 5 5 5 5 5 5 5 5 6 5 5 5 5 5 5 5 5 5 5 5 5 5 5 5 5 5 5 5 5 5 5 5 5 5 5 5 5 5 5 5 5 5 6 5 5 5 5 6 6 5 5 6 5 5 6 5 5 6 5 5 5 5 5 5 5 5 5 5 5 5 5 5 5 5 5 5 5 6 5 5 5 5 6 5 5 5 5 5 5 5 5 5 5 5 5 5 5 5 5 5 5 5 5 5 5 5 5 5 5 5 5 5 5 5 5 5 5 5 5 5 5 5 5 5 5 5 5 5 5 5 5 5 5 5 5 5 5 5 5 5 5 5 5 5 5 5 5 5 5 5 5 5 5 5 6 5 5 5 5 6 5 6 5 5 6 5 5 5 5 6 5 5 6 5 5 5 5 5 5 5 5 5 5 5 5 5 5 5 5 5 5 5 5 5 5 5 5 5 5 5 5 5 5 5 5 5 5 5 5 5 5 5 5 5 5 5 5 5 5 5 5 5 5 5 5 5 5 5 5 5 5 5 5 6 5 5 5 5 5 5 5 5 5 6 5 5 5 5 5 5 5 6 5 5 5 5 5 5 5 5 5 5 5 5 5 5 5 5 5 5 5 6 6 5 5 6 5 6 5 5 5 5 5 5 5 5 5 5 5 5 5 5 5 5 5 5 5 5 5 5 5 5 5 5 5 5 5 5 5 5 5 5 5 5 5 5 5 5 5 5 5 5 5 5 5 5 5 5 5 5 5 5 5 6 6 5 5 5 5 5 5 5 5 5 5 5 5 5 5 5 5 5 5 5 5 6 5 5 5 5 5 5 5 5 5 5 6 5 5 5 6 5 5 5 5 5 5 6 5 5 5 5 5 5 5 5 5 5 5 5 5 6 5 5 5 5 5 5 6 6 5 6 5 5 6 5 5 5 6 5 5 5 6 5 5 5 5 5 6 5 6 5 5 5 5 6 5 5 5 5 6 5 6 5 5 6 6 5 5 5 5 5 6 5 5 5 5 5 6 6 6 5 6 5 6 5 5 5 5 5 6 5 5 5 5 5 5 5 5 6 6 5 5 6 5 5 5 5 6 5 5 6 5 5 6 5 5 5 5 5 5 5 5 5 6 5 5 5 5 5 5 5 5 6 5 5 5 5 5 5 5 5 5 6 6 5 5 5 5 5 5 5 5 5 5 5 5 5 5 5 5 5 5 5 5 5 5 5 5 5 5 5 5 5 5 5 5 5 5 5 6 5 5 5 5 6 5 5 5 5 5 5 5 5 5 5 5 5 5 5 5 5 6 6 5 5 5 5 5 5 5 5 5 6 5 5 5 5 6 5 5 6 5 5 5 5 5 5 5 5 5 5 5 5 5 6 5 5 5 5 5 5 5 5 5 5 5 5 5 5 5 5 5 5 5 5 5 5 5 5 5 6 5 5 5 5 5 6 5 5 5 6 5 5 5 6 6 5 5 5 5 5 5 5 5 5 5 5 5 5 5 6 5 5 5 6 5 5 5 5 6 6 5 5 5 5 5 5 5 5 5 5 5 5 5 5 5 5 5 5 5 5 5 5 5 6 5 5 5 5 5 5 5 5 5 6 5 5 5 5 6 5 6 5 5 5 5 6 5 5 5 5 5 5 5 5 5 5 5 5 5 5 5 6 5 5 6 5 5 5 5 5 5 5 5 5 5 6 6 5 5 5 5 6 5 5 5 6 5 5 5 5 6 6 5 6 5 6 5 6 5 5 6 5 5 6 5 5 6 5 5 5 6 5 5 6 5 6 5 6 5 5 6 5 5 5 5 5 5 5 5 5 5 5 5 5 6 5 5 5 5 5 5 5 5 5 5 5 5 5 5 5 5 6 6 5 5 5 5 5 6 5 5 5 5 6 5 5 6 5 5 5 5 6 5 5 5 5 5 5 5 5 5 5 5 5 5 5 5 5 5 5 5 5 5 5 5 5 5 5 5 5 5 5 5 5 5 5 5 5 5 5 6 5 5 5 5 5 5 5 5 5 5 5 5 5 6 5 6 5 5 5 5 6 5 5 5 5 5 5 5 5 5 5 5 5 5 5 5 5 5 5 6 5 6 5 5 6 5 5 5 6 5 5 5 5 5 5 5 5 5 5 5 5 5 5 5 5 5 5 5 5 5 5 5 5 5 5 5 6 5 5 6 5 5 5 5 5 5 5 5 5 5 5 5 5 5 5 5 5 5 5 5 5 5 5 5 5 5 5 5 5 5 5 5 5 5 5 6 5 6 5 5 5 5 5 5 5 5 5 5 5 5 5 5 5 5 5 6 6 5 5 5 5 5 6 5 5 5 5 6 5 5 5 5 6 5 5 5 5 5 5 5 5 5 5 5 5 5 5 5 5 5 5 6 5 5 5 5 5 5 6 5 5 6 5 5 5 5 5 5 5 5 5 5 5 5 6 5 5 6 5 5 5 5 5 5 5 5 6 5 5 5 5 5 5 6 5 5 6 5 5 5 5 5 5 5 5 5 5 5 5 5 5 5 5 5 5 5 5 5 5 5 5 5 5 5 5 5 5 5 5 5 5 5 5 6 5 5 5 6 5 5 6 5 5 5 5 5 5 6 5 5 5 5 5 6 5 5 5 5 5 5 6 5 5 5 5 6 5 6 5 5 6 5 5 5 6 5 5 5 5 5 5 5 5 5 5 5 5 5 6 5 5 5 5 5 5 5 5 5 5 5 5 5 5 5 5 5 5 5 5 5 5 5 5 6 5 6 5 6 5 6 5 5 5 5 6 5 5 5 5 6 5 5 5 5 5 5 5 5 5 5 5 5 5 5 6 5 5 5 6 5 5 5 6 5 5 6 5 5 5 6 5 5 5 5 6 5 5 5 5 6 5 5 5 5 5 5 5 5 5 5 6 5 5 5 5 5 6 5 6 5 5 5 5 5 6 6 5 5 6 5 6 5 5 6 5 5 5 5 5 5 5 5 5 5 5 5 5 6 5 5 5 5 5 6 5 5 5 5 5 5 5 5 5 5 6 5 6 5 5 6 5 5 6 5 6 5 6 5 5 5 5 5 6 6 5 5 5 5 5 5 5 5 5 5 5 6 5 5 5 5 5 6 5 5 5 6 5 6 5 5 5 5 5 5 5 5 5 5 5 5 5 5 5 6 5 5 5 5 6 5 5 5 5 5 5 5 5 5 5 5 5 5 5 5 5 5 5 5 5 5 5 5 6 5 5 6 5 5 5 5 5 5 5 6 5 5 6 5 6 5 5 5 5 5 5 5 5 5 6 5 5 6 5 5 5 6 5 5 5 5 5 5 5 6 5 5 5 5 6 6 5 5 5 5 5 5 5 5 5 6 5 5 5 5 5 5 5 5 5 5 5 5 5 5 5 5 6 5 6 5 5 5 6 5 5 5 5 5 5 5 5 5 5 5 5 5 6 5 5 5 5 5 6 5 5 5 6 6 5 5 5 6 5 5 6 5 5 5 5 6 6 5 5 5 6 5 5 6 5 5 5 5 6 5 6 5 5 5 6 5 5 5 5 5 5 5 5 5 5 5 5 5 5 5 5 5 5 5 5 5 6 5 5 5 5 5 5 5 5 5 6 5 5 5 6 5 6 5 5 5 5 5 5 5 5 5 5 5 6 5 5 5 5 5 6 5 5 5 5 5 6 5 5 5 5 5 5 5 5 5 5 5 5 5 5 5 5 6 5 5 5 5 5 5 5 5 5 6 5 5 5 5 5 5 5 5 5 5 5 5 5 5 5 6 5 5 5 5 5 5 5 5 5 5 5 5 5 5 5 5 5 5 5 5 5 5 5 5 5 5 5 5 5 6 5 5 5 5 6 5 6 6 5 5 5 5 5 5 6 5 6 5 5 5 6 5 5 6 5 5 5 5 5 5 6 5 5 5 5 5 5 5 6 5 5 5 5 6 5 5 5 5 5 5 6 5 5 5 5 5 5 5 5 5 5 5 5 6 5 6 5 5 5 5 5 5 5 6 6 5 5 5 5 5 5 5 5 6 5 5 5 6 5 5 6 5 5 5 5 5 5 5 5 5 5 5 5 5 5 5 5 5 5 5 5 5 5 5 5 5 6 5 5 6 5 5 5 5 5 6 5 5 6 5 6 5 5 5 6 5 5 5 5 6 5 5 6 6 5 5 5 5 5 6 5 5 6 5 5 5 5 5 6 5 5 5 5 5 5 5 5 5 6 5 5 5 5 6 5 5 5 5 5 5 6 5 6 5 5 5 6 5 6 5 5 6 5 6 5 5 5 6 5 5 5 5 5 5 5 5 5 5 5 5 5 6 5 5 5 5 6 5 5 5 5 5 5 6 5 5 5 5 5 5 5 6 5 5 5 5 5 5 6 5 5 5 5 5 5 5 6 5 5 6 5 5 5 5 5 5 5 5 5 6 6 5 5 5 5 5 5 5 5 5 5 5 5 6 5 5 5 5 5 5 5 6 5 5 5 6 5 6 5 5 6 5 5 5 5 5 6 5 5 5 6 5 5 5 5 6 5 5 5 6 5 5 5 5 5 5 5 6 5 5 6 5 5 5 6 5 5 5 6 5 5 5 5 6 5 5 5 6 5 5 5 5 5 5 5 5 5 6 5 5 5 5 5 5 5 5 5 6 5 5 5 5 6 5 5 6 5 5 5 5 5 5 5 5 5 5 5 5 5 5 5 5 5 5 5 5 5 5 5 5 5 5 6 5 5 5 5 5 5 5 5 5 5 5 6 5 5 5 6 5 5 5 5 5 5 6 5 5 5 5 5 5 5 5 5 5 5 5 5 5 5 5 5 5 5 5 5 5 5 5 5 5 6 5 6 5 5 6 6 5 5 5 5 5 5 5 5 5 5 5 5 5 5 5 5 5 6 5 5 5 5 5 5 5 5 5 5 5 5 5 5 5 5 5 5 5 5 5 5 5 5 5 5 5 5 5 5 5 5 5 5 5 5 5 5 5 5 5 5 5 5 5 5 5 5 5 5 5 5 5 5 5 5 5 5 5 5 5 6 5 5 6 5 5 5 5 6 5 5 5 5 5 5 5 5 5 5 6 5 6 5 5 5 6 5 5 5 6 5 6 5 5 5 6 5 6 5 6 5 5 5 6 5 5 5 5 6 5 6 5 5 5 5 5 6 5 6 6 5 5 5 5 5 5 6 5 5 5 6 5 5 5 5 5 5 5 5 5 5 5 5 5 5 5 5 5 5 5 6 5 5 5 6 6 5 5 5 5 5 6 5 5 5 5 5 5 5 5 5 5 5 5 5 5 6 5 5 6 5 6 5 5 5 6 5 6 5 5 6 5 5 5 5 5 5 5 5 5 5 5 6 5 5 5 5 5 5 5 5 5 5 6 6 5 5 5 5 5 5 5 6 5 5 5 5 5 5 5 5 5 5 5 5 5 5 6 5 5 5 5 5 5 5 5 5 5 6 5 5 5 6 5 6 6 5 5 5 5 5 5 5 5 6 5 5 5 5 5 5 5 5 5 6 5 6 5 6 5 5 5 5 5 5 5 5 6 5 6 5 5 5 5 5 5 6 5 5 6 5 6 5 5 5 5 5 5 5 5 5 5 5 5 5 5 6 5 5 5 5 5 5 5 5 5 5 6 5 5 5 5 5 5 6 5 5 5 5 5 5 5 5 5 5 5 5 5 5 5 5 5 5 5 5 5 5 5 5 5 6 5 5 5 5 5 6 5 5 5 5 5 5 5 5 5 5 5 6 5 5 5 5 6 5 5 5 5 5 6 5 5 5 5 5 6 5 5 6 5 5 5 5 5 5 5 5 5 5 5 5 5 5 5 5 5 5 5 5 5 5 5 5 5 5 6 5 5 6 5 5 5 5 5 5 5 5 5 5 5 5 5 5 5 6 5 5 5 5 5 5 5 5 5 6 5 5 5 5 5 5 5 6 5 5 5 5 5 6 5 5 5 5 5 5 6 5 5 5 5 6 5 5 5 5 5 5 5 6 5 5 6 5 5 6 5 5 5 5 6 5 5 5 5 5 5 5 5 6 5 5 6 5 5 5 5 5 5 5 5 5 6 5 5 5 5 5 6 5 5 5 5 6 5 5 5 6 5 5 5 5 5 5 5 5 5 5 5 6 6 5 5 5 5 5 5 5 5 5 5 5 6 5 5 5 5 5 6 5 6 6 5 6 6 5 5 6 5 5 5 5 5 5 6 5 6 6 5 5 5 5 5 6 5 5 5 5 5 5 5 5 6 5 5 5 5 6 5 5 5 5 5 6 5 5 6 5 5 5 5 5 5 5 6 5 6 5 5 5 5 5 5 5 6 6 5 5 5 5 5 5 5 6 5 5 5 5 5 5 6 5 5 5 5 5 5 5 5 5 5 5 5 5 5 6 5 5 6 5 5 5 5 6 5 5 5 5 6 5 5 5 5 5 5 6 5 5 5 5 5 5 5 6 5 5 5 6 5 5 5 5 6 5 5 6 5 5 5 5 5 5 5 6 5 5 5 5 6 5 6 5 5 5 5 5 5 5 5 5 5 5 5 5 5 6 5 5 5 5 5 5 5 6 5 5 6 5 5 6 5 5 5 5 5 5 5 5 5 6 5 5 5 6 5 5 5 5 5 5 5 5 5 6 5 5 5 5 5 5 5 5 5 5 5 6 5 5 5 6 5 5 5 5 5 5 5 5 5 5 5 6 5 5 5 5 5 5 5 5 5 5 6 5 5 5 5 5 6 5 5 5 5 5 5 5 5 6 5 5 6 5 5 6 5 5 5 5 6 6 5 5 5 5 6 5 5 5 5 6 5 5 6 5 5 5 5 6 5 5 6 5 5 5 5 5 6 5 5 5 5 5 5 5 5 6 5 6 5 5 5 5 5 5 5 5 5 6 6 5 5 5 5 5 5 6 5 5 6 5 5 6 5 6 5 5 5 6 5 5 6 5 5 5 5 5 5 5 5 6 6 5 5 6 6 5 5 5 5 6 5 5 5 6 5 6 5 6 6 6 5 6 5 5 5 6 5 5 5 5 5 5 5 5 5 6 5 5 6 5 5 5 5 5 5 6 5 5 5 5 5 5 6 6 6 5 5 5 5 5 5 5 5 5 5 5 6 5 5 5 5 6 5 5 5 5 5 5 5 5 6 5 5 6 5 5 5 6 5 5 5 5 5 5 5 5 5 6 5 5 5 5 5 5 5 5 6 5 5 5 6 5 5 6 5 5 5 6 5 6 5 5 6 5 6 5 5 6 5 5 5 5 5 5 6 5 5 6 5 5 5 5 5 5 5 5 5 5 5 5 5 5 5 5 5 5 5 5 5 5 5 5 5 5 5 5 5 5 5 5 5 5 5 5 5 5 5 5 5 5 5 5 5 5 5 5 5 5 5 5 5 5 5 5 5 5 5 5 5 5 5 5 5 5 5 5 5 5 5 5 5 5 5 5 5 5 5 5 5 5 5 5 5 5 5 5 5 5 5 5 5 5 5 5 6 5 5 5 5 6 5 5 5 5 5 5 5 5 5 5 5 5 6 6 5 5 5 5 5 5 5 5 5 5 5 5 5 5 5 6 5 5 5 6 5 5 5 5 5 5 5 5 5 5 6 5 6 5 5 5 5 5 5 5 5 5 5 5 5 5 5 5 5 5 5 5 5 5 5 5 5 6 5 5 5 5 6 5 5 5 5 5 5 5 5 6 5 5 5 5 5 5 5 5 5 5 5 5 5 5 5 5 5 5 5 5 5 5 5 5 5 5 5 5 5 5 5 5 5 5 5 5 5 5 5 5 5 5 5 5 5 5 5 5 5 6 5 5 5 5 5 5 5 5 5 5 5 5 5 5 5 5 5 5 5 5 5 5 5 5 5 5 5 5 5 5 5 5 6 5 5 5 5 5 5 6 5 5 5 5 5 5 6 5 5 6 5 6 5 6 5 5 5 5 6 5 5 5 5 5 6 5 5 5 6 6 5 5 5 6 5 5 5 5 6 6 5 5 5 5 5 5 5 5 5 5 5 5 5 5 6 5 5 6 5 5 6 6 5 5 5 5 5 5 5 5 5 5 6 5 6 5 5 5 5 5 5 5 5 5 5 5 6 5 5 5 5 5 5 5 6 5 5 5 5 5 5 5 5 5 5 5 5 5 5 5 5 5 5 6 6 5 5 5 5 5 5 5 5 5 5 5 5 5 5 5 5 5 6 5 5 5 5 5 5 5 5 5 6 5 5 5 5 5 5 5 5 5 5 5 5 6 5 5 5 5 6 5 6 5 5 5 5 5 5 5 5 5 6 5 5 5 5 6 5 5 5 5 6 5 6 5 5 5 5 5 5 5 5 5 5 5 5 6 5 5 5 5 5 5 5 5 5 5 5 5 5 5 5 6 5 6 5 5 6 5 5 5 6 5 6 5 5 6 5 5 6 5 6 5 5 5 5 5 5 5 6 6 5 5 5 5 6 6 5 5 6 6 5 6 5 5 6 6 5 5 6 5 5 6 5 5 5 5 5 5 5 5 6 5 5 6 5 6 5 5 5 6 5 5 5 5 5 5 5 5 6 5 5 5 5 5 5 5 5 5 5 5 5 5 5 5 5 5 5 5 5 5 5 6 5 5 5 5 5 5 5 5 5 5 5 5 5 5 5 5 5 5 
</DataArray>
<DataArray type="Float64" Name="stress" NumberOfComponents="9" format="ascii">
683.26268370998696 918.97120748773887 0 918.97120748773887 -5493.9725258810722 0 0 0 0 -0.28027043558481857 453.88344358785253 0 453.88344358785253 -3051.9281325597331 0 0 0 0 -338.97730941873783 483.75761587087436 0 483.75761587087436 -1662.827997782384 0 0 0 0 -205.89425548033057 161.28860390254522 0 161.28860390254522 -2047.7825583464291 0 0 0 0 132.87572829385067 376.54993156919954 0 376.54993156919954 -1961.4396512189123 0 0 0 0 -240.21633353341534 615.12397580617835 0 615.12397580617835 -1515.7281019847287 0 0 0 0 -1.7745908076088242 0.48963264667600015 0 0.48963264667600015 -2.9376345056955557 0 0 0 0 -106.90020723880804 211.70391365798059 0 211.70391365798059 -893.43875383661361 0 0 0 0 -416.60157502437602 301.89667915891914 0 301.89667915891914 -1148.8512408126626 0 0 0 0 56.349584391405187 261.16096026705054 0 261.16096026705054 -1136.7199683264043 0 0 0 0 -0.71277904201912845 0.53118996561971699 0 0.53118996561971699 -2.2896086599649408 0 0 0 0 -367.47517269841182 1633.7004413346513 0 1633.7004413346513 -301.91828254345455 0 0 0 0 -63.720188218468138 108.15414470141695 0 108.15414470141695 -1042.5693349847279 0 0 0 0 -425.10006599445251 384.97818987334904 0 384.97818987334904 1761.2651620334655 0 0 0 0 -2.0912822990039004 5.4864804847479434 0 5.4864804847479434 0.44944629997138463 0 0 0 0 -217.79470981349851 2032.7310446840493 0 2032.7310446840493 -3229.2132783940051 0 0 0 0 121.70785153452161 939.28413176151662 0 939.28413176151662 -3274.420687851205 0 0 0 0 -192.72974828550963 2308.6171493278234 0 2308.6171493278234 -4573.7825263141276 0 0 0 0 -114.18931170919294 2887.7415729747154 0 2887.7415729747154 -5937.3879516984052 0 0 0 0 -1455.6685775409178 1310.1970054202102 0 1310.1970054202102 -5499.6253147268908 0 0 0 0 -2193.2908767184213 799.6855440920117 0 799.6855440920117 -291.11423531881883 0 0 0 0 -11.509461114411852 13.876330577545019 0 13.876330577545019 -9.4707559420709799 0 0 0 0 6.8707298985822201 16.329272262473921 0 16.329272262473921 -10.580878702901202 0 0 0 0 101.03318032262359 253.15979072955088 0 253.15979072955088 244.06421178704477 0 0 0 0 444.48356672684923 -198.04458199553119 0 -198.04458199553119 -5756.1099502188881 0 0 0 0 -3081.4956177451518 -2611.1264673987316 0 -2611.1264673987316 -2246.4139684967085 0 0 0 0 -1144.8250240346979 1673.9845596157102 0 1673.9845596157102 -2531.0806915940775 0 0 0 0 -1.2382942633722127 1.720193391038066 0 1.720193391038066 -12.116156933734473 0 0 0 0 -8.2982551120183174 -6.4564810610060874 0 -6.4564810610060874 -17.20537483220761 0 0 0 0 5.8623721211442898 19.713587958016433 0 19.713587958016433 -57.81867107700964 0 0 0 0 -7.8710396096221054 6.036742608805838 0 6.036742608805838 -28.5603594135858 0 0 0 0 -0.69883325230290794 23.042682158958172 0 23.042682158958172 -51.46443698949497 0 0 0 0 22.651937858598103 -43.660681325829501 0 -43.660681325829501 -726.69873473023472 0 0 0 0 0.70402346279805705 -0.39361630752953403 0 -0.39361630752953403 -78.095316079248505 0 0 0 0 -331.27377373670652 229.42457143940192 0 229.42457143940192 12.018314408211154 0 0 0 0 -628.57584391920943 802.45053029501287 0 802.45053029501287 -151.5109151477518 0 0 0 0 31.533661149224827 466.38192578268354 0 466.38192578268354 -232.46977050413989 0 0 0 0 13.664566217246151 44.562284173895023 0 44.562284173895023 -119.71478260871982 0 0 0 0 85.799147394021929 187.02912614640081 0 187.02912614640081 -35.431778995145578 0 0 0 0 413.79314401808733 61.952204877652548 0 61.952204877652548 -187.04531916076667 0 0 0 0 3.8439040210628317 16.634633662078343 0 16.634633662078343 -8.8404165017907985 0 0 0 0 -578.64036334616276 567.11956500089582 0 567.11956500089582 -490.43014035397209 0 0 0 0 -1622.2226452790896 89.576778987830039 0 89.576778987830039 -691.51665681148006 0 0 0 0 212.51988293955969 345.91437742229755 0 345.91437742229755 -644.98042340784741 0 0 0 0 -67.738819122976565 207.22497284928977 0 207.22497284928977 -404.53435249975882 0 0 0 0 24.716910587887696 -138.07936642432469 0 -138.07936642432469 -1407.1919188429893 0 0 0 0 -552.8995546032728 812.34456541688996 0 812.34456541688996 -1134.1813538229617 0 0 0 0 185.51095488000476 262.9213536281859 0 262.9213536281859 37.145055522065377 0 0 0 0 1.0500980823476409 0.29366819307324477 0 0.29366819307324477 -1.2793792476484214 0 0 0 0 276.34075015028077 690.86788468442683 0 690.86788468442683 -262.43573455727892 0 0 0 0 441.92635101150893 341.16894669028989 0 341.16894669028989 -869.20571252603258 0 0 0 0 203.05584946965746 83.427124095862382 0 83.427124095862382 -932.79255388957972 0 0 0 0 20.163948037683667 64.738808670692379 0 64.738808670692379 -883.93027782192803 0 0 0 0 71.181434669194346 72.347538464426179 0 72.347538464426179 -833.88968957478937 0 0 0 0 167.57316344473475 101.87829365087964 0 101.87829365087964 -888.65731353401497 0 0 0 0 56.250584627089665 251.23260988078255 0 251.23260988078255 -877.87628110130663 0 0 0 0 4.3210309066807895 48.723603020400333 0 48.723603020400333 -41.600579492107499 0 0 0 0 19.691339047051727 -10.797762601544036 0 -10.797762601544036 -5.7787404255157924 0 0 0 0 -20.294604119380722 -48.868034555259328 0 -48.868034555259328 28.844325624100748 0 0 0 0 -5.2905364100374754 1.302071173377044 0 1.302071173377044 -436.8816083073616 0 0 0 0 -11.271320592118837 -34.276570593449748 0 -34.276570593449748 -42.531395428081069 0 0 0 0 -378.00471830761353 450.3349950734555 0 450.3349950734555 -579.39867405046243 0 0 0 0 23.05418591343205 -6.962751509408065 0 -6.962751509408065 -15.819703812689227 0 0 0 0 595.09661670876858 463.2025454290997 0 463.2025454290997 -1332.9404947192597 0 0 0 0 6.8307272285325737 -5.0301901092949208 0 -5.0301901092949208 -19.84812425368591 0 0 0 0 0.75065708239162632 4.0195634370320477 0 4.0195634370320477 23.934518882917473 0 0 0 0 16.542257670587468 7.2440463728106295 0 7.2440463728106295 -63.537296156886555 0 0 0 0 51.025907259976293 46.47796147058034 0 46.47796147058034 -65.892466328237788 0 0 0 0 43.874906615099462 19.498382972204126 0 19.498382972204126 -59.985764116383507 0 0 0 0 18.858512381626497 82.425039021880366 0 82.425039021880366 -170.04341518707224 0 0 0 0 8.8373496926236612 9.7613809658623722 0 9.7613809658623722 -79.961237771974993 0 0 0 0 64.357801401704819 -25.967901092823013 0 -25.967901092823013 -420.16216043620079 0 0 0 0 50.607883249576162 -62.79029692533004 0 -62.79029692533004 -1.5940402299020207 0 0 0 0 67.992319038311507 -68.540196448957431 0 -68.540196448957431 -142.74227875966426 0 0 0 0 -0.68432652870251331 2.5034544483933132 0 2.5034544483933132 -50.896703804042772 0 0 0 0 -78.185917500747792 3.7826502260104462 0 3.7826502260104462 -44.370801543031121 0 0 0 0 -56.556758137809084 46.12549818851403 0 46.12549818851403 -97.363561194375507 0 0 0 0 -18.871427545179358 53.097169891487283 0 53.097169891487283 -301.59651592283626 0 0 0 0 -1.4845258681025371 43.088141057829489 0 43.088141057829489 -302.75165473163179 0 0 0 0 -61.551241994395696 120.44681471492368 0 120.44681471492368 -274.81238164792012 0 0 0 0 -72.152616574876447 -21.58973951832013 0 -21.58973951832013 59.119620830446365 0 0 0 0 117.78317796020383 -65.43545138452464 0 -65.43545138452464 -70.70520532237424 0 0 0 0 11.305709143224249 -76.927753745250811 0 -76.927753745250811 -28.750817813743197 0 0 0 0 1.2536695681989762 9.6117558454304231 0 9.6117558454304231 -39.733904141972118 0 0 0 0 362.68967290974842 445.16052102447429 0 445.16052102447429 -354.34190334939922 0 0 0 0 152.59228982880404 -16.859881111362483 0 -16.859881111362483 -64.500395251612645 0 0 0 0 -789.09233963240661 1029.3778335599927 0 1029.3778335599927 -594.05383709786406 0 0 0 0 141.89401579000412 222.98852501202782 0 222.98852501202782 -1280.4945225629854 0 0 0 0 -476.27523619988028 -547.21253013152455 0 -547.21253013152455 -507.35545078443829 0 0 0 0 0.7476402451785148 44.800375180086121 0 44.800375180086121 -525.33296181251353 0 0 0 0 145.30990028468005 168.80859516320197 0 168.80859516320197 -421.14726446282293 0 0 0 0 -23.09359461959157 -346.51763921062229 0 -346.51763921062229 218.54225122003118 0 0 0 0 0.33720073165593184 0.62399001182296843 0 0.62399001182296843 0.54795183271505721 0 0 0 0 -281.60958044970141 -190.91432656536927 0 -190.91432656536927 649.00717704489944 0 0 0 0 73.956179908048711 -40.205040837437991 0 -40.205040837437991 -178.07583867042558 0 0 0 0 3.7306172876224806 4.3487687582545504 0 4.3487687582545504 -7.4215936610918902 0 0 0 0 2.7573196128470254 -1.1366412805739543 0 -1.1366412805739543 -5.8782331011792621 0 0 0 0 -184.81118265256532 465.82000322591921 0 465.82000322591921 -626.29248101942358 0 0 0 0 46.581400775586616 -89.992832003748845 0 -89.992832003748845 -78.842143637331901 0 0 0 0 -44.678385948165165 306.70972855062791 0 306.70972855062791 -767.2553205442382 0 0 0 0 -0.1708413389605824 -70.425293368753046 0 -70.425293368753046 -170.52052639955946 0 0 0 0 -0.36768349309556614 -50.003417901272769 0 -50.003417901272769 -805.97074283305665 0 0 0 0 244.22972083382376 50.668009580971557 0 50.668009580971557 -1382.317104028014 0 0 0 0 -130.79106405811473 155.01947933758493 0 155.01947933758493 -1410.044333111211 0 0 0 0 92.385811986541853 72.637243009157828 0 72.637243009157828 -1238.7829342316545 0 0 0 0 -95.94586323169051 291.83454692800842 0 291.83454692800842 -1117.7410517664102 0 0 0 0 129.78302351977391 145.24418339172553 0 145.24418339172553 -899.82806468720901 0 0 0 0 -6.2240503206271001 120.94294067785449 0 120.94294067785449 -604.88848746547592 0 0 0 0 -141.04933990694735 -209.43267421922064 0 -209.43267421922064 -400.10644394393603 0 0 0 0 17.493530509515992 -11.107041984713646 0 -11.107041984713646 -12.832876441622972 0 0 0 0 68.265798423370597 -31.588775265088771 0 -31.588775265088771 -21.459488244247041 0 0 0 0 3.0436985649741928 -290.25935840947204 0 -290.25935840947204 -919.07540997167234 0 0 0 0 -84.864733907305407 -30.331081634372822 0 -30.331081634372822 -34.143769771122606 0 0 0 0 -106.5734679322922 13.56267431433298 0 13.56267431433298 -66.474243460179423 0 0 0 0 177.87722380834424 -561.53223494058147 0 -561.53223494058147 -827.34184858860681 0 0 0 0 -1.5328055582638014 -19.047009611300822 0 -19.047009611300822 -45.573381573180541 0 0 0 0 82.229938800244895 753.28015492869235 0 753.28015492869235 -2941.7870796219795 0 0 0 0 -406.73842981864766 733.55115213151294 0 733.55115213151294 -557.42605231690959 0 0 0 0 1.7373410830549698 -11.485791508991085 0 -11.485791508991085 -39.787670917677502 0 0 0 0 -80.805537239402611 624.30224483421625 0 624.30224483421625 -2074.6924467830395 0 0 0 0 -1507.1729302861679 2076.4451280699941 0 2076.4451280699941 -2169.2082587712939 0 0 0 0 87.588646692663318 2218.4852565164911 0 2218.4852565164911 -5500.4077025473525 0 0 0 0 -483.98876933062854 1831.4273739626005 0 1831.4273739626005 -4513.1657073272509 0 0 0 0 772.26179304040409 1193.5396786464553 0 1193.5396786464553 -4465.4962391627851 0 0 0 0 682.97867343647988 1271.7950930193692 0 1271.7950930193692 -4186.0418649769417 0 0 0 0 343.78450141471046 315.29924341214064 0 315.29924341214064 -3300.3568512719648 0 0 0 0 389.17589190981789 564.24794540171024 0 564.24794540171024 -4404.7319418229163 0 0 0 0 865.02095787126359 731.67369299745769 0 731.67369299745769 -5499.3152247441176 0 0 0 0 320.24980857632374 451.07166877866257 0 451.07166877866257 -4473.7965781385865 0 0 0 0 235.78471740818065 108.82127269466127 0 108.82127269466127 -5498.1510695786637 0 0 0 0 -97.056481548820045 -394.32856800881564 0 -394.32856800881564 -2811.3494313619449 0 0 0 0 -108.21001166512778 -233.25599521725644 0 -233.25599521725644 -4483.2344198900391 0 0 0 0 -465.71264608137284 414.60100305243395 0 414.60100305243395 -1154.7824673903961 0 0 0 0 -548.0594503378162 -246.59497963740432 0 -246.59497963740432 -1032.163521660651 0 0 0 0 -193.26265817989795 428.67397057191192 0 428.67397057191192 -13.391245645529125 0 0 0 0 -1110.1288507574288 126.40491206126171 0 126.40491206126171 233.17098284355598 0 0 0 0 139.51753043248914 -206.88124827968932 0 -206.88124827968932 -160.13293355867791 0 0 0 0 -874.89954805592333 324.26090315149122 0 324.26090315149122 -189.28311325730465 0 0 0 0 -0.12277897668220392 -4.9459887534163514 0 -4.9459887534163514 -47.017121547167505 0 0 0 0 -564.89865150502669 -285.47620244541758 0 -285.47620244541758 261.93811977659061 0 0 0 0 -546.14701166746806 332.54296808328922 0 332.54296808328922 -416.0979265581409 0 0 0 0 297.09944453090696 -228.23417067946139 0 -228.23417067946139 -86.576007016250514 0 0 0 0 -1348.1266024481679 -1383.9243717560894 0 -1383.9243717560894 -1267.7370404298999 0 0 0 0 -174.57649223151793 1022.4135748476692 0 1022.4135748476692 -1600.932021841727 0 0 0 0 -1.070017000113092 -2.5820752320803146 0 -2.5820752320803146 -20.958157314585321 0 0 0 0 -884.04233407980246 -142.88368813200213 0 -142.88368813200213 -4363.9740572022674 0 0 0 0 -474.1154094654338 -1143.347982985104 0 -1143.347982985104 -4205.2510961274966 0 0 0 0 299.81747538490146 -1086.3263753601168 0 -1086.3263753601168 -5500.9456342878402 0 0 0 0 -78.520039072489425 100.3423701149768 0 100.3423701149768 -1703.7237979594793 0 0 0 0 190.75642418883078 -323.73799408798368 0 -323.73799408798368 -4652.6266764758475 0 0 0 0 4.7834080214056769 -495.31866345101298 0 -495.31866345101298 -3705.888154815385 0 0 0 0 -349.13455907221748 -333.34478798845521 0 -333.34478798845521 -1148.8034760843439 0 0 0 0 115.89703585336682 -1368.9309693119339 0 -1368.9309693119339 -3306.395224149921 0 0 0 0 99.556632977543742 -1461.2880565367668 0 -1461.2880565367668 -3807.9547311810384 0 0 0 0 -368.8039543370632 -2852.4892180353927 0 -2852.4892180353927 -5490.9240353808054 0 0 0 0 -958.99349327707591 -352.84856767525343 0 -352.84856767525343 -421.39495718976832 0 0 0 0 -763.46323885441825 -1356.0819777568759 0 -1356.0819777568759 -3032.2689459136964 0 0 0 0 -358.24593260939764 315.75025175904011 0 315.75025175904011 -184.9979149215942 0 0 0 0 58.936410914359854 330.76918647295861 0 330.76918647295861 -993.85386631579604 0 0 0 0 -134.24998653286241 52.473902725374501 0 52.473902725374501 -1260.2901982708536 0 0 0 0 -205.84097725387932 -130.86792521893221 0 -130.86792521893221 -1557.5284310837014 0 0 0 0 -382.56194090631874 203.41226599469337 0 203.41226599469337 -507.83290975994896 0 0 0 0 175.84824299917818 324.35280879805214 0 324.35280879805214 -528.22767288249452 0 0 0 0 -456.61187668710159 341.16087323120155 0 341.16087323120155 -144.11961477456498 0 0 0 0 -182.30372606184176 -44.383052902034251 0 -44.383052902034251 142.42730727375329 0 0 0 0 -329.98207994852908 125.248668245913 0 125.248668245913 320.18133414002659 0 0 0 0 -444.66449720090452 -41.820193386767642 0 -41.820193386767642 142.42859296948882 0 0 0 0 -29.624358336629484 -23.32145023868361 0 -23.32145023868361 121.51651567647059 0 0 0 0 131.55460161735903 570.86190521870958 0 570.86190521870958 566.20302775379969 0 0 0 0 5.7507293602414835 -3.3251092445260042 0 -3.3251092445260042 -37.931842762394012 0 0 0 0 -56.602477157650355 180.66762678025407 0 180.66762678025407 -72.341539380417089 0 0 0 0 13.7093728140163 46.36343943942083 0 46.36343943942083 -116.28371231786446 0 0 0 0 38.395335378017762 665.37756761419587 0 665.37756761419587 -148.29391255683731 0 0 0 0 -14.862865720279274 -16.375070975780545 0 -16.375070975780545 -102.39523155616553 0 0 0 0 163.30451263168277 97.618083932815352 0 97.618083932815352 -82.437651238335093 0 0 0 0 3.1576191462976757 18.184581216874932 0 18.184581216874932 -59.898066929069159 0 0 0 0 -17.435050893470986 206.32522146955307 0 206.32522146955307 198.39218745638209 0 0 0 0 -20.664174934415996 -8.6371570366027299 0 -8.6371570366027299 -84.723615725175478 0 0 0 0 -18.936205118473083 -22.543885488314118 0 -22.543885488314118 -97.092566067040025 0 0 0 0 11.393623293061617 10.561701573168165 0 10.561701573168165 -70.817598899997222 0 0 0 0 -4.2090376091114194 -4.9653846005166997 0 -4.9653846005166997 -89.793316740891896 0 0 0 0 45.735946040374529 4.7141775972704636 0 4.7141775972704636 -130.73926043351821 0 0 0 0 40.371147544312635 -27.898446135401173 0 -27.898446135401173 -112.50810420546622 0 0 0 0 3.2752539696901657 0.067944158186236336 0 0.067944158186236336 -33.43116504321884 0 0 0 0 14.324744917862805 26.300816491021763 0 26.300816491021763 -120.23524150407513 0 0 0 0 -33.104128992466485 354.94361367917736 0 354.94361367917736 -763.69075999316556 0 0 0 0 107.76494345324772 340.82505670530372 0 340.82505670530372 -764.60635470620764 0 0 0 0 -10.101763236645443 -31.215998118591017 0 -31.215998118591017 -70.238858343232977 0 0 0 0 -32.491270576997749 -20.424774204115238 0 -20.424774204115238 -83.584001258190256 0 0 0 0 -6.5122914662347284 -22.683158140393971 0 -22.683158140393971 -92.122190336231142 0 0 0 0 -29.092134659807925 -29.831867615474039 0 -29.831867615474039 -113.75796044922026 0 0 0 0 -50.344281961729926 -196.38539038813113 0 -196.38539038813113 -624.10204238572624 0 0 0 0 -22.263704931078781 -37.882919510198576 0 -37.882919510198576 -47.841515595663907 0 0 0 0 21.557988202700471 357.66446962760529 0 357.66446962760529 -857.81661048306341 0 0 0 0 -431.01150726710966 653.8679440888809 0 653.8679440888809 -805.04061858066416 0 0 0 0 -806.56776142922354 -260.5104258435822 0 -260.5104258435822 -784.27628442185232 0 0 0 0 43.195874266621786 323.64252393287461 0 323.64252393287461 -1435.9848310532107 0 0 0 0 -1080.2587454694522 742.05916363421795 0 742.05916363421795 -496.8134752518672 0 0 0 0 -7.102845682470444 -4.5403155426615598 0 -4.5403155426615598 -20.014722139899533 0 0 0 0 -489.16425934969993 -254.62907025491586 0 -254.62907025491586 -162.48510684538633 0 0 0 0 -1076.6187857719688 109.12491515479633 0 109.12491515479633 -11.501564621750731 0 0 0 0 -50.395894751586489 -156.9565293925499 0 -156.9565293925499 -1327.2811659539875 0 0 0 0 -71.936612802963282 -196.02318257984007 0 -196.02318257984007 -273.01774479221785 0 0 0 0 -0.43527658249115331 -9.1895835860963437 0 -9.1895835860963437 1.022300848335135 0 0 0 0 -37.523411030064324 51.835243290232029 0 51.835243290232029 -113.73323187511414 0 0 0 0 3.5483710846570253 -8.6633651212790994 0 -8.6633651212790994 -65.142869109190713 0 0 0 0 -548.10922290849021 538.81151346887236 0 538.81151346887236 90.129243809496984 0 0 0 0 -681.63751735383084 134.45818254667392 0 134.45818254667392 -94.188127550136414 0 0 0 0 0.0054680510376651226 -3.8612620455949132 0 -3.8612620455949132 -48.339673507067459 0 0 0 0 17.42224040535757 368.29794905817835 0 368.29794905817835 -649.93708182906266 0 0 0 0 169.52158831180714 53.925060066925653 0 53.925060066925653 -43.737104902647843 0 0 0 0 31.261408263932765 -38.779606015821628 0 -38.779606015821628 -13.652616245934041 0 0 0 0 6.1727277111514347 1.2200136217547879 0 1.2200136217547879 -13.894563276324703 0 0 0 0 -6.8459480475315786 5.8782748261364759 0 5.8782748261364759 -57.157519025538932 0 0 0 0 4.1929262064254544 -26.47267233216553 0 -26.47267233216553 -13.840601196250645 0 0 0 0 7.4922856678031549 12.076234746998722 0 12.076234746998722 -53.154348930628885 0 0 0 0 -39.631795882772963 11.337323741958244 0 11.337323741958244 -27.543557142016653 0 0 0 0 -8.0796414668577086 -43.285087244876195 0 -43.285087244876195 56.323010511317989 0 0 0 0 -43.206601486873907 49.54342762669512 0 49.54342762669512 49.188871133286739 0 0 0 0 -137.62019787600798 -0.11187537002115278 0 -0.11187537002115278 186.04014699638356 0 0 0 0 -135.4853751430434 -72.654946755811807 0 -72.654946755811807 54.99115179371438 0 0 0 0 -1277.8614239150468 -618.76732958116918 0 -618.76732958116918 278.53899333410664 0 0 0 0 -1354.6270842672675 1162.3764064018178 0 1162.3764064018178 -880.54562609633285 0 0 0 0 -530.01202411651116 549.33048346908981 0 549.33048346908981 -118.96423886184493 0 0 0 0 -1394.2121989643019 273.77228035295411 0 273.77228035295411 217.51465142336747 0 0 0 0 -72.131925822611578 -381.52350145691162 0 -381.52350145691162 19.904555381758428 0 0 0 0 -6.7680068492456709 -15.932643657030127 0 -15.932643657030127 -46.469074478842657 0 0 0 0 -78.548146378379897 -108.50035511504393 0 -108.50035511504393 -245.6638011886098 0 0 0 0 244.44340623772587 -292.06588998014922 0 -292.06588998014922 -141.85931775596691 0 0 0 0 -3.2831029574449744 4.2493477107623505 0 4.2493477107623505 -4.0857120655690267 0 0 0 0 184.26032078708613 -50.908129307335912 0 -50.908129307335912 -317.93446259445045 0 0 0 0 -66.936297519155232 -79.228388095511036 0 -79.228388095511036 -471.47353365292656 0 0 0 0 73.838297711568885 18.305035329947714 0 18.305035329947714 -356.25878394037136 0 0 0 0 -115.40686886370167 -139.33788172944332 0 -139.33788172944332 -422.64091250073398 0 0 0 0 -23.44731405130824 -292.73677807180502 0 -292.73677807180502 -510.38380484172376 0 0 0 0 -124.15066382570876 -107.73276554534095 0 -107.73276554534095 -490.12117675499758 0 0 0 0 -374.34047152388666 -409.92059195878392 0 -409.92059195878392 -459.45158274026471 0 0 0 0 -14.892017526174882 1.6455522054551182 0 1.6455522054551182 -9.1693031106847798 0 0 0 0 -786.20327217529484 -790.31480290164473 0 -790.31480290164473 -822.40721312673122 0 0 0 0 -195.82528125470708 -429.69314093486173 0 -429.69314093486173 -1182.3986717122461 0 0 0 0 -664.0480963305954 -252.18480179105245 0 -252.18480179105245 -290.0838432284072 0 0 0 0 -749.79527615714233 -371.53878912622895 0 -371.53878912622895 -235.1852742038609 0 0 0 0 -1433.7717964555886 -784.67729041732673 0 -784.67729041732673 -267.83139068706078 0 0 0 0 -1698.7762502735707 -620.73827734787483 0 -620.73827734787483 381.19780031824484 0 0 0 0 -1522.6617600776735 137.98314412917534 0 137.98314412917534 595.47764786050539 0 0 0 0 -1297.0716849995169 -214.44658164712018 0 -214.44658164712018 -60.081289922833093 0 0 0 0 -1232.812378647639 -148.84324493656459 0 -148.84324493656459 -109.14547348258202 0 0 0 0 -891.00516303703444 330.60045556019759 0 330.60045556019759 -21.84946712567762 0 0 0 0 -881.30429298389026 363.30888941910234 0 363.30888941910234 -503.490199013846 0 0 0 0 -688.78099785081395 20.887995908618905 0 20.887995908618905 -60.423958706756821 0 0 0 0 -647.95062217613395 -178.1407226500578 0 -178.1407226500578 -330.44093172857538 0 0 0 0 -217.46092990275974 51.041259008161433 0 51.041259008161433 -707.07115322303434 0 0 0 0 -408.45079104338674 396.87423588869569 0 396.87423588869569 -1332.0879849705962 0 0 0 0 -122.60642655259653 -142.47598467389616 0 -142.47598467389616 -724.05078834051528 0 0 0 0 -282.48695439923813 -119.47493080201639 0 -119.47493080201639 -585.86489389144117 0 0 0 0 -307.64737123104896 -91.112438678508624 0 -91.112438678508624 -598.30373817305372 0 0 0 0 -183.74347946582134 -221.4897533006606 0 -221.4897533006606 -525.04096386418678 0 0 0 0 -172.3290768387028 -138.12253563383092 0 -138.12253563383092 -437.72543893480906 0 0 0 0 -195.69724375949681 -218.72471608721753 0 -218.72471608721753 -302.39426397440548 0 0 0 0 -26.351188614404638 -18.579343489459287 0 -18.579343489459287 -67.161378420013648 0 0 0 0 -98.676838909601429 -198.05306733732868 0 -198.05306733732868 -635.53266151741263 0 0 0 0 -22.737024737103742 -40.924882677810871 0 -40.924882677810871 -78.764518956850964 0 0 0 0 -88.266946505213127 -210.17826541380782 0 -210.17826541380782 -633.54539891145123 0 0 0 0 -200.14418449273217 -586.58443223406357 0 -586.58443223406357 -1225.8302100689034 0 0 0 0 -165.85272754219477 -335.4526497943516 0 -335.4526497943516 -359.64848421490751 0 0 0 0 -134.96205978998114 -369.22903658899304 0 -369.22903658899304 -503.36670545318339 0 0 0 0 -225.61648607086681 -786.88959874751163 0 -786.88959874751163 -460.57064316111064 0 0 0 0 15.218079650538058 -7.3206466243748451 0 -7.3206466243748451 -29.690942095655132 0 0 0 0 -178.40013169800659 -315.87847691766365 0 -315.87847691766365 -327.4275964256085 0 0 0 0 -127.66763878528218 -333.89666524345375 0 -333.89666524345375 -407.72588187170913 0 0 0 0 -68.658518339262628 -245.64572189306455 0 -245.64572189306455 -341.51736169522337 0 0 0 0 -168.8308227446214 -243.02831590044661 0 -243.02831590044661 -153.91376320965719 0 0 0 0 -39.717308644339937 -56.085407516518899 0 -56.085407516518899 -367.64759534857058 0 0 0 0 -108.45337285148707 -3.2214760969509371 0 -3.2214760969509371 78.277414118405432 0 0 0 0 -108.57032859011088 -336.80856853953446 0 -336.80856853953446 -400.59602032434486 0 0 0 0 -54.370255556314078 87.71369938591306 0 87.71369938591306 72.454344928039063 0 0 0 0 -48.004259172337129 39.790581866726498 0 39.790581866726498 -32.478733446358618 0 0 0 0 -147.52119579327336 52.507025660066574 0 52.507025660066574 -124.5786195902765 0 0 0 0 -229.33920444834257 -75.82407803746537 0 -75.82407803746537 -125.30287719446642 0 0 0 0 -58.616049625804635 4.380799747283163 0 4.380799747283163 -74.866631271768711 0 0 0 0 -37.843553153552158 24.579084381208929 0 24.579084381208929 -27.540190926557983 0 0 0 0 -58.239620713621065 17.936201862766211 0 17.936201862766211 -69.535947195501649 0 0 0 0 -51.011461620532373 3.7677370961537235 0 3.7677370961537235 -76.30351201792655 0 0 0 0 -19.178317480545793 -17.112756560956388 0 -17.112756560956388 -78.248242966663696 0 0 0 0 -74.836868379210046 14.41578725556974 0 14.41578725556974 -68.759075495974685 0 0 0 0 503.01005535853983 40.369453699786391 0 40.369453699786391 -849.57312982244184 0 0 0 0 -11.765346869218774 5.6499369945158833 0 5.6499369945158833 -29.326198723298148 0 0 0 0 -11.645810832182178 6.8803831033292226 0 6.8803831033292226 -30.744389704064815 0 0 0 0 -5.4778544122801236 5.3701888114383394 0 5.3701888114383394 -28.878236550152849 0 0 0 0 -12.637025014591927 7.047324401595688 0 7.047324401595688 -28.233546528048464 0 0 0 0 -12.114662537989716 5.0518747781807178 0 5.0518747781807178 -27.755221459956374 0 0 0 0 -3.6742359014152157 -2.5467431395908235 0 -2.5467431395908235 -23.556557080422067 0 0 0 0 1.5983578683590167 -19.853524071186257 0 -19.853524071186257 -79.598601802863413 0 0 0 0 -16.596337187094832 1.6372683815097844 0 1.6372683815097844 -42.622174859963707 0 0 0 0 -18.820844006315383 -0.51680454990128055 0 -0.51680454990128055 -41.586586626377539 0 0 0 0 -29.133724854582397 -86.356516779247613 0 -86.356516779247613 -311.87618222411402 0 0 0 0 -319.8737350227475 56.581397123620263 0 56.581397123620263 -123.79043897299562 0 0 0 0 -5.4497403722848112 9.9631088550089402 0 9.9631088550089402 -28.220186865716187 0 0 0 0 -46.695712089036533 356.79413894058234 0 356.79413894058234 104.77107176133165 0 0 0 0 -11.194235352472802 7.1066693282646156 0 7.1066693282646156 -9.1111148463803033 0 0 0 0 -111.71583824014306 -55.208739087043796 0 -55.208739087043796 -69.828085264307447 0 0 0 0 -51.218298523586782 -219.74863562211613 0 -219.74863562211613 -604.35331641217635 0 0 0 0 81.125178174737812 112.90801597783866 0 112.90801597783866 -426.66634087634156 0 0 0 0 115.16662196211837 -136.78306577225158 0 -136.78306577225158 -764.3489829953869 0 0 0 0 106.03394022444263 -316.70603747028872 0 -316.70603747028872 -944.20844121315167 0 0 0 0 67.581195170021601 -347.10884654738766 0 -347.10884654738766 -887.75053367009968 0 0 0 0 -18.846350649109809 -354.33272108109668 0 -354.33272108109668 -845.24861741460336 0 0 0 0 12.02537355963068 -268.83127177328424 0 -268.83127177328424 -726.12177126390452 0 0 0 0 9.1009042050463904 -198.55031643027178 0 -198.55031643027178 -938.20829833381868 0 0 0 0 -139.01700356552101 -251.31308118509696 0 -251.31308118509696 -434.64990524669702 0 0 0 0 -91.502216364337073 -321.35204026823703 0 -321.35204026823703 -706.23047434067121 0 0 0 0 -601.95377079619357 62.806072921124724 0 62.806072921124724 1503.3557437158888 0 0 0 0 -844.13453499450407 -1673.9494846586604 0 -1673.9494846586604 2255.4372852802917 0 0 0 0 -385.60881040398817 -99.881202985052369 0 -99.881202985052369 243.68153213546611 0 0 0 0 -211.4428916896286 -138.05305489937018 0 -138.05305489937018 -610.78277497921954 0 0 0 0 45.710238820502127 -56.661552271987603 0 -56.661552271987603 -626.7171742962164 0 0 0 0 281.85084002930307 -73.853407340637204 0 -73.853407340637204 -1556.9219876424904 0 0 0 0 359.07565436324148 784.25334902633767 0 784.25334902633767 -412.03812659993855 0 0 0 0 -1.3667010901056003 2.2615916701068386 0 2.2615916701068386 -10.134579834946493 0 0 0 0 -462.40020786932291 -849.30350601601458 0 -849.30350601601458 -1190.7121397294104 0 0 0 0 -561.87848899059463 -425.12087564628746 0 -425.12087564628746 100.68415938553937 0 0 0 0 -137.10074738062394 -380.38831470950754 0 -380.38831470950754 -530.56340140110842 0 0 0 0 11.578475211787008 -53.959438213949397 0 -53.959438213949397 -354.14239049232856 0 0 0 0 -450.01684400746672 -64.62819363357994 0 -64.62819363357994 953.02835784139461 0 0 0 0 -32.499929604932269 -27.749352536659103 0 -27.749352536659103 -31.867399697268553 0 0 0 0 -7.7418198517094794 -21.150611732437362 0 -21.150611732437362 -71.752238526830467 0 0 0 0 336.89733148517553 -1025.3877638124104 0 -1025.3877638124104 -1695.8729248618474 0 0 0 0 -168.8022041199556 -350.09817079577624 0 -350.09817079577624 -535.6371037579629 0 0 0 0 -51.771073773660646 -6.6036945082632883 0 -6.6036945082632883 -85.358043669111794 0 0 0 0 -15.147847200088677 250.85784366950975 0 250.85784366950975 -454.14611320805852 0 0 0 0 -9.4001023351934236 36.806540422610851 0 36.806540422610851 -222.87216478740447 0 0 0 0 -6.3816406943442416 19.525474529276835 0 19.525474529276835 -178.24399369728053 0 0 0 0 9.7776928105158731 -38.801624412721139 0 -38.801624412721139 -170.63001703068767 0 0 0 0 22.814431395259817 -33.743217503702908 0 -33.743217503702908 -279.49282427344588 0 0 0 0 58.570865390174731 -91.908042545190256 0 -91.908042545190256 -259.59278959437506 0 0 0 0 54.223003036820955 -79.885694384014641 0 -79.885694384014641 -261.22868587690755 0 0 0 0 -0.65703023899808244 -23.720787876482103 0 -23.720787876482103 -98.940865999734285 0 0 0 0 62.036574058123733 -90.223758884239942 0 -90.223758884239942 -362.4451273616869 0 0 0 0 519.64528561141105 -12.106928919064558 0 -12.106928919064558 -316.35179716262792 0 0 0 0 34.217154216414201 160.20130199341656 0 160.20130199341656 -217.80725742920913 0 0 0 0 394.65990558110934 524.21012105208501 0 524.21012105208501 81.480764812098641 0 0 0 0 29.176246206876385 205.46946777367702 0 205.46946777367702 -149.29324770109088 0 0 0 0 199.96753284435545 159.54262117881444 0 159.54262117881444 -287.58067595747707 0 0 0 0 278.12002239578578 276.60363063529076 0 276.60363063529076 -231.76087652373826 0 0 0 0 35.740123284685978 -233.35174939702847 0 -233.35174939702847 -289.13256047599134 0 0 0 0 334.71773762905286 169.45822595414575 0 169.45822595414575 -313.6515926127322 0 0 0 0 -6.1090812231777321 -5.4495402948267468 0 -5.4495402948267468 -44.085316843705527 0 0 0 0 -26.584128049642459 -26.991572003564215 0 -26.991572003564215 -59.604184906391311 0 0 0 0 -24.845857110442012 -0.46975754605955444 0 -0.46975754605955444 -39.773875179023889 0 0 0 0 -12.255710998083686 -4.5613783187317836 0 -4.5613783187317836 -13.776514335884379 0 0 0 0 -4.4243906049512951 3.7321925008675123 0 3.7321925008675123 1.5896364123226192 0 0 0 0 -253.97627219042624 -304.92533387054573 0 -304.92533387054573 -692.4930943842046 0 0 0 0 73.154640210816069 -84.642211676124134 0 -84.642211676124134 -119.91689930759821 0 0 0 0 16.731991755057606 -25.88783801473619 0 -25.88783801473619 -130.06392618856626 0 0 0 0 2.4046388306438047 -6.0589216622149138 0 -6.0589216622149138 -16.108018511422401 0 0 0 0 194.37182937246689 -188.73551176482579 0 -188.73551176482579 -183.09955873608124 0 0 0 0 -21.254281439107217 36.510946760348816 0 36.510946760348816 -63.573999419240863 0 0 0 0 -5.0404229300857111 0.36885692862387032 0 0.36885692862387032 -48.405168981183806 0 0 0 0 32.331564450823862 -151.67353988478135 0 -151.67353988478135 -149.59889432131604 0 0 0 0 -92.777150638175954 -64.289375069522066 0 -64.289375069522066 -227.38295741009642 0 0 0 0 -123.77853671387129 -69.799921653422643 0 -69.799921653422643 -180.55408159078797 0 0 0 0 -120.2417551845283 -72.476135890930891 0 -72.476135890930891 -149.48297300572449 0 0 0 0 -57.513352946381929 -133.35563839302631 0 -133.35563839302631 -96.763368205509323 0 0 0 0 -28.624410624426673 -98.980025158918579 0 -98.980025158918579 -243.76936827524332 0 0 0 0 -29.327149119268142 -110.2416784100642 0 -110.2416784100642 -173.52156502185971 0 0 0 0 -81.509198704718074 -61.345580361383327 0 -61.345580361383327 -185.44549823290436 0 0 0 0 -41.151566519922198 -118.90557589466334 0 -118.90557589466334 -159.90462680128985 0 0 0 0 -73.26506789560699 -43.497776036107098 0 -43.497776036107098 -184.09881901921472 0 0 0 0 -66.98985865906252 -55.204487997994875 0 -55.204487997994875 -209.05786232909304 0 0 0 0 -123.95903913919392 37.642427795013646 0 37.642427795013646 -275.67292000923771 0 0 0 0 -151.65931810320944 29.085927877036738 0 29.085927877036738 -246.70916524055065 0 0 0 0 -168.60935944455127 -19.764441104605112 0 -19.764441104605112 -291.83971714040672 0 0 0 0 -128.87921913319485 13.511052987050789 0 13.511052987050789 -300.21251280709112 0 0 0 0 -22.316766691409711 -74.830327714094551 0 -74.830327714094551 -84.419305393458757 0 0 0 0 -171.94002145466584 -74.972312897938536 0 -74.972312897938536 -589.57167440114426 0 0 0 0 -199.67684983412073 -156.05006923183828 0 -156.05006923183828 -354.17790869745659 0 0 0 0 -273.43653011431161 -46.339710816711886 0 -46.339710816711886 -252.8794353636913 0 0 0 0 -189.88039849115376 -17.978051754762419 0 -17.978051754762419 -243.50565402451321 0 0 0 0 -51.035573431017838 -99.727291215822333 0 -99.727291215822333 -333.07811895041959 0 0 0 0 -46.141848076473252 -76.907848066432052 0 -76.907848066432052 -235.29031429695897 0 0 0 0 5.9505755900099757 -9.9100535958132241 0 -9.9100535958132241 -308.24288195076224 0 0 0 0 0.76557445866637863 -43.071185873661307 0 -43.071185873661307 -503.43005040932621 0 0 0 0 -18.221933891240297 -16.791889500079208 0 -16.791889500079208 -32.470475892512752 0 0 0 0 -67.79799468913825 -0.6130596740222245 0 -0.6130596740222245 -185.88228671865363 0 0 0 0 -155.29005779543331 157.51208742102608 0 157.51208742102608 -225.04001897553098 0 0 0 0 -0.87186065057733586 -17.879054781951027 0 -17.879054781951027 -26.390242918875401 0 0 0 0 -310.12006453523327 -79.075115756953892 0 -79.075115756953892 79.502984099031892 0 0 0 0 -227.92885898794475 290.27827247211826 0 290.27827247211826 -346.25862718687131 0 0 0 0 29.680964231170947 377.04150915729406 0 377.04150915729406 -320.25441503387992 0 0 0 0 -184.28296860221053 -132.46926408605941 0 -132.46926408605941 -298.49577392837455 0 0 0 0 8.8394397019762021 22.707708595051216 0 22.707708595051216 -122.57257597877611 0 0 0 0 -305.33566500364623 10.491029928125499 0 10.491029928125499 -356.24091789114755 0 0 0 0 -198.58912821137142 165.01713389675569 0 165.01713389675569 -622.59193045343272 0 0 0 0 -43.870470286167802 -4.1230719944724115 0 -4.1230719944724115 -501.41597862979688 0 0 0 0 -249.7571372404368 189.62121561270033 0 189.62121561270033 -589.90501370439597 0 0 0 0 -184.49372868290948 326.36368603556912 0 326.36368603556912 -932.76411269207165 0 0 0 0 -216.77060816836229 266.61877408134023 0 266.61877408134023 -686.95031067295349 0 0 0 0 19.257765915750497 111.20401089437655 0 111.20401089437655 -781.17905855807476 0 0 0 0 -124.21330028464217 116.33675726976799 0 116.33675726976799 -410.63140246228431 0 0 0 0 -157.96525223007575 -13.637049463432049 0 -13.637049463432049 -237.13259299883794 0 0 0 0 85.247810805199151 -172.1482137467101 0 -172.1482137467101 -224.48475447811961 0 0 0 0 -184.73630699599516 10.245712800206093 0 10.245712800206093 -256.07573921050061 0 0 0 0 -156.01870754364631 -34.029511833290599 0 -34.029511833290599 -271.43125484380289 0 0 0 0 -12.28694445720248 93.726798592724663 0 93.726798592724663 -265.243766169835 0 0 0 0 -111.74187196337607 22.639958632502385 0 22.639958632502385 -229.05550655873958 0 0 0 0 -4.9634350760807404 -62.186297613601823 0 -62.186297613601823 -71.948167314257972 0 0 0 0 0.31792779274387684 15.627787481353991 0 15.627787481353991 -109.18891201479681 0 0 0 0 -9.8343681508431473 2.0375997968949378 0 2.0375997968949378 -52.65440875722561 0 0 0 0 -52.907949822199498 31.810369984781573 0 31.810369984781573 -319.93975955860515 0 0 0 0 -44.732860247636879 -50.515080199017802 0 -50.515080199017802 -48.171461402348939 0 0 0 0 -11.083387407342128 -50.520486701125691 0 -50.520486701125691 -50.541425510905952 0 0 0 0 -146.97376234455078 -7.7167039631312946 0 -7.7167039631312946 40.371729748309008 0 0 0 0 2.6342985933691265 0.18672070816296582 0 0.18672070816296582 -16.978017688984949 0 0 0 0 -85.035720111443879 -84.738581933634123 0 -84.738581933634123 -86.179913345273235 0 0 0 0 -56.173808027263306 -56.883245252204119 0 -56.883245252204119 -13.807535994404333 0 0 0 0 -40.107008242226584 -66.819413721103047 0 -66.819413721103047 -121.37028447452758 0 0 0 0 26.085584762157133 -19.131580254601744 0 -19.131580254601744 -73.801947562422356 0 0 0 0 -1548.3004597270476 -50.410135736558004 0 -50.410135736558004 -5698.9026770109194 0 0 0 0 -800.39241615998412 -1550.5684439206307 0 -1550.5684439206307 3077.5714624715329 0 0 0 0 3.9876997624132811 -21.261093517956169 0 -21.261093517956169 -48.565756125991008 0 0 0 0 -6.9361711295637178 -30.587936605305003 0 -30.587936605305003 -65.759303380968049 0 0 0 0 -701.91831606851144 -2551.128827030836 0 -2551.128827030836 -281.77845456654904 0 0 0 0 1039.2947946639774 -761.08510051169287 0 -761.08510051169287 -3221.5471699476038 0 0 0 0 -133.62188621190774 1118.3299747211349 0 1118.3299747211349 -1731.7199475642119 0 0 0 0 -453.67687079599932 579.8753145410592 0 579.8753145410592 -357.5053044748056 0 0 0 0 308.17944944348392 349.37399307409942 0 349.37399307409942 -891.83979290394927 0 0 0 0 -389.25377267769625 362.38552173631615 0 362.38552173631615 -424.81880562857259 0 0 0 0 -159.22191704395163 -56.865786374964955 0 -56.865786374964955 102.89989979655365 0 0 0 0 130.92574215960531 48.116365476525971 0 48.116365476525971 -269.97668178903405 0 0 0 0 -19.322195618893176 15.156865034079942 0 15.156865034079942 -88.025695436546187 0 0 0 0 16.088254109445181 -33.203702652774119 0 -33.203702652774119 -33.714619021022543 0 0 0 0 -4085.7371824046213 -1418.2761363824575 0 -1418.2761363824575 -3909.477300089522 0 0 0 0 164.56230197168816 -267.43455463020655 0 -267.43455463020655 -204.47854667968932 0 0 0 0 -2.5594794941890204 6.7984865069015257 0 6.7984865069015257 -26.587339231307794 0 0 0 0 -3708.2817103134298 -3543.5395252731687 0 -3543.5395252731687 4905.67086599709 0 0 0 0 3.4965650976755569 -97.197284586633032 0 -97.197284586633032 -77.530303024672321 0 0 0 0 -27.105032860665233 -61.56885378140214 0 -61.56885378140214 -89.537447039750987 0 0 0 0 1014.80029869844 -660.79476057343231 0 -660.79476057343231 -1204.5886900888727 0 0 0 0 1011.5416900545533 -1003.4160523181199 0 -1003.4160523181199 -656.18826422354323 0 0 0 0 -15.564906881989096 -48.06613055789586 0 -48.06613055789586 -67.328888311722949 0 0 0 0 -30.307959521758676 -79.431609558705532 0 -79.431609558705532 -77.379181585307379 0 0 0 0 -261.33276750476216 109.86193322012696 0 109.86193322012696 -158.76425060221118 0 0 0 0 -33.619435928926372 -52.628789208443955 0 -52.628789208443955 -65.891921021930585 0 0 0 0 -414.41036888520102 -56.324111687727054 0 -56.324111687727054 147.01594992195896 0 0 0 0 311.55095775479276 -893.5754718750286 0 -893.5754718750286 158.24371848504416 0 0 0 0 9.1484996542458248 -322.63322988200889 0 -322.63322988200889 233.43753983799252 0 0 0 0 -7.7219527786710387 -84.350268301295728 0 -84.350268301295728 -63.171224927376898 0 0 0 0 -46.046325851914602 -61.149929803164014 0 -61.149929803164014 -51.669190246418225 0 0 0 0 -40.143577355229354 -62.530851246025122 0 -62.530851246025122 -75.134114913765188 0 0 0 0 11.382984877301169 -108.83887289412087 0 -108.83887289412087 -269.0807949208538 0 0 0 0 -44.846722365262394 -170.27281905193013 0 -170.27281905193013 -117.23351526231272 0 0 0 0 -29.048909220205367 -59.252116190815542 0 -59.252116190815542 -26.619968541495581 0 0 0 0 -78.913493965590533 -116.60197683561273 0 -116.60197683561273 -10.104197198787006 0 0 0 0 2.7202602691450011 -81.580115753378777 0 -81.580115753378777 -128.50236695748754 0 0 0 0 -24.27718463644851 -27.485930155951792 0 -27.485930155951792 -62.618621169334801 0 0 0 0 -54.794269269426536 -37.596296919368569 0 -37.596296919368569 -25.45820390171464 0 0 0 0 -99.069367581541883 -65.053680937562604 0 -65.053680937562604 49.777721900996767 0 0 0 0 -20.204390929643957 -36.181542223198718 0 -36.181542223198718 -83.594353760051604 0 0 0 0 -92.956293122726493 -16.294049959620679 0 -16.294049959620679 125.14869955254835 0 0 0 0 -58.135596688702208 52.696827849009424 0 52.696827849009424 71.803961394762155 0 0 0 0 -12.740816311974754 1.6187915727314959 0 1.6187915727314959 2.2103730253513163 0 0 0 0 -136.53824614080077 83.458803681358404 0 83.458803681358404 59.835299657454016 0 0 0 0 -224.00935262504936 23.330293514492951 0 23.330293514492951 113.54377717804164 0 0 0 0 -197.73539195042758 -50.911842016801529 0 -50.911842016801529 318.96700190957927 0 0 0 0 -149.1751633938693 -114.84459770030662 0 -114.84459770030662 119.47511676984141 0 0 0 0 -324.27686121107399 -230.86406974197598 0 -230.86406974197598 292.31167433997689 0 0 0 0 -535.29333474392479 1.475337392410438 0 1.475337392410438 314.14046530389169 0 0 0 0 -1733.3167667215457 638.23751354466731 0 638.23751354466731 -537.54245250432268 0 0 0 0 -381.09441479817906 -281.04811648655959 0 -281.04811648655959 -337.69425942945963 0 0 0 0 55.284354306932073 -252.19298501547019 0 -252.19298501547019 -660.61891124481917 0 0 0 0 833.84802672823571 274.93451138435194 0 274.93451138435194 -1795.6457845003897 0 0 0 0 -775.56450286151994 179.96271619869913 0 179.96271619869913 277.9903556000645 0 0 0 0 -4.2006026393295102 1.2909981596720144 0 1.2909981596720144 -3.7239462262054417 0 0 0 0 -191.7274024805447 305.69271041868342 0 305.69271041868342 229.30570516191074 0 0 0 0 199.38962094264207 207.10030246978567 0 207.10030246978567 96.770488964051765 0 0 0 0 -40.57945868855677 -28.047594441333786 0 -28.047594441333786 -1.2365230676805368 0 0 0 0 -11.502341177751077 -1.7099141344860982 0 -1.7099141344860982 -11.5432807066245 0 0 0 0 -432.30560603800404 -38.558689534773293 0 -38.558689534773293 65.814778934727656 0 0 0 0 -95.745665852824459 -29.256980941652728 0 -29.256980941652728 10.908253592868277 0 0 0 0 0.70366442967653597 -0.10772706984988645 0 -0.10772706984988645 -4.5880750088384161 0 0 0 0 -775.43321357332024 617.24238693348161 0 617.24238693348161 -487.06277439914265 0 0 0 0 -162.46822116379553 676.13424751748244 0 676.13424751748244 -1772.5751769999406 0 0 0 0 602.83521167516301 -98.529601155845739 0 -98.529601155845739 -581.1065268291859 0 0 0 0 -4.8679425030719656 13.030495935931196 0 13.030495935931196 -13.299953477736949 0 0 0 0 -98.802599308786739 388.93352199299989 0 388.93352199299989 -1503.7592882706886 0 0 0 0 201.94020126269606 497.87643590946391 0 497.87643590946391 -1464.2986726399686 0 0 0 0 -71.082856377528515 227.57831508208255 0 227.57831508208255 -609.84426799786161 0 0 0 0 96.43148463020043 188.69513686828213 0 188.69513686828213 5.2615089316532249 0 0 0 0 -45.389881089347909 60.264487229571387 0 60.264487229571387 23.700243256316753 0 0 0 0 -207.67437177730608 354.54038578064501 0 354.54038578064501 -497.77682730467495 0 0 0 0 -35.507165202514443 64.319812429654121 0 64.319812429654121 34.949307532988314 0 0 0 0 -11.455097510981801 17.056585656540307 0 17.056585656540307 -60.089639571059223 0 0 0 0 -150.07164502578235 48.161613626347389 0 48.161613626347389 33.164842542042607 0 0 0 0 7.706487182455021 73.023714036346064 0 73.023714036346064 4.826544826515601 0 0 0 0 -54.441292600182351 48.483863341694814 0 48.483863341694814 23.509439748799196 0 0 0 0 -51.999420050393383 1.3860727419378236 0 1.3860727419378236 7.0956235741905402 0 0 0 0 -62.487437581912673 4.8025750736269401 0 4.8025750736269401 7.4582224760088138 0 0 0 0 -16.148483542943211 -1.4757195680851183 0 -1.4757195680851183 -0.1639566357282547 0 0 0 0 -19.865992160426686 2.3687044994003372 0 2.3687044994003372 -38.798520879594435 0 0 0 0 -15.117142488743625 2.2437931963517457 0 2.2437931963517457 -9.6104097595091673 0 0 0 0 -14.649013171750084 -0.49063970758561481 0 -0.49063970758561481 -17.804408262309153 0 0 0 0 -17.895078306195501 2.4931022330201813 0 2.4931022330201813 -43.040276099301991 0 0 0 0 -6.331219222774962 7.6772535910276929 0 7.6772535910276929 -21.369616166630294 0 0 0 0 23.497863655557012 52.587855132107507 0 52.587855132107507 -104.25332890762365 0 0 0 0 26.832052557707357 37.704727096133865 0 37.704727096133865 -66.496016428543953 0 0 0 0 -10.344359061375144 2.1686133790349515 0 2.1686133790349515 -25.572925979125699 0 0 0 0 -12.289156476746292 9.5502965360722385 0 9.5502965360722385 -37.513572529376603 0 0 0 0 -8.799738033383619 36.742972099462349 0 36.742972099462349 -55.893364842893789 0 0 0 0 19.387559410009999 27.585210694276611 0 27.585210694276611 -59.656905274012388 0 0 0 0 -1.265567845570331 9.6977621293990524 0 9.6977621293990524 -69.824084466206841 0 0 0 0 -1.4353502431420253 8.63317550922973 0 8.63317550922973 -9.878897133186836 0 0 0 0 -11.701817275392017 24.475196693279401 0 24.475196693279401 -56.104387997238149 0 0 0 0 -44.075265308885719 50.799733425257728 0 50.799733425257728 -58.086597239074763 0 0 0 0 -19.977833425136495 14.22461203995141 0 14.22461203995141 -20.431647407498481 0 0 0 0 -14.566816583974287 33.855949041717395 0 33.855949041717395 -42.305666669766651 0 0 0 0 71.04596781446071 -181.55726863273594 0 -181.55726863273594 460.21225066371312 0 0 0 0 -349.79861475295911 62.45644810102749 0 62.45644810102749 -431.03639639614266 0 0 0 0 -489.71084242386041 210.02287238628924 0 210.02287238628924 72.922556819074089 0 0 0 0 -157.32630041840707 299.07471986659948 0 299.07471986659948 -142.60527301830007 0 0 0 0 -254.26668663800137 612.70399446789816 0 612.70399446789816 -381.80288476606074 0 0 0 0 -97.955174958798125 402.47289442148758 0 402.47289442148758 -549.02505413920153 0 0 0 0 0.93957190077270369 1.1502599019549393 0 1.1502599019549393 -21.390193405767263 0 0 0 0 -58.810902224309757 856.6220174186019 0 856.6220174186019 -521.28566593011783 0 0 0 0 792.38387464304856 190.23877837018154 0 190.23877837018154 -3238.6745409674477 0 0 0 0 -284.57083216145384 507.13902340161439 0 507.13902340161439 450.14422484611464 0 0 0 0 -345.57965645874305 -2201.3796267996695 0 -2201.3796267996695 60.321773706935346 0 0 0 0 328.051970396907 -4.5444955745188054 0 -4.5444955745188054 -2713.7335518242035 0 0 0 0 277.5232337671867 -269.74809559599089 0 -269.74809559599089 -876.28499726406881 0 0 0 0 -0.24268923056734096 -28.297553117721691 0 -28.297553117721691 -599.61092221038416 0 0 0 0 -241.94673883396868 -164.40309238237387 0 -164.40309238237387 36.483812414226122 0 0 0 0 -77.215759405952895 353.71784953321912 0 353.71784953321912 606.88070373175287 0 0 0 0 635.21350675483131 246.99629925189765 0 246.99629925189765 -15.474828392994823 0 0 0 0 1.2301020517399763 30.30353868923703 0 30.30353868923703 109.82217449929158 0 0 0 0 -86.829343068776609 248.05868671032658 0 248.05868671032658 -29.479542911902172 0 0 0 0 -0.24517805318123082 156.96893705582377 0 156.96893705582377 -362.93179012750625 0 0 0 0 -151.68823188272972 405.35115370971107 0 405.35115370971107 -291.87866358258179 0 0 0 0 0.38301496593236395 -0.145868700703641 0 -0.145868700703641 -16.695065696910433 0 0 0 0 45.861078925301968 -873.13985637999576 0 -873.13985637999576 -576.08618605289416 0 0 0 0 -139.11104825799111 -1065.9568654811046 0 -1065.9568654811046 -499.08255809843831 0 0 0 0 -0.58326298879795502 2.6083002239138722 0 2.6083002239138722 -17.594521391718274 0 0 0 0 374.33994393635476 827.16131281536946 0 827.16131281536946 -812.48501302304794 0 0 0 0 1.3101681308700324 4.2150516745397297 0 4.2150516745397297 -37.320063296550529 0 0 0 0 1423.9835363225964 191.72574192023603 0 191.72574192023603 -765.17347142350627 0 0 0 0 -644.37817069907487 -554.44975136070934 0 -554.44975136070934 -920.14564612566028 0 0 0 0 -971.06909659035136 90.336359452645411 0 90.336359452645411 -30.449582316730812 0 0 0 0 57.330440756229564 103.04853552318673 0 103.04853552318673 -1098.2475070513901 0 0 0 0 46.493969091133749 292.04514579639726 0 292.04514579639726 -336.63281589202234 0 0 0 0 -41.888795240629406 55.079192488934495 0 55.079192488934495 -343.78495371453755 0 0 0 0 -30.483244794631901 203.1226641608373 0 203.1226641608373 -525.00759723855299 0 0 0 0 -10.029660243714943 139.72193661233905 0 139.72193661233905 -536.42762052643229 0 0 0 0 -39.422605966957235 120.98377833038103 0 120.98377833038103 -540.52576123499603 0 0 0 0 39.523361775293779 169.73906135898869 0 169.73906135898869 -637.24444754529395 0 0 0 0 -161.73979800483448 119.16012965228583 0 119.16012965228583 -639.32973741076285 0 0 0 0 -216.66096469671993 -104.53390517465596 0 -104.53390517465596 -736.80578060256812 0 0 0 0 -256.56546073378831 -95.841682505459175 0 -95.841682505459175 -380.12873128228239 0 0 0 0 25.943286789869035 117.31632046605228 0 117.31632046605228 -808.84936581514194 0 0 0 0 -2.3605466106266633 -0.33988160676409507 0 -0.33988160676409507 0.48857665056920041 0 0 0 0 7.1932612207137936 394.48349769378547 0 394.48349769378547 -1496.4856730681349 0 0 0 0 -3.6503225226642826 206.42716379248304 0 206.42716379248304 -648.85877307304145 0 0 0 0 61.645888673430136 104.48519486978876 0 104.48519486978876 -644.75015582541528 0 0 0 0 65.961810535192853 196.01160164279281 0 196.01160164279281 -658.89793522178661 0 0 0 0 -60.685573966658922 171.00324156287388 0 171.00324156287388 -661.27782574057346 0 0 0 0 43.347489402847714 -70.86734878430434 0 -70.86734878430434 -514.93642835118226 0 0 0 0 -15.784793537347809 213.88157320677237 0 213.88157320677237 -555.3742963677214 0 0 0 0 312.33071536345597 117.36382157192566 0 117.36382157192566 -522.58917058081715 0 0 0 0 128.72250558729775 94.83108935636119 0 94.83108935636119 -486.36221990820195 0 0 0 0 54.191008430776947 268.0400854764448 0 268.0400854764448 -536.15992375859059 0 0 0 0 -351.07843231941024 255.18720717885299 0 255.18720717885299 -436.52840242581442 0 0 0 0 -64.622328928992374 239.966545492156 0 239.966545492156 -542.74183670285856 0 0 0 0 333.22737095977561 126.8235778030139 0 126.8235778030139 -663.31861552709597 0 0 0 0 456.66674377384879 -301.62174665903149 0 -301.62174665903149 -143.65902416322206 0 0 0 0 28.980634224588357 116.98155248287367 0 116.98155248287367 -334.22049549172516 0 0 0 0 222.64215200175204 -439.96974193587084 0 -439.96974193587084 408.63198912929511 0 0 0 0 7.853548511646423 5.1148563756029546 0 5.1148563756029546 -33.475461636265607 0 0 0 0 61.746297137764486 -14.363207803544356 0 -14.363207803544356 -83.737023178196978 0 0 0 0 -242.99473681097561 88.939138327616092 0 88.939138327616092 -538.29216046535294 0 0 0 0 -102.57911676877666 42.936478842289944 0 42.936478842289944 -546.25948521737882 0 0 0 0 -160.97674245535018 27.662950131838443 0 27.662950131838443 -543.82432249165504 0 0 0 0 -317.19587873381357 -57.312519866863113 0 -57.312519866863113 -576.55216392781585 0 0 0 0 -78.46606408432126 7.5959286587312818 0 7.5959286587312818 -690.81086567354214 0 0 0 0 -137.69616367410208 330.75232943613082 0 330.75232943613082 -604.85847238686983 0 0 0 0 -4.9383609326514488 220.85522604447033 0 220.85522604447033 -514.17671292288287 0 0 0 0 -55.330896049610601 159.44993580830851 0 159.44993580830851 -119.71294549926824 0 0 0 0 -8.3825077226401845 32.368921369445161 0 32.368921369445161 -695.26861782433116 0 0 0 0 229.696651049509 231.15944063621282 0 231.15944063621282 -545.45494822713954 0 0 0 0 -0.14593323744898079 -0.078660160443487115 0 -0.078660160443487115 -5.6586587849743637 0 0 0 0 -0.56103695548738219 -11.292008609880828 0 -11.292008609880828 -13.119717458530545 0 0 0 0 -69.596016832037549 -84.067634412567713 0 -84.067634412567713 -11.058898495975882 0 0 0 0 279.50302318996819 -116.87517867609859 0 -116.87517867609859 -193.27926593532902 0 0 0 0 -78.487833016532932 -229.4908887554775 0 -229.4908887554775 -100.72169721394221 0 0 0 0 -330.2114142477476 -347.56067670752236 0 -347.56067670752236 -121.81791019208322 0 0 0 0 -108.92293961983296 -167.09391881156625 0 -167.09391881156625 -223.26247330679325 0 0 0 0 -12.215437858296355 13.390643431208446 0 13.390643431208446 -231.2831242219836 0 0 0 0 36.617716189870407 28.747032857878366 0 28.747032857878366 -254.35136484516988 0 0 0 0 1.2506425542851503 55.408635252853855 0 55.408635252853855 -242.75134345465631 0 0 0 0 339.56676539907403 -59.96176180159091 0 -59.96176180159091 -294.00411392506794 0 0 0 0 66.830085113313544 -39.884307594264101 0 -39.884307594264101 -217.00049717124784 0 0 0 0 60.385412858320706 -64.348189107200596 0 -64.348189107200596 -277.73074022168294 0 0 0 0 -17.468450407245655 -452.40800859163573 0 -452.40800859163573 -264.9614467234278 0 0 0 0 -510.69510235428891 -220.3493732279494 0 -220.3493732279494 -69.779535381356254 0 0 0 0 28.675187436367253 -112.29314558351689 0 -112.29314558351689 -196.52515641110949 0 0 0 0 28.813453904822381 -107.67647179879714 0 -107.67647179879714 -47.070670973342203 0 0 0 0 790.80185478560634 -962.97905267312308 0 -962.97905267312308 -47.547796669417949 0 0 0 0 -4.4465484297736619 -49.305414463310569 0 -49.305414463310569 -60.743025527047962 0 0 0 0 6.1748304388711404 -105.17701133359515 0 -105.17701133359515 -134.21358815586427 0 0 0 0 655.06053562569741 -659.44034731014108 0 -659.44034731014108 -63.137275866212804 0 0 0 0 545.77509747873682 -414.44243646359246 0 -414.44243646359246 -390.53502296505758 0 0 0 0 874.34902590554702 -783.33541269587295 0 -783.33541269587295 -476.22133172597387 0 0 0 0 -8.4470801426978142 -10.846567408705596 0 -10.846567408705596 -204.01881212473381 0 0 0 0 450.20568691191511 -14.714760706527159 0 -14.714760706527159 -813.08431006129831 0 0 0 0 389.06725114828805 79.839180663460866 0 79.839180663460866 -727.10848562965111 0 0 0 0 10.860002489110045 -35.778612434849123 0 -35.778612434849123 -66.764275361729659 0 0 0 0 452.87725905163438 -124.58274250934176 0 -124.58274250934176 -676.39043345076789 0 0 0 0 307.42704218785866 28.993527124543107 0 28.993527124543107 -532.80202831237693 0 0 0 0 312.79585910056903 39.856242302750616 0 39.856242302750616 -676.33222366508562 0 0 0 0 340.52851095408369 76.968330929652438 0 76.968330929652438 -645.4640571315249 0 0 0 0 72.345149329795277 184.6639208219276 0 184.6639208219276 -450.49615006876411 0 0 0 0 422.91863839037069 122.26149595430616 0 122.26149595430616 -688.33926096875803 0 0 0 0 -155.70417615063252 -282.66496437884052 0 -282.66496437884052 -651.92252359415579 0 0 0 0 -277.7650941914298 -467.26996164229558 0 -467.26996164229558 -287.28234765894013 0 0 0 0 6.2497326636805628 5.8881377713053524 0 5.8881377713053524 -100.55826974030236 0 0 0 0 -299.47081134515457 -187.84095124749774 0 -187.84095124749774 156.46774367408943 0 0 0 0 99.87569810393552 36.819270501095161 0 36.819270501095161 -1288.5343742454279 0 0 0 0 180.96065879800881 -86.516974348152871 0 -86.516974348152871 -635.28482894454646 0 0 0 0 -0.77478549164042221 1.3496695959529461 0 1.3496695959529461 -20.157528442659469 0 0 0 0 -216.53782888679325 199.66006926836417 0 199.66006926836417 -530.17308228084585 0 0 0 0 -227.21617218818392 -24.038421557852416 0 -24.038421557852416 -319.74799659885321 0 0 0 0 -538.70169005549451 -9.0447512402606662 0 -9.0447512402606662 -309.80999204976251 0 0 0 0 -247.93963665165484 229.16791555457166 0 229.16791555457166 -264.07092620569165 0 0 0 0 -130.8181725221848 238.78057238459587 0 238.78057238459587 -182.49837732315746 0 0 0 0 -129.64529478959503 70.528796028534998 0 70.528796028534998 -187.14968063690731 0 0 0 0 -2.9440673925993224 142.56998452294283 0 142.56998452294283 -179.90278639449389 0 0 0 0 -127.85827695890748 82.856202846043743 0 82.856202846043743 -414.25700242139283 0 0 0 0 160.4650562074612 139.68041798504419 0 139.68041798504419 -146.53918312478345 0 0 0 0 34.639392568495282 35.394898579597793 0 35.394898579597793 -44.060565300984308 0 0 0 0 347.68124988141108 49.829057097886107 0 49.829057097886107 -136.23858456117159 0 0 0 0 -35.791684248596539 81.970364138949662 0 81.970364138949662 135.05413139589655 0 0 0 0 -195.31985782120319 -145.24948738525563 0 -145.24948738525563 -117.23217438764914 0 0 0 0 -148.65139938778088 -165.59454885483865 0 -165.59454885483865 -207.11488888418535 0 0 0 0 -177.96912624553033 -338.39570905228902 0 -338.39570905228902 -590.25929742687731 0 0 0 0 -327.51884584227128 -353.46406507016218 0 -353.46406507016218 -110.78590955151594 0 0 0 0 -345.21370937273377 -462.61192963561916 0 -462.61192963561916 -262.34950635659334 0 0 0 0 331.97183883902062 529.10886837052021 0 529.10886837052021 426.8843950672308 0 0 0 0 -223.16446621865725 -230.03637075307779 0 -230.03637075307779 8.5506578888816875 0 0 0 0 -331.48571687977847 -232.15167811873835 0 -232.15167811873835 98.555556644249009 0 0 0 0 -619.67813639479914 -1136.1039651188566 0 -1136.1039651188566 -705.93072205979843 0 0 0 0 142.66227261452877 748.291042005083 0 748.291042005083 -1483.2607497632853 0 0 0 0 -848.47482578921245 -420.65493049123506 0 -420.65493049123506 917.56400639351341 0 0 0 0 101.14546270121673 -103.50664339632203 0 -103.50664339632203 -536.09852009851602 0 0 0 0 86.82453344642272 -367.01059315503517 0 -367.01059315503517 -2009.6293481861358 0 0 0 0 -342.72190047853434 413.45143477454985 0 413.45143477454985 -272.40092542022467 0 0 0 0 0.58965769225459486 128.69957037622953 0 128.69957037622953 -1286.3421395568148 0 0 0 0 1527.8260754969042 -1096.7434349640971 0 -1096.7434349640971 -1893.4658035093162 0 0 0 0 0.20276430014594071 -3.6465071229063284 0 -3.6465071229063284 -19.193859668118876 0 0 0 0 -534.99873870709803 906.10722493586218 0 906.10722493586218 -1476.6883589288627 0 0 0 0 2.5893591670682796 -4.407732147017299 0 -4.407732147017299 -42.443465373415165 0 0 0 0 32.2233015329276 1.2120682352833683 0 1.2120682352833683 -183.0878735504084 0 0 0 0 55.862511585685134 -21.763252842894872 0 -21.763252842894872 -240.07610780278628 0 0 0 0 -0.52180553604295332 -35.829246530985984 0 -35.829246530985984 -155.46601664206537 0 0 0 0 7.5784882276429855 21.664238022945938 0 21.664238022945938 -18.135893509228481 0 0 0 0 1156.548914052094 -49.19557612958306 0 -49.19557612958306 -124.5619826552429 0 0 0 0 311.79212992726116 -56.912445880006999 0 -56.912445880006999 98.938887278520269 0 0 0 0 550.55306993350405 44.587595736316871 0 44.587595736316871 -82.640502580368775 0 0 0 0 255.53728313714601 -10.354430321778636 0 -10.354430321778636 -53.452786602370907 0 0 0 0 288.35178861267286 12.511836459947517 0 12.511836459947517 -109.62834017892601 0 0 0 0 13.088214530965068 -32.64345414446143 0 -32.64345414446143 -14.592737667651818 0 0 0 0 0.15297719119536007 -14.409190178936115 0 -14.409190178936115 -23.206587880267762 0 0 0 0 36.698171262248714 -22.560625191123108 0 -22.560625191123108 -35.646239524474367 0 0 0 0 598.81211821553211 -121.62167375223544 0 -121.62167375223544 -102.8475024238578 0 0 0 0 2.8580104590957007 -0.10042360894752278 0 -0.10042360894752278 -46.869343818719244 0 0 0 0 24.244221758926251 0.73387039333465509 0 0.73387039333465509 -55.279513023910113 0 0 0 0 24.959275448176189 11.169984691365244 0 11.169984691365244 -44.681543488055468 0 0 0 0 2.5785913548332591 10.421616538253147 0 10.421616538253147 -22.925996132136788 0 0 0 0 5.8679404964153559 -6.264094598676337 0 -6.264094598676337 -7.0675180078473545 0 0 0 0 420.0989626929213 61.314662148375646 0 61.314662148375646 107.13565487990854 0 0 0 0 465.98281738672358 -121.7454604060913 0 -121.7454604060913 54.259373177308589 0 0 0 0 468.42297557743677 -2.0517397494695615 0 -2.0517397494695615 -86.759666563593782 0 0 0 0 253.25383871802296 65.713775974989403 0 65.713775974989403 -17.843118167215835 0 0 0 0 153.62183822324641 124.99008352868259 0 124.99008352868259 -104.49834293525419 0 0 0 0 250.68104499221135 -47.238620413263561 0 -47.238620413263561 -20.006291729863733 0 0 0 0 70.7015260628541 -40.612556705047609 0 -40.612556705047609 -15.771101115387864 0 0 0 0 287.28560085254412 -74.740036987233907 0 -74.740036987233907 -138.39620442560408 0 0 0 0 444.439479465972 62.051962604629807 0 62.051962604629807 -127.0034021732281 0 0 0 0 584.16797284804534 -247.74744085851125 0 -247.74744085851125 -440.35216370137641 0 0 0 0 764.33162765806992 237.87524744456459 0 237.87524744456459 -255.83877213166852 0 0 0 0 -156.24812254408789 0.58762492291862145 0 0.58762492291862145 -129.04179958437089 0 0 0 0 -0.039937889852304634 -0.13392769897473045 0 -0.13392769897473045 -22.55739261427243 0 0 0 0 -1.2744209596971514 2.9186775140658909 0 2.9186775140658909 -1.1874267777297973 0 0 0 0 -3.5597413833395679 13.972551029229663 0 13.972551029229663 -43.748583411509173 0 0 0 0 -23.44651077608469 63.406192283950077 0 63.406192283950077 57.610650846501812 0 0 0 0 -99.982840538799792 192.49529684909794 0 192.49529684909794 -266.46422933875874 0 0 0 0 -49.972190919831519 228.184025691844 0 228.184025691844 -241.25906338749337 0 0 0 0 -175.29311692618467 172.27697214190994 0 172.27697214190994 -219.54063516086899 0 0 0 0 -64.815869471080077 192.29860297388223 0 192.29860297388223 -84.468023452871421 0 0 0 0 64.317860507052956 81.921618624655821 0 81.921618624655821 -113.12101992403041 0 0 0 0 29.344123863820187 205.0427138224286 0 205.0427138224286 -220.40938136627665 0 0 0 0 -7.5387258251760443 1.5929180481059575 0 1.5929180481059575 0.81910911506372486 0 0 0 0 33.962646812332423 191.76262475490512 0 191.76262475490512 -637.95682862457761 0 0 0 0 -227.95776535601817 333.10229788492688 0 333.10229788492688 -176.93891596893081 0 0 0 0 -22.36116659545678 68.380806577843032 0 68.380806577843032 -221.47282775772328 0 0 0 0 -41.17571541863083 -8.6175981320848223 0 -8.6175981320848223 188.84564503097499 0 0 0 0 -9.249911152497134 167.13281444752647 0 167.13281444752647 326.17565626935539 0 0 0 0 89.015908305736502 81.287446595153597 0 81.287446595153597 -134.58555371123657 0 0 0 0 -496.02844252542241 852.3796655331389 0 852.3796655331389 -477.29103916541499 0 0 0 0 -0.43314152988509436 102.30019367792556 0 102.30019367792556 -202.42403014939919 0 0 0 0 -30.614866832871385 5.5884113331303524 0 5.5884113331303524 33.900316239363747 0 0 0 0 -285.0934859078352 429.76542004413204 0 429.76542004413204 230.58489636453305 0 0 0 0 132.88493165487273 168.25630799377905 0 168.25630799377905 -267.64654829737265 0 0 0 0 -5.0646195501814022 13.816050976229263 0 13.816050976229263 -32.245208248061999 0 0 0 0 333.87750677280565 352.39156319868925 0 352.39156319868925 158.24920231528813 0 0 0 0 -129.6926882295669 -78.432486364850774 0 -78.432486364850774 -56.410987632829347 0 0 0 0 -1.2477701959246303 -258.26797719910974 0 -258.26797719910974 -958.59089575943653 0 0 0 0 0.31018757656360074 101.92751928221453 0 101.92751928221453 -1356.9287119436776 0 0 0 0 123.3154685864898 80.977713859378127 0 80.977713859378127 -1502.2356167539692 0 0 0 0 6.2391844693796088 414.69528284789703 0 414.69528284789703 -2219.6690400927109 0 0 0 0 -78.841098735410696 -600.47888319058984 0 -600.47888319058984 -1636.5620424409863 0 0 0 0 -2.407630279966483 5.1606168030317292 0 5.1606168030317292 -13.025812641762968 0 0 0 0 435.44073771902134 286.45926502226212 0 286.45926502226212 -2054.1563760345598 0 0 0 0 -385.48188465517239 -191.56112291231693 0 -191.56112291231693 -1479.1774778614927 0 0 0 0 -794.96635182436626 262.81252752629734 0 262.81252752629734 -1366.4726733782736 0 0 0 0 -136.86918479762537 183.43347459970755 0 183.43347459970755 -1394.6451484580757 0 0 0 0 -338.77394491660289 -9.9780315108619106 0 -9.9780315108619106 -1276.1871399258671 0 0 0 0 123.02750066714412 -99.745338781278406 0 -99.745338781278406 -1479.6657055536925 0 0 0 0 -66.975876521108717 26.68520908854407 0 26.68520908854407 -1273.5033478281402 0 0 0 0 -106.21780777562719 62.383359893385204 0 62.383359893385204 -1159.8178401509358 0 0 0 0 -174.01192115202784 22.518573338267743 0 22.518573338267743 -1146.9990522584121 0 0 0 0 -137.68535436215066 185.38164525299544 0 185.38164525299544 -1188.1329926990438 0 0 0 0 -0.11631815259351622 128.34611222225794 0 128.34611222225794 -1200.6583613463008 0 0 0 0 0.13487983793014333 185.48104642010003 0 185.48104642010003 -1568.5984741046996 0 0 0 0 -97.057573405363115 308.39281205491716 0 308.39281205491716 -1359.0935419175876 0 0 0 0 -146.10873943977927 116.48124183327309 0 116.48124183327309 -1276.6253892336244 0 0 0 0 -166.36217658348892 89.951623308370472 0 89.951623308370472 -89.419109180773376 0 0 0 0 -174.1543154353169 319.37572479239316 0 319.37572479239316 -994.59166430691403 0 0 0 0 201.53850609210167 425.96485587540519 0 425.96485587540519 -1109.0437291476264 0 0 0 0 0.87712060631631417 -3.6717668571792785 0 -3.6717668571792785 -8.2070986474490724 0 0 0 0 41.146350051829359 -659.54840885229351 0 -659.54840885229351 -111.88549074235289 0 0 0 0 -205.19273112288761 -99.490037545270752 0 -99.490037545270752 -594.81519403585116 0 0 0 0 137.77674201828086 -403.53542522288626 0 -403.53542522288626 -1060.5850398949406 0 0 0 0 -109.18599755649728 -46.064308102460927 0 -46.064308102460927 -1087.5589523479284 0 0 0 0 -144.57020489652314 9.8432747341648792 0 9.8432747341648792 -1164.7597677499289 0 0 0 0 132.28512904505371 159.91719441592204 0 159.91719441592204 -1661.3879791701911 0 0 0 0 -208.15033205684131 263.46031898848014 0 263.46031898848014 -1154.2787895962156 0 0 0 0 -86.357666816701112 161.05202958888185 0 161.05202958888185 -1297.0214841593697 0 0 0 0 -306.14994206626136 490.86727353942115 0 490.86727353942115 -1347.5573578776239 0 0 0 0 30.279485796606878 609.38350535882637 0 609.38350535882637 -2071.0132318827818 0 0 0 0 3.5156305000506869 -1.2301374707694492 0 -1.2301374707694492 -3.6526059954924222 0 0 0 0 403.85461552342576 257.93023596326748 0 257.93023596326748 -1147.4991847876518 0 0 0 0 202.53915082515414 169.35796795799979 0 169.35796795799979 -801.23452506557078 0 0 0 0 -193.10015348349219 32.633517229694405 0 32.633517229694405 -1276.1727527269832 0 0 0 0 -200.57209144416265 471.79735531906772 0 471.79735531906772 -1024.784494176085 0 0 0 0 11.453325099035283 166.20485915675818 0 166.20485915675818 -1404.1724922020148 0 0 0 0 8.6496149186483091 -2.6367949340434791 0 -2.6367949340434791 -6.0202240485862148 0 0 0 0 38.900834620220621 498.59512270438427 0 498.59512270438427 -1787.0456221137283 0 0 0 0 -198.87610415405993 265.56533101493551 0 265.56533101493551 -1173.0331594278687 0 0 0 0 147.17084191648337 455.28863830486807 0 455.28863830486807 -1674.2099614971376 0 0 0 0 9.4410667472344016 -3.4770868926544836 0 -3.4770868926544836 -7.0383574602327883 0 0 0 0 144.64330706618966 217.04974858987589 0 217.04974858987589 -1713.3622422633343 0 0 0 0 -6.4303137007032092 34.57646145506078 0 34.57646145506078 -819.6190358546155 0 0 0 0 94.953816970406479 174.8146718681819 0 174.8146718681819 23.406608462613804 0 0 0 0 -339.89641059876385 355.22736522819469 0 355.22736522819469 -370.06666338739888 0 0 0 0 -45.344919889958646 32.72518307424852 0 32.72518307424852 -19.825214264498015 0 0 0 0 131.80718168380599 332.83301860792562 0 332.83301860792562 455.95784368616296 0 0 0 0 118.55912215300236 152.0743696857171 0 152.0743696857171 -36.122238780284533 0 0 0 0 339.22713151847006 145.74704016806209 0 145.74704016806209 -1463.0669457607873 0 0 0 0 332.40469496831565 110.8425636186148 0 110.8425636186148 -896.19131784858473 0 0 0 0 -30.902295833863409 379.51189905350498 0 379.51189905350498 -514.92819128514384 0 0 0 0 -280.79727329306229 472.12704401113297 0 472.12704401113297 -767.56086165753368 0 0 0 0 149.89007879695328 -169.68653376174916 0 -169.68653376174916 -622.55861458243453 0 0 0 0 -9.1031482232685335 8.2692931544651476 0 8.2692931544651476 -7.86531151703673 0 0 0 0 -166.02413040368083 142.35481963997154 0 142.35481963997154 317.9055644521286 0 0 0 0 -17.163018471169053 7.7761338353460872 0 7.7761338353460872 -10.305937741186625 0 0 0 0 -91.723434175533384 43.53952505387133 0 43.53952505387133 -95.613768479444843 0 0 0 0 74.978538154695997 112.93169351467827 0 112.93169351467827 -65.378687275282573 0 0 0 0 -6.8852348305296776 18.972392874878295 0 18.972392874878295 -73.088655379915792 0 0 0 0 5.3637502241886068 -4.6832834244996775 0 -4.6832834244996775 -102.48598981440591 0 0 0 0 1.4773560887004127 13.882022185752138 0 13.882022185752138 -88.252640710844673 0 0 0 0 189.29334368747163 -50.849701282635579 0 -50.849701282635579 -291.52047112502623 0 0 0 0 -17.495620911199609 100.98768397817912 0 100.98768397817912 -249.38184592631296 0 0 0 0 -167.45294600791476 67.16771088540554 0 67.16771088540554 -98.515445362294486 0 0 0 0 -102.18759164629364 174.40680847776821 0 174.40680847776821 -220.20572112908121 0 0 0 0 260.82967275056217 288.09765495684405 0 288.09765495684405 -136.06007806234265 0 0 0 0 190.4407035178383 100.67970524604607 0 100.67970524604607 -293.40035406930838 0 0 0 0 264.31835574148681 -20.715833944923361 0 -20.715833944923361 -510.03067321207345 0 0 0 0 125.1404084318383 76.779463983446476 0 76.779463983446476 -49.375964804123214 0 0 0 0 265.92354571221222 126.82236125193594 0 126.82236125193594 -437.59351936762687 0 0 0 0 189.10148469029514 96.357969270155081 0 96.357969270155081 -293.09946333702828 0 0 0 0 28.178399528215664 -61.115708293975331 0 -61.115708293975331 -380.33833589983988 0 0 0 0 218.17098686146392 -35.107430718024261 0 -35.107430718024261 -396.57213944909017 0 0 0 0 311.85541436015978 10.076483362568979 0 10.076483362568979 -562.31797717307927 0 0 0 0 156.73940767461954 -113.43101042638591 0 -113.43101042638591 -490.19035204616375 0 0 0 0 270.46915897675206 97.439125422446523 0 97.439125422446523 -375.48710487845528 0 0 0 0 157.78548730521072 12.242358754418092 0 12.242358754418092 -416.80545421407442 0 0 0 0 317.47986116749598 144.462702046716 0 144.462702046716 -424.88444776077813 0 0 0 0 414.52690391416274 182.97542417290242 0 182.97542417290242 -629.26804191904375 0 0 0 0 302.4285048533734 246.82011106414939 0 246.82011106414939 -259.32135597299202 0 0 0 0 164.9714632565192 -62.927955638093408 0 -62.927955638093408 -753.2111074108725 0 0 0 0 229.72980432503005 -87.773021766624879 0 -87.773021766624879 -675.68285941313661 0 0 0 0 -262.36632000898499 133.49964338897553 0 133.49964338897553 -715.30086107074749 0 0 0 0 -179.26579028107153 0.0082692894211504608 0 0.0082692894211504608 -611.40151743483148 0 0 0 0 194.61986406379128 -85.981853539651638 0 -85.981853539651638 -367.0518597929331 0 0 0 0 164.49083675032671 -140.15554750000592 0 -140.15554750000592 -831.94439911498921 0 0 0 0 -4299.9623625230388 -2418.12943617173 0 -2418.12943617173 -612.94218689814443 0 0 0 0 -429.39519220584407 -700.6971006654785 0 -700.6971006654785 -428.31002510071266 0 0 0 0 67.714765925812571 21.139912073747837 0 21.139912073747837 -985.15304534626193 0 0 0 0 174.72316928066437 -77.529267408317537 0 -77.529267408317537 -568.82776882342296 0 0 0 0 165.81494416646547 -139.95551448571496 0 -139.95551448571496 -603.64267502594157 0 0 0 0 123.0577143178898 -243.42550100572407 0 -243.42550100572407 -447.22830028409953 0 0 0 0 79.43013013436439 -145.3016609170736 0 -145.3016609170736 -340.45345145126339 0 0 0 0 0.66897330868187055 -51.231982921894087 0 -51.231982921894087 -327.2521474432433 0 0 0 0 1356.3003937120375 1081.3591333333752 0 1081.3591333333752 275.91635709285038 0 0 0 0 879.26513644183797 -367.16197522765651 0 -367.16197522765651 -1815.5896718160948 0 0 0 0 30.082227721867074 30.592786974076674 0 30.592786974076674 -34.814408611558974 0 0 0 0 -4684.6303803192568 -6243.9892275662278 0 -6243.9892275662278 1674.5821447315393 0 0 0 0 33.510039678564702 -17.295888507034753 0 -17.295888507034753 -111.82020390348066 0 0 0 0 -18.895517580238469 -13.699798971218343 0 -13.699798971218343 -14.544324845707962 0 0 0 0 -762.13897030909357 -714.10317095013306 0 -714.10317095013306 -1266.9248712078988 0 0 0 0 505.18785024776298 127.28041617554118 0 127.28041617554118 -1478.837740469462 0 0 0 0 -390.40934044121968 -384.79203180444165 0 -384.79203180444165 -1660.3871791271376 0 0 0 0 -384.02907561510756 -295.45559029173387 0 -295.45559029173387 -2059.7612127017928 0 0 0 0 -1761.4799696428818 416.72382769177784 0 416.72382769177784 -1681.7906255297748 0 0 0 0 -2974.7720814807253 -440.12647712855687 0 -440.12647712855687 -1991.2415072371041 0 0 0 0 999.57074885616748 -388.60334112722194 0 -388.60334112722194 -2573.2129487921266 0 0 0 0 -551.19428190953477 -86.138067015002889 0 -86.138067015002889 -952.0370477323595 0 0 0 0 -824.76663905622991 1180.6583423542324 0 1180.6583423542324 -5157.8246780499758 0 0 0 0 -399.66064803696986 -468.11666686985154 0 -468.11666686985154 -1039.208214319835 0 0 0 0 1129.4239859170048 23.431640114344191 0 23.431640114344191 -2169.1199118730001 0 0 0 0 34.026631661591999 -12.657352230967092 0 -12.657352230967092 -151.706623709788 0 0 0 0 623.31371733023116 711.70300161842169 0 711.70300161842169 -2388.6579084766308 0 0 0 0 -739.67176046227996 -267.70687987374185 0 -267.70687987374185 -955.46379409485962 0 0 0 0 -171.7421977054928 620.88274507423921 0 620.88274507423921 -1455.752419814864 0 0 0 0 -975.42193874068437 857.19220813600862 0 857.19220813600862 739.1688181576319 0 0 0 0 -1545.0836581795484 257.32229311529409 0 257.32229311529409 115.52050861628959 0 0 0 0 72.104752428953361 2716.0353420715328 0 2716.0353420715328 -1964.3168850052061 0 0 0 0 -974.09514435552865 716.99705000609742 0 716.99705000609742 94.840919787151506 0 0 0 0 45.570352663685675 -0.037485777931422604 0 -0.037485777931422604 -141.52271354049446 0 0 0 0 1339.0969863043647 450.28797447490797 0 450.28797447490797 -723.68374089009012 0 0 0 0 -3.243460589245803 10.023742744993314 0 10.023742744993314 -2.3226818871257251 0 0 0 0 248.67939230669435 351.86577588273212 0 351.86577588273212 25.744492703935975 0 0 0 0 36.667761983158037 -16.430907224775467 0 -16.430907224775467 -132.69226363249351 0 0 0 0 1021.9878575033672 1204.4809809182989 0 1204.4809809182989 -1925.6703480169381 0 0 0 0 -597.08285214409807 1331.15620686482 0 1331.15620686482 -205.04259240584361 0 0 0 0 -615.361023637166 1416.6221374191373 0 1416.6221374191373 142.31881859914574 0 0 0 0 -887.87900442693081 1099.123465407858 0 1099.123465407858 1716.6943968937558 0 0 0 0 -59.412580495314614 782.93960310562397 0 782.93960310562397 -3921.255759149094 0 0 0 0 536.90610918827224 -343.33208330135676 0 -343.33208330135676 -3894.1077128592269 0 0 0 0 -16.446140228814141 9.025041435364102 0 9.025041435364102 -4.6879102851232233 0 0 0 0 -934.70503789899055 848.02741521778808 0 848.02741521778808 2069.6538731483452 0 0 0 0 4.509016561091066 -2.3062715376668734 0 -2.3062715376668734 -5.2096039792724014 0 0 0 0 -37.295613914214833 26.496665793092234 0 26.496665793092234 -10.083084515859397 0 0 0 0 -248.56406999218416 454.0391990353819 0 454.0391990353819 -1656.3089706846586 0 0 0 0 143.95019500072431 -338.18990519252839 0 -338.18990519252839 -3706.7853426152578 0 0 0 0 237.33188353913238 655.40745142025116 0 655.40745142025116 657.29825071950472 0 0 0 0 776.43597490196339 393.80297667110426 0 393.80297667110426 182.96168977805064 0 0 0 0 449.64528968034347 401.3135670259071 0 401.3135670259071 -272.46034187605619 0 0 0 0 222.25630486837304 391.60170800105698 0 391.60170800105698 187.05883591275779 0 0 0 0 414.27677157858398 469.26358474815788 0 469.26358474815788 -617.82792925389731 0 0 0 0 -141.98038033315538 335.6901036519339 0 335.6901036519339 211.01122657384258 0 0 0 0 -192.97672523449182 733.3730775158765 0 733.3730775158765 42.010943775210762 0 0 0 0 199.85718085840881 -123.6812021589576 0 -123.6812021589576 1408.869449502592 0 0 0 0 -283.66252672057271 264.38299325941443 0 264.38299325941443 -627.91951133456314 0 0 0 0 -243.15738736256026 277.93795195959683 0 277.93795195959683 -1226.9687508387069 0 0 0 0 -456.24235601497639 702.35250794825697 0 702.35250794825697 -1144.0376819409357 0 0 0 0 -48.928604924471301 201.46908245786915 0 201.46908245786915 -1684.8610097369383 0 0 0 0 -323.76229102951038 185.67556632561173 0 185.67556632561173 -1253.2251578595751 0 0 0 0 -49.31872758434622 221.47957481639685 0 221.47957481639685 -1136.7008848282858 0 0 0 0 -10.173274820313964 374.11058523719839 0 374.11058523719839 -922.6951923684901 0 0 0 0 -20.90906967213013 11.978687269154477 0 11.978687269154477 0.092101705093133646 0 0 0 0 -247.89263506476709 297.75772997931927 0 297.75772997931927 -2103.5486819721191 0 0 0 0 54.351690721026898 227.55878559280063 0 227.55878559280063 -2091.3768441210632 0 0 0 0 387.03803656348464 505.51664956335298 0 505.51664956335298 -1247.5176046257802 0 0 0 0 70.726254628741799 187.91181339545324 0 187.91181339545324 -1414.7236340397503 0 0 0 0 77.038114233757369 323.88495553992834 0 323.88495553992834 -1240.6658299748597 0 0 0 0 172.86618391264346 115.91296191234142 0 115.91296191234142 -1365.5554917107002 0 0 0 0 174.74186157589429 -155.3096071643231 0 -155.3096071643231 -1977.6084491714282 0 0 0 0 -30.062454600745696 -279.53669455386262 0 -279.53669455386262 -1703.5660348189122 0 0 0 0 -159.00259158691915 -650.10570802626171 0 -650.10570802626171 -2464.8597789132546 0 0 0 0 0.26150876976316795 -292.97203453661677 0 -292.97203453661677 -1492.016181557643 0 0 0 0 -811.04405269505514 440.79195024681394 0 440.79195024681394 -2124.9969926302583 0 0 0 0 116.22742375055168 237.26049699594114 0 237.26049699594114 -1577.1781753150281 0 0 0 0 296.55026896148775 417.41099220199249 0 417.41099220199249 -3339.1277594080238 0 0 0 0 -825.7201154069553 -157.57960008328155 0 -157.57960008328155 76.563967534508265 0 0 0 0 -8.5249167936276535 5.1799893986886474 0 5.1799893986886474 -2.3452150413035149 0 0 0 0 556.76492288624286 49.832211495988304 0 49.832211495988304 -1500.6618359274944 0 0 0 0 -261.41350871020404 430.26290422106831 0 430.26290422106831 -1812.2763811747864 0 0 0 0 -515.137832673292 1061.3515949729372 0 1061.3515949729372 -2327.6264099108957 0 0 0 0 -1602.9139582357311 791.7293117033114 0 791.7293117033114 -490.1376550979985 0 0 0 0 -1367.4544570899598 844.57936679864724 0 844.57936679864724 -1823.0044843700307 0 0 0 0 -2139.2543661037053 461.06167176490999 0 461.06167176490999 -1686.9861916118098 0 0 0 0 -1843.2201266541961 1372.7978213857859 0 1372.7978213857859 -1384.6819729303825 0 0 0 0 -842.50763236072089 39.623626889486331 0 39.623626889486331 -1688.7535226450309 0 0 0 0 -1642.3308653707354 1276.8090102401184 0 1276.8090102401184 -3393.5798479389341 0 0 0 0 -753.96096444374416 -651.91365126224991 0 -651.91365126224991 -3141.8380976459302 0 0 0 0 -451.51046674483223 -288.21516213177529 0 -288.21516213177529 -2885.494869572256 0 0 0 0 -873.90930723433848 128.79312580316036 0 128.79312580316036 -5283.826818869311 0 0 0 0 -3260.8808476595077 1854.472804324284 0 1854.472804324284 -3365.5360723510967 0 0 0 0 -10.935961851786828 12.686556058340699 0 12.686556058340699 -20.546371393470508 0 0 0 0 49.79734286988969 1451.7014892804436 0 1451.7014892804436 -1125.4001287521533 0 0 0 0 -817.48255559473546 452.23570679570184 0 452.23570679570184 -505.66285825576051 0 0 0 0 -1804.2243525901285 2600.2342676036496 0 2600.2342676036496 -1816.3087127840263 0 0 0 0 -1273.4303639711106 -1610.0482182617588 0 -1610.0482182617588 -1937.1900535121677 0 0 0 0 -1207.2466275350307 -1774.9230803026658 0 -1774.9230803026658 -3780.0713895079607 0 0 0 0 -90.358149580526515 -439.91305085326894 0 -439.91305085326894 198.7913044988818 0 0 0 0 386.06561549335311 -467.17883809083287 0 -467.17883809083287 89.960858647362329 0 0 0 0 -51.3776878574281 -300.35826518888643 0 -300.35826518888643 165.39537238978664 0 0 0 0 254.88412238302408 -324.15116756780481 0 -324.15116756780481 167.18639608324884 0 0 0 0 11.049973773792725 35.606630453882644 0 35.606630453882644 -0.89855117783014293 0 0 0 0 210.78343057465099 127.08590229622496 0 127.08590229622496 697.64271303573332 0 0 0 0 760.03149500016298 397.8470888057127 0 397.8470888057127 -120.14921886485536 0 0 0 0 270.50075762832421 260.56228383022244 0 260.56228383022244 -83.519635071163066 0 0 0 0 -188.71873893840529 82.501757894686307 0 82.501757894686307 162.80378471620497 0 0 0 0 210.07990509973024 212.78109417708765 0 212.78109417708765 -398.06885611100006 0 0 0 0 -37.441175016645872 37.805699391211377 0 37.805699391211377 -51.491110466038464 0 0 0 0 -3.4882792102242206 -4.3337029996379215 0 -4.3337029996379215 -17.30324751303786 0 0 0 0 -2.8697190213588328 115.73342148531992 0 115.73342148531992 -184.94416502524109 0 0 0 0 -521.72732360912778 -466.89233336631878 0 -466.89233336631878 -805.27148858668806 0 0 0 0 -52.869062641926575 123.50961903618008 0 123.50961903618008 -58.470546451309929 0 0 0 0 -81.235476791502151 -104.19067752931005 0 -104.19067752931005 -243.78841061692219 0 0 0 0 -17.690363533218488 10.970477531394835 0 10.970477531394835 -83.984100382391958 0 0 0 0 4.6098764203158282 40.571384048837871 0 40.571384048837871 -100.23783711905915 0 0 0 0 -509.55921830647458 -584.88099480067558 0 -584.88099480067558 -803.54330177522206 0 0 0 0 -397.15047017017787 -514.41671220739954 0 -514.41671220739954 -854.22969879160519 0 0 0 0 -591.83967715483595 -861.10198409353325 0 -861.10198409353325 -1277.5701931620715 0 0 0 0 -738.81344307790278 -714.4016353328625 0 -714.4016353328625 -632.61246882104024 0 0 0 0 -152.20485973709037 -534.61893731282998 0 -534.61893731282998 -1853.0880720105488 0 0 0 0 -309.12898167845196 -273.23024559999976 0 -273.23024559999976 -666.66217924562079 0 0 0 0 -57.728278024231258 -71.789131159726821 0 -71.789131159726821 -1484.896169314321 0 0 0 0 -97.059783709673866 -295.5938888307528 0 -295.5938888307528 -1126.5763003043685 0 0 0 0 -55.951340459079347 16.223981507500412 0 16.223981507500412 -953.81776073899528 0 0 0 0 -340.73434388911119 -464.98570655255025 0 -464.98570655255025 -1173.1172865644257 0 0 0 0 -400.53995308099547 -526.77861231242423 0 -526.77861231242423 -717.1085053302595 0 0 0 0 9.0199064434855245 -33.149187990369143 0 -33.149187990369143 -120.61722111392714 0 0 0 0 -266.53519902606763 -433.20002730362449 0 -433.20002730362449 -916.42367353625923 0 0 0 0 -427.66230907934369 -458.39703521783304 0 -458.39703521783304 -664.48212650596543 0 0 0 0 -277.01909536779863 -300.62875322979238 0 -300.62875322979238 -456.85606043726148 0 0 0 0 -296.37909284895204 -40.73100251887945 0 -40.73100251887945 -735.47327477174986 0 0 0 0 16.887839246839675 -39.179895109885365 0 -39.179895109885365 -116.03126243281496 0 0 0 0 -14.856975651618995 -363.14075636577581 0 -363.14075636577581 -458.65069718236555 0 0 0 0 -289.85061413068615 -85.121715962093731 0 -85.121715962093731 -988.89588538334647 0 0 0 0 -28.071672574193144 -36.302189455561802 0 -36.302189455561802 -383.90078466839805 0 0 0 0 -127.18609125381045 -157.27216150136246 0 -157.27216150136246 -273.54133905388699 0 0 0 0 -348.70547286131114 -569.66009671266465 0 -569.66009671266465 -776.04466868832787 0 0 0 0 -254.73139432549397 -642.01262095505081 0 -642.01262095505081 -996.37959709149982 0 0 0 0 -41.283172286339521 26.004452742286176 0 26.004452742286176 -53.609137689048538 0 0 0 0 -90.283804472594056 -141.05976150014976 0 -141.05976150014976 -325.96459465651787 0 0 0 0 -12.589517350992537 2.9709751118862187 0 2.9709751118862187 -170.12261102830234 0 0 0 0 -18.636876486441338 8.831387355877574 0 8.831387355877574 -171.4303384582862 0 0 0 0 75.817987566679221 162.61363011108551 0 162.61363011108551 -200.11090783250984 0 0 0 0 59.472764611111273 15.485822204066579 0 15.485822204066579 -172.55877816865916 0 0 0 0 -47.062162240210455 53.56788334824887 0 53.56788334824887 -170.88870502904319 0 0 0 0 107.38656678692951 18.594835075077754 0 18.594835075077754 -168.18993249630148 0 0 0 0 -30.180456131125538 65.598286537395325 0 65.598286537395325 -268.37719891502638 0 0 0 0 58.75189289161122 27.515856526596657 0 27.515856526596657 -103.31998456278416 0 0 0 0 -91.156315606996941 245.37906558601389 0 245.37906558601389 -205.51810782201937 0 0 0 0 -102.09995878169138 26.773870534758316 0 26.773870534758316 -232.99367685971083 0 0 0 0 122.94641639247129 237.71685862084269 0 237.71685862084269 -151.19692725342975 0 0 0 0 157.96161712108733 82.834202628400817 0 82.834202628400817 -310.54392592984368 0 0 0 0 36.303548738702375 30.498268878654926 0 30.498268878654926 -94.405380858952412 0 0 0 0 383.65922965623395 18.520606366677384 0 18.520606366677384 23.52209270914318 0 0 0 0 413.95860530194477 389.31079825604684 0 389.31079825604684 52.846836067983531 0 0 0 0 -6.3120640040116029 -17.356708864161391 0 -17.356708864161391 -16.892366682521697 0 0 0 0 146.75322507322562 19.126569378218846 0 19.126569378218846 -391.44777406932553 0 0 0 0 110.15808350071165 106.84555645047658 0 106.84555645047658 -284.87971622817713 0 0 0 0 138.80634807452589 94.159640066580323 0 94.159640066580323 -311.17246880850871 0 0 0 0 61.443862006883137 -2.2664233214163687 0 -2.2664233214163687 -165.55800492537674 0 0 0 0 27.641146689405197 -37.848243072964806 0 -37.848243072964806 -114.39724537112619 0 0 0 0 46.261129027471327 -22.497398770859206 0 -22.497398770859206 -149.5204246070748 0 0 0 0 -209.10199423452468 -154.23938621800335 0 -154.23938621800335 -173.93573152905446 0 0 0 0 -375.80368977218677 333.70212762223309 0 333.70212762223309 -370.91521246670163 0 0 0 0 -11.125023165965729 -29.416912186181008 0 -29.416912186181008 -33.551866364812895 0 0 0 0 140.54497258234005 -11.389775723357161 0 -11.389775723357161 -180.17931026610313 0 0 0 0 72.959343308146344 -88.02265185622673 0 -88.02265185622673 -108.17794111627154 0 0 0 0 71.2735861213514 -6.929091397614684 0 -6.929091397614684 -89.396806803764775 0 0 0 0 14.06043640443705 -4.7470490954128337 0 -4.7470490954128337 -83.606566272914222 0 0 0 0 37.41339521125191 -117.84077030150326 0 -117.84077030150326 -240.7055431072389 0 0 0 0 37.716102342268073 15.100229783398404 0 15.100229783398404 -113.25304750802707 0 0 0 0 42.783198382864335 6.5490594930406587 0 6.5490594930406587 -40.166547922212999 0 0 0 0 148.96918343476136 -115.64727672497975 0 -115.64727672497975 12.24277564107615 0 0 0 0 41.083439627787811 -180.43878501182917 0 -180.43878501182917 -137.08090878330404 0 0 0 0 12.521974717515093 -64.885509473549661 0 -64.885509473549661 -70.337678367070737 0 0 0 0 10.338558115718115 -378.09230323559314 0 -378.09230323559314 -973.921858787362 0 0 0 0 -103.51701166189741 114.98015859538282 0 114.98015859538282 -1612.4559378298291 0 0 0 0 -65.428863552231633 237.08731592458207 0 237.08731592458207 -1690.4224816294736 0 0 0 0 172.78647955644556 -157.98202210488671 0 -157.98202210488671 -618.07806796464138 0 0 0 0 -167.38129708017368 211.71921967757226 0 211.71921967757226 -923.78627005277667 0 0 0 0 186.58317877108493 47.71327495577134 0 47.71327495577134 -1405.8781098781037 0 0 0 0 27.275886125837133 -2.5406973622339137 0 -2.5406973622339137 -376.75019957305631 0 0 0 0 -488.21861634738161 342.42288580010063 0 342.42288580010063 -196.89507725220756 0 0 0 0 -32.001001056134413 110.69330230789355 0 110.69330230789355 -90.43182126692281 0 0 0 0 -4.6684625693413579 120.66823590634824 0 120.66823590634824 -61.133802238173736 0 0 0 0 40.80626459360974 85.719136229623473 0 85.719136229623473 -426.61888254058431 0 0 0 0 10.168295558316458 16.78440769178269 0 16.78440769178269 -156.06261656544848 0 0 0 0 68.246875987078965 -31.718478208429588 0 -31.718478208429588 -957.03534748587117 0 0 0 0 -11.631369840895786 182.29441224178299 0 182.29441224178299 -756.72916879139666 0 0 0 0 165.42536404076236 105.27645633710199 0 105.27645633710199 -1137.0708335789532 0 0 0 0 57.014140447763566 -148.42388719845621 0 -148.42388719845621 -923.2195924211992 0 0 0 0 12.971496608111224 99.270453209977887 0 99.270453209977887 -113.76542521975654 0 0 0 0 63.309069847760838 -60.557710826538823 0 -60.557710826538823 -1109.0670194172271 0 0 0 0 65.57506702366075 43.438675718307522 0 43.438675718307522 -132.73032985561198 0 0 0 0 49.142546980512407 160.74164010581535 0 160.74164010581535 -297.68241817039234 0 0 0 0 -78.191884362355268 802.16718914535159 0 802.16718914535159 -2015.3207192544196 0 0 0 0 -249.21212878494467 -174.55236943485852 0 -174.55236943485852 -53.299809896940133 0 0 0 0 1.7199397150672553 -2.800766360950945 0 -2.800766360950945 -8.7476844809204408 0 0 0 0 -173.77418831436444 616.36622207415348 0 616.36622207415348 -1276.408335718399 0 0 0 0 66.349587934219016 334.00497208049273 0 334.00497208049273 -1619.8405217598774 0 0 0 0 70.020190192539303 -124.11021127109416 0 -124.11021127109416 -1108.7830222978228 0 0 0 0 -568.18161926442008 651.60357322981872 0 651.60357322981872 -1980.4132445814867 0 0 0 0 531.51289206739966 -16.043358961520426 0 -16.043358961520426 -3126.0582594648586 0 0 0 0 -678.22833594036092 1085.6942449426861 0 1085.6942449426861 -3303.2973875856842 0 0 0 0 -1137.6118595810449 1023.3258386877533 0 1023.3258386877533 -1298.4888496242929 0 0 0 0 -364.59683591728935 -279.50774717103923 0 -279.50774717103923 70.31785682355985 0 0 0 0 805.83941276711448 -306.72949805430289 0 -306.72949805430289 -906.30352005833993 0 0 0 0 270.9342419821478 -407.55056778265862 0 -407.55056778265862 6.1193369951797649 0 0 0 0 85.110553700550554 -127.41197846399155 0 -127.41197846399155 170.00102730232175 0 0 0 0 -265.43050994868463 -490.25961907183228 0 -490.25961907183228 -501.31213010247302 0 0 0 0 78.568087307987298 -188.19266842062643 0 -188.19266842062643 -251.65944520215271 0 0 0 0 67.724992757528526 -321.81716143868107 0 -321.81716143868107 -185.66313023520343 0 0 0 0 141.94667769149964 -230.40373859067768 0 -230.40373859067768 -742.6721855365613 0 0 0 0 595.39285145114263 -382.72566520638065 0 -382.72566520638065 -259.18648805515841 0 0 0 0 245.26563475938747 113.80663105551503 0 113.80663105551503 -92.807802599389106 0 0 0 0 85.633075398854999 -335.93533600043156 0 -335.93533600043156 -258.02649472353369 0 0 0 0 251.21333724541182 -401.66508604639239 0 -401.66508604639239 -841.3234693495906 0 0 0 0 157.01302049992591 -96.776106041070307 0 -96.776106041070307 -1070.1220493097353 0 0 0 0 178.6818349446562 -283.10054500892966 0 -283.10054500892966 -821.1538361707353 0 0 0 0 175.49417658811217 -43.361956117936643 0 -43.361956117936643 -1068.6078172676498 0 0 0 0 53.353369003740227 -162.72261443150637 0 -162.72261443150637 -1095.4571973890124 0 0 0 0 159.61448375795226 -50.606165471996064 0 -50.606165471996064 -677.33442597501653 0 0 0 0 -12.403215391957929 -121.91874353248932 0 -121.91874353248932 -684.33053263950569 0 0 0 0 -6.0897950087041863 73.268592866923427 0 73.268592866923427 -127.46098477292981 0 0 0 0 82.192963057669658 -6.7419658558574156 0 -6.7419658558574156 -534.72381446733561 0 0 0 0 57.522282678235115 -13.83741250143612 0 -13.83741250143612 -618.74636597291101 0 0 0 0 1.3874638751729034 -6.8687424099271652 0 -6.8687424099271652 -14.464354653747591 0 0 0 0 -3.3785441299978629 120.44612598184904 0 120.44612598184904 -571.0091375251759 0 0 0 0 162.89647995920279 -44.531964913729553 0 -44.531964913729553 -1225.0467924350523 0 0 0 0 164.88143631608236 13.412393436705088 0 13.412393436705088 -911.40492119936971 0 0 0 0 34.659630491174539 -103.73532814484497 0 -103.73532814484497 -821.96858097071527 0 0 0 0 28.166821576563962 -95.589765051641734 0 -95.589765051641734 -815.01693034992786 0 0 0 0 42.290171859855718 -90.404240172923892 0 -90.404240172923892 -824.50654683596804 0 0 0 0 125.22806824885834 32.7477226655501 0 32.7477226655501 -798.10216656580451 0 0 0 0 117.86579833433825 -16.525910064010532 0 -16.525910064010532 -930.31094739050604 0 0 0 0 186.29488824538416 55.607857381467852 0 55.607857381467852 -916.38583335714065 0 0 0 0 186.49509945259979 24.781318141715019 0 24.781318141715019 -935.76620410538453 0 0 0 0 188.97382865672989 -63.292124303552555 0 -63.292124303552555 -1060.551427756378 0 0 0 0 96.567673741737963 229.5079835789802 0 229.5079835789802 -1084.9995193959712 0 0 0 0 156.88009709369362 -58.667058848805027 0 -58.667058848805027 -1038.8988202104811 0 0 0 0 125.41263179396856 81.078924490395366 0 81.078924490395366 -1415.0314176210668 0 0 0 0 132.44032747718302 -43.356261579421698 0 -43.356261579421698 -1043.5960937049822 0 0 0 0 -37.412938568071695 342.89669986520312 0 342.89669986520312 -1318.8060984373515 0 0 0 0 -203.02567711944357 91.681813474628143 0 91.681813474628143 -1257.3782159600814 0 0 0 0 71.350185621786295 186.91615652652399 0 186.91615652652399 -1141.7691664949525 0 0 0 0 153.42721101914503 87.077630572028283 0 87.077630572028283 -759.43357650924008 0 0 0 0 150.53315734928947 66.665691704300116 0 66.665691704300116 -901.26979694702459 0 0 0 0 354.11912240282254 174.09481986156607 0 174.09481986156607 -219.21045989537379 0 0 0 0 2.9233812354013651 -41.435447612882342 0 -41.435447612882342 5.0181341835305027 0 0 0 0 7.2052777995795623 21.454181409964804 0 21.454181409964804 -518.47584932025347 0 0 0 0 -25.979365716908433 166.02640007303853 0 166.02640007303853 -717.65586112255187 0 0 0 0 2.1444595055709215 32.39406539574702 0 32.39406539574702 -185.37713850979344 0 0 0 0 -26.232199909423542 -20.411393636503476 0 -20.411393636503476 -312.16009786192444 0 0 0 0 -21.345168871408305 -264.33067890236362 0 -264.33067890236362 -123.53021110815462 0 0 0 0 349.91616606538264 -47.088403059664415 0 -47.088403059664415 -429.56851913314313 0 0 0 0 1176.4797226130286 32.897626701334957 0 32.897626701334957 -659.4974299342357 0 0 0 0 197.5372795708754 -260.88412598471768 0 -260.88412598471768 -675.53102691858658 0 0 0 0 0.66286241830221115 -275.91118495279079 0 -275.91118495279079 -283.43050603559823 0 0 0 0 -0.61943471436611564 0.66618371761766326 0 0.66618371761766326 -18.140058170930615 0 0 0 0 -964.8683710123596 947.97391309582599 0 947.97391309582599 -173.74593456351431 0 0 0 0 -1033.2021768757349 -816.43833558363258 0 -816.43833558363258 -139.79515502924914 0 0 0 0 -494.8001789539976 394.5005804135435 0 394.5005804135435 -192.80581340318895 0 0 0 0 726.66221506416787 340.60186638261075 0 340.60186638261075 -716.41767614988203 0 0 0 0 70.812025851410908 1074.6585173482017 0 1074.6585173482017 -909.49676821767935 0 0 0 0 -16.760233617531412 -149.14624972248566 0 -149.14624972248566 -698.10457686614245 0 0 0 0 -1.383824215599823 -1.1053709666718703 0 -1.1053709666718703 10.878203565972342 0 0 0 0 85.022459095145791 -65.992739437179551 0 -65.992739437179551 -834.80563539502327 0 0 0 0 84.737809823391217 -132.7822945745429 0 -132.7822945745429 -942.44682490974083 0 0 0 0 21.563060400945687 -102.0795078095689 0 -102.0795078095689 -816.2574083172949 0 0 0 0 16.473196131119039 -114.7536191532854 0 -114.7536191532854 -826.66047007596353 0 0 0 0 40.858743393255281 -37.621136491230573 0 -37.621136491230573 -731.6716369803471 0 0 0 0 -1.5298414324038632 -44.470139428859397 0 -44.470139428859397 -3.5098722984575268 0 0 0 0 -2840.2792653658107 51.286556943552569 0 51.286556943552569 -526.6027309367928 0 0 0 0 31.063826592739133 -3.3113016277056886 0 -3.3113016277056886 -805.31448302347781 0 0 0 0 892.12585795506061 -1482.0841473844139 0 -1482.0841473844139 -889.35150669660652 0 0 0 0 -164.45149581356418 -33.4550351928483 0 -33.4550351928483 80.018121030574548 0 0 0 0 190.80316721010422 116.66416388878861 0 116.66416388878861 -1251.4021600280103 0 0 0 0 12.665596421103409 11.233126100279662 0 11.233126100279662 2.4025571578582614 0 0 0 0 -117.9520488371254 155.5804074116968 0 155.5804074116968 -124.72095276102482 0 0 0 0 91.711458183846844 53.451459726711619 0 53.451459726711619 -1290.5799273514058 0 0 0 0 231.79539518488718 24.083561608049422 0 24.083561608049422 -1446.878311923123 0 0 0 0 201.38617088527644 -166.98577570306225 0 -166.98577570306225 -1442.9981353465992 0 0 0 0 152.79784353158175 6.9159278221486602 0 6.9159278221486602 -1271.54306016599 0 0 0 0 184.28298014706525 -105.94584320423019 0 -105.94584320423019 -1126.0509698432907 0 0 0 0 228.56361803739946 10.888878874011425 0 10.888878874011425 -1278.2203923919005 0 0 0 0 142.63890922558676 -33.860925124385176 0 -33.860925124385176 -1248.4327552955947 0 0 0 0 155.70388133409142 -28.283746461238479 0 -28.283746461238479 -1262.5659142012883 0 0 0 0 88.681580729040434 -98.812241620784334 0 -98.812241620784334 -115.37622529694909 0 0 0 0 31.233254527486579 1.0903409137498841 0 1.0903409137498841 -27.160124364360243 0 0 0 0 94.277533725321064 -37.492478110003276 0 -37.492478110003276 -1263.9105881142314 0 0 0 0 128.20506946587193 -44.192153430172766 0 -44.192153430172766 -277.93272977572633 0 0 0 0 36.201618346225587 -371.85205901093286 0 -371.85205901093286 -1538.2539748974523 0 0 0 0 -29.192441809929733 -198.25689350589528 0 -198.25689350589528 -971.11150448213903 0 0 0 0 33.53211852068145 -24.961618884358217 0 -24.961618884358217 -159.81422981941472 0 0 0 0 32.571613524674518 -27.08223842314797 0 -27.08223842314797 -89.942238770837662 0 0 0 0 -139.25899990453036 124.16102198500448 0 124.16102198500448 -1574.3420441846683 0 0 0 0 91.56132827944748 -110.61803710110689 0 -110.61803710110689 -1348.8511104239296 0 0 0 0 27.278937874231573 -68.445936776601172 0 -68.445936776601172 -123.65975521125512 0 0 0 0 -590.07590551985868 22.11576092039104 0 22.11576092039104 -1199.0682549442281 0 0 0 0 -566.61924941793404 -15.220535701439076 0 -15.220535701439076 -1174.0732440539578 0 0 0 0 -114.56485345584952 184.05192345846444 0 184.05192345846444 -1615.6376513040523 0 0 0 0 -176.05017090759065 1.5044077774218749 0 1.5044077774218749 -1566.4809609143413 0 0 0 0 0.68850555623244247 -5.5198178455164566 0 -5.5198178455164566 -24.63183683489742 0 0 0 0 7.3965173104479618 -0.60792297965963371 0 -0.60792297965963371 -150.82981178426235 0 0 0 0 -248.72270316692811 325.22424570543808 0 325.22424570543808 -863.8760131586605 0 0 0 0 40.03964901646809 -7.4051045152684338 0 -7.4051045152684338 -88.664723905057031 0 0 0 0 30.715595747089537 -13.505459530293592 0 -13.505459530293592 -75.638274522789288 0 0 0 0 -255.65351917145381 595.17871756054228 0 595.17871756054228 -1217.0556571874185 0 0 0 0 167.29237576809101 -9.7500137323804665 0 -9.7500137323804665 -479.74971262534382 0 0 0 0 39.93113889552842 6.0991266391356476 0 6.0991266391356476 -227.02182475826703 0 0 0 0 30.905729134701687 -6.2480944593553431 0 -6.2480944593553431 -205.13441229073214 0 0 0 0 15.901142970332153 -42.454225259164076 0 -42.454225259164076 -5.3477005510179474 0 0 0 0 -1.8361652427291659 1.2277018639239259 0 1.2277018639239259 3.6074950046240133 0 0 0 0 263.26367924313672 5.4717900660762098 0 5.4717900660762098 -879.95983951353264 0 0 0 0 86.371918212058517 -182.97960957152827 0 -182.97960957152827 -363.67240123168449 0 0 0 0 -99.971818921658269 -137.27006660615734 0 -137.27006660615734 143.2899909728294 0 0 0 0 164.23581734819891 109.95105588893057 0 109.95105588893057 -262.42087659734534 0 0 0 0 55.143634767999174 125.82565169056761 0 125.82565169056761 -39.428268944975571 0 0 0 0 -44.746604476331413 109.78419018533896 0 109.78419018533896 -256.60496577402228 0 0 0 0 4.9568873349593829 -7.8680904467400978 0 -7.8680904467400978 -40.250603046412976 0 0 0 0 -178.15716019406682 -126.32219492495642 0 -126.32219492495642 -249.55490775623184 0 0 0 0 -211.65820363470266 -718.75103310690611 0 -718.75103310690611 364.3221875763702 0 0 0 0 -50.785142026305039 -114.07942243739672 0 -114.07942243739672 -142.40820598386927 0 0 0 0 -98.146187225756876 -180.46319509064779 0 -180.46319509064779 -237.78974152078445 0 0 0 0 -0.77857790113557712 -168.10603554174304 0 -168.10603554174304 -245.10588796250522 0 0 0 0 128.66643337537835 -70.241639584921359 0 -70.241639584921359 -240.72902059159242 0 0 0 0 173.70892103440201 174.27478059793066 0 174.27478059793066 -432.64745447869063 0 0 0 0 43.092176885362498 18.337933130043254 0 18.337933130043254 -116.96484758574252 0 0 0 0 17.6146614134434 -2.5867816940970414 0 -2.5867816940970414 -103.48323499030948 0 0 0 0 12.391956582956482 -113.96909587732807 0 -113.96909587732807 -359.69088361697504 0 0 0 0 41.227524314861512 -7.5737127529573627 0 -7.5737127529573627 -126.11940417368896 0 0 0 0 40.632034209887934 -8.445826538350957 0 -8.445826538350957 -107.7891022723752 0 0 0 0 32.656086443034809 8.8739080299656052 0 8.8739080299656052 -72.241134601127982 0 0 0 0 84.49767829268967 35.901089398394106 0 35.901089398394106 -249.40030695135647 0 0 0 0 -204.2666898538082 -152.69533549541666 0 -152.69533549541666 -313.15592505487439 0 0 0 0 140.90496347397857 360.09729839389911 0 360.09729839389911 -937.1747378402797 0 0 0 0 13.494510270441239 23.306469024321785 0 23.306469024321785 -43.342321823231629 0 0 0 0 62.616970640588988 108.13453834047323 0 108.13453834047323 -15.752295947473613 0 0 0 0 12.687507830079994 33.311565229712869 0 33.311565229712869 -212.34872133699537 0 0 0 0 53.159470405267655 2.462778985090111 0 2.462778985090111 -156.78004721920615 0 0 0 0 184.50283847945548 1042.0268184494053 0 1042.0268184494053 -2891.9801893366966 0 0 0 0 13.304647108745879 21.509913873989262 0 21.509913873989262 -104.86821987765359 0 0 0 0 1272.8772956055627 -997.02196974084654 0 -997.02196974084654 -4184.66216251062 0 0 0 0 344.7273258857349 -1139.8824901897169 0 -1139.8824901897169 -600.99100776872365 0 0 0 0 -5.2703604605976579 26.714162213254895 0 26.714162213254895 -181.80816509813303 0 0 0 0 -34.048402600725495 -21.665212973558681 0 -21.665212973558681 -40.912904897143939 0 0 0 0 1.5410608732272522 9.3837293316464638 0 9.3837293316464638 -202.45442835810536 0 0 0 0 -3.7635053361445898 6.271656249076841 0 6.271656249076841 -427.76268847384199 0 0 0 0 -16.468329641226887 26.188009983512188 0 26.188009983512188 -15.880767393573858 0 0 0 0 -8.7845957944402997 6.6856133975357324 0 6.6856133975357324 1.523853317062887 0 0 0 0 31.086409868283226 99.572401036639349 0 99.572401036639349 -487.27334266238904 0 0 0 0 161.98273247077668 77.796805911319098 0 77.796805911319098 -423.87733242153263 0 0 0 0 -312.27958184219324 -414.05886748352168 0 -414.05886748352168 227.99678281524393 0 0 0 0 -327.42377373609452 113.44411464191762 0 113.44411464191762 -131.51123568374896 0 0 0 0 84.893640611098817 50.727885720800259 0 50.727885720800259 -322.16463752283744 0 0 0 0 -98.599608285080194 -87.845172450135578 0 -87.845172450135578 -240.12896962591913 0 0 0 0 55.488756312922355 -1.9017088699474698 0 -1.9017088699474698 -163.14745914875664 0 0 0 0 28.693908657542352 -341.50107084395859 0 -341.50107084395859 -129.96989361356464 0 0 0 0 -27.741825048135663 -88.46333843723545 0 -88.46333843723545 -116.41825080115035 0 0 0 0 -26.657330880290829 19.050887065404822 0 19.050887065404822 -315.43787505777436 0 0 0 0 -2.5061733898872696 -4.512512308210983 0 -4.512512308210983 -12.867058200418114 0 0 0 0 -478.97012220339457 177.95299739560141 0 177.95299739560141 188.74154974651174 0 0 0 0 -852.93325707013719 1062.7963501556951 0 1062.7963501556951 -1042.8760941519722 0 0 0 0 -554.49996861850559 429.40828226350277 0 429.40828226350277 -648.76791330985725 0 0 0 0 1.3763073634250027 -2.2959962519054784 0 -2.2959962519054784 -8.6088056785822573 0 0 0 0 -2.1294776125253385 -12.507357463520492 0 -12.507357463520492 -24.234630584596147 0 0 0 0 7.8497079476609315 -19.129853562188146 0 -19.129853562188146 -87.391123248686199 0 0 0 0 0.75069625908357551 -11.660139803285652 0 -11.660139803285652 -54.309364759816788 0 0 0 0 -267.3575415095238 22.421365880938538 0 22.421365880938538 -67.319281650306948 0 0 0 0 -202.3420100828298 6.3311970059439773 0 6.3311970059439773 -143.5797257834347 0 0 0 0 -137.66878975323709 156.17918041031498 0 156.17918041031498 -451.55248034527176 0 0 0 0 -151.09434534214961 -9.1478418606275227 0 -9.1478418606275227 -149.5600858819671 0 0 0 0 -674.68572520968155 358.03156745637534 0 358.03156745637534 -201.15617758407825 0 0 0 0 41.621502862710258 235.75677604437806 0 235.75677604437806 -806.56012885775999 0 0 0 0 48.748540585616865 -29.170272438881511 0 -29.170272438881511 -681.71294847247191 0 0 0 0 -305.65936374385637 568.41108412336325 0 568.41108412336325 -1490.6594714927778 0 0 0 0 172.81837679916498 37.848615260169026 0 37.848615260169026 -509.67591276139137 0 0 0 0 195.57567239451964 -5.5157096594048198 0 -5.5157096594048198 -663.1528274572338 0 0 0 0 246.83722133105675 80.711255176636769 0 80.711255176636769 -662.18292543123243 0 0 0 0 132.2050624382864 23.525833066953055 0 23.525833066953055 -437.26831243257038 0 0 0 0 98.697074928852089 -12.841543324844679 0 -12.841543324844679 -424.27788733251509 0 0 0 0 86.920727934298156 95.434704580413381 0 95.434704580413381 -223.45106259465683 0 0 0 0 178.09676582423344 -94.792208985163597 0 -94.792208985163597 -280.76487092739262 0 0 0 0 409.65014096564073 122.86714127755477 0 122.86714127755477 -221.72366775412229 0 0 0 0 7.335844991974696 0.084015437969668483 0 0.084015437969668483 -0.35611834969532197 0 0 0 0 18.820055895603218 85.99130457611318 0 85.99130457611318 43.946126937094959 0 0 0 0 245.02086660803184 -265.3281160109982 0 -265.3281160109982 134.91375542787137 0 0 0 0 277.58650967111816 -393.95891774586562 0 -393.95891774586562 158.28840421128552 0 0 0 0 507.16484902002776 109.56830829154205 0 109.56830829154205 -363.45702219873783 0 0 0 0 -3.2016234858792814 146.95462732476881 0 146.95462732476881 -180.26901179707602 0 0 0 0 56.114583014539221 -10.866506897727959 0 -10.866506897727959 9.738091238992638 0 0 0 0 262.22544497621311 65.939061495919304 0 65.939061495919304 -192.68708570578019 0 0 0 0 14.684161634666514 3.9794454304596201 0 3.9794454304596201 -106.42807763349055 0 0 0 0 10.685694177733296 -8.4308304373571445 0 -8.4308304373571445 -233.32817238243297 0 0 0 0 -120.24927927911449 88.53107618161448 0 88.53107618161448 -117.77519723286969 0 0 0 0 -141.03901437180684 280.80091215054563 0 280.80091215054563 -235.39693991394597 0 0 0 0 -16.749381184789968 2.5514498569245916 0 2.5514498569245916 -21.419587331125513 0 0 0 0 -246.48977777463733 -39.820034265438153 0 -39.820034265438153 114.46730021544499 0 0 0 0 -0.75042886443812762 2.3394822552301946 0 2.3394822552301946 -28.172489189330463 0 0 0 0 -347.69635808373278 -36.046084709407296 0 -36.046084709407296 -90.247224826947786 0 0 0 0 -396.10858323853245 -97.328593308237032 0 -97.328593308237032 422.62067863112316 0 0 0 0 -519.03329202378518 340.2693944411003 0 340.2693944411003 -272.13318808759504 0 0 0 0 8.0087911708998512 -17.309303047056602 0 -17.309303047056602 -43.564594310013092 0 0 0 0 -14.047826057544626 28.246656783878279 0 28.246656783878279 -105.09065504286264 0 0 0 0 4.4694232364225854 71.220136867066685 0 71.220136867066685 -175.7186660678708 0 0 0 0 3.8624680784050724 36.695449901148095 0 36.695449901148095 -112.11434590185672 0 0 0 0 11.257052275007482 8.5751572882472828 0 8.5751572882472828 -163.81889612571103 0 0 0 0 14.384588397504007 -21.023827554146521 0 -21.023827554146521 -37.502430838279764 0 0 0 0 -1.7799219215912672 -29.051030255410296 0 -29.051030255410296 -265.8332516818773 0 0 0 0 -3.0005912284805394 -4.0824352471737626 0 -4.0824352471737626 -3.1845030738085143 0 0 0 0 -1.4403671297143319 8.2622600823751782 0 8.2622600823751782 -84.263152531901142 0 0 0 0 22.264653575517112 -20.553977570168598 0 -20.553977570168598 -68.243276985365327 0 0 0 0 8.4230520486280511 21.897282107674982 0 21.897282107674982 -128.23563173947332 0 0 0 0 5.6988572055524855 14.71225690240135 0 14.71225690240135 -203.64154415439407 0 0 0 0 1.9043845819023772 8.893560832941148 0 8.893560832941148 -162.23170226324874 0 0 0 0 -34.070240595738142 -152.24600705066405 0 -152.24600705066405 -113.76280877144018 0 0 0 0 -1.3019939807103498 16.808659651841097 0 16.808659651841097 -109.17381622505371 0 0 0 0 124.75474024645723 -73.112371463278578 0 -73.112371463278578 -183.25095131820126 0 0 0 0 27.012668960831434 33.919508439488709 0 33.919508439488709 -84.60695225087693 0 0 0 0 -0.62492172695146131 -2.5351689074043477 0 -2.5351689074043477 -51.711013716693913 0 0 0 0 -129.53970171509059 -3.1964636023913044 0 -3.1964636023913044 -37.956543398777285 0 0 0 0 277.9927770928773 164.47857016579837 0 164.47857016579837 -482.49151442780567 0 0 0 0 -80.344506386724788 317.48957578910631 0 317.48957578910631 -223.29879029624863 0 0 0 0 90.22635705959874 -63.468008207892126 0 -63.468008207892126 -183.24339287143812 0 0 0 0 88.690388390758017 -31.249022122487077 0 -31.249022122487077 -427.44725610833302 0 0 0 0 -12.166780955983995 -55.633953627730079 0 -55.633953627730079 -322.57036016425991 0 0 0 0 72.243814878625926 -166.93107291919296 0 -166.93107291919296 -681.82880016027775 0 0 0 0 49.546930343291024 113.76857832573114 0 113.76857832573114 -234.1803105771105 0 0 0 0 22.123739208582265 32.853325818607118 0 32.853325818607118 -166.32799177651759 0 0 0 0 13.216262232915142 21.02242295176984 0 21.02242295176984 -91.01923495651863 0 0 0 0 12.967054394237493 41.779690375478822 0 41.779690375478822 -106.71499554329057 0 0 0 0 20.440253368620844 3.4926391424941414 0 3.4926391424941414 1.3459639299384492 0 0 0 0 71.55495098459096 25.176377300282184 0 25.176377300282184 -111.93055589032883 0 0 0 0 53.289764829601609 9.2203252764666104 0 9.2203252764666104 -102.01658075682644 0 0 0 0 35.274101559461087 -26.307415084462264 0 -26.307415084462264 -9.8957889694429468 0 0 0 0 18.512739432084686 -10.796914236718294 0 -10.796914236718294 -28.827381822673487 0 0 0 0 35.17711496616505 6.1389070709235227 0 6.1389070709235227 -12.365988321270734 0 0 0 0 14.947240261668412 19.192520794065786 0 19.192520794065786 -82.2239191087574 0 0 0 0 87.595409046924033 4.7214097900214256 0 4.7214097900214256 -96.245438757861848 0 0 0 0 85.323346901997866 38.64921841553587 0 38.64921841553587 -90.820047940884251 0 0 0 0 402.03611824035124 -174.17656985705253 0 -174.17656985705253 -161.31861450526048 0 0 0 0 9.0817054127956531 -12.303896892503756 0 -12.303896892503756 -78.631232858296357 0 0 0 0 125.77223883377792 17.713578848808538 0 17.713578848808538 -114.17930077387427 0 0 0 0 305.60742257790207 -215.75765228219097 0 -215.75765228219097 -116.17100334656425 0 0 0 0 333.70885287041892 -139.47883805521997 0 -139.47883805521997 -70.091034766053781 0 0 0 0 326.08423962922279 -215.41183371742954 0 -215.41183371742954 100.4048326597549 0 0 0 0 28.875104663285128 -74.78178772557294 0 -74.78178772557294 155.12141920113936 0 0 0 0 332.62045361036104 -168.37203455442841 0 -168.37203455442841 60.230781429505441 0 0 0 0 9.3766845473261817 -5.516431500080607 0 -5.516431500080607 -7.0147414983113094 0 0 0 0 363.42955173958399 -237.92405925746425 0 -237.92405925746425 91.583705508790445 0 0 0 0 41.566016982179917 5.0122159938546247 0 5.0122159938546247 -64.274578103912063 0 0 0 0 27.826789333381384 -18.644875822312315 0 -18.644875822312315 27.710146143719612 0 0 0 0 27.589564025900764 -31.599745403741792 0 -31.599745403741792 -54.017415816220321 0 0 0 0 317.14222516418249 -217.80362592854362 0 -217.80362592854362 121.62384362745797 0 0 0 0 -1.3226763630726541 -4.0485948103311671 0 -4.0485948103311671 5.3829735156650713 0 0 0 0 10.86772745870779 0.87149523238758775 0 0.87149523238758775 -12.560120490913562 0 0 0 0 -150.9064617955346 -509.64411625443609 0 -509.64411625443609 1004.4832024424395 0 0 0 0 -57.804353285732304 -803.61826832170482 0 -803.61826832170482 610.93254973576404 0 0 0 0 331.8518496631587 -362.57976969864103 0 -362.57976969864103 -433.04070184280863 0 0 0 0 289.99715974885476 -314.46461782779079 0 -314.46461782779079 184.22624510861351 0 0 0 0 525.414863054325 -179.19966034567915 0 -179.19966034567915 -166.98276254342636 0 0 0 0 462.88802835759998 -22.194103446570807 0 -22.194103446570807 378.48564295552205 0 0 0 0 585.51454967876907 -25.754967357032001 0 -25.754967357032001 376.90859963663388 0 0 0 0 378.20570019821389 -328.5491225264268 0 -328.5491225264268 325.0292672580108 0 0 0 0 1220.3823301995326 -435.22213428188115 0 -435.22213428188115 299.63451808050741 0 0 0 0 113.05276245253155 -1125.3739535463537 0 -1125.3739535463537 -764.49163034651428 0 0 0 0 -232.15530724867534 756.51707567916128 0 756.51707567916128 -189.95329081718228 0 0 0 0 -330.6200544895928 658.22203178278869 0 658.22203178278869 -395.27840636760811 0 0 0 0 120.82608791037433 520.1666345364647 0 520.1666345364647 -1081.5709226167528 0 0 0 0 -157.60283829545256 396.97901092030224 0 396.97901092030224 -143.8860230454884 0 0 0 0 397.35461989108035 -120.60731094403309 0 -120.60731094403309 -208.84512154312688 0 0 0 0 298.07058741163974 -99.800576591223944 0 -99.800576591223944 -145.97256728187494 0 0 0 0 269.16364960457076 74.724124729138566 0 74.724124729138566 -405.33342634422479 0 0 0 0 349.03059826274591 117.30839864675363 0 117.30839864675363 -414.23234762714128 0 0 0 0 -152.11497992929117 387.29199029397569 0 387.29199029397569 -406.64173734187534 0 0 0 0 135.91532539678838 149.74644830532634 0 149.74644830532634 -223.45475756790256 0 0 0 0 48.152997348855934 58.871050379821099 0 58.871050379821099 -253.41826358241815 0 0 0 0 -272.66612744179059 378.84349537579328 0 378.84349537579328 -239.35233600295032 0 0 0 0 -139.80902322688166 348.97770569298882 0 348.97770569298882 -623.65473953029141 0 0 0 0 -138.65601661299752 304.59541648221784 0 304.59541648221784 -195.48086022768985 0 0 0 0 -219.59083754666244 315.13813970334013 0 315.13813970334013 -181.08198323233955 0 0 0 0 18.355184441017627 -52.687319617311005 0 -52.687319617311005 -171.14473212604935 0 0 0 0 -25.917155488315075 5.2688279244539444 0 5.2688279244539444 -138.32259323773906 0 0 0 0 -14.440293032421778 -66.967189607923501 0 -66.967189607923501 -368.29207132943702 0 0 0 0 -5.2674940933634193 3.4644659441197803 0 3.4644659441197803 -14.757380105568728 0 0 0 0 -155.32907990007914 201.56346531983218 0 201.56346531983218 36.090250471723266 0 0 0 0 -15.236698602242086 -13.589733404500294 0 -13.589733404500294 -774.19517922741943 0 0 0 0 -8.6013984016539453 -0.94984878596477529 0 -0.94984878596477529 4.3929004601503721 0 0 0 0 42.107594958407745 -10.940447300855482 0 -10.940447300855482 -27.148878631993227 0 0 0 0 42.127752841739493 2.6007783922104863 0 2.6007783922104863 -144.19997120088374 0 0 0 0 31.734689742555034 -21.463997140463789 0 -21.463997140463789 -30.188211153724183 0 0 0 0 160.16418722738945 -12.548811429041962 0 -12.548811429041962 -152.59905747891753 0 0 0 0 -125.53286026489195 119.35894061738145 0 119.35894061738145 187.18798182526371 0 0 0 0 71.014388883998436 -87.047333179762063 0 -87.047333179762063 -61.794277460634476 0 0 0 0 -8.0501206286442084 -36.714812174039253 0 -36.714812174039253 -462.00195930140762 0 0 0 0 -27.259904691772434 26.172656535758961 0 26.172656535758961 -22.571938974336717 0 0 0 0 82.114816027783036 131.7639069408433 0 131.7639069408433 -45.331843650477822 0 0 0 0 -75.798560771588654 1.4678003537119366 0 1.4678003537119366 -383.91038210583793 0 0 0 0 -13.315659816035199 7.3854602878817275 0 7.3854602878817275 -4.8293858777169589 0 0 0 0 -118.33780912361772 -107.06205408908863 0 -107.06205408908863 -410.83961472858209 0 0 0 0 -243.49209662553176 423.21283789753579 0 423.21283789753579 76.75567379174754 0 0 0 0 85.675790163156307 -154.25876968700322 0 -154.25876968700322 -1456.6623864067515 0 0 0 0 -54.745122017283393 84.1681386406417 0 84.1681386406417 -483.02094099876558 0 0 0 0 -31.005134467340213 -46.911775991211471 0 -46.911775991211471 -339.17564243572997 0 0 0 0 20.348864798848808 44.757644167781109 0 44.757644167781109 -334.0615436812659 0 0 0 0 -48.774244373207466 -1.3241725574989687 0 -1.3241725574989687 -138.99736184804351 0 0 0 0 35.373659541959114 -21.13760377575818 0 -21.13760377575818 -307.931729370006 0 0 0 0 24.655523780198109 -43.092700862805941 0 -43.092700862805941 -306.00860277727952 0 0 0 0 -8.1622178374705072 5.526287723594578 0 5.526287723594578 -136.1703357231163 0 0 0 0 20.702490230012017 19.210204494469508 0 19.210204494469508 -405.56897227048466 0 0 0 0 -15.843479990668357 84.542857821463258 0 84.542857821463258 -490.75482604579793 0 0 0 0 47.352853398895206 -32.710028172779857 0 -32.710028172779857 -482.44829890108667 0 0 0 0 52.446146825596543 -19.33140892477968 0 -19.33140892477968 -424.18004914355697 0 0 0 0 37.30704646095046 14.066438038353226 0 14.066438038353226 -419.85857696563471 0 0 0 0 10.183679654648415 13.295020034507615 0 13.295020034507615 -5.7042690551097621 0 0 0 0 -17.151817555252819 88.155157362605678 0 88.155157362605678 39.476856157842576 0 0 0 0 -135.93001620796508 -82.004415238916408 0 -82.004415238916408 41.388781195535557 0 0 0 0 -174.02669771565996 -209.95454978226917 0 -209.95454978226917 -145.04047334156348 0 0 0 0 11.159167100091054 -146.50784989591921 0 -146.50784989591921 -286.91940094027086 0 0 0 0 -19.691977100093254 -97.448227369663073 0 -97.448227369663073 -282.82574044464855 0 0 0 0 6.4095400326414165 -57.104900414124131 0 -57.104900414124131 -304.50258517023758 0 0 0 0 -45.890614648002611 -46.756062971777283 0 -46.756062971777283 -100.6917592422833 0 0 0 0 -0.46587927712835153 -74.63151157325774 0 -74.63151157325774 -304.67942371605659 0 0 0 0 164.20361680881103 -75.281675807680585 0 -75.281675807680585 -596.6947421078803 0 0 0 0 31.796109986438353 -45.28618210307468 0 -45.28618210307468 -563.49573249270907 0 0 0 0 0.22869648815759569 -100.09277513827692 0 -100.09277513827692 -770.89837577263825 0 0 0 0 -221.87095251058497 -373.56074411783266 0 -373.56074411783266 -431.67292559467023 0 0 0 0 0.1268843462708073 -0.045939392271151291 0 -0.045939392271151291 -4.3805025116408842 0 0 0 0 2.717246321862973 -197.40894264827148 0 -197.40894264827148 -535.26854210474994 0 0 0 0 -11.31935226274004 -250.89481726541999 0 -250.89481726541999 -568.16512210608926 0 0 0 0 223.67179039094793 -184.57036700170283 0 -184.57036700170283 -775.69057489885017 0 0 0 0 -373.85846958620209 435.13793378113769 0 435.13793378113769 -1241.0294410258066 0 0 0 0 -26.056818210946101 -204.32761903798382 0 -204.32761903798382 -553.65612301733927 0 0 0 0 70.919656116860523 -406.26404517589253 0 -406.26404517589253 -715.42767072847346 0 0 0 0 -0.34721737263146779 101.26258785547543 0 101.26258785547543 -190.63573242124403 0 0 0 0 247.81355407378888 22.52440515885246 0 22.52440515885246 -558.00786661988377 0 0 0 0 1.9390835904339054 -0.24329490638982065 0 -0.24329490638982065 -0.28631548337011736 0 0 0 0 145.10610889649305 -146.12987358621467 0 -146.12987358621467 35.87265153642511 0 0 0 0 95.210579893031991 145.78057703872764 0 145.78057703872764 -835.68569771143666 0 0 0 0 53.291627506197329 37.216984506572771 0 37.216984506572771 -119.06124170182011 0 0 0 0 76.53777771783642 -2.6915920842147898 0 -2.6915920842147898 -188.06761327608547 0 0 0 0 66.567706948435941 61.016578551250859 0 61.016578551250859 -166.71669350004231 0 0 0 0 -20.514976942389467 -32.708193514445156 0 -32.708193514445156 -406.28330199606717 0 0 0 0 -9.7690800216103071 -1.980315678025363 0 -1.980315678025363 -362.16548873123247 0 0 0 0 2.7784667963701808 4.0714226556619337 0 4.0714226556619337 -7.6713233969997816 0 0 0 0 48.490260596802869 20.560250776994508 0 20.560250776994508 -31.705185958446236 0 0 0 0 5.4963484390423778 1.1055326277423774 0 1.1055326277423774 -8.182846171326787 0 0 0 0 15.323938509030821 -12.698078123255982 0 -12.698078123255982 -88.557763364835409 0 0 0 0 19.144103458695568 28.116268660873175 0 28.116268660873175 -295.17939816002036 0 0 0 0 58.293551473102532 107.11016279597982 0 107.11016279597982 2.7824348748545162 0 0 0 0 -0.40454738048635003 0.69860754558141025 0 0.69860754558141025 -0.71552671329638429 0 0 0 0 31.966104410943103 146.3343283283466 0 146.3343283283466 71.770033691253047 0 0 0 0 83.663770167153956 -72.930313149758149 0 -72.930313149758149 -364.53892345085478 0 0 0 0 21.590104267287984 -30.129280227032723 0 -30.129280227032723 -229.39785013101937 0 0 0 0 -23.155035776405981 203.44943128547675 0 203.44943128547675 84.841434546251548 0 0 0 0 268.83096399249632 29.64546434461954 0 29.64546434461954 -1020.4975814827776 0 0 0 0 198.29218823635642 291.55415949280359 0 291.55415949280359 -708.71900257049128 0 0 0 0 58.355832236146085 110.49322022435081 0 110.49322022435081 120.25515818691929 0 0 0 0 1.0879403696695418 -0.40397312114822626 0 -0.40397312114822626 -5.7067708493164346 0 0 0 0 -186.15946487032443 285.25340364660951 0 285.25340364660951 -467.51187405208475 0 0 0 0 0.21979952700984329 -0.16911586600267015 0 -0.16911586600267015 -5.0563296075332573 0 0 0 0 -0.35861119034478861 149.90086848496867 0 149.90086848496867 201.72890876315068 0 0 0 0 0.18661042113977167 64.70208216195897 0 64.70208216195897 -150.48316086705745 0 0 0 0 -34.740235038158033 -18.593586795293959 0 -18.593586795293959 -169.81290328671457 0 0 0 0 96.543248440276329 35.202715706414892 0 35.202715706414892 -695.40335653402144 0 0 0 0 15.196785532060439 38.179768793052062 0 38.179768793052062 -106.75236373844382 0 0 0 0 -0.15600641255326497 0.8886877670524882 0 0.8886877670524882 -1.3846034402357645 0 0 0 0 2.9636288827221904 146.25683193576697 0 146.25683193576697 -787.86532909164089 0 0 0 0 14.045073600053437 193.46246411019092 0 193.46246411019092 -1005.2196314495231 0 0 0 0 0.048365155897727191 108.33707529886306 0 108.33707529886306 -826.08142141597637 0 0 0 0 -4.6365457074023197 126.36824060916842 0 126.36824060916842 -872.31365080436808 0 0 0 0 13.254830539567536 208.83273613602796 0 208.83273613602796 -767.38163894222816 0 0 0 0 2.7355391311809285 117.05473731314123 0 117.05473731314123 -1168.3216810888262 0 0 0 0 -70.961202696104067 121.13214877092105 0 121.13214877092105 -1031.6212184025499 0 0 0 0 28.00613828995273 186.294357221479 0 186.294357221479 -1002.8129502645461 0 0 0 0 -57.123210843434727 229.6847487226205 0 229.6847487226205 -1013.0552719186817 0 0 0 0 -56.299735794091418 13.530956281407271 0 13.530956281407271 -930.9071882156004 0 0 0 0 32.84840994158975 40.584866580698872 0 40.584866580698872 -1102.6150262652518 0 0 0 0 -97.972562344404025 83.796320063240273 0 83.796320063240273 -934.53108143099234 0 0 0 0 103.68815393809163 58.131264155395911 0 58.131264155395911 -927.56421184027568 0 0 0 0 -87.05802562219715 4.5845016270213819 0 4.5845016270213819 -833.26506121910643 0 0 0 0 138.953760529551 120.717774232995 0 120.717774232995 -913.43396490439773 0 0 0 0 48.547824604282539 71.800236295355717 0 71.800236295355717 -779.27383780236414 0 0 0 0 -27.106264977125889 99.155895882111508 0 99.155895882111508 -910.59538736875402 0 0 0 0 -63.346570471219344 52.858373071750975 0 52.858373071750975 -919.53360192626133 0 0 0 0 -110.36918367482193 72.217673254628608 0 72.217673254628608 -1021.8051908619236 0 0 0 0 49.961278656770588 79.908362354457495 0 79.908362354457495 -1021.8084203198669 0 0 0 0 -39.612504729145023 74.64384115068242 0 74.64384115068242 -1127.8835265723756 0 0 0 0 -86.775008127893571 -20.355525896698964 0 -20.355525896698964 -1067.7704143841111 0 0 0 0 -17.888165210403372 43.116942231426947 0 43.116942231426947 -1022.0304638308153 0 0 0 0 -33.204505404444021 -43.700108084893145 0 -43.700108084893145 -1014.2175831182103 0 0 0 0 21.9263436941701 -26.758515969515429 0 -26.758515969515429 -1084.7272866279127 0 0 0 0 25.085597401222685 118.74522935368441 0 118.74522935368441 -937.82985104235195 0 0 0 0 9.4652388048195917 -119.54120054561645 0 -119.54120054561645 -857.20710124847392 0 0 0 0 -318.16334599451329 108.60425647428201 0 108.60425647428201 -980.23487833869876 0 0 0 0 24.447252115663176 -47.731021659018097 0 -47.731021659018097 -1372.7159204873897 0 0 0 0 -126.39710313886962 -353.18134807357274 0 -353.18134807357274 -1317.0853449885544 0 0 0 0 -10.94268572010742 264.34359336306807 0 264.34359336306807 -907.44013718770293 0 0 0 0 -1.3829300418519779 441.11463120816188 0 441.11463120816188 -1784.6275556641194 0 0 0 0 -23.547464963488494 -54.243712034784949 0 -54.243712034784949 -965.31409114820417 0 0 0 0 -3.4995671440992737 -198.06446572999994 0 -198.06446572999994 -931.0922272719763 0 0 0 0 59.768044908488719 -245.9056051158841 0 -245.9056051158841 -840.3558835053409 0 0 0 0 -30.903999318794604 17.136169923003763 0 17.136169923003763 -39.727543015964329 0 0 0 0 -176.76821071666831 46.311721509580821 0 46.311721509580821 -516.88768126678769 0 0 0 0 -79.482390094087805 -114.67225229154428 0 -114.67225229154428 -613.61757132789353 0 0 0 0 32.733009174630297 -40.687090032399283 0 -40.687090032399283 -75.785093740285447 0 0 0 0 7.6996011755340277 -10.700317235398245 0 -10.700317235398245 -8.1961893481477333 0 0 0 0 5.6991337145391814 -33.697777793276146 0 -33.697777793276146 -18.016973140816958 0 0 0 0 382.35761018826713 -228.11116805368874 0 -228.11116805368874 -21.249661452777218 0 0 0 0 74.53894017156972 17.980970311633428 0 17.980970311633428 -201.19170892500551 0 0 0 0 26.194223992284876 -18.721019096723353 0 -18.721019096723353 -29.905906355039093 0 0 0 0 77.204687637018196 37.672686963120213 0 37.672686963120213 -88.149941813549958 0 0 0 0 12.571540419458415 -40.29934359654726 0 -40.29934359654726 -22.501949968980625 0 0 0 0 49.318978701569847 38.000514037470566 0 38.000514037470566 -90.849869058773038 0 0 0 0 7.3117307234286546 10.078759164178052 0 10.078759164178052 -25.693447093884629 0 0 0 0 26.225754717280893 11.322413437283103 0 11.322413437283103 -41.3196383958566 0 0 0 0 47.082643567884077 -4.9458181613881607 0 -4.9458181613881607 -108.62425132814678 0 0 0 0 -50.207500260925372 -12.014601103011955 0 -12.014601103011955 -676.68818636616925 0 0 0 0 1.3931321732651574 9.4018414848728753 0 9.4018414848728753 -13.764600484478478 0 0 0 0 -1.2835902402785608 -11.136396292679194 0 -11.136396292679194 -1.8697736260797129 0 0 0 0 14.60787180396369 -1.7120791413763072 0 -1.7120791413763072 -76.661556311708409 0 0 0 0 -34.932829140077956 -21.220561158203054 0 -21.220561158203054 -44.763602005850771 0 0 0 0 1.8241821256110091 -9.9960181764229787 0 -9.9960181764229787 1.4827329404820802 0 0 0 0 40.006245487770684 -15.336056268875836 0 -15.336056268875836 -96.37118180069956 0 0 0 0 1261.5477858146278 597.36717855027746 0 597.36717855027746 -644.76906613833853 0 0 0 0 343.44088105425908 266.61680948454887 0 266.61680948454887 884.49588179159036 0 0 0 0 -328.78924483336823 188.96106465963021 0 188.96106465963021 417.54046657617801 0 0 0 0 -257.44896533141582 1028.3261671021173 0 1028.3261671021173 -51.326690519155818 0 0 0 0 127.51041623212222 375.81701529965721 0 375.81701529965721 271.63015685005666 0 0 0 0 324.68563226578772 361.98371763281466 0 361.98371763281466 244.59710969805565 0 0 0 0 1012.9230490606205 612.58905237354338 0 612.58905237354338 -380.95766573881338 0 0 0 0 459.29455261697512 884.78541944460449 0 884.78541944460449 482.90718333500263 0 0 0 0 439.2838423250214 1329.8488023294267 0 1329.8488023294267 1249.132604319806 0 0 0 0 925.88126774142756 -21.032866999807084 0 -21.032866999807084 -752.66765770098573 0 0 0 0 1569.7702790690673 1760.5871395080976 0 1760.5871395080976 -432.0472925050708 0 0 0 0 697.10272467107279 191.40000648831119 0 191.40000648831119 -413.15157656044175 0 0 0 0 953.07455852069324 414.32025033846003 0 414.32025033846003 -1003.7020679029665 0 0 0 0 -20.290856606121451 -88.757347430866503 0 -88.757347430866503 -568.1052004781377 0 0 0 0 180.8993110045667 -100.58867758297492 0 -100.58867758297492 -740.3299092931702 0 0 0 0 25.48569520428282 141.4296506845094 0 141.4296506845094 -772.15002060001279 0 0 0 0 82.381484771925898 7.4829718841192516 0 7.4829718841192516 -477.95691299238388 0 0 0 0 -22.69877615745925 -5.2182144297164541 0 -5.2182144297164541 -345.36266453762073 0 0 0 0 31.111189795453356 5.1105076840904076 0 5.1105076840904076 -372.43004744406608 0 0 0 0 33.686714915133962 -45.437565513009758 0 -45.437565513009758 -425.43638060856392 0 0 0 0 52.638967781187205 -8.5487906391598969 0 -8.5487906391598969 -17.637118645574077 0 0 0 0 554.55502964800655 192.82040309168531 0 192.82040309168531 19.424242869688896 0 0 0 0 16.197286438413656 -4.9715135878740284 0 -4.9715135878740284 3.8644972685879466 0 0 0 0 789.59958203190035 1252.1753461988083 0 1252.1753461988083 941.23041248583831 0 0 0 0 534.57019375848904 394.59346350442866 0 394.59346350442866 -319.14772988757613 0 0 0 0 746.20067259989446 147.94157236375759 0 147.94157236375759 -255.49768140403194 0 0 0 0 681.88250099461766 89.301879747356907 0 89.301879747356907 -114.19293254061631 0 0 0 0 1164.3369533920904 -826.54536497975641 0 -826.54536497975641 -240.22025658988559 0 0 0 0 622.17137432293202 125.20426456065979 0 125.20426456065979 -46.817352554870013 0 0 0 0 718.78042715248466 264.0712416370161 0 264.0712416370161 -666.79840234305448 0 0 0 0 156.06666077270438 -539.9775566502758 0 -539.9775566502758 -1350.8631116626275 0 0 0 0 868.58862431145099 1113.0923363161382 0 1113.0923363161382 -1187.2870958893182 0 0 0 0 -460.91657456172834 15.877016599119088 0 15.877016599119088 -1034.5785613395346 0 0 0 0 -321.90317552211445 218.7197142832847 0 218.7197142832847 -1738.8188360036729 0 0 0 0 -294.64216528719226 -187.24103780901714 0 -187.24103780901714 -1231.5857516919714 0 0 0 0 -122.96832010040271 -56.634023412269016 0 -56.634023412269016 -1447.353502887956 0 0 0 0 -144.37511798669038 -4.8305553744976351 0 -4.8305553744976351 -1572.036817065884 0 0 0 0 -62.164431576958123 -152.49507019302064 0 -152.49507019302064 -1511.9152058775362 0 0 0 0 -59.822543854639662 -158.55540744915197 0 -158.55540744915197 -1711.9052160133033 0 0 0 0 -167.81140184165997 -279.53793457267238 0 -279.53793457267238 -1536.8763833297926 0 0 0 0 -132.92041006753789 -221.84868818172981 0 -221.84868818172981 -1441.5110996443473 0 0 0 0 -84.243701602272267 -379.79345318533888 0 -379.79345318533888 -2551.7235821461763 0 0 0 0 44.215191946096638 -79.471583773847669 0 -79.471583773847669 -1525.2424601786843 0 0 0 0 35.101050191413378 -84.27064136305853 0 -84.27064136305853 -1486.4517534177012 0 0 0 0 40.646085836655402 -89.026978290705301 0 -89.026978290705301 -1488.3503655151671 0 0 0 0 29.932605998486906 -94.32643606588681 0 -94.32643606588681 -1496.4341196194146 0 0 0 0 2.6646325966248696 -119.49892704569356 0 -119.49892704569356 -1567.9913434429545 0 0 0 0 11.177444291137363 -84.2710553436591 0 -84.2710553436591 -1494.058270286303 0 0 0 0 -23.59495949549455 -131.3527799008516 0 -131.3527799008516 -1507.2496220407265 0 0 0 0 -105.26798175799559 -231.21568665553787 0 -231.21568665553787 -1468.560138071276 0 0 0 0 -47.648396605722155 -149.26552302092387 0 -149.26552302092387 -1352.0520529992064 0 0 0 0 5.0345168220610503 -94.930043620972356 0 -94.930043620972356 -1405.1258098648032 0 0 0 0 -14.793897607669351 -139.75351480032259 0 -139.75351480032259 -1506.0339063059 0 0 0 0 -8.9712237902276684 -166.22093148803106 0 -166.22093148803106 -1409.9825220172643 0 0 0 0 18.29992231848064 -131.50371074590475 0 -131.50371074590475 -1318.9820642410778 0 0 0 0 28.813681765350339 -51.77105924612988 0 -51.77105924612988 -1368.056719586355 0 0 0 0 30.013148046639799 -99.761724601868991 0 -99.761724601868991 -1418.2039059189847 0 0 0 0 -65.934888869152928 -125.91818322795007 0 -125.91818322795007 -897.93100729931029 0 0 0 0 -67.0557992918948 -228.83527083506488 0 -228.83527083506488 -1208.4808681525278 0 0 0 0 -10.488975888951245 -108.0071429180316 0 -108.0071429180316 -1213.5132612258603 0 0 0 0 -130.8920501966295 -278.38006416606731 0 -278.38006416606731 -885.57859739004925 0 0 0 0 -136.8330770984976 -353.3449890798729 0 -353.3449890798729 -1274.2985908320479 0 0 0 0 1.3486492078518495 -192.33464110284331 0 -192.33464110284331 522.95863793732133 0 0 0 0 60.611439263891953 628.99595477083494 0 628.99595477083494 -419.729097038904 0 0 0 0 167.6034996156377 -806.14764675136394 0 -806.14764675136394 -1106.5998860867003 0 0 0 0 -154.13312391948421 -125.17677657991226 0 -125.17677657991226 -775.76433830243695 0 0 0 0 -43.530182508557118 -98.041785267654632 0 -98.041785267654632 -902.04629534749893 0 0 0 0 -223.61141597514506 299.26622871776271 0 299.26622871776271 319.48366942210123 0 0 0 0 -7.8289917698770779 3.056079530836719 0 3.056079530836719 -1.2531902799120758 0 0 0 0 281.11069468033338 640.81999545314034 0 640.81999545314034 -1061.9526603460326 0 0 0 0 -51.725415868207023 39.399127842153973 0 39.399127842153973 -23.863022034264951 0 0 0 0 144.00669842539355 293.48860241662805 0 293.48860241662805 437.76816753797902 0 0 0 0 -12.467905088080016 8.5976374680658978 0 8.5976374680658978 -6.7278072910694604 0 0 0 0 -43.825977239081112 153.0807313583864 0 153.0807313583864 669.68122323566058 0 0 0 0 -104.66891291581669 -319.84970958028862 0 -319.84970958028862 -1485.5911060942381 0 0 0 0 -36.993483573298448 26.249924245790126 0 26.249924245790126 -16.357089139227384 0 0 0 0 168.27124929333513 217.07692447246154 0 217.07692447246154 269.18465462903623 0 0 0 0 102.38529129386734 183.55394536895255 0 183.55394536895255 254.17198518478472 0 0 0 0 175.03723439340683 165.50822179580246 0 165.50822179580246 -254.28791307202118 0 0 0 0 124.20323858285337 236.81119553701501 0 236.81119553701501 339.95455824046803 0 0 0 0 176.54480778013567 280.6707579520189 0 280.6707579520189 272.25380556088203 0 0 0 0 254.84286854366655 275.65078409147463 0 275.65078409147463 251.7842427233918 0 0 0 0 216.64216332957403 324.07939098937823 0 324.07939098937823 246.29704357335868 0 0 0 0 86.43985717844771 334.8870748499794 0 334.8870748499794 236.67575955306893 0 0 0 0 192.13237814517379 300.92385140183615 0 300.92385140183615 191.74991016825516 0 0 0 0 122.06271885993192 399.23830233334957 0 399.23830233334957 151.27329517824546 0 0 0 0 87.092282207690005 443.23853962190697 0 443.23853962190697 147.16118400224514 0 0 0 0 97.975095064255584 368.96355683588627 0 368.96355683588627 330.22424374525872 0 0 0 0 85.893362384951615 275.28487513665459 0 275.28487513665459 277.9310665752073 0 0 0 0 6.4673657432213076 298.06862443855334 0 298.06862443855334 290.15784325875575 0 0 0 0 218.7594481314336 199.20925005586469 0 199.20925005586469 111.36303436770686 0 0 0 0 68.195985819224006 244.48450254740601 0 244.48450254740601 224.446863757963 0 0 0 0 184.76201616143589 292.34479428508166 0 292.34479428508166 235.53891533041315 0 0 0 0 -207.18497053351166 4.3850691434709006 0 4.3850691434709006 44.42632667448197 0 0 0 0 4.4728549857341022 -7.7036823625251145 0 -7.7036823625251145 33.571482541839941 0 0 0 0 51.748827453615377 62.269375225580006 0 62.269375225580006 -114.61778111821695 0 0 0 0 236.38361312772031 466.23402249762148 0 466.23402249762148 128.85996851630352 0 0 0 0 -471.93908466971516 325.28702802835869 0 325.28702802835869 106.10498232491955 0 0 0 0 -9.9084935780701926 525.56105388298056 0 525.56105388298056 477.47544529455263 0 0 0 0 -3.3695763187442935 286.2939357010132 0 286.2939357010132 589.57533827496081 0 0 0 0 240.85707240384363 141.5475211662706 0 141.5475211662706 348.27948131144512 0 0 0 0 288.00746056341814 447.06610748386811 0 447.06610748386811 616.07711721111991 0 0 0 0 -31.734776189165132 168.62829065081678 0 168.62829065081678 1189.36779060966 0 0 0 0 4.3774735016867794 -1.3175463607582572 0 -1.3175463607582572 -0.45803451468350431 0 0 0 0 83.390989993000403 344.95910058464597 0 344.95910058464597 518.71421756729251 0 0 0 0 20.400679877624498 43.103400051131757 0 43.103400051131757 548.18799482821487 0 0 0 0 85.431791201197484 273.01814376627226 0 273.01814376627226 244.4426374372124 0 0 0 0 150.33254774825764 265.49801804222625 0 265.49801804222625 -11.16042385892797 0 0 0 0 205.57770393854116 189.55050956376181 0 189.55050956376181 276.84465365206415 0 0 0 0 32.967339289691154 193.62322827585922 0 193.62322827585922 337.48964367691042 0 0 0 0 201.01529873433174 184.18096909604174 0 184.18096909604174 37.841125032929995 0 0 0 0 66.317536110836954 204.82534247360491 0 204.82534247360491 -146.79507130073034 0 0 0 0 3.8203383304971794 213.06169557892463 0 213.06169557892463 35.362020033769113 0 0 0 0 113.42094263065155 269.1496239513981 0 269.1496239513981 -187.98045764423296 0 0 0 0 18.972918158797256 275.38350210594217 0 275.38350210594217 -11.556696407350955 0 0 0 0 119.03279163885418 169.58364637568684 0 169.58364637568684 78.255672292420059 0 0 0 0 72.305482689114797 99.611370426301619 0 99.611370426301619 65.622080986016954 0 0 0 0 75.913076730885223 160.58418229942345 0 160.58418229942345 118.49228659699293 0 0 0 0 25.048911179597781 158.40719852557595 0 158.40719852557595 239.52299822561508 0 0 0 0 -7.6392624936888751 81.708333319593294 0 81.708333319593294 3.1380635751793307 0 0 0 0 54.64374033419881 124.74397690669866 0 124.74397690669866 -156.68355609901482 0 0 0 0 30.358981320161547 192.45959439798753 0 192.45959439798753 101.6103438870141 0 0 0 0 -46.945191745879129 120.11338102582704 0 120.11338102582704 -14.613538194518696 0 0 0 0 11.661586937778338 -12.476352502008012 0 -12.476352502008012 -96.280314408719278 0 0 0 0 30.491713216753851 70.54581145998236 0 70.54581145998236 14.364019689353881 0 0 0 0 -66.229209411314514 -76.801368743901548 0 -76.801368743901548 -81.013242634655398 0 0 0 0 53.170900771696097 -62.109622199915862 0 -62.109622199915862 -55.507308850450499 0 0 0 0 112.7846681611918 -78.558957830973668 0 -78.558957830973668 -84.071005419033099 0 0 0 0 61.376986267576285 54.413975698291324 0 54.413975698291324 -18.66209347818949 0 0 0 0 14.138689119950868 -126.40895554227973 0 -126.40895554227973 -82.713430649362635 0 0 0 0 59.156685145997471 -137.7286601492724 0 -137.7286601492724 -81.437033046531724 0 0 0 0 132.11905336271229 -205.23292601449793 0 -205.23292601449793 -57.858557990577538 0 0 0 0 100.51337754326232 -247.09201745023893 0 -247.09201745023893 -108.53676522880414 0 0 0 0 167.12631350123047 -196.27705811175474 0 -196.27705811175474 -119.32914769437048 0 0 0 0 191.62944950884958 -225.01534069023728 0 -225.01534069023728 -109.5339002763285 0 0 0 0 253.40382130241414 -118.18765725256344 0 -118.18765725256344 -80.350607907254016 0 0 0 0 259.43032737074827 -159.3727894087242 0 -159.3727894087242 -135.32801553753598 0 0 0 0 257.80134396515132 -157.61022062760094 0 -157.61022062760094 -132.38511501339235 0 0 0 0 172.82635844311881 82.677566528458556 0 82.677566528458556 -24.179845402089995 0 0 0 0 182.22355020733812 -23.968071088820579 0 -23.968071088820579 -51.309081967179736 0 0 0 0 145.15166873650378 -55.861695139945368 0 -55.861695139945368 -70.620125398349046 0 0 0 0 332.76972399873921 17.661091071771807 0 17.661091071771807 -43.718582095742022 0 0 0 0 229.051726325044 211.9882038454125 0 211.9882038454125 124.29601483351871 0 0 0 0 366.34011829955853 247.80900521933654 0 247.80900521933654 128.61329039473549 0 0 0 0 347.99087116339433 169.73088938532237 0 169.73088938532237 96.495938851365281 0 0 0 0 298.44679601239568 43.581438895226711 0 43.581438895226711 -58.233345245258533 0 0 0 0 499.96576915015248 200.89797616564829 0 200.89797616564829 61.91509014411713 0 0 0 0 456.78858385706189 -75.632132920465665 0 -75.632132920465665 -150.39406119466003 0 0 0 0 480.68371909654525 -84.61221633166133 0 -84.61221633166133 -160.46796235379588 0 0 0 0 252.52711143764463 -181.17825948067912 0 -181.17825948067912 -162.78755044550053 0 0 0 0 677.44164350330175 -276.97051135680158 0 -276.97051135680158 44.713986150265555 0 0 0 0 216.89040407401626 -239.35010946509283 0 -239.35010946509283 28.238756668826682 0 0 0 0 622.01081405430159 -172.05500411282992 0 -172.05500411282992 -189.44403947247338 0 0 0 0 1.1264782735110757 4.9280087157923376 0 4.9280087157923376 -17.458710693221875 0 0 0 0 502.84226024523196 -16.872686886688825 0 -16.872686886688825 -84.076834289284307 0 0 0 0 971.27151513393619 22.448379874615057 0 22.448379874615057 -86.448015597161429 0 0 0 0 593.36154860329952 360.60711149780218 0 360.60711149780218 224.12813250337058 0 0 0 0 696.50413898929514 181.08380158062664 0 181.08380158062664 -92.751282380086195 0 0 0 0 3.3711533415376067 8.2513630625895189 0 8.2513630625895189 -20.524737275011745 0 0 0 0 567.5770351528281 391.00073749921103 0 391.00073749921103 -0.79449342944644741 0 0 0 0 697.73694421498658 240.28880877648771 0 240.28880877648771 -189.83581808946838 0 0 0 0 820.30091613857803 329.36677497815981 0 329.36677497815981 -125.10611894802423 0 0 0 0 644.37123726435675 223.12766687733892 0 223.12766687733892 185.96534141450684 0 0 0 0 -15.017019746656388 57.113719875566858 0 57.113719875566858 -183.76359272623813 0 0 0 0 53.272878197571117 79.836982057979185 0 79.836982057979185 -328.45351763434155 0 0 0 0 -176.82188348641284 217.24481468645899 0 217.24481468645899 -203.44249318313814 0 0 0 0 -168.97910625840268 156.017785185717 0 156.017785185717 -25.091376385862532 0 0 0 0 -1.2966371307866709 13.068323551227643 0 13.068323551227643 -21.145517830195004 0 0 0 0 -164.15580211989072 300.16504343193628 0 300.16504343193628 -470.67632842410239 0 0 0 0 -53.627611378105939 173.1495653031343 0 173.1495653031343 -490.34638026568155 0 0 0 0 65.591174293247605 -123.54793307524596 0 -123.54793307524596 13.090296754045994 0 0 0 0 56.270139039910191 109.07236598243981 0 109.07236598243981 -217.47890767546596 0 0 0 0 19.693900848656995 35.617233136890718 0 35.617233136890718 -251.94832599831716 0 0 0 0 -13.603707097511617 30.529492757735881 0 30.529492757735881 -52.20178672236095 0 0 0 0 9.4746055607890156 -0.41095568948522754 0 -0.41095568948522754 -94.278146334007189 0 0 0 0 -6.8207913940111453 6.9564367463711747 0 6.9564367463711747 -119.87003516012615 0 0 0 0 -17.903049830158125 34.498858617207588 0 34.498858617207588 -85.340811771779954 0 0 0 0 255.23053218542373 -177.79256235397406 0 -177.79256235397406 -306.20879754056659 0 0 0 0 161.21792156554147 -262.32776209493022 0 -262.32776209493022 -207.30261594539479 0 0 0 0 68.331208555215198 215.76398392837837 0 215.76398392837837 -313.59131772903675 0 0 0 0 -9.7758496050229269 69.593544436379602 0 69.593544436379602 -32.935624755589835 0 0 0 0 -28.697264214944774 -27.850668568286302 0 -27.850668568286302 -60.141878475219784 0 0 0 0 487.71869714038439 -287.57112193884859 0 -287.57112193884859 -528.9981254348495 0 0 0 0 151.01315520818389 176.92760243102111 0 176.92760243102111 -809.28089971743066 0 0 0 0 30.931621419485367 -2.852674309354299 0 -2.852674309354299 -117.99220204239106 0 0 0 0 106.04960267820974 -175.92670016107613 0 -175.92670016107613 -238.91729856911843 0 0 0 0 105.84095301823618 -235.10345519799375 0 -235.10345519799375 -156.31414603220765 0 0 0 0 164.68952008896667 -201.15939688172875 0 -201.15939688172875 -155.90440580689756 0 0 0 0 255.18734903900258 -228.04868060790784 0 -228.04868060790784 -200.93844592625101 0 0 0 0 281.54324571405596 -266.16485308123083 0 -266.16485308123083 -651.02599457761971 0 0 0 0 157.2250306226706 -211.0192049958132 0 -211.0192049958132 -186.41667492433044 0 0 0 0 187.39183537400095 -244.45016387341457 0 -244.45016387341457 -160.51623052952164 0 0 0 0 356.70520210269206 -140.66446240738333 0 -140.66446240738333 -13.722129118021257 0 0 0 0 151.6785472396914 -320.1058565988842 0 -320.1058565988842 -6.4655036148324143 0 0 0 0 229.21328563987481 -312.07829696428234 0 -312.07829696428234 -183.32623709992913 0 0 0 0 147.84765359384983 -392.42506510170278 0 -392.42506510170278 427.08932947565336 0 0 0 0 29.051884403063013 -213.19204294431074 0 -213.19204294431074 5.2886868318614688 0 0 0 0 -625.62734713382088 -209.91741780661323 0 -209.91741780661323 -61.051934155577328 0 0 0 0 99.561596557712164 -55.346369962504468 0 -55.346369962504468 -19.178916440292596 0 0 0 0 52.675117429814627 -32.160637962021568 0 -32.160637962021568 -89.736975127703303 0 0 0 0 8.1733745534918114 0.78954706708561417 0 0.78954706708561417 -27.049644972246263 0 0 0 0 -156.84364357619233 -840.13501184484267 0 -840.13501184484267 147.39009995554261 0 0 0 0 -5.2627025956774425 -14.292650207672715 0 -14.292650207672715 -15.291138020457332 0 0 0 0 491.13421952644831 1269.3356694960403 0 1269.3356694960403 -978.75925858787014 0 0 0 0 -426.347534072489 305.86067235635346 0 305.86067235635346 385.48410718214654 0 0 0 0 -334.88849201185258 -433.33787952809507 0 -433.33787952809507 438.34079324574623 0 0 0 0 -78.850597648274743 509.15781496517229 0 509.15781496517229 -686.07866749079403 0 0 0 0 -16.56652522409604 126.63089813379702 0 126.63089813379702 -148.2415514358363 0 0 0 0 -337.85616687850779 527.24966953507828 0 527.24966953507828 68.679561571629165 0 0 0 0 -273.99629674577773 800.85360715720162 0 800.85360715720162 -1258.8172048781998 0 0 0 0 -70.410437195532609 245.26784841019798 0 245.26784841019798 -557.78804230356764 0 0 0 0 -12.974026419304209 163.96789876000184 0 163.96789876000184 -891.70332656305254 0 0 0 0 -85.61814697038244 374.99956496146842 0 374.99956496146842 -625.35718975484633 0 0 0 0 -199.1797288412381 -745.40416158043081 0 -745.40416158043081 -741.36037509351263 0 0 0 0 204.77209864480028 -174.9984793493677 0 -174.9984793493677 -528.75757359822455 0 0 0 0 -394.38257559955855 -982.44182846157491 0 -982.44182846157491 315.79321626717865 0 0 0 0 276.48416658289898 -251.8169149483756 0 -251.8169149483756 -2684.5521384026433 0 0 0 0 -55.234587714190639 -1825.7254800874252 0 -1825.7254800874252 -1261.1941800641944 0 0 0 0 -119.35876078222293 -696.03719490498952 0 -696.03719490498952 -633.45788369331422 0 0 0 0 -128.02391256873307 -262.38851512311885 0 -262.38851512311885 34.818561701122235 0 0 0 0 111.31277821430649 -451.69533589571802 0 -451.69533589571802 -966.02444278349139 0 0 0 0 12.732709071150799 3.7646032353323733 0 3.7646032353323733 2.0922123994070176 0 0 0 0 189.51356871891414 46.590038195794477 0 46.590038195794477 -305.53060948985876 0 0 0 0 -709.13586066052449 14.332698830989102 0 14.332698830989102 -73.471425305069715 0 0 0 0 49.733579642475888 139.84699844094212 0 139.84699844094212 -361.35849128822156 0 0 0 0 147.57002939835638 75.323695364101695 0 75.323695364101695 -861.92126139512402 0 0 0 0 -109.74313064621549 -369.24480461557391 0 -369.24480461557391 -753.98119299278187 0 0 0 0 32.883632446522824 157.89326579467524 0 157.89326579467524 -320.24980293189401 0 0 0 0 29.90844755973713 27.715164807281219 0 27.715164807281219 -10.31104082349038 0 0 0 0 4.8753369686437509 194.55916215861726 0 194.55916215861726 -146.75314275826531 0 0 0 0 156.34382857310993 275.25888972566008 0 275.25888972566008 -441.88844420529495 0 0 0 0 205.79605863930192 148.59240133177082 0 148.59240133177082 -604.97444176696081 0 0 0 0 218.16007249640279 277.35126031052096 0 277.35126031052096 -750.06698352492822 0 0 0 0 74.99465877683906 -34.404770741304674 0 -34.404770741304674 -719.78221180198261 0 0 0 0 165.37939957612252 9.2314558683247014 0 9.2314558683247014 -766.96280467494216 0 0 0 0 -62.152464988310385 -225.91713505946609 0 -225.91713505946609 -616.30194014620793 0 0 0 0 -57.910512328242476 -248.93299840126565 0 -248.93299840126565 -499.62946108022152 0 0 0 0 213.29609210024864 -48.699677631695522 0 -48.699677631695522 -518.67986086959718 0 0 0 0 150.00487753853758 2.4564229352163238 0 2.4564229352163238 -434.72612456151546 0 0 0 0 -249.48744542810164 -93.132414277875796 0 -93.132414277875796 -2457.060945349167 0 0 0 0 -1188.7542685313815 1456.045827901266 0 1456.045827901266 -985.96648410427588 0 0 0 0 -184.00963850477274 -38.165532527658797 0 -38.165532527658797 -833.25412561736084 0 0 0 0 84.024655989953317 28.763124416153005 0 28.763124416153005 -1079.3041609086649 0 0 0 0 -159.12114786213897 187.3497353468756 0 187.3497353468756 -1609.0677876285044 0 0 0 0 -550.69693374938652 -608.36388743198768 0 -608.36388743198768 -1231.3457826363192 0 0 0 0 -207.95434395149641 -421.32293720824964 0 -421.32293720824964 -878.16096348135943 0 0 0 0 -196.85939445104123 -408.11922111203967 0 -408.11922111203967 -1147.1245317845096 0 0 0 0 -2.3501329642290116 5.2028843421665592 0 5.2028843421665592 -16.966942863862485 0 0 0 0 -1083.1855588020044 -1092.5723264592234 0 -1092.5723264592234 -1280.3819144765439 0 0 0 0 -369.88808366063586 444.78435006853033 0 444.78435006853033 -337.98736940945673 0 0 0 0 -499.31467062674346 -724.05929183791886 0 -724.05929183791886 -2227.5616147225774 0 0 0 0 -261.56198459003645 9.3388037239783444 0 9.3388037239783444 172.22069136262871 0 0 0 0 15.573835261819568 -249.5629374841792 0 -249.5629374841792 95.045050797118165 0 0 0 0 -457.52435854537907 -286.52344062224074 0 -286.52344062224074 -172.94078839438589 0 0 0 0 -1016.9076981529702 -688.89316958485006 0 -688.89316958485006 -455.99480418588792 0 0 0 0 -302.02767167492311 -252.09411936417746 0 -252.09411936417746 -263.51527611751953 0 0 0 0 235.30312640819898 -22.631338661522932 0 -22.631338661522932 -159.55557785890414 0 0 0 0 -5.5495515498142796 14.877705362764619 0 14.877705362764619 -48.143923431490492 0 0 0 0 -209.35800323053081 -76.241468921718479 0 -76.241468921718479 -11.958231746437377 0 0 0 0 65.249333959719479 -72.241190135098805 0 -72.241190135098805 -12.089236009938759 0 0 0 0 2.2998880148727645 8.0502573869989913 0 8.0502573869989913 -10.250902580922016 0 0 0 0 63.339996579619765 -319.65323865873506 0 -319.65323865873506 -328.4221423442068 0 0 0 0 44.44393161422704 -186.51756572866725 0 -186.51756572866725 -205.88532324025437 0 0 0 0 -438.30342007692934 -440.06345693333469 0 -440.06345693333469 -290.53729521558853 0 0 0 0 -48.225336498457182 -395.3651030775145 0 -395.3651030775145 -357.96447925898246 0 0 0 0 -143.49926280502041 -338.09896377439873 0 -338.09896377439873 -280.1271190054249 0 0 0 0 37.379034762058836 -236.81804520999412 0 -236.81804520999412 -534.55067667379626 0 0 0 0 -183.86722285320866 -465.35628848767374 0 -465.35628848767374 -597.93486008298305 0 0 0 0 -303.17557368821144 -263.7058970023827 0 -263.7058970023827 -364.46300272446388 0 0 0 0 -221.41085593681419 -354.43455592775717 0 -354.43455592775717 -264.76240056823735 0 0 0 0 104.28410081661059 -398.12057523650583 0 -398.12057523650583 -500.87093528341211 0 0 0 0 -221.54805785057133 -375.03796435553295 0 -375.03796435553295 -246.53380090437713 0 0 0 0 190.832500704837 -570.11621825397015 0 -570.11621825397015 -362.34102843359142 0 0 0 0 126.59025009565812 -621.73917445571169 0 -621.73917445571169 -81.529072600853397 0 0 0 0 -46.557442739982434 -364.48950005386359 0 -364.48950005386359 -109.56298207047803 0 0 0 0 -24.07143862819089 -22.900665126855529 0 -22.900665126855529 -101.5440735352604 0 0 0 0 -14.690235442357334 -13.412224005653115 0 -13.412224005653115 -122.48675010339593 0 0 0 0 15.880994680786809 6.6237966841901006 0 6.6237966841901006 -92.457062224779889 0 0 0 0 -205.91257015302654 -333.87697666640815 0 -333.87697666640815 -633.44722802127217 0 0 0 0 -23.019788556964649 -4.5524195723176319 0 -4.5524195723176319 -24.487445840584048 0 0 0 0 -70.505933690186794 -254.40550727469235 0 -254.40550727469235 -611.05404110879317 0 0 0 0 18.019435959655311 6.512558603180878 0 6.512558603180878 -121.90406642309972 0 0 0 0 13.669738762824636 6.7915451521494106 0 6.7915451521494106 -103.31973399891604 0 0 0 0 1.022962837364048 8.122346826093235 0 8.122346826093235 -24.859495119551866 0 0 0 0 11.612834124330158 9.0534256302450444 0 9.0534256302450444 -42.248323215869348 0 0 0 0 14.230803270454999 20.908179201144776 0 20.908179201144776 -146.66635280577248 0 0 0 0 9.7507455574200499 14.400081974770545 0 14.400081974770545 -73.939606422211142 0 0 0 0 -109.91366534700319 64.863656531037122 0 64.863656531037122 86.419680522803901 0 0 0 0 12.549535736285179 37.934850256669904 0 37.934850256669904 -46.298948543636925 0 0 0 0 -7.7100933848855426 26.986725710006578 0 26.986725710006578 -32.142623881840969 0 0 0 0 -2.9673435005127065 54.266917402541509 0 54.266917402541509 -75.021438468476148 0 0 0 0 -16.739706298113788 86.731473283789455 0 86.731473283789455 -194.21266587190621 0 0 0 0 -18.577294308467572 92.337788066852227 0 92.337788066852227 -163.35524088204238 0 0 0 0 -12.779297808873917 73.432196018805527 0 73.432196018805527 -28.753080166759602 0 0 0 0 41.068019358311403 115.34952025934217 0 115.34952025934217 -262.82570516283886 0 0 0 0 -224.11093108439309 116.82040592996782 0 116.82040592996782 88.500555250178877 0 0 0 0 17.953043909343251 130.97638440898663 0 130.97638440898663 -805.91915049780437 0 0 0 0 -13.518802738563688 14.141015557190491 0 14.141015557190491 19.906973789931584 0 0 0 0 23.496969071891272 84.933260457264169 0 84.933260457264169 -425.56068703735218 0 0 0 0 -82.921023287899516 -15.8203640512329 0 -15.8203640512329 -115.69583116329159 0 0 0 0 -363.10199541673319 355.6618187879285 0 355.6618187879285 -381.95384883704901 0 0 0 0 -138.84196502572922 7.9004788571946847 0 7.9004788571946847 29.849738686643832 0 0 0 0 -38.144838806329062 82.049738424480893 0 82.049738424480893 -291.97695043082058 0 0 0 0 -61.513073414402243 96.950650782539014 0 96.950650782539014 -236.01511486314121 0 0 0 0 17.049634267469479 -18.67854198274955 0 -18.67854198274955 -30.64198773882876 0 0 0 0 60.229051729911589 -38.412585273472359 0 -38.412585273472359 -359.05641894903238 0 0 0 0 16.140210490820664 43.430015041158185 0 43.430015041158185 -71.948972519909148 0 0 0 0 21.322816220934328 42.511777617059124 0 42.511777617059124 -134.60342087491881 0 0 0 0 15.610857171615372 44.789442964644081 0 44.789442964644081 -119.27221683874872 0 0 0 0 16.375476639812405 76.473542581621587 0 76.473542581621587 -82.121615814405232 0 0 0 0 30.552250197273679 16.873522766731185 0 16.873522766731185 -64.262853819674092 0 0 0 0 69.82462990973363 107.74867107328464 0 107.74867107328464 -73.170795348654792 0 0 0 0 -642.60396042247885 -1270.4694845331251 0 -1270.4694845331251 -1217.6387919264671 0 0 0 0 2.0145780410778755 -54.982269910080873 0 -54.982269910080873 -82.70705292547045 0 0 0 0 83.745425594715925 194.62127532992599 0 194.62127532992599 -123.38139122613302 0 0 0 0 20.729095511369451 -28.66358366869099 0 -28.66358366869099 -217.1811750161869 0 0 0 0 3486.7523927778784 1780.2718720008816 0 1780.2718720008816 -4188.602921438709 0 0 0 0 46.054093324994028 -166.84730237272561 0 -166.84730237272561 -290.53929570926266 0 0 0 0 -252.84657809580676 53.856032692645385 0 53.856032692645385 -9.4952771448256499 0 0 0 0 26.80456523086832 -46.707257540736464 0 -46.707257540736464 -522.00637795660441 0 0 0 0 -884.04934751477049 -465.13687444897369 0 -465.13687444897369 -335.49044548397069 0 0 0 0 -12.118946143757682 9.4881382339479075 0 9.4881382339479075 -9.6972246650692711 0 0 0 0 57.142275018868531 238.8335638809649 0 238.8335638809649 93.571352959734213 0 0 0 0 110.90001294810645 -992.74393677018452 0 -992.74393677018452 -1437.6614303834467 0 0 0 0 24.536342903280456 82.261933809315451 0 82.261933809315451 108.99295075211558 0 0 0 0 118.48851528441082 95.230670773678867 0 95.230670773678867 -51.61280865883964 0 0 0 0 51.867808871094894 124.91951642677668 0 124.91951642677668 -60.285737614989557 0 0 0 0 -25.483341378034083 38.089301972576727 0 38.089301972576727 -27.263136983080713 0 0 0 0 34.796262565268989 -193.8143204307089 0 -193.8143204307089 -580.26059927757888 0 0 0 0 -89.474157431513959 -24.812005388630496 0 -24.812005388630496 -448.5692946497802 0 0 0 0 -1.5025043191186687 -14.652890044260943 0 -14.652890044260943 2.4733761712879669 0 0 0 0 205.2265753257052 -0.76393012117841863 0 -0.76393012117841863 -355.109330789659 0 0 0 0 483.5082526683891 31.401693761017668 0 31.401693761017668 -238.46614824124845 0 0 0 0 304.15830261933297 -117.19441532557175 0 -117.19441532557175 -618.12617684313409 0 0 0 0 95.520677477063145 77.483926485881966 0 77.483926485881966 -406.8493434591237 0 0 0 0 423.5562475779443 -75.270418553176569 0 -75.270418553176569 -419.29227472931234 0 0 0 0 203.91769374936848 -44.007473648645828 0 -44.007473648645828 -203.23356294032783 0 0 0 0 53.866881176269089 -454.85846650819803 0 -454.85846650819803 396.79804921612958 0 0 0 0 -1.8369477915524612 2.8064597925501502 0 2.8064597925501502 -8.0927577698989666 0 0 0 0 69.783834574345747 -222.99419908228083 0 -222.99419908228083 164.50447553794947 0 0 0 0 261.09865002207516 -105.58044959757535 0 -105.58044959757535 -250.14113456045743 0 0 0 0 282.85089587693983 -3.7316085959046177 0 -3.7316085959046177 175.40289968552679 0 0 0 0 -10.719063329122035 -24.226906513092821 0 -24.226906513092821 -85.466689589444016 0 0 0 0 -28.234735331722316 -7.3162472583156699 0 -7.3162472583156699 -28.166752122706406 0 0 0 0 50.510042942743894 -17.907269454482957 0 -17.907269454482957 -1309.9359500978608 0 0 0 0 -23.685028129810235 -20.451300970882585 0 -20.451300970882585 -117.607579073946 0 0 0 0 10.364070190065831 44.032050879446615 0 44.032050879446615 -1178.2916175603605 0 0 0 0 -20.013948685235214 -10.213117392344195 0 -10.213117392344195 -100.09520561721089 0 0 0 0 40.586613194289384 -366.85135412678937 0 -366.85135412678937 -1358.5455107239177 0 0 0 0 -65.442268643450006 -112.31705882758979 0 -112.31705882758979 -831.12708827944516 0 0 0 0 -21.018640909602254 -25.575518276240473 0 -25.575518276240473 -107.23932483256431 0 0 0 0 -0.6815312634134898 -136.2474625598843 0 -136.2474625598843 -480.15554933765816 0 0 0 0 190.5684757156379 237.776563639144 0 237.776563639144 -1456.8263524021604 0 0 0 0 -1.3826260283818179 -7.111581067359424 0 -7.111581067359424 -28.098238225061607 0 0 0 0 -35.419524746041148 -9.9267886753550414 0 -9.9267886753550414 -9.7655187063896278 0 0 0 0 1.9039475215844845 -45.790543344139365 0 -45.790543344139365 -58.443284180056963 0 0 0 0 -142.30966960463047 -202.49751809372174 0 -202.49751809372174 3.704870885547507 0 0 0 0 -41.845446532208832 14.953673340115969 0 14.953673340115969 -155.98473019858648 0 0 0 0 -34.87581542206317 48.77891051874758 0 48.77891051874758 -159.82883131328708 0 0 0 0 -12.452556511423609 19.832921962188266 0 19.832921962188266 -228.2176461507097 0 0 0 0 -4.7444485664567537 18.898226452690324 0 18.898226452690324 -319.60422794564511 0 0 0 0 -6.6145681673679064 68.818103092780802 0 68.818103092780802 -577.22788496090652 0 0 0 0 -2.0094218602898763 -46.343923588079633 0 -46.343923588079633 -378.85469088761238 0 0 0 0 27.773666001823585 -18.276764197798911 0 -18.276764197798911 -288.50554952866514 0 0 0 0 -5.7676511330537323 28.825079815382196 0 28.825079815382196 -217.09453555819528 0 0 0 0 21.122119788237654 4.5631902887756013 0 4.5631902887756013 -24.540176762836069 0 0 0 0 -24.778521771160687 2.9757730157378006 0 2.9757730157378006 -5.1412463367552519 0 0 0 0 -135.71439285498991 -68.12851648655851 0 -68.12851648655851 -102.33758083398425 0 0 0 0 -20.069418019798 19.730053130282585 0 19.730053130282585 -4.8547882845099295 0 0 0 0 -2.3312090662893752 -63.012354209182377 0 -63.012354209182377 -350.25143030108302 0 0 0 0 5.0886599786708757 -13.676160689644348 0 -13.676160689644348 -313.52716882982349 0 0 0 0 -28.077933648124599 62.738617820825311 0 62.738617820825311 -132.82877469767845 0 0 0 0 25.968936798091818 119.6183549619891 0 119.6183549619891 -393.87900173667731 0 0 0 0 55.69255251431241 111.98475209604658 0 111.98475209604658 -246.99946783965424 0 0 0 0 -24.685608403368438 6.7433428241162119 0 6.7433428241162119 3.1336512744985754 0 0 0 0 -17.81879506678888 16.66742906782747 0 16.66742906782747 -99.533773657414713 0 0 0 0 -67.158421027480699 -43.043897900632146 0 -43.043897900632146 -146.4105534501432 0 0 0 0 -41.880326711948825 1.6542624461223454 0 1.6542624461223454 -22.252725386671813 0 0 0 0 -21.117178984895872 24.58880123180279 0 24.58880123180279 -177.06008973859571 0 0 0 0 -26.60183220801909 -3.8831490112868039 0 -3.8831490112868039 -18.092487715955947 0 0 0 0 -107.71883261432868 -42.735419458465913 0 -42.735419458465913 -122.76064063662488 0 0 0 0 -79.018736870900739 -129.24418753110513 0 -129.24418753110513 -245.23616559848597 0 0 0 0 -27.279053877314702 -24.636014700959436 0 -24.636014700959436 -74.138830805131875 0 0 0 0 -12.678339934493355 17.602677152166663 0 17.602677152166663 -15.015620643059368 0 0 0 0 -35.879834960748184 -21.602033841045795 0 -21.602033841045795 -101.585177222325 0 0 0 0 -33.405233198785027 -17.536494936814051 0 -17.536494936814051 -102.97434106013679 0 0 0 0 -8.4305131593118503 -17.687023614589872 0 -17.687023614589872 -92.751012575725014 0 0 0 0 -28.063270175302023 -15.106259632477304 0 -15.106259632477304 -107.86524750983881 0 0 0 0 -29.29585657577627 -22.475477590211085 0 -22.475477590211085 -107.42061728974841 0 0 0 0 -23.449561225388607 -21.120934664511879 0 -21.120934664511879 -104.31892560289998 0 0 0 0 -29.040995965381171 -20.941265909044887 0 -20.941265909044887 -99.977677261369536 0 0 0 0 -28.230789256132994 -14.275591605022782 0 -14.275591605022782 -99.355411863176414 0 0 0 0 -5.0307305319183797 -18.266250363889412 0 -18.266250363889412 -105.88168639592914 0 0 0 0 -26.271659781641574 -27.645821234702453 0 -27.645821234702453 -95.708810797361366 0 0 0 0 -17.332972260760091 -10.687947224862711 0 -10.687947224862711 -75.052539752735044 0 0 0 0 -44.946253038015129 -14.9446104997769 0 -14.9446104997769 -94.230156241203076 0 0 0 0 -17.234142177981084 -24.146992435751599 0 -24.146992435751599 -109.48403769212018 0 0 0 0 -44.006764354168567 -14.353268529416662 0 -14.353268529416662 -82.995620634450631 0 0 0 0 -16.32839867886274 -16.938316485087981 0 -16.938316485087981 -61.321983567879258 0 0 0 0 -8.655971879921708 -18.739899942549528 0 -18.739899942549528 -106.78268362121889 0 0 0 0 21.557278144890006 -2.6557352778399945 0 -2.6557352778399945 -137.10772911267122 0 0 0 0 7.6357937610083404 6.9316969735916132 0 6.9316969735916132 -74.354909535208265 0 0 0 0 -2.0221900282012939 -97.278399439411487 0 -97.278399439411487 -878.86716329822048 0 0 0 0 68.171535854121629 -17.526813186297257 0 -17.526813186297257 -155.19984825862531 0 0 0 0 -60.147995551582426 0.36873061212827452 0 0.36873061212827452 -418.06595455185743 0 0 0 0 -36.405839993942209 8.851001382812683 0 8.851001382812683 -425.62868669201271 0 0 0 0 -40.705084088649087 -25.934738385911672 0 -25.934738385911672 -101.82783489670732 0 0 0 0 -48.633392890216783 1.0697757653979352 0 1.0697757653979352 -424.48924900871134 0 0 0 0 -95.417783747914427 11.522038610604909 0 11.522038610604909 -405.9724458802375 0 0 0 0 -13.871200538792879 -14.48239126947341 0 -14.48239126947341 -100.13444014651881 0 0 0 0 -53.441413969409041 20.161773541709408 0 20.161773541709408 -412.38252075971104 0 0 0 0 -90.709270260433797 -49.959743831875343 0 -49.959743831875343 -254.42665121349484 0 0 0 0 494.89538449402608 -505.51831895710097 0 -505.51831895710097 -2249.3967029408132 0 0 0 0 -295.36718104886677 118.07943989595879 0 118.07943989595879 830.72218985724203 0 0 0 0 169.1913768181239 -630.5862459129296 0 -630.5862459129296 -1092.5580779800848 0 0 0 0 -24.305009030196459 16.780031922041282 0 16.780031922041282 -36.697819207842073 0 0 0 0 -1418.1361092946436 130.91245553290867 0 130.91245553290867 -1916.9245333560102 0 0 0 0 -375.90120119166386 -454.70210717708551 0 -454.70210717708551 -1549.1255715656189 0 0 0 0 79.690201483209606 88.244463941099056 0 88.244463941099056 -99.1957200994066 0 0 0 0 909.13872161956169 -59.036441813817873 0 -59.036441813817873 -1781.2633816807572 0 0 0 0 92.804690687995489 -69.168428434374448 0 -69.168428434374448 -210.21023589684251 0 0 0 0 -728.65023911307208 -21.910107034513203 0 -21.910107034513203 -1694.9541849879897 0 0 0 0 -208.37835363145496 31.714193438761868 0 31.714193438761868 -820.26088868733495 0 0 0 0 86.113238678291793 12.901518410380874 0 12.901518410380874 -99.885770798031274 0 0 0 0 360.15467234224195 -49.879048736591358 0 -49.879048736591358 -2765.1394646480185 0 0 0 0 -14.533537964256759 7.4227860099237546 0 7.4227860099237546 -43.328666130099108 0 0 0 0 -22.090896941095707 544.22339487125282 0 544.22339487125282 -1342.2224443485829 0 0 0 0 -304.94248228342985 -355.16588912104635 0 -355.16588912104635 -1990.0974002481671 0 0 0 0 129.68592495127132 -116.15478220957993 0 -116.15478220957993 -2077.2552391306672 0 0 0 0 239.95739001825132 337.03361799220147 0 337.03361799220147 -1716.7065808237785 0 0 0 0 135.07380851999864 -24.356564598238108 0 -24.356564598238108 -177.02299630322244 0 0 0 0 -75.578433718771294 34.143017114675011 0 34.143017114675011 -176.34316149322223 0 0 0 0 31.676891809133053 -85.505150553515705 0 -85.505150553515705 -479.24459647443291 0 0 0 0 -73.139358038184582 5.6310725654911948 0 5.6310725654911948 -404.6849656109116 0 0 0 0 -70.419886335588103 -1.9010961405419948 0 -1.9010961405419948 -385.61070271983044 0 0 0 0 -87.812735616287682 13.405662306846352 0 13.405662306846352 -417.0180250704143 0 0 0 0 -70.776918459669105 2.2300875075743534 0 2.2300875075743534 -410.17851294198772 0 0 0 0 -93.080138293389609 9.2731094162736554 0 9.2731094162736554 -404.3637454995478 0 0 0 0 -66.749470604916496 9.996962277989951 0 9.996962277989951 -401.79445245748502 0 0 0 0 -118.41418287051056 87.041129769699182 0 87.041129769699182 -53.725624040365801 0 0 0 0 98.446845918249323 -171.02129476143455 0 -171.02129476143455 -399.94843029534422 0 0 0 0 1.8722741164104142 9.9129468252547781 0 9.9129468252547781 -0.033424556261365979 0 0 0 0 -550.09293504005109 97.36744778593129 0 97.36744778593129 -683.03527419600141 0 0 0 0 -79.980531095980041 -33.349671783187659 0 -33.349671783187659 -215.22544852072315 0 0 0 0 -962.01730050227798 751.42105670252931 0 751.42105670252931 -1144.7402044464543 0 0 0 0 205.6644132881911 671.09452961562783 0 671.09452961562783 -2351.388523212765 0 0 0 0 -895.93074575968512 -411.83913299105916 0 -411.83913299105916 -694.17448529173271 0 0 0 0 351.44639515093149 -10.071091155536124 0 -10.071091155536124 -2417.1680456695613 0 0 0 0 -355.74765402875619 -725.60121732202242 0 -725.60121732202242 -1724.4524820459919 0 0 0 0 130.40752937407524 -130.54754874497303 0 -130.54754874497303 -1090.3009797575651 0 0 0 0 221.44245234948721 -151.68489889646298 0 -151.68489889646298 -1644.4290749104985 0 0 0 0 288.43784754728404 -21.163645505017485 0 -21.163645505017485 -1410.7373552861645 0 0 0 0 309.87279809093525 185.07700479136838 0 185.07700479136838 -1362.6018357370122 0 0 0 0 396.21727367654239 181.32656563508499 0 181.32656563508499 -1738.9641666419448 0 0 0 0 -6.4234800372687459 215.80906236840383 0 215.80906236840383 -211.30809487766237 0 0 0 0 98.606964510097896 -96.633202931770938 0 -96.633202931770938 -309.25225081964891 0 0 0 0 84.288128269003209 -197.18200578958795 0 -197.18200578958795 -641.63383458943235 0 0 0 0 26.713073200990038 46.467675513875292 0 46.467675513875292 -378.99996067985285 0 0 0 0 27.044935752055608 -0.20898378495144243 0 -0.20898378495144243 -530.7206347641295 0 0 0 0 -245.1915546969467 -267.60206238805085 0 -267.60206238805085 -712.59931514178697 0 0 0 0 -0.97035800958987206 26.917343366290392 0 26.917343366290392 6.5869300465253247 0 0 0 0 58.049602339023508 40.628312726454595 0 40.628312726454595 -100.16313527040283 0 0 0 0 25.83071469319659 -72.961047221215267 0 -72.961047221215267 -278.24362819612725 0 0 0 0 -17.129067103987381 185.71445584955705 0 185.71445584955705 -201.20456425151133 0 0 0 0 -31.640065782266902 -289.32649517301616 0 -289.32649517301616 -465.90154961487315 0 0 0 0 35.154245762070445 -17.313555322645538 0 -17.313555322645538 -123.36922249902602 0 0 0 0 5.390774859922459 19.254872501347563 0 19.254872501347563 -293.88008867063036 0 0 0 0 7.8089219695957581 34.446130692958832 0 34.446130692958832 -260.66892154399216 0 0 0 0 14.096737615119764 -72.194826025355042 0 -72.194826025355042 -82.130601022134215 0 0 0 0 43.852947773837968 57.420680218475354 0 57.420680218475354 -153.6668296291482 0 0 0 0 24.279142409669618 10.62890151482814 0 10.62890151482814 -98.541614458606901 0 0 0 0 -25.177371122392017 29.372509226956026 0 29.372509226956026 -206.72991567161171 0 0 0 0 8.6733849208967513 -11.822842253906856 0 -11.822842253906856 -97.415105606149154 0 0 0 0 37.175476596380648 5.5098276216276147 0 5.5098276216276147 -94.849902059556243 0 0 0 0 10.05063278619491 -17.222535732951656 0 -17.222535732951656 -133.23946753125529 0 0 0 0 -23.6573096589714 -11.533559155366049 0 -11.533559155366049 -89.621498818785767 0 0 0 0 -4.0020375089304707 -20.412385706812131 0 -20.412385706812131 -103.20859605684018 0 0 0 0 15.670840459362321 0.45333595001251581 0 0.45333595001251581 -89.101853941722823 0 0 0 0 -1.3373716845266017 -2.8472837871659067 0 -2.8472837871659067 -102.75565228276537 0 0 0 0 -79.11713588096336 -66.397500607114864 0 -66.397500607114864 -591.29816264019655 0 0 0 0 35.843859441535386 15.243191691744958 0 15.243191691744958 -79.799624917362252 0 0 0 0 16.489388207410229 -1.9544763792619051 0 -1.9544763792619051 -123.74963627366742 0 0 0 0 -4.0130371743634896 -20.720370413746423 0 -20.720370413746423 -109.49266540022654 0 0 0 0 -9.2301528275202145 -12.218874284168123 0 -12.218874284168123 -117.48044573112566 0 0 0 0 24.293111598733958 -17.137256560930837 0 -17.137256560930837 -188.44942885778437 0 0 0 0 4.5602015139630367 -9.1739227719189884 0 -9.1739227719189884 -26.717803739054887 0 0 0 0 -67.694861553813098 -163.09128993189825 0 -163.09128993189825 -223.00226678268598 0 0 0 0 -25.338536221104732 -261.87294989238433 0 -261.87294989238433 -442.00913563023801 0 0 0 0 605.52891156333681 968.52195471816844 0 968.52195471816844 -2534.8494499147969 0 0 0 0 -484.78281926446834 -638.26228464965652 0 -638.26228464965652 -152.72903816774669 0 0 0 0 -83.613380597293144 -193.11943369294931 0 -193.11943369294931 -765.68086050013335 0 0 0 0 -10.127192179257861 6.6216026497770546 0 6.6216026497770546 -54.593046508881905 0 0 0 0 -681.71762248899904 671.13958204145365 0 671.13958204145365 -409.7290562619919 0 0 0 0 -9.8708377753791865 287.63143154765203 0 287.63143154765203 -593.86735388028774 0 0 0 0 4.381582696831174 -47.595025158334465 0 -47.595025158334465 -74.428261220127752 0 0 0 0 50.208361690024148 34.970286216368855 0 34.970286216368855 -72.014263530718765 0 0 0 0 -3.2596326496015138 5.4472519945081501 0 5.4472519945081501 10.243392651019168 0 0 0 0 -111.95698687902768 -764.65679105435811 0 -764.65679105435811 -712.13805055768444 0 0 0 0 -120.68766347427663 48.410662842813053 0 48.410662842813053 676.62650056987627 0 0 0 0 -5.5882190120980653 9.9704973573847084 0 9.9704973573847084 -6.1476473955498108 0 0 0 0 95.895329219232735 -641.30444205738831 0 -641.30444205738831 -3352.1514756456618 0 0 0 0 -723.85871537862113 20.849644935428387 0 20.849644935428387 -1463.7599062450154 0 0 0 0 -204.68396139112883 422.79317350769088 0 422.79317350769088 -936.79401581318348 0 0 0 0 278.59865961049582 -202.09146123145001 0 -202.09146123145001 -1407.7624024625557 0 0 0 0 215.59356149608175 68.897994531699624 0 68.897994531699624 -351.82645322121971 0 0 0 0 17.244565798112873 -16.075166067652322 0 -16.075166067652322 -104.5719766971329 0 0 0 0 -0.42799609636084313 22.305033665329127 0 22.305033665329127 -22.593477065197703 0 0 0 0 279.13351978407718 112.37013050018516 0 112.37013050018516 -482.62954962255753 0 0 0 0 -364.16671292926185 6.759866065272945 0 6.759866065272945 508.18460527533398 0 0 0 0 12.465946418866224 174.97473770147917 0 174.97473770147917 -286.23459414731769 0 0 0 0 7.8032027068838943 5.4311517376918346 0 5.4311517376918346 88.034473740364774 0 0 0 0 16.871229841890692 6.3014914010645953 0 6.3014914010645953 -16.855464121043866 0 0 0 0 -121.89474380269166 337.25178627701462 0 337.25178627701462 -486.2389703246663 0 0 0 0 161.75569217612065 124.50312718704663 0 124.50312718704663 -407.59587778953755 0 0 0 0 319.88563358410647 37.416911113694368 0 37.416911113694368 -1323.8635534195382 0 0 0 0 207.70974263118842 273.19109396336353 0 273.19109396336353 -1239.5351592048464 0 0 0 0 7.6892538006527742 -26.153954449722974 0 -26.153954449722974 -108.83679884605384 0 0 0 0 636.15959025701159 185.46627791007631 0 185.46627791007631 -1313.1044497854728 0 0 0 0 -326.27891835189575 370.29303957995933 0 370.29303957995933 -766.7933883132464 0 0 0 0 -175.04278941982193 443.82184919632618 0 443.82184919632618 -137.94438269081729 0 0 0 0 -171.02142994325732 485.21291393517674 0 485.21291393517674 -822.1580643405041 0 0 0 0 -311.27007538585895 402.2211518950802 0 402.2211518950802 -702.17720411987921 0 0 0 0 73.556593819994305 -47.689298650682304 0 -47.689298650682304 -374.91844079380098 0 0 0 0 265.27387832337263 281.76402584769062 0 281.76402584769062 -427.99949322438897 0 0 0 0 284.06886634187686 -57.156954217995235 0 -57.156954217995235 -825.08626906880409 0 0 0 0 229.50275105990295 69.793902495199859 0 69.793902495199859 -1009.5130925824292 0 0 0 0 264.99851570605028 172.52396332414236 0 172.52396332414236 -937.04098174208411 0 0 0 0 66.827535639211419 139.10986580559609 0 139.10986580559609 -961.14209476319343 0 0 0 0 242.00699702872953 229.22514940554566 0 229.22514940554566 -1245.1792750537336 0 0 0 0 135.32808793977165 333.03843662294196 0 333.03843662294196 -1114.0082705895124 0 0 0 0 72.515592348911014 167.66492215137299 0 167.66492215137299 -1264.4019447905087 0 0 0 0 -249.91543658644696 -125.08773112859672 0 -125.08773112859672 -1166.6733564006317 0 0 0 0 -67.929048175546086 42.599326814696667 0 42.599326814696667 -1039.5475170937352 0 0 0 0 -19.308508041074674 153.04332979105129 0 153.04332979105129 -919.49609476306523 0 0 0 0 -97.637243903089256 60.799588322469617 0 60.799588322469617 -1017.2059428053628 0 0 0 0 -102.12498093790009 44.127056430989853 0 44.127056430989853 -884.6505891202778 0 0 0 0 -127.96375754364362 -75.906254237607243 0 -75.906254237607243 -1130.8508527840499 0 0 0 0 -4.8932776386664045 54.589962527740227 0 54.589962527740227 -1164.09190823925 0 0 0 0 268.17682036512997 158.81718508099584 0 158.81718508099584 -1121.2827259123678 0 0 0 0 288.28618306385033 -163.16213063966643 0 -163.16213063966643 -1176.3509142956391 0 0 0 0 202.64661710840301 -150.14230800651239 0 -150.14230800651239 -1027.542418077137 0 0 0 0 288.43761136908506 -160.15066316278171 0 -160.15066316278171 -1571.5099897128093 0 0 0 0 -330.07959291928273 161.44043804012472 0 161.44043804012472 -1342.3530833613622 0 0 0 0 -51.886700619899784 159.57106662352089 0 159.57106662352089 -1286.0720974145879 0 0 0 0 216.30528437498924 -13.046620422302112 0 -13.046620422302112 -1425.7387110164709 0 0 0 0 10.29332207103301 -25.760236937222274 0 -25.760236937222274 -108.77816814744794 0 0 0 0 644.04031165316064 207.57170046554165 0 207.57170046554165 -1390.5955894668878 0 0 0 0 117.69726327498574 0.72555308083923364 0 0.72555308083923364 -640.58393131274988 0 0 0 0 -155.41255472784542 -70.310905370388355 0 -70.310905370388355 -422.13412209646049 0 0 0 0 78.721106188182603 210.10879402659867 0 210.10879402659867 -392.73837611072474 0 0 0 0 250.77317917764594 -223.8115348345018 0 -223.8115348345018 -1146.9670223919675 0 0 0 0 250.77317917767505 -223.81153483473463 0 -223.81153483473463 -1146.9670223920257 0 0 0 0 78.703606590832351 -263.32550597203954 0 -263.32550597203954 -1134.2658351647842 0 0 0 0 250.7731791776514 -223.81153483460366 0 -223.81153483460366 -1146.9670223922585 0 0 0 0 204.07767148607309 -94.938671272684587 0 -94.938671272684587 -1105.6576015885803 0 0 0 0 93.12055071353825 296.29718793795655 0 296.29718793795655 -134.79490568989695 0 0 0 0 -541.66025725983764 51.184864665105124 0 51.184864665105124 -429.16144461344811 0 0 0 0 117.60790676820268 181.97305902064991 0 181.97305902064991 -104.76046749602548 0 0 0 0 404.71355204770407 26.991208014445988 0 26.991208014445988 -998.34699837918129 0 0 0 0 44.836814131525898 -360.47350764543171 0 -360.47350764543171 -1028.9209681193588 0 0 0 0 -131.65492150149657 -138.30908213851217 0 -138.30908213851217 -764.00096145615566 0 0 0 0 -369.73810553632211 -505.58840464046443 0 -505.58840464046443 -2469.2470344089998 0 0 0 0 -0.042827002582725981 7.0101074139174138 0 7.0101074139174138 -9.6209217976172834 0 0 0 0 -94.792729191355647 -695.52826549255815 0 -695.52826549255815 -2338.5415337037589 0 0 0 0 -465.89563580202594 302.89758779183205 0 302.89758779183205 333.48108189184654 0 0 0 0 86.387004176009214 235.54598881267793 0 235.54598881267793 341.60458153298032 0 0 0 0 146.83270419630006 152.50648754113087 0 152.50648754113087 -145.24969340802815 0 0 0 0 -541.55978381364548 -603.31018195844251 0 -603.31018195844251 852.37434399460335 0 0 0 0 -772.16560610328452 188.13570300796437 0 188.13570300796437 -268.03519028250275 0 0 0 0 -15.420743757298411 38.108470896550365 0 38.108470896550365 41.21661127327517 0 0 0 0 -238.15527291017497 624.85490728478987 0 624.85490728478987 -1143.2137950775186 0 0 0 0 -443.86402566163451 801.00336264610905 0 801.00336264610905 -1278.5638458520832 0 0 0 0 230.94662022777266 474.91121333012381 0 474.91121333012381 -2860.6061995414011 0 0 0 0 -1144.969110730075 343.04417810446785 0 343.04417810446785 -296.6161712899675 0 0 0 0 355.97906306566074 -69.38888951123829 0 -69.38888951123829 -1143.5004121250422 0 0 0 0 -2.1213439571328969 17.723429013218507 0 17.723429013218507 -4.2240736193079673 0 0 0 0 39.214505551142793 -261.62137109928199 0 -261.62137109928199 15.339569612040577 0 0 0 0 15.694570410458255 402.76983818966437 0 402.76983818966437 140.96310046889357 0 0 0 0 -40.434711514113587 -212.91404529552801 0 -212.91404529552801 -98.064307520683542 0 0 0 0 81.232663209142629 -151.89791400479521 0 -151.89791400479521 -1052.5295886501644 0 0 0 0 124.43887702868051 47.405677963706125 0 47.405677963706125 -962.54619866969369 0 0 0 0 -191.03062423245137 168.00398857063448 0 168.00398857063448 -953.77901626046946 0 0 0 0 -66.42868061032641 -132.14903061547017 0 -132.14903061547017 -1048.0445244367666 0 0 0 0 -14.205567858058203 503.95439832188049 0 503.95439832188049 -86.138960178838033 0 0 0 0 247.17545494595561 133.99753551684111 0 133.99753551684111 -1638.1758183852755 0 0 0 0 109.17721904637438 451.83573404175104 0 451.83573404175104 -1394.6328311376183 0 0 0 0 46.027035816397984 549.53302400057419 0 549.53302400057419 -831.70598262590806 0 0 0 0 9.6257466728529835 58.401016980050827 0 58.401016980050827 -637.18335500192961 0 0 0 0 138.60346745104835 111.15154734865973 0 111.15154734865973 -815.72948317932696 0 0 0 0 104.98070134325462 -54.973569064761932 0 -54.973569064761932 -810.25471645919697 0 0 0 0 -203.26765314927979 -299.16274602529029 0 -299.16274602529029 -1063.7905969970639 0 0 0 0 85.970063311651757 31.658321370506656 0 31.658321370506656 -1058.3057696382612 0 0 0 0 428.09327727116761 -95.993692257080511 0 -95.993692257080511 -910.99696024683021 0 0 0 0 233.62201006941177 9.3806311275352527 0 9.3806311275352527 -921.41139218237049 0 0 0 0 148.71638157388952 -82.780971462473644 0 -82.780971462473644 -362.4271858269517 0 0 0 0 194.5698937368652 -135.98927958906768 0 -135.98927958906768 -833.44186751691268 0 0 0 0 -7.775161578069671 16.204188354238383 0 16.204188354238383 -18.12917906568218 0 0 0 0 307.59071591951943 -77.213417645354411 0 -77.213417645354411 -821.46814161453995 0 0 0 0 -60.515739940783533 -241.28764251469011 0 -241.28764251469011 -778.01055641267567 0 0 0 0 547.73951924718858 -312.74799104385966 0 -312.74799104385966 -790.04293114834218 0 0 0 0 -170.69596462951085 -266.93129639705603 0 -266.93129639705603 -721.28727257563787 0 0 0 0 -21.803695523332863 -535.90939007678639 0 -535.90939007678639 -1073.0876210938945 0 0 0 0 -23.39617015818996 23.411942551091677 0 23.411942551091677 -18.058125613619772 0 0 0 0 -31.947278923678823 -149.00261774269075 0 -149.00261774269075 -652.5972355504 0 0 0 0 -72.710500015211437 -151.7895458367143 0 -151.7895458367143 -102.89277751784175 0 0 0 0 12.614997890785162 -135.17499609073639 0 -135.17499609073639 -269.76395893394147 0 0 0 0 56.855147520502214 -451.35889941015648 0 -451.35889941015648 -573.88953743100501 0 0 0 0 127.59549793984843 -198.68648676009525 0 -198.68648676009525 -570.02666645132285 0 0 0 0 666.62333102720368 -637.65610353902593 0 -637.65610353902593 -241.23467529400295 0 0 0 0 -189.57317246487946 -300.48254676329088 0 -300.48254676329088 -80.453174485154705 0 0 0 0 3.5257796213009769 -3.9802929745858648 0 -3.9802929745858648 2.9477613722382614 0 0 0 0 1761.0808099495698 542.43188620509045 0 542.43188620509045 -21.759905240422086 0 0 0 0 380.9123921017308 -433.71886473707855 0 -433.71886473707855 187.23177917126696 0 0 0 0 -33.64258344242262 -84.079709050030942 0 -84.079709050030942 58.660648052169563 0 0 0 0 251.81570451228981 -9.0282307089246387 0 -9.0282307089246387 170.79984045952369 0 0 0 0 859.61073031837986 -15.123249331328793 0 -15.123249331328793 -693.09249596452173 0 0 0 0 351.81091477481823 -58.487620259373216 0 -58.487620259373216 -691.9363662747437 0 0 0 0 -64.084867259953171 -490.25010195753293 0 -490.25010195753293 180.05777486630177 0 0 0 0 116.04517308622235 79.904321404236725 0 79.904321404236725 -774.59037841422833 0 0 0 0 168.40334347317184 -319.72541894061033 0 -319.72541894061033 -781.31931129568352 0 0 0 0 -274.21265949516055 -282.15926176775974 0 -282.15926176775974 242.51636553452772 0 0 0 0 29.908287058413407 -323.2343660024726 0 -323.2343660024726 -932.08360448148596 0 0 0 0 -435.96747548841631 -43.899848972487234 0 -43.899848972487234 -908.79193963056241 0 0 0 0 312.18867538851919 -196.45487459765172 0 -196.45487459765172 -2439.6897246950957 0 0 0 0 -8.862401133827376 8.5213318537367542 0 8.5213318537367542 -1.4565582712145373 0 0 0 0 -516.38754190002146 -311.27688754132578 0 -311.27688754132578 -1062.7628340078008 0 0 0 0 459.25796875601372 -34.246610500943461 0 -34.246610500943461 -1063.4712194139684 0 0 0 0 -301.68043208958989 -376.77298011851326 0 -376.77298011851326 85.14723648632571 0 0 0 0 225.73004331993434 -296.86578880542947 0 -296.86578880542947 254.76122760624639 0 0 0 0 1515.3872753698342 264.2660608633596 0 264.2660608633596 -1429.4270787441055 0 0 0 0 11.166908655925241 -29.904942605650305 0 -29.904942605650305 0.51532227947164699 0 0 0 0 -26.291826287702847 13.396540632518757 0 13.396540632518757 -28.653463467903645 0 0 0 0 -194.57320962178346 192.26925564869453 0 192.26925564869453 -1016.657310828487 0 0 0 0 743.61352361119862 670.94200877335606 0 670.94200877335606 -2661.2590122524416 0 0 0 0 587.85290974089003 -244.01965212214418 0 -244.01965212214418 -3200.0173083715345 0 0 0 0 -988.71531349478755 1489.8435668588245 0 1489.8435668588245 -5092.7595323495771 0 0 0 0 0.76017255517479043 4.5020686787572117 0 4.5020686787572117 -112.05718553647758 0 0 0 0 416.40053101369995 -1233.5367445087759 0 -1233.5367445087759 -91.516918575609452 0 0 0 0 11.82929687010963 2.960129476808202 0 2.960129476808202 -14.804028130953867 0 0 0 0 -164.30536053716787 552.22947261269292 0 552.22947261269292 -2074.980141257226 0 0 0 0 61.083055678798701 210.12512672274897 0 210.12512672274897 -1382.209253211644 0 0 0 0 -492.7789625033256 692.55810823214597 0 692.55810823214597 -1660.7234992237936 0 0 0 0 -28.919654042703939 13.782468870897006 0 13.782468870897006 -26.410909181680648 0 0 0 0 13.564408158300381 -32.759144043765438 0 -32.759144043765438 -115.86511301852656 0 0 0 0 -456.04036136403738 702.04059212200809 0 702.04059212200809 -1658.4107532308626 0 0 0 0 24.729172079396449 -154.11659041954908 0 -154.11659041954908 -103.83745291055311 0 0 0 0 -50.038266686736662 -78.393955118621136 0 -78.393955118621136 -55.874756567957178 0 0 0 0 -387.18740225830334 -113.73097798797608 0 -113.73097798797608 392.58256860739857 0 0 0 0 81.796414791797815 -164.44452361185699 0 -164.44452361185699 -643.49212265445749 0 0 0 0 -233.69878654930653 -286.00163670545044 0 -286.00163670545044 8.4543475643495185 0 0 0 0 -28.468653626224096 -68.816208459919892 0 -68.816208459919892 -39.565717417275081 0 0 0 0 64.676253129942324 -55.455066097162216 0 -55.455066097162216 -383.72912058398288 0 0 0 0 -26.421112488507788 -352.13769030850199 0 -352.13769030850199 -500.75240435855085 0 0 0 0 154.52019846096664 -250.09116050626471 0 -250.09116050626471 -1046.1913939655678 0 0 0 0 279.70328083408094 -65.938198158547493 0 -65.938198158547493 -950.20575395229753 0 0 0 0 5.0035120896156968 -37.636795128239172 0 -37.636795128239172 -111.83682820154168 0 0 0 0 151.87978102569105 -153.98361884525002 0 -153.98361884525002 -651.41955901948677 0 0 0 0 -42.371002734740614 24.28318224170107 0 24.28318224170107 -1064.0915283176873 0 0 0 0 -1.8815961048838048 -9.4785635357289131 0 -9.4785635357289131 -18.629816605332699 0 0 0 0 -5.3872645969626234 1.2867488828485465 0 1.2867488828485465 1.3744129591244079 0 0 0 0 -120.89134157746594 -447.81884192035432 0 -447.81884192035432 742.74371131892531 0 0 0 0 28.796855084910931 83.708393184453598 0 83.708393184453598 -1902.7331462427655 0 0 0 0 84.788695600349456 -371.61788003791116 0 -371.61788003791116 -19.080055046968482 0 0 0 0 160.91911341481864 -218.89783990813703 0 -218.89783990813703 208.31465541973193 0 0 0 0 179.0251607558979 -347.09803322175696 0 -347.09803322175696 178.69636495746818 0 0 0 0 634.52461132866483 -296.42671123047876 0 -296.42671123047876 -98.132645810721442 0 0 0 0 -7.4712159541800034 -13.473267529694876 0 -13.473267529694876 -4.2743154771874643 0 0 0 0 189.67275695343778 -542.43382152718277 0 -542.43382152718277 -166.78632439186913 0 0 0 0 -289.23372038358502 -119.66941901395694 0 -119.66941901395694 -28.609214650352442 0 0 0 0 -1.8507229009489805 4.3539625916310243 0 4.3539625916310243 -1.7191960709371301 0 0 0 0 300.60025325063543 34.006303471564024 0 34.006303471564024 -2010.0913110030051 0 0 0 0 -50.190687263631844 545.63515449076112 0 545.63515449076112 -139.93242367451114 0 0 0 0 482.42866073382174 -500.34049407359907 0 -500.34049407359907 -3736.2917248916019 0 0 0 0 756.79433721912392 722.04274379630078 0 722.04274379630078 -1116.3072214825261 0 0 0 0 2.8257018862384271 0.51532448981555135 0 0.51532448981555135 -10.264112490144399 0 0 0 0 549.51019063124841 -329.05321534621726 0 -329.05321534621726 -4138.9158204018404 0 0 0 0 -626.62961235945113 -755.85487619489504 0 -755.85487619489504 -1023.6783385618364 0 0 0 0 -1082.157651438336 -2264.8126183575969 0 -2264.8126183575969 -1881.9456390484811 0 0 0 0 -2115.6241774778209 -1527.9236366128662 0 -1527.9236366128662 393.32467716720566 0 0 0 0 231.8745502731399 476.95708179002759 0 476.95708179002759 661.54682768178827 0 0 0 0 -1403.6100967247767 138.8637446259072 0 138.8637446259072 1310.6281691823197 0 0 0 0 324.19330231767526 -284.45800492124272 0 -284.45800492124272 26.748971331013308 0 0 0 0 -573.07934162499441 -329.78854604660955 0 -329.78854604660955 452.95646383574012 0 0 0 0 -37.460307430614193 -432.20277880067442 0 -432.20277880067442 439.1620306365694 0 0 0 0 523.91469700331299 -479.77825570805931 0 -479.77825570805931 -1198.2376615330577 0 0 0 0 328.97153780582812 139.68120348758748 0 139.68120348758748 -1424.1090837609649 0 0 0 0 493.26387272493594 -72.238215790097456 0 -72.238215790097456 -1297.090675738842 0 0 0 0 267.41017186245517 -76.575806705887317 0 -76.575806705887317 -803.9852446239347 0 0 0 0 248.64561032221536 -74.401545736212938 0 -74.401545736212938 -738.05089550164485 0 0 0 0 217.78908641224916 -127.36605580029754 0 -127.36605580029754 -189.14960160803503 0 0 0 0 279.53588708268944 -107.18722947912192 0 -107.18722947912192 -246.92089953582308 0 0 0 0 178.50327154284241 5.6736722642090172 0 5.6736722642090172 -208.26253134870785 0 0 0 0 100.92394942609644 -124.72351345198285 0 -124.72351345198285 -177.19801483882839 0 0 0 0 15.726080414071475 -44.05526565029777 0 -44.05526565029777 -47.756480508751338 0 0 0 0 3.7252375519581875 -49.75631376110001 0 -49.75631376110001 -28.394009662601416 0 0 0 0 -4.8023092703333532 -221.26734690761805 0 -221.26734690761805 -23.1204871018208 0 0 0 0 2.491127988510037 -13.241094216188422 0 -13.241094216188422 -30.102328471371983 0 0 0 0 -16.870171367834701 -234.05128866658561 0 -234.05128866658561 591.21382915318463 0 0 0 0 454.90032255041297 -824.48314390025928 0 -824.48314390025928 -232.72133232094711 0 0 0 0 759.52883831632153 -515.82410490044276 0 -515.82410490044276 -2799.9393116375795 0 0 0 0 -11.790109205989545 8.5119006184287329 0 8.5119006184287329 -10.320787568217298 0 0 0 0 833.81933951462997 -1449.5476267007143 0 -1449.5476267007143 -1779.5034812021113 0 0 0 0 -9.6418337010181219 -6.2850004987533818 0 -6.2850004987533818 -56.050852581463587 0 0 0 0 1317.4835541394077 769.66383253170443 0 769.66383253170443 145.31812980533141 0 0 0 0 -32.89868816068833 38.159821318737698 0 38.159821318737698 -45.227956865218736 0 0 0 0 247.86665806046221 107.84161125347327 0 107.84161125347327 -110.88317254312585 0 0 0 0 -25.853715276309231 15.791364485052327 0 15.791364485052327 -122.40879724931892 0 0 0 0 18.072970271604866 -15.977934014723019 0 -15.977934014723019 -69.186467667082482 0 0 0 0 3.1830738428834593 -8.0254663671685194 0 -8.0254663671685194 -45.237752186114449 0 0 0 0 38.570985540489346 -56.120668285791908 0 -56.120668285791908 -85.297813304117881 0 0 0 0 4.4382437764610643 -27.794438684378093 0 -27.794438684378093 -54.960935063386835 0 0 0 0 25.151673239709865 -31.800260773221268 0 -31.800260773221268 -59.411967941726303 0 0 0 0 16.594229072266472 -16.474358321496883 0 -16.474358321496883 -7.8952793969093875 0 0 0 0 0.80920258323294547 -74.33155070662815 0 -74.33155070662815 -65.78941288385613 0 0 0 0 -5.2018160622371852 -70.900972488200523 0 -70.900972488200523 -66.108127054714714 0 0 0 0 -0.22302829169348115 -51.18705167650478 0 -51.18705167650478 -78.158895118111104 0 0 0 0 2.4440007926661167 -19.280177608344459 0 -19.280177608344459 -43.13324362485929 0 0 0 0 104.32418837357545 -71.448817978191073 0 -71.448817978191073 -110.40411084534207 0 0 0 0 33.046082172366368 -91.278540519224407 0 -91.278540519224407 -125.15316953838192 0 0 0 0 10.886789539061283 -81.746927095879073 0 -81.746927095879073 -95.332894754654262 0 0 0 0 41.768801633419571 -56.01205827161175 0 -56.01205827161175 -87.850706353659916 0 0 0 0 23.183057897961589 -28.457255357171107 0 -28.457255357171107 -75.547379980980622 0 0 0 0 94.459935297119728 14.102695409105195 0 14.102695409105195 -57.257270730206073 0 0 0 0 0.20751601306607625 4.7523627463076572 0 4.7523627463076572 -16.370600422168614 0 0 0 0 -66.908951067372982 187.94800115432736 0 187.94800115432736 -729.0394619448598 0 0 0 0 78.963811450161302 -82.155420470546233 0 -82.155420470546233 -759.59597302501334 0 0 0 0 57.120130332845292 327.55935164208495 0 327.55935164208495 18.088714381974569 0 0 0 0 38.010592672164421 -91.188144224537609 0 -91.188144224537609 -53.511719597343472 0 0 0 0 -24.219686354030273 -37.547302390557888 0 -37.547302390557888 -98.605596633969981 0 0 0 0 9.2715409666898267 64.949539149506563 0 64.949539149506563 -2.5725880169011361 0 0 0 0 14.653908643715113 -37.278319508178356 0 -37.278319508178356 -79.222941406195787 0 0 0 0 7.1967979718212831 -28.172497722067348 0 -28.172497722067348 -18.40047036998071 0 0 0 0 -155.83058263998646 385.16059265162994 0 385.16059265162994 -1052.616341429195 0 0 0 0 -5.177123854134031 -5.2573547526573279 0 -5.2573547526573279 -7.1287261047003199 0 0 0 0 -668.01305525455246 -578.13677630121674 0 -578.13677630121674 -473.60679582381272 0 0 0 0 -341.19219885279017 -200.30568055369076 0 -200.30568055369076 -82.996338703889705 0 0 0 0 -87.053882763677393 -554.67922972635824 0 -554.67922972635824 -1068.2526076185168 0 0 0 0 355.4136596338285 -410.66965490515213 0 -410.66965490515213 -1055.4699409530704 0 0 0 0 -1559.0726218652708 -141.68199306642782 0 -141.68199306642782 -1264.0663530573438 0 0 0 0 -42.786236673400708 -291.04877680050231 0 -291.04877680050231 -1961.6931973359351 0 0 0 0 256.21397443453679 -714.8008046737541 0 -714.8008046737541 -1636.3091981074831 0 0 0 0 -0.63770401480957162 1.4823701654130303 0 1.4823701654130303 -2.7047186920651596 0 0 0 0 -419.38066294839518 -359.18475255771409 0 -359.18475255771409 -1560.4491452154907 0 0 0 0 -39.35267574829777 -73.94051039738406 0 -73.94051039738406 -1450.9345895938714 0 0 0 0 -104.03340738604311 -90.151102533367521 0 -90.151102533367521 -1431.2907246248578 0 0 0 0 -151.61987572185171 -69.567455632684869 0 -69.567455632684869 -1427.1959820827469 0 0 0 0 15.150632464446971 -290.78635480126104 0 -290.78635480126104 -1425.5169969331182 0 0 0 0 52.613150704801228 -124.4178012611228 0 -124.4178012611228 -1506.5969664963704 0 0 0 0 -167.1541220531351 -237.95111031312308 0 -237.95111031312308 -1557.002801682771 0 0 0 0 -49.965746204822381 -207.79471251236396 0 -207.79471251236396 -1547.9615979159644 0 0 0 0 180.61573976862564 69.426762980063359 0 69.426762980063359 -1448.6386783719245 0 0 0 0 -34.911861970129394 -97.085830561631155 0 -97.085830561631155 -1714.6052217933357 0 0 0 0 16.706543333686568 -469.43300182414532 0 -469.43300182414532 -1293.0893032128806 0 0 0 0 -1.4837428067810237 0.066278526927739279 0 0.066278526927739279 -3.1615729019722085 0 0 0 0 37.761617984877375 -201.95649572127149 0 -201.95649572127149 -1631.735821172887 0 0 0 0 122.8223412172747 -500.62315671043416 0 -500.62315671043416 -2122.2118397289742 0 0 0 0 0.90905541734901618 3.3665847443647863 0 3.3665847443647863 -5.4014356665340841 0 0 0 0 -23.623946551735457 -196.53904928670784 0 -196.53904928670784 -1325.9180494499378 0 0 0 0 -25.261004280473571 -256.90042348970019 0 -256.90042348970019 -1367.4922084683203 0 0 0 0 -19.760897264099412 -148.97270550603309 0 -148.97270550603309 -1529.8485229630314 0 0 0 0 -2.6483452842694533 -325.19048827174993 0 -325.19048827174993 -1316.6727163726173 0 0 0 0 21.652722903319955 -203.9315571189436 0 -203.9315571189436 -1550.4794997279823 0 0 0 0 21.771524164643779 -282.46571700218919 0 -282.46571700218919 -1416.822975433417 0 0 0 0 -2.3709771177709626 -284.94127369611306 0 -284.94127369611306 -1412.8152402810229 0 0 0 0 116.03688039909593 -372.02565776026768 0 -372.02565776026768 -1351.7237043862769 0 0 0 0 71.741875584923037 -236.50351878001129 0 -236.50351878001129 -1392.1542630647455 0 0 0 0 -39.244424693384644 -309.20737280324465 0 -309.20737280324465 -1270.477914365074 0 0 0 0 -128.31838285170124 -312.85096824683205 0 -312.85096824683205 -1268.5128474417143 0 0 0 0 -21.913109968947538 -400.394065710836 0 -400.394065710836 -1218.7691834953221 0 0 0 0 -175.27193367726431 -336.69484503114654 0 -336.69484503114654 -1229.4680439684162 0 0 0 0 173.58356348449524 -618.47142869815434 0 -618.47142869815434 -1046.4932457967348 0 0 0 0 214.80246101131127 -190.35725750511108 0 -190.35725750511108 -1289.8872663541842 0 0 0 0 1102.2686320106259 -567.97840769740651 0 -567.97840769740651 -1246.2116467132928 0 0 0 0 -0.7806566760638276 -0.95143223630176976 0 -0.95143223630176976 -2.4266362388218852 0 0 0 0 -409.07028527466082 863.48790409998583 0 863.48790409998583 -1379.0140952701622 0 0 0 0 151.30344179414897 106.68961722757376 0 106.68961722757376 -1726.8549836113134 0 0 0 0 226.17165869287783 -95.830218583538226 0 -95.830218583538226 -1431.2553792104263 0 0 0 0 26.149009498261876 -282.25570942954801 0 -282.25570942954801 -1300.1703154595575 0 0 0 0 -0.59976430948336201 -202.94247771497248 0 -202.94247771497248 -1267.9539457902429 0 0 0 0 57.460022135786858 -165.60191732239764 0 -165.60191732239764 -1424.6822030058947 0 0 0 0 -15.264867940813019 -149.84215203541862 0 -149.84215203541862 -1253.3298982116321 0 0 0 0 15.917537988709228 -121.70219054545305 0 -121.70219054545305 -1414.1160716667237 0 0 0 0 24.632140807955693 -133.25537263590013 0 -133.25537263590013 -1521.6530155400469 0 0 0 0 6.0621562268006528 -83.998404839683644 0 -83.998404839683644 -1489.1071534884177 0 0 0 0 -20.252125280667769 -151.4857674484947 0 -151.4857674484947 -1382.4986766050133 0 0 0 0 -58.029154175856092 -286.3983141986464 0 -286.3983141986464 -1282.9879177809453 0 0 0 0 -141.2322049771692 -234.50026654036174 0 -234.50026654036174 -1307.9891320278402 0 0 0 0 -1.3633350741602044 -148.66015264575981 0 -148.66015264575981 -1383.2217545097046 0 0 0 0 -0.48509942171222065 -215.07929862800302 0 -215.07929862800302 -1252.4817766117594 0 0 0 0 -110.80267954303781 -245.29823357540954 0 -245.29823357540954 -1260.5660669652789 0 0 0 0 13.233752965425083 -304.02147810000861 0 -304.02147810000861 -1140.0965182485434 0 0 0 0 -35.454631874034135 -154.04625212933774 0 -154.04625212933774 -956.46328356738741 0 0 0 0 -65.077768748224116 -299.62326129310895 0 -299.62326129310895 -1256.6405474011917 0 0 0 0 -25.228817507508211 -249.51962495561747 0 -249.51962495561747 -1241.0535000193704 0 0 0 0 -25.871759872807161 -203.42834367024989 0 -203.42834367024989 -1284.3602667699633 0 0 0 0 -0.56001281934284464 0.070990916308758756 0 0.070990916308758756 -3.1823019084697037 0 0 0 0 -318.94522212209995 106.2953596868756 0 106.2953596868756 -1953.400271083543 0 0 0 0 -24.626537555439427 -212.80616323108552 0 -212.80616323108552 -1297.5056943719901 0 0 0 0 102.83683458835367 -140.434381949407 0 -140.434381949407 -1818.3646600366192 0 0 0 0 0.25538575116272 1.2960460638631304 0 1.2960460638631304 -2.1189178572642149 0 0 0 0 262.5975339925335 -113.38474042642338 0 -113.38474042642338 -1363.6824932428681 0 0 0 0 69.354831899540613 73.604375988038782 0 73.604375988038782 -1070.1717263144674 0 0 0 0 8.0387317847453232 -295.83674935657109 0 -295.83674935657109 -897.51803851070144 0 0 0 0 128.93205893278173 -106.93570895024823 0 -106.93570895024823 -952.35511062157184 0 0 0 0 127.21027013981347 -198.67492424359443 0 -198.67492424359443 -1276.9903683936282 0 0 0 0 -34.998881903088659 -174.08092022524943 0 -174.08092022524943 -972.12706702415744 0 0 0 0 -44.825299744281438 -262.76774702731745 0 -262.76774702731745 -1231.9312925773852 0 0 0 0 -290.30997367489726 -143.58229672978086 0 -143.58229672978086 -244.65451545724864 0 0 0 0 -41.529102688924468 -20.171144263571477 0 -20.171144263571477 -441.9466473317807 0 0 0 0 14.915254669489514 0.7005055228510173 0 0.7005055228510173 -439.90127729393862 0 0 0 0 5.0968121098804176 -0.42752503664068087 0 -0.42752503664068087 -2.2218878470668102 0 0 0 0 -64.433487126349064 87.923897096363362 0 87.923897096363362 42.998043219857209 0 0 0 0 -141.43889608611789 -308.01037732955047 0 -308.01037732955047 -435.85732133984129 0 0 0 0 -402.13721351176719 -292.07471281393919 0 -292.07471281393919 -251.69602076378214 0 0 0 0 75.625581178392167 377.50715350973769 0 377.50715350973769 -966.15425744263848 0 0 0 0 -146.90590764967055 41.40816397693925 0 41.40816397693925 -288.51524092532782 0 0 0 0 -8.3298590811791655 -62.478536269401957 0 -62.478536269401957 -313.52928044141845 0 0 0 0 7.5402582537062699 34.543935334731941 0 34.543935334731941 -1052.6052321667685 0 0 0 0 -72.408142554195365 -97.517228202363185 0 -97.517228202363185 -461.92778593757976 0 0 0 0 34.787776647706778 -72.192204511484306 0 -72.192204511484306 -459.74907566371076 0 0 0 0 -167.11200602833196 -94.061832114421122 0 -94.061832114421122 -98.658761877886718 0 0 0 0 11.978093777096724 -3.957836630752972 0 -3.957836630752972 0.98733070931155709 0 0 0 0 -60.680711264467391 -105.42653429069105 0 -105.42653429069105 -81.233823865619343 0 0 0 0 -36.303063145311171 -29.368819972121855 0 -29.368819972121855 -80.709360348958398 0 0 0 0 57.037587398765027 -79.194345066138339 0 -79.194345066138339 -10.963168425463664 0 0 0 0 48.288504546639388 -3.7595596394169206 0 -3.7595596394169206 -134.06499246751628 0 0 0 0 9.4747523114519936 108.84717932021431 0 108.84717932021431 -166.95353734342643 0 0 0 0 33.093576330171345 51.239601064044109 0 51.239601064044109 -27.486160666641808 0 0 0 0 -16.767100254336356 -9.0477882042065545 0 -9.0477882042065545 -7.3071235316153782 0 0 0 0 117.89987816589655 -50.331654751264068 0 -50.331654751264068 -194.63205734668736 0 0 0 0 -482.75938140766084 -211.36269582460591 0 -211.36269582460591 224.50774827921487 0 0 0 0 -3665.1334981238033 -919.12283901144474 0 -919.12283901144474 -1249.0583828877643 0 0 0 0 -37.855500599308257 -22.690532922559399 0 -22.690532922559399 -11.676467423667123 0 0 0 0 71.206166444710107 -139.1803751282132 0 -139.1803751282132 3.4472423630913909 0 0 0 0 145.70694817896947 -105.86005467989889 0 -105.86005467989889 -99.671093935360659 0 0 0 0 1862.0320131897315 1704.1357097168111 0 1704.1357097168111 -2885.0324939974853 0 0 0 0 -489.85538809204945 -567.42899759359943 0 -567.42899759359943 -504.52690528851963 0 0 0 0 -351.69536916252582 -211.63152808259474 0 -211.63152808259474 -229.80106973403599 0 0 0 0 -184.75323078416841 -275.93334909527039 0 -275.93334909527039 -256.02078416125187 0 0 0 0 -781.07172204507151 -910.92856052481693 0 -910.92856052481693 -745.34438888848854 0 0 0 0 -219.18818509143784 -362.12106251103978 0 -362.12106251103978 -1161.3226486988533 0 0 0 0 -137.19823689498054 -165.18125745193197 0 -165.18125745193197 -925.69069299080729 0 0 0 0 -135.57028638191321 -102.22798251186646 0 -102.22798251186646 -2524.3803825314062 0 0 0 0 -1590.3772740991408 274.88706462939081 0 274.88706462939081 -717.31493063002745 0 0 0 0 -212.65068962254645 -79.032371748380683 0 -79.032371748380683 -628.19365223847853 0 0 0 0 -597.25185160147703 155.54032581367392 0 155.54032581367392 -222.50124494309966 0 0 0 0 -155.71110610089409 312.0246440152232 0 312.0246440152232 -945.94445213342624 0 0 0 0 -214.95502869980737 23.445923920218775 0 23.445923920218775 -214.60733111670743 0 0 0 0 -299.37738754467773 -60.371343607363997 0 -60.371343607363997 36.382883571071943 0 0 0 0 -191.45767898073973 -345.12491281803887 0 -345.12491281803887 318.42190755504998 0 0 0 0 -398.68799342938291 -16.59051489776175 0 -16.59051489776175 171.08637647573414 0 0 0 0 23.990032078686454 -204.63630924276777 0 -204.63630924276777 -199.62046863901014 0 0 0 0 -88.189871101301833 -233.31153182500384 0 -233.31153182500384 177.3292161363762 0 0 0 0 -147.07026264100023 -272.98285880443291 0 -272.98285880443291 266.08624159606916 0 0 0 0 -4.817077809130808 -19.376415783405552 0 -19.376415783405552 -52.92574028623693 0 0 0 0 138.60346590933113 -263.31630984027834 0 -263.31630984027834 256.3908929544823 0 0 0 0 -81.349420970822393 -193.47949629473987 0 -193.47949629473987 157.29408809330607 0 0 0 0 -153.05572557002051 -116.25073626640096 0 -116.25073626640096 117.69186038156568 0 0 0 0 -180.56700068788996 -44.779344614307774 0 -44.779344614307774 32.017531241606775 0 0 0 0 -259.1376494815886 -111.64575458491345 0 -111.64575458491345 182.16884040538935 0 0 0 0 -17.390178134362735 -24.741706773063349 0 -24.741706773063349 -13.651623737770098 0 0 0 0 46.926624934787469 26.654446005390582 0 26.654446005390582 29.328639765109983 0 0 0 0 249.64856778244939 -399.24337592566189 0 -399.24337592566189 163.27901289844885 0 0 0 0 -17.614499100436596 -41.113168684667635 0 -41.113168684667635 -66.471947523459079 0 0 0 0 146.65055222434057 -439.52656335769279 0 -439.52656335769279 220.39055498780544 0 0 0 0 0.96786602485008189 75.231161257512667 0 75.231161257512667 -21.34910091495567 0 0 0 0 -39.250683273810864 52.518179531407441 0 52.518179531407441 -20.490511710764622 0 0 0 0 -445.35300482166349 -40.026351214728493 0 -40.026351214728493 351.60800758993992 0 0 0 0 508.95072332975451 106.79844651944177 0 106.79844651944177 -271.86774172449077 0 0 0 0 -346.73651552837509 80.405444207182882 0 80.405444207182882 39.327572475291163 0 0 0 0 -5.3289810484291316 -20.312885185343653 0 -20.312885185343653 -62.467806912992934 0 0 0 0 812.92893167685725 -1005.8030801236964 0 -1005.8030801236964 -266.48694906900346 0 0 0 0 1244.8484361785158 780.12177459974919 0 780.12177459974919 -4193.9817577238755 0 0 0 0 162.15207823663877 598.86469867777487 0 598.86469867777487 -117.5766430434478 0 0 0 0 -229.71474206941366 -872.62361380738366 0 -872.62361380738366 -3362.8655110422442 0 0 0 0 -4.0635044862061633 -10.151588965779492 0 -10.151588965779492 -25.471393760413392 0 0 0 0 -926.1585453540647 -1225.8359781362481 0 -1225.8359781362481 -1051.2160951994283 0 0 0 0 548.28111994687242 1202.8317624895963 0 1202.8317624895963 -2966.0587828460411 0 0 0 0 32.757421726331813 -1833.7060523143782 0 -1833.7060523143782 -2757.5640171532596 0 0 0 0 561.34147408055833 -1004.9478921161731 0 -1004.9478921161731 -2503.2694601087605 0 0 0 0 -29.447274311381989 -291.08617251787223 0 -291.08617251787223 -2465.0398846956728 0 0 0 0 -218.51440087368974 -560.48975268754111 0 -560.48975268754111 -1414.8984634654007 0 0 0 0 -233.58337351886075 -727.88653094121173 0 -727.88653094121173 -1467.0665562521481 0 0 0 0 -10.859178516872817 -404.39481255530944 0 -404.39481255530944 -1808.6154152736617 0 0 0 0 4.4942869629703637 -167.25160981082649 0 -167.25160981082649 -1911.0301059968801 0 0 0 0 -244.92130462912792 -49.724069708973957 0 -49.724069708973957 -344.8847926659455 0 0 0 0 -547.22065018136936 -638.02715377615618 0 -638.02715377615618 -1010.57906597079 0 0 0 0 -434.36613297678196 -104.90712399694075 0 -104.90712399694075 -58.859323473907807 0 0 0 0 -201.5755704164967 -273.87591950893989 0 -273.87591950893989 -1311.0732587282919 0 0 0 0 -416.69327685943426 1151.6187803051928 0 1151.6187803051928 -792.68402810398902 0 0 0 0 -132.70157144231598 1464.2432402734566 0 1464.2432402734566 -617.83650305261654 0 0 0 0 242.32573994740051 559.44576227944799 0 559.44576227944799 -314.77468379439233 0 0 0 0 34.775040522051313 -1848.5870356944788 0 -1848.5870356944788 -4017.9908079289971 0 0 0 0 -185.60080000676317 601.81640894979842 0 601.81640894979842 223.42324869568995 0 0 0 0 -13.531707529573126 11.458852683878682 0 11.458852683878682 -12.789776015932617 0 0 0 0 -518.87978567040773 -426.92079938026382 0 -426.92079938026382 -1615.6607167236614 0 0 0 0 -338.37956879673402 600.72423930991874 0 600.72423930991874 431.39992983356569 0 0 0 0 1203.4784516803447 548.19621317209726 0 548.19621317209726 -3211.3840533842026 0 0 0 0 -1232.3804421159693 -1816.5749037835794 0 -1816.5749037835794 -1398.9791392170746 0 0 0 0 289.99217417125692 -443.55547735776599 0 -443.55547735776599 18.981024010125111 0 0 0 0 -36.691077560775618 -46.878083994688893 0 -46.878083994688893 -53.319197123613634 0 0 0 0 -146.31244837046916 92.981989722347862 0 92.981989722347862 83.481016650886886 0 0 0 0 89.162976311682428 -242.11065344325925 0 -242.11065344325925 -280.59889060158093 0 0 0 0 -189.68584328698489 -530.97751805545658 0 -530.97751805545658 579.78133332830691 0 0 0 0 -51.044068068796484 -52.481721648376379 0 -52.481721648376379 -44.136901482346673 0 0 0 0 -32.319274584989216 -63.352457055440027 0 -63.352457055440027 6.1163171033658728 0 0 0 0 -23.492610481015923 -31.087717830764973 0 -31.087717830764973 -25.336398650117175 0 0 0 0 -32.585171559601577 -248.38496617800229 0 -248.38496617800229 159.62450975352112 0 0 0 0 213.42004930752478 -157.98402923971116 0 -157.98402923971116 -106.92588922003779 0 0 0 0 -40.152469959179143 66.918467822592447 0 66.918467822592447 -182.6907735000882 0 0 0 0 -232.68448458428634 81.179553165869365 0 81.179553165869365 12.880817076198582 0 0 0 0 -209.7719040094097 -180.50047501774159 0 -180.50047501774159 -273.80369954658681 0 0 0 0 -53.822069209902111 72.406403037667587 0 72.406403037667587 -6.0810775084873967 0 0 0 0 36.360962887166352 -124.80350421256298 0 -124.80350421256298 -46.37283039261456 0 0 0 0 -28.945405810775821 -36.850934342856888 0 -36.850934342856888 -29.780895125517588 0 0 0 0 -231.90324205867182 -33.190839736523685 0 -33.190839736523685 301.25413599116109 0 0 0 0 -23.786925574077031 -28.426054033610853 0 -28.426054033610853 -44.392277693900724 0 0 0 0 -16.11633459029872 -33.234303250382709 0 -33.234303250382709 54.00967574405604 0 0 0 0 -35.113268625023103 -31.757928401659548 0 -31.757928401659548 -21.967052091884419 0 0 0 0 -18.882469363527772 -34.015793712428078 0 -34.015793712428078 -35.815158695364332 0 0 0 0 39.137754128444669 -16.475590130292858 0 -16.475590130292858 -39.421295643645863 0 0 0 0 -27.085010559405873 -34.83180821590031 0 -34.83180821590031 -36.634531058190987 0 0 0 0 -15.337771191453612 -17.672589246303687 0 -17.672589246303687 -87.061194580070151 0 0 0 0 43.595009453133571 -44.073850028606103 0 -44.073850028606103 -102.34500849447068 0 0 0 0 -2.371240109941823 140.87531447196852 0 140.87531447196852 41.390243165646098 0 0 0 0 -1.4170650253259556 1.7401548483619251 0 1.7401548483619251 -2.4114918433508024 0 0 0 0 -70.395484392203798 -265.0208026680375 0 -265.0208026680375 -1222.6478152694399 0 0 0 0 -89.496470705727916 -182.39776209701085 0 -182.39776209701085 -640.13648497003669 0 0 0 0 -121.19532051270261 -138.18228103209822 0 -138.18228103209822 -687.01270847518026 0 0 0 0 -6.8757806423983716 1.4364151554098399 0 1.4364151554098399 -9.9189945059730178 0 0 0 0 -89.642699134755276 -173.52808465403359 0 -173.52808465403359 -634.96083348497268 0 0 0 0 -33.276530929882028 -143.26338469047187 0 -143.26338469047187 -106.33246038841276 0 0 0 0 23.3698810078522 1.0343304262205493 0 1.0343304262205493 -591.74835566181719 0 0 0 0 112.84020147806223 -253.47798497899203 0 -253.47798497899203 -585.3640090456538 0 0 0 0 21.994415826673958 34.502405709226878 0 34.502405709226878 -375.87568092979745 0 0 0 0 127.69314315198426 -211.93836505658328 0 -211.93836505658328 -275.23279146788263 0 0 0 0 95.365760678674405 -34.330118707190195 0 -34.330118707190195 -343.52417584959767 0 0 0 0 172.0344263935944 128.1993854030643 0 128.1993854030643 -735.26882778853906 0 0 0 0 -79.530284801611515 364.1401965224768 0 364.1401965224768 -554.49997366234311 0 0 0 0 163.62859961330923 90.247675455888384 0 90.247675455888384 -881.09585846425762 0 0 0 0 80.226064885303913 165.58638889838767 0 165.58638889838767 -732.53178914378714 0 0 0 0 183.92122109357115 -37.094674881212995 0 -37.094674881212995 -769.56521796046582 0 0 0 0 15.88506007654189 0.25764247664119466 0 0.25764247664119466 -174.42823481850792 0 0 0 0 -9.6570388652419297 -34.484394245009753 0 -34.484394245009753 -192.23066911223759 0 0 0 0 118.71380133166031 43.04187870700116 0 43.04187870700116 -701.1015139300489 0 0 0 0 1.258135318189046 1.7640722192845573 0 1.7640722192845573 0.66204383957781943 0 0 0 0 90.166154003774864 -17.379247560696967 0 -17.379247560696967 -818.48750515071879 0 0 0 0 18.143477031411521 13.225894284369133 0 13.225894284369133 -342.91274576994692 0 0 0 0 11.874806271379612 -57.381425717019738 0 -57.381425717019738 -244.63413783988653 0 0 0 0 -50.399150960039151 -151.60479974625923 0 -151.60479974625923 -229.15703870076868 0 0 0 0 -154.81985412673248 24.087563099703402 0 24.087563099703402 -442.29968735657894 0 0 0 0 -150.86404157151628 79.911765863289475 0 79.911765863289475 -602.38176302788088 0 0 0 0 -0.33669208229869163 0.37853275789336749 0 0.37853275789336749 -0.5063467257718699 0 0 0 0 -243.11035152206114 -32.621590865015605 0 -32.621590865015605 -414.04550459695747 0 0 0 0 -229.35006461936791 348.04186949043287 0 348.04186949043287 -750.74471807254304 0 0 0 0 1.0295574090283708 -33.362341388084133 0 -33.362341388084133 -469.3211360749483 0 0 0 0 -174.70573041505668 7.1666348617509357 0 7.1666348617509357 -418.08510702820058 0 0 0 0 -134.85613145297248 70.885541449068114 0 70.885541449068114 -435.40862721788244 0 0 0 0 -132.25369033708421 69.080195016616926 0 69.080195016616926 -436.11154650167009 0 0 0 0 -123.58439844120949 85.73283900556271 0 85.73283900556271 -405.99485655555327 0 0 0 0 -134.13020061889438 54.187736007075728 0 54.187736007075728 -437.59708449963364 0 0 0 0 -105.09570291604268 19.740175257680676 0 19.740175257680676 -403.80951838012345 0 0 0 0 -138.58163617401988 -106.91957551898668 0 -106.91957551898668 -463.66181292996498 0 0 0 0 -81.069278770482015 -99.158581294715987 0 -99.158581294715987 -375.32201579940738 0 0 0 0 5.488517814774367 -2.6435898118851924 0 -2.6435898118851924 -15.283920477667422 0 0 0 0 44.475032869648203 102.61723463966337 0 102.61723463966337 -6.320624916057568 0 0 0 0 -31.48515520242654 -108.96084568082733 0 -108.96084568082733 -340.61786070439121 0 0 0 0 9.2382147992830141 25.091736634825793 0 25.091736634825793 -409.26827813604177 0 0 0 0 -91.630386689590523 57.978872559362571 0 57.978872559362571 -295.33918105701741 0 0 0 0 -178.21667222041333 73.768516043010095 0 73.768516043010095 -440.63860133672279 0 0 0 0 -94.738200860617781 19.501175948279524 0 19.501175948279524 -405.36095551944163 0 0 0 0 -266.38245762043334 -93.127569065021817 0 -93.127569065021817 -340.9917850330603 0 0 0 0 114.73020028467727 -201.10523476440721 0 -201.10523476440721 -310.38947542630194 0 0 0 0 134.30796118728904 75.345797362451776 0 75.345797362451776 -285.05568542424589 0 0 0 0 63.290456711004161 2.3505656541720512 0 2.3505656541720512 -166.9142092437296 0 0 0 0 -41.294761290960267 -48.03420662708686 0 -48.03420662708686 -213.40756722429978 0 0 0 0 -29.920066109281834 -86.021072368371279 0 -86.021072368371279 -270.34353271951113 0 0 0 0 -36.454585160194085 -86.8599449564054 0 -86.8599449564054 -274.35133153043353 0 0 0 0 -75.146346302551137 -111.86817695825994 0 -111.86817695825994 -362.55374697007574 0 0 0 0 3.8026175818082795 -25.290004512348716 0 -25.290004512348716 -103.49148238905613 0 0 0 0 22.272767467791635 29.467645663534924 0 29.467645663534924 -81.916572879450271 0 0 0 0 -65.121972879346799 -138.28859750886886 0 -138.28859750886886 -292.73060147456567 0 0 0 0 -45.087701754058344 97.17225267883714 0 97.17225267883714 -232.92300886050361 0 0 0 0 -43.01906794833485 -38.703189158230089 0 -38.703189158230089 -218.6113554337644 0 0 0 0 -345.67206415075998 23.787552460500592 0 23.787552460500592 -288.44665785833786 0 0 0 0 56.689383206412913 -80.826104500622023 0 -80.826104500622023 -262.63653701111616 0 0 0 0 -60.877037233166448 -100.84708350983965 0 -100.84708350983965 -276.77749828116794 0 0 0 0 -69.445713718891568 -84.832800436561485 0 -84.832800436561485 -266.52097773917831 0 0 0 0 -176.58687180845027 -118.59393912612632 0 -118.59393912612632 131.65990696269546 0 0 0 0 -64.676947174658096 -90.339867754152692 0 -90.339867754152692 -49.486250560901695 0 0 0 0 16.923088405136422 28.012132457673182 0 28.012132457673182 -103.56798293909898 0 0 0 0 24.299110802454834 -108.02738604889464 0 -108.02738604889464 -325.25727969822037 0 0 0 0 -65.485813666597053 -90.936374253950049 0 -90.936374253950049 -24.914846831740345 0 0 0 0 -255.11656457216486 -230.68957862840034 0 -230.68957862840034 -26.580884777369647 0 0 0 0 -64.651077319148499 76.975382172771788 0 76.975382172771788 -525.67083451476356 0 0 0 0 -92.173944854026558 -242.03852172148981 0 -242.03852172148981 -541.22881219345436 0 0 0 0 31.448653736912092 -85.129885202215519 0 -85.129885202215519 -295.65435091825202 0 0 0 0 -28.039348087299004 -77.433527843979391 0 -77.433527843979391 -191.68982747127302 0 0 0 0 -30.203050856847121 -38.259829901123204 0 -38.259829901123204 23.989207512832365 0 0 0 0 -280.44441812115838 -350.61573186804162 0 -350.61573186804162 -187.03997222883481 0 0 0 0 -58.066634424600124 -323.07223215379054 0 -323.07223215379054 -577.11962416921779 0 0 0 0 -20.733922206730313 -79.182581916398703 0 -79.182581916398703 -646.78054056994733 0 0 0 0 -11.459191229155749 -116.36016524164916 0 -116.36016524164916 -501.33621460667928 0 0 0 0 -106.36913153052592 -143.45958009081369 0 -143.45958009081369 -320.63467681179463 0 0 0 0 -27.077333364865353 -37.014454385824138 0 -37.014454385824138 -86.142450528595873 0 0 0 0 -26.597773570300937 -26.470942845071704 0 -26.470942845071704 -5.8401529371516716 0 0 0 0 -281.79614483321711 -462.80161311104894 0 -462.80161311104894 -332.75044536728728 0 0 0 0 -8.0550129374954604 1.6667560558605672 0 1.6667560558605672 5.5095137361355881 0 0 0 0 -179.20874809049292 -124.37770721946436 0 -124.37770721946436 -457.47242860493861 0 0 0 0 -48.345027202119127 -196.22068950644643 0 -196.22068950644643 -539.83211218944052 0 0 0 0 -28.292429355047261 -244.34569682549045 0 -244.34569682549045 -435.90185113802727 0 0 0 0 -236.71636440301063 -269.79914283100879 0 -269.79914283100879 -569.73131338966778 0 0 0 0 -43.106334059807523 -227.4777659706524 0 -227.4777659706524 -825.35757897977601 0 0 0 0 -117.01986904154421 -108.79979467663816 0 -108.79979467663816 -485.69155392049288 0 0 0 0 -92.355946974736071 -38.315717223977117 0 -38.315717223977117 -397.19170321544516 0 0 0 0 -89.451015297389858 -194.20536940111924 0 -194.20536940111924 -412.40567161410581 0 0 0 0 75.780309345150272 -7.7717254060480627 0 -7.7717254060480627 -304.2287217569683 0 0 0 0 -33.289633916618186 -198.59307060777064 0 -198.59307060777064 -308.95612331158577 0 0 0 0 1.4441708312802071 8.5948505902494219 0 8.5948505902494219 -9.2779550546448633 0 0 0 0 -13.698884136552806 -147.82349972317024 0 -147.82349972317024 -162.64745843863057 0 0 0 0 -44.696074066097026 -251.80402715950549 0 -251.80402715950549 -358.37249961448833 0 0 0 0 47.515445274944796 -144.60392668593704 0 -144.60392668593704 -353.41239820892224 0 0 0 0 0.32289804403444577 -246.67780379098258 0 -246.67780379098258 -494.65851441948689 0 0 0 0 -43.980282875940247 -155.20412698895234 0 -155.20412698895234 -435.3918913090165 0 0 0 0 -192.23946064632855 102.57729019163526 0 102.57729019163526 -62.936921595028252 0 0 0 0 -7.486484711306538 -14.164099985359359 0 -14.164099985359359 -19.830621907467133 0 0 0 0 -105.07596048137202 96.836663547044736 0 96.836663547044736 -132.42933717035339 0 0 0 0 -157.98513633648327 22.497987974042189 0 22.497987974042189 -52.884032565896632 0 0 0 0 -53.096941029230948 84.281298301350034 0 84.281298301350034 -92.838518220291007 0 0 0 0 -10.436901757129817 43.846409980367753 0 43.846409980367753 -106.68478621692338 0 0 0 0 -505.6723350153552 169.44511709220751 0 169.44511709220751 110.42829132127008 0 0 0 0 -115.39366225014783 151.54609000857818 0 151.54609000857818 -185.23039532393159 0 0 0 0 -33.453806759613144 409.8542079558938 0 409.8542079558938 229.88273490604661 0 0 0 0 -479.13774629517411 31.919102475757427 0 31.919102475757427 779.58923895950284 0 0 0 0 -12.877587371774567 -9.9232938699667272 0 -9.9232938699667272 -46.41430959112212 0 0 0 0 -67.147841064303066 47.468106728571001 0 47.468106728571001 -37.865289822682826 0 0 0 0 -708.91907413863373 -730.69071011959022 0 -730.69071011959022 -1481.2538798735186 0 0 0 0 -33.3062392838292 5.0265070354435011 0 5.0265070354435011 -76.346877327712718 0 0 0 0 -2170.9134640095144 -649.09100261386993 0 -649.09100261386993 1043.0800246425788 0 0 0 0 -58.227087904029759 651.23040002339621 0 651.23040002339621 -339.73931799891398 0 0 0 0 -2.9237855592385742 15.538138568033403 0 15.538138568033403 -102.8019467855032 0 0 0 0 -482.59067963673442 1074.1037631740892 0 1074.1037631740892 -919.69708536850521 0 0 0 0 -493.82285449104893 94.287573657203211 0 94.287573657203211 -827.69635501383527 0 0 0 0 -9.7451906092090965 20.970498633564212 0 20.970498633564212 -97.470805530556504 0 0 0 0 430.5305251074642 166.86355632778941 0 166.86355632778941 -1454.1620619514288 0 0 0 0 86.175117536171456 -14.90400688329828 0 -14.90400688329828 -1296.0072587753057 0 0 0 0 -197.08775327761578 240.57953515191457 0 240.57953515191457 -885.97892883280292 0 0 0 0 -185.88823589844105 11.650158036500216 0 11.650158036500216 -1133.1050354683175 0 0 0 0 -217.30632156851789 -436.16502363557174 0 -436.16502363557174 -1892.3468010946744 0 0 0 0 -123.73034059169004 106.51095333026024 0 106.51095333026024 -1152.8487280056947 0 0 0 0 -14.624150740677464 -0.65036150401529369 0 -0.65036150401529369 -0.50375630521929793 0 0 0 0 15.587490095093017 12.479851083514404 0 12.479851083514404 -1023.6473068798368 0 0 0 0 -110.43100483616217 141.61536514751788 0 141.61536514751788 -1075.7963100680136 0 0 0 0 -166.61393484284417 59.068945534103477 0 59.068945534103477 -1023.8416298345837 0 0 0 0 -9.8073354359221412 98.354776790638425 0 98.354776790638425 -894.10788909026883 0 0 0 0 2.0905160164347762 88.520076447925021 0 88.520076447925021 -1030.4297269029739 0 0 0 0 81.081785203296022 102.38488082325966 0 102.38488082325966 -1104.8679700994689 0 0 0 0 120.92429616683148 61.479316205210125 0 61.479316205210125 -1102.4981359499325 0 0 0 0 -282.61083596938715 124.16494090247943 0 124.16494090247943 1138.273376509319 0 0 0 0 -36.423152957620452 -10.659058973764807 0 -10.659058973764807 -2.5294335530911027 0 0 0 0 66.413972803347292 -122.53014426892992 0 -122.53014426892992 37.057551912068448 0 0 0 0 -460.3255072289794 -68.291042100958293 0 -68.291042100958293 56.960923788292348 0 0 0 0 117.75114754755839 -219.53809744578211 0 -219.53809744578211 -322.90333754036328 0 0 0 0 181.25710736600803 -473.52744352639638 0 -473.52744352639638 -381.86056662059127 0 0 0 0 -48.332822294653184 -18.150299552981153 0 -18.150299552981153 -4.0293923986617166 0 0 0 0 -365.32989116871045 -79.876965356364963 0 -79.876965356364963 1056.5699123187478 0 0 0 0 -344.94753587105151 -220.20667148025677 0 -220.20667148025677 -533.97713042819851 0 0 0 0 -2.9939551648258202 -503.64510446047825 0 -503.64510446047825 -1650.8565048497403 0 0 0 0 178.6855673566788 -68.723471506475107 0 -68.723471506475107 -904.57327148080913 0 0 0 0 183.86183060592521 331.01759171571575 0 331.01759171571575 -607.17303618746303 0 0 0 0 579.94450093528212 366.24879572377267 0 366.24879572377267 -1803.5955281869865 0 0 0 0 -741.21242496949526 -262.33291314206963 0 -262.33291314206963 -533.26298817392308 0 0 0 0 17.748076985476473 125.2789062158563 0 125.2789062158563 -515.48741490740213 0 0 0 0 -160.69978745770447 -171.11089809174106 0 -171.11089809174106 406.39661431605782 0 0 0 0 -160.37751106985888 -174.51444177369376 0 -174.51444177369376 -940.05537440685293 0 0 0 0 -14.364145707816114 -18.430391631609314 0 -18.430391631609314 -23.863834208939878 0 0 0 0 -71.587437340076349 -1163.0387550373202 0 -1163.0387550373202 41.080647986873373 0 0 0 0 -78.268106488458216 -1304.9762259674408 0 -1304.9762259674408 -1174.9061108240021 0 0 0 0 203.37167803049306 1542.2857544829426 0 1542.2857544829426 -1216.9977197290073 0 0 0 0 255.1485242571689 1756.7860070628844 0 1756.7860070628844 -3522.693450428932 0 0 0 0 173.0855682987758 936.89642183221099 0 936.89642183221099 -2001.5206048798318 0 0 0 0 527.01412141277251 177.63674125676698 0 177.63674125676698 -169.29128579601456 0 0 0 0 -219.49784065154336 72.710559033132085 0 72.710559033132085 -153.94113874911272 0 0 0 0 333.48466755204572 48.190973257122096 0 48.190973257122096 -596.64222189863085 0 0 0 0 -128.97307209442442 103.55935605033847 0 103.55935605033847 -356.27169186881292 0 0 0 0 -47.477966139207894 -22.900691018669569 0 -22.900691018669569 -5.7932442680663883 0 0 0 0 219.98519409044638 28.630368709506001 0 28.630368709506001 -129.15459863652359 0 0 0 0 -254.60999231958749 -273.5976395090438 0 -273.5976395090438 1010.7256811132374 0 0 0 0 64.045821154653822 -440.62413969879708 0 -440.62413969879708 23.200700209461502 0 0 0 0 -199.48935094314379 -224.71355059802227 0 -224.71355059802227 664.63071621082418 0 0 0 0 -37.561163290240657 -24.555764500839096 0 -24.555764500839096 -4.9519909301399494 0 0 0 0 -560.84858950696207 16.290756695299933 0 16.290756695299933 -684.81600705921892 0 0 0 0 -162.17263752470808 -80.017157384907478 0 -80.017157384907478 -39.011772966138778 0 0 0 0 -21.663288453525183 -241.96435067353377 0 -241.96435067353377 -698.52617701483541 0 0 0 0 16.217003696150528 -204.88526225046144 0 -204.88526225046144 -893.17528789902281 0 0 0 0 -243.19461899992211 -5.2978722613624996 0 -5.2978722613624996 -123.50173504200029 0 0 0 0 -162.82139280619094 429.06617181639012 0 429.06617181639012 -1133.6649291120684 0 0 0 0 -74.006578145978892 -102.6911259515 0 -102.6911259515 -1726.48413832394 0 0 0 0 48.352506172772792 -84.118254626046109 0 -84.118254626046109 -20.99419983651751 0 0 0 0 -21.9692047161967 -12.020584119754403 0 -12.020584119754403 -9.7620224670467266 0 0 0 0 214.25808962489805 193.79577749872078 0 193.79577749872078 -1541.9420886513835 0 0 0 0 6.6165528494259629 3.3054176349779993 0 3.3054176349779993 -6.2466504113052466 0 0 0 0 13.39240477451267 -224.13189808650714 0 -224.13189808650714 -1085.8365415235457 0 0 0 0 94.680253200582285 252.69946903080609 0 252.69946903080609 -1150.7411150912158 0 0 0 0 -351.96437404342851 435.6475716721252 0 435.6475716721252 -573.76851034548235 0 0 0 0 -1.730011356522982 -1.4813949241547562 0 -1.4813949241547562 -7.6358009393903927 0 0 0 0 -26.553347841951563 22.401320406679588 0 22.401320406679588 -76.975218521969509 0 0 0 0 1.8379947765406541 -10.157407739068731 0 -10.157407739068731 -51.801634535953781 0 0 0 0 5.1093749785772786 -12.153282725348618 0 -12.153282725348618 -107.85906832308683 0 0 0 0 -33.832309013801023 -46.252733933197305 0 -46.252733933197305 -107.75918554215968 0 0 0 0 -9.9014887322793754 -15.099085190471669 0 -15.099085190471669 -59.618009324170998 0 0 0 0 30.275218819756617 8.7615304199207458 0 8.7615304199207458 -101.63429489399277 0 0 0 0 -116.72992997607389 -73.193718925285793 0 -73.193718925285793 -113.51822837571626 0 0 0 0 21.354713515334247 44.139499227425404 0 44.139499227425404 -47.883405415530433 0 0 0 0 20.268143696809492 6.73674381385419 0 6.73674381385419 -42.248123604267604 0 0 0 0 -14.368696376442642 79.090020186071342 0 79.090020186071342 -69.727268626400473 0 0 0 0 114.01611925406542 -40.089397962980001 0 -40.089397962980001 -153.67395455110091 0 0 0 0 28.329697271352416 14.945690317985282 0 14.945690317985282 -63.469961854090798 0 0 0 0 15.698878714263433 20.271348970817314 0 20.271348970817314 -54.795197334900024 0 0 0 0 283.11870129473755 198.07656121817126 0 198.07656121817126 7.4456574705873209 0 0 0 0 428.64665542686362 -144.6027676771846 0 -144.6027676771846 -89.706572409269029 0 0 0 0 -22.674674741214005 138.58721692518202 0 138.58721692518202 -169.07048520178068 0 0 0 0 0.47900935628359376 5.0365260423848923 0 5.0365260423848923 -2.8151996713496032 0 0 0 0 92.966840672664148 25.495342015747156 0 25.495342015747156 -257.89333948754575 0 0 0 0 71.189662214246709 -311.56722728160457 0 -311.56722728160457 220.81849730591421 0 0 0 0 -8.8173843033243404 -0.21152701071278557 0 -0.21152701071278557 -0.60230505367394471 0 0 0 0 -172.41872771219892 -171.57149918773212 0 -171.57149918773212 -1017.8651316430478 0 0 0 0 65.291970435209123 262.9234146124254 0 262.9234146124254 -588.8681340281646 0 0 0 0 263.75601165151261 282.07091185952231 0 282.07091185952231 -2307.18943025505 0 0 0 0 -82.696348299303281 141.45520438261883 0 141.45520438261883 -663.07755707241449 0 0 0 0 -543.70431776933674 -491.49977614111413 0 -491.49977614111413 -416.22569878723152 0 0 0 0 -131.05686930184675 -392.01923847972648 0 -392.01923847972648 -1109.1841334255223 0 0 0 0 -83.985661071134018 -259.66165432850539 0 -259.66165432850539 -743.95926084682287 0 0 0 0 -489.46970917223734 -512.66360948861256 0 -512.66360948861256 -811.77686218650706 0 0 0 0 -537.93152268963968 -558.37370982835273 0 -558.37370982835273 -784.09279145373148 0 0 0 0 -568.5900259743139 -427.92241596529493 0 -427.92241596529493 -1246.6614928441704 0 0 0 0 -862.67628775748017 -887.88280806364492 0 -887.88280806364492 -1003.6664318787371 0 0 0 0 -195.05531289822648 -648.78746011907424 0 -648.78746011907424 -932.73735609102005 0 0 0 0 -300.77716253172184 -369.38663314904989 0 -369.38663314904989 -837.46241891682803 0 0 0 0 -73.113264057478318 -682.10147211488402 0 -682.10147211488402 -634.59635522137978 0 0 0 0 -53.582362852252118 -546.46707174052426 0 -546.46707174052426 -1036.0742092123255 0 0 0 0 253.30447362715495 149.63608488191676 0 149.63608488191676 -557.36009187058517 0 0 0 0 -129.27304171837386 -128.21233370439586 0 -128.21233370439586 -252.98955457569173 0 0 0 0 427.05221885393576 -47.756076022648358 0 -47.756076022648358 -398.46993577294052 0 0 0 0 -112.18400151644892 -57.361259089815576 0 -57.361259089815576 -310.18367996586312 0 0 0 0 -43.107483879583015 219.86028873232863 0 219.86028873232863 -331.13722278556088 0 0 0 0 65.910637758641769 81.417430743287696 0 81.417430743287696 -155.40863847300352 0 0 0 0 108.73155230476368 216.06580947710609 0 216.06580947710609 -81.592333613567462 0 0 0 0 -257.7458913735245 24.398873714875663 0 24.398873714875663 -170.35701784023195 0 0 0 0 -244.99904356950356 94.359432962890423 0 94.359432962890423 -388.88339430259657 0 0 0 0 -574.05823154999962 -29.531322883733083 0 -29.531322883733083 -372.79455081935157 0 0 0 0 -714.2209675467202 -222.54521008667507 0 -222.54521008667507 -918.50916854821844 0 0 0 0 -127.8767509050158 60.226796530208958 0 60.226796530208958 -728.16072075095144 0 0 0 0 -385.57488498850944 -141.64102863662993 0 -141.64102863662993 -601.76003998607484 0 0 0 0 -116.47871418542491 -336.89280201829843 0 -336.89280201829843 -1020.8168673070322 0 0 0 0 -400.88398880885688 -579.06888193118357 0 -579.06888193118357 -1267.5138471950486 0 0 0 0 -435.47428958182718 50.336493686365429 0 50.336493686365429 -1189.8014842233388 0 0 0 0 -725.0618803452162 -854.23434152493428 0 -854.23434152493428 -2343.3432224952994 0 0 0 0 -1074.3636625999861 303.43810807919363 0 303.43810807919363 -1684.3955550492028 0 0 0 0 -1687.8833514591279 -470.75366631710494 0 -470.75366631710494 -855.33760818488372 0 0 0 0 -724.77134949914398 -941.03859564776212 0 -941.03859564776212 -1599.2217368508573 0 0 0 0 -619.48915794848654 -351.07268243665749 0 -351.07268243665749 -844.99341171808464 0 0 0 0 -736.91112221433377 -655.33017512860715 0 -655.33017512860715 -791.45084201752616 0 0 0 0 -602.77323539734061 100.74829002759361 0 100.74829002759361 -724.15283620617265 0 0 0 0 -416.13603430743024 -141.86158622246876 0 -141.86158622246876 -428.7892526380856 0 0 0 0 -870.91939948438448 -310.35767947447312 0 -310.35767947447312 -475.2309093636577 0 0 0 0 -566.49146654664037 -252.79691708032988 0 -252.79691708032988 -259.87228087245603 0 0 0 0 -360.08438788426429 -434.41958975037414 0 -434.41958975037414 -578.15424255494145 0 0 0 0 -569.03324810476988 -76.973012948415999 0 -76.973012948415999 -187.74868059215078 0 0 0 0 -151.5369118646995 -342.25618280493654 0 -342.25618280493654 -478.13621999374118 0 0 0 0 -160.20830727867724 -390.92988316762785 0 -390.92988316762785 -651.75255879542965 0 0 0 0 -339.8717183263434 -355.55457054362341 0 -355.55457054362341 -373.89690821734894 0 0 0 0 -314.84848602680722 -381.95155760952912 0 -381.95155760952912 -617.98759147569945 0 0 0 0 -318.66438512735476 -508.60396682932333 0 -508.60396682932333 -699.71818637871911 0 0 0 0 -13.134705677859074 -407.31677563522317 0 -407.31677563522317 -950.62797082321777 0 0 0 0 -153.5261104068195 -453.46809024953836 0 -453.46809024953836 -1192.3107654385967 0 0 0 0 -157.24388535883554 -449.75231855380844 0 -449.75231855380844 -954.71725785687158 0 0 0 0 106.07096346634353 -294.01594007285894 0 -294.01594007285894 -1220.8534587739996 0 0 0 0 -14.887494667804276 10.980375782033661 0 10.980375782033661 -33.68916086054378 0 0 0 0 -13.296290587344899 3.7515006411145038 0 3.7515006411145038 -4.0430225393891277 0 0 0 0 -109.79976914504914 -60.665870232203815 0 -60.665870232203815 -238.99215385355637 0 0 0 0 -24.7366410573959 240.10911273225065 0 240.10911273225065 -738.70261404637131 0 0 0 0 -657.21220153884497 135.30421871910221 0 135.30421871910221 -63.971687505210866 0 0 0 0 -10.083093841589196 -4.6554274049837332 0 -4.6554274049837332 -4.0946862359556349 0 0 0 0 -5.8872652902173286 17.028130482765846 0 17.028130482765846 -1891.6739821264746 0 0 0 0 31.005444576894661 901.03099369811753 0 901.03099369811753 606.44250756167094 0 0 0 0 -1767.1213169639605 -2339.9876056055091 0 -2339.9876056055091 -2236.7834496488795 0 0 0 0 -1707.5075516310026 -983.87636729481164 0 -983.87636729481164 -924.73536863166373 0 0 0 0 -1250.339687454114 -461.82353107936797 0 -461.82353107936797 -348.98635073381593 0 0 0 0 -725.99156101209519 -138.67978424682224 0 -138.67978424682224 -385.89937057593488 0 0 0 0 3.8924058278292932 2.657437603000659 0 2.657437603000659 -5.8766929305662003 0 0 0 0 -580.50373418064009 -53.859391407584553 0 -53.859391407584553 -225.40634286784916 0 0 0 0 -4.318126017686744 -5.8922749526962779 0 -5.8922749526962779 -5.0833366025512703 0 0 0 0 -657.00632344601763 -175.40626246469401 0 -175.40626246469401 -382.80688251043466 0 0 0 0 -285.93612846812175 189.00304462648637 0 189.00304462648637 -25.674498083042636 0 0 0 0 -168.53111985378746 -60.4561593451308 0 -60.4561593451308 -42.517973739239096 0 0 0 0 12.043260475911666 41.500364593230188 0 41.500364593230188 -152.05213377804648 0 0 0 0 -0.21590968534634669 -5.7703181166791566 0 -5.7703181166791566 -13.29392104879679 0 0 0 0 -5.9475810571431111 4.310167920546661 0 4.310167920546661 -2.7034036783672661 0 0 0 0 192.34604756569524 191.8691457045843 0 191.8691457045843 -821.9447178523078 0 0 0 0 -634.37727310387254 549.8742647211875 0 549.8742647211875 329.23670529367519 0 0 0 0 53.081128987359079 75.877590822296042 0 75.877590822296042 -320.58806454893056 0 0 0 0 42.919774658236292 109.1332672149565 0 109.1332672149565 -290.1212982486395 0 0 0 0 -63.80953068099484 95.784509402667027 0 95.784509402667027 6.3908109908952611 0 0 0 0 102.64407767193825 15.809124723054993 0 15.809124723054993 11.90973624597973 0 0 0 0 -91.057479881800646 103.49374007415463 0 103.49374007415463 256.06207832408836 0 0 0 0 -44.780128549369692 -120.14307014284714 0 -120.14307014284714 -178.57409669697518 0 0 0 0 4.5473328648995448 60.502714365546126 0 60.502714365546126 20.278510829492006 0 0 0 0 -110.89349678244616 -199.28810254199925 0 -199.28810254199925 -244.73944590792235 0 0 0 0 -208.98273152790898 -179.09494376598377 0 -179.09494376598377 -36.924381978242309 0 0 0 0 -192.84770489879884 -295.26664388316567 0 -295.26664388316567 -370.32322145525995 0 0 0 0 -129.77459278720926 -323.86404098226922 0 -323.86404098226922 -479.2038855225378 0 0 0 0 -233.86284549691482 -306.12485701066544 0 -306.12485701066544 -262.13060088834027 0 0 0 0 -360.88815445833825 -56.742076847065618 0 -56.742076847065618 -22.434391119400971 0 0 0 0 -214.46676626722547 20.995525745987834 0 20.995525745987834 -194.49782288625192 0 0 0 0 -330.3729624300795 -225.23835464892181 0 -225.23835464892181 -132.06253046452184 0 0 0 0 -243.69051601035244 -180.29271468023217 0 -180.29271468023217 -275.40640623305262 0 0 0 0 -108.33530136463378 -101.08418861614336 0 -101.08418861614336 -106.89101146389112 0 0 0 0 -88.088724687942886 1.5006018179119565 0 1.5006018179119565 -51.922358470794279 0 0 0 0 2.848655038724246 -38.584074110207439 0 -38.584074110207439 109.77914727756433 0 0 0 0 -155.6924474430798 59.362563892409526 0 59.362563892409526 357.05744522993336 0 0 0 0 -29.947139117356599 42.83581339687241 0 42.83581339687241 -15.340603270792016 0 0 0 0 63.716275010277968 192.68680353998388 0 192.68680353998388 144.97341396477714 0 0 0 0 -218.50660336493456 -36.294279272318818 0 -36.294279272318818 118.65437374294561 0 0 0 0 -12.488676680000999 38.517678207211304 0 38.517678207211304 -24.996914016247203 0 0 0 0 -86.622214428261032 208.03059296196807 0 208.03059296196807 367.41892196628032 0 0 0 0 -28.575989013486833 54.916530245900503 0 54.916530245900503 48.09118544849116 0 0 0 0 204.59097925239257 162.43744388505002 0 162.43744388505002 -249.93814311988535 0 0 0 0 -6.4121544952149954 3.8148831979449227 0 3.8148831979449227 12.03466396507045 0 0 0 0 73.3795994454631 95.179418643601821 0 95.179418643601821 202.98581625794031 0 0 0 0 -63.303830731587368 128.48667602147179 0 128.48667602147179 2.1628112398902886 0 0 0 0 -188.32318854890036 68.436584571456478 0 68.436584571456478 149.44453358694454 0 0 0 0 97.125488717138069 207.64810671166924 0 207.64810671166924 -0.9269667026001116 0 0 0 0 -106.5319734551922 156.63437455439998 0 156.63437455439998 182.7035707035393 0 0 0 0 -98.015965431975928 182.78585377981653 0 182.78585377981653 -162.1398598752362 0 0 0 0 -99.013499230439265 128.35300920349982 0 128.35300920349982 10.094381145056104 0 0 0 0 -282.25589834815401 46.902422562012362 0 46.902422562012362 18.510913352394709 0 0 0 0 284.7219630677082 160.07720978098223 0 160.07720978098223 -104.25539585862862 0 0 0 0 19.261580428719299 278.71538622066328 0 278.71538622066328 174.63419268686266 0 0 0 0 116.08858629353654 126.15937940705044 0 126.15937940705044 103.39064408799459 0 0 0 0 28.522558488064533 265.20638067813707 0 265.20638067813707 -101.82364304749353 0 0 0 0 30.67800790909132 34.698778780300927 0 34.698778780300927 -85.17548782443555 0 0 0 0 59.959775279761743 140.31103417772829 0 140.31103417772829 135.14571659739886 0 0 0 0 1.1716830601711443 2.2618055257676133 0 2.2618055257676133 -11.660597007786293 0 0 0 0 202.10568194990537 312.02900974637669 0 312.02900974637669 136.60733331163647 0 0 0 0 -23.792939315714072 13.684961389049107 0 13.684961389049107 -6.0694146515209013 0 0 0 0 30.512672161858063 197.58717404062918 0 197.58717404062918 232.88830224008416 0 0 0 0 3.1544839177904187 26.914041811372982 0 26.914041811372982 -43.177237706021373 0 0 0 0 76.063627885614551 216.97704365909885 0 216.97704365909885 180.46198222328894 0 0 0 0 77.592525209202904 259.4337608415517 0 259.4337608415517 158.18426772435487 0 0 0 0 -54.512696141268748 203.94819350616308 0 203.94819350616308 213.04756306287891 0 0 0 0 -89.168634602726797 207.90591125019273 0 207.90591125019273 337.50063408370443 0 0 0 0 -77.964043023187969 94.214232963389804 0 94.214232963389804 84.531795363873243 0 0 0 0 -59.426447703607721 21.825084983240231 0 21.825084983240231 -127.2827756213519 0 0 0 0 -128.58260046704106 -5.415507372978027 0 -5.415507372978027 131.4341715456103 0 0 0 0 -42.685633389255145 -77.802468547219178 0 -77.802468547219178 -127.56178013383033 0 0 0 0 -67.064693042680346 67.992693775348016 0 67.992693775348016 -3.5258121751248837 0 0 0 0 -94.276264812741715 68.285265895570774 0 68.285265895570774 71.218136097915703 0 0 0 0 -26.103479490620657 -83.01487532316969 0 -83.01487532316969 318.67023321475426 0 0 0 0 -113.81455262496411 19.063617771709687 0 19.063617771709687 380.46789665067627 0 0 0 0 -124.01660268951559 102.46879605112917 0 102.46879605112917 290.43773980037076 0 0 0 0 -33.975310474593243 -39.648845174640883 0 -39.648845174640883 163.00844495589263 0 0 0 0 -65.501666227027272 177.21759401295276 0 177.21759401295276 283.41018228952453 0 0 0 0 -48.409048983106004 212.62670374516165 0 212.62670374516165 23.449275991333707 0 0 0 0 53.371086191320501 -150.00980474223616 0 -150.00980474223616 9.4880730950499128 0 0 0 0 -17.431356502613532 10.891015486212524 0 10.891015486212524 -5.6031282971541714 0 0 0 0 185.48899536775389 112.0363343279605 0 112.0363343279605 -71.686778874951415 0 0 0 0 75.478462559849277 168.74084525212675 0 168.74084525212675 -96.596367503938382 0 0 0 0 189.11981457776619 -53.016795547642687 0 -53.016795547642687 53.148303117690375 0 0 0 0 -175.59032239248654 13.171698297594048 0 13.171698297594048 -172.91021077366895 0 0 0 0 -53.84831494146033 147.59959222490579 0 147.59959222490579 -269.49928188008198 0 0 0 0 -236.66224836231387 -108.9145559541721 0 -108.9145559541721 -284.62716404389357 0 0 0 0 -59.196371393062151 -6.3192478431410564 0 -6.3192478431410564 -426.62121012365242 0 0 0 0 -186.40806354453622 -264.66500190443912 0 -264.66500190443912 -515.90712523959519 0 0 0 0 -178.65118239658244 -134.91829602444705 0 -134.91829602444705 -155.7065670400043 0 0 0 0 -74.437367791207976 18.554913192514505 0 18.554913192514505 -238.66779411495372 0 0 0 0 -162.92338143703842 -186.96177868436644 0 -186.96177868436644 -525.45880835871139 0 0 0 0 -152.68323317648253 -70.26508302307775 0 -70.26508302307775 -340.31347573802486 0 0 0 0 -234.70604960030408 -203.31182537831774 0 -203.31182537831774 -251.08697398251388 0 0 0 0 -210.30654782727203 -161.0006170863453 0 -161.0006170863453 -658.86131466925144 0 0 0 0 -410.21243886255866 -287.72086315681372 0 -287.72086315681372 -465.15605843849335 0 0 0 0 -264.93533669899307 -450.11112036549821 0 -450.11112036549821 -739.42065353106591 0 0 0 0 -243.02311462195485 -247.21890017306578 0 -247.21890017306578 -555.20991704110202 0 0 0 0 -100.04972784027505 -274.91704325581708 0 -274.91704325581708 -477.70006755510258 0 0 0 0 -440.89792151422455 -493.00861286849067 0 -493.00861286849067 -429.94964908259863 0 0 0 0 -103.07104595650571 -12.605410477597616 0 -12.605410477597616 23.110058613907313 0 0 0 0 -49.160211000938943 -130.69012000065413 0 -130.69012000065413 -268.51261837923084 0 0 0 0 -32.347072193110805 1.4995080990174756 0 1.4995080990174756 -106.38614226857317 0 0 0 0 -113.33608936133805 -258.59603794336726 0 -258.59603794336726 -314.4496687219289 0 0 0 0 -277.03990755562108 -265.27959148105583 0 -265.27959148105583 -262.12130490447453 0 0 0 0 -167.21798066581465 -154.38818745637764 0 -154.38818745637764 -152.99264891693019 0 0 0 0 -31.875796235384087 -85.518919759393611 0 -85.518919759393611 -276.51509849581089 0 0 0 0 -111.42720414707361 -75.554026892705224 0 -75.554026892705224 -60.413871984928846 0 0 0 0 61.374802912978794 110.32994825359492 0 110.32994825359492 -13.760173832739383 0 0 0 0 -45.809366935693106 -54.955549798338325 0 -54.955549798338325 29.140265985450242 0 0 0 0 11.38464032222123 94.619481384055689 0 94.619481384055689 40.78466077518533 0 0 0 0 40.603536731401618 -30.970908512957976 0 -30.970908512957976 -178.43046348821372 0 0 0 0 -2.1585081249650102 71.461204934224952 0 71.461204934224952 251.12140812019788 0 0 0 0 201.57263806687001 203.96512243863253 0 203.96512243863253 85.355348439155932 0 0 0 0 0.20544949012406022 0.55763165966412487 0 0.55763165966412487 -0.3184366931439726 0 0 0 0 -17.886582479719209 47.746620873752363 0 47.746620873752363 275.29075027618092 0 0 0 0 242.18092430654633 -27.068676385621075 0 -27.068676385621075 18.20485966526212 0 0 0 0 -66.185977341492844 -128.04833642005542 0 -128.04833642005542 118.45937413498177 0 0 0 0 22.531885890246031 47.600261925150335 0 47.600261925150335 -99.007330505512073 0 0 0 0 4.663833304626678 64.739358794220607 0 64.739358794220607 -12.884477908301051 0 0 0 0 -0.86948394936916884 -46.255317379020198 0 -46.255317379020198 -82.753322334639961 0 0 0 0 14.76730629942732 14.289510423455511 0 14.289510423455511 -47.136617505683091 0 0 0 0 16.862502172819632 -1.8246809621341527 0 -1.8246809621341527 -79.193092703062575 0 0 0 0 24.422609215358534 69.079804833767412 0 69.079804833767412 72.017639679150307 0 0 0 0 9.2614927394480269 8.3109079157958377 0 8.3109079157958377 -27.231852433126619 0 0 0 0 16.759645705902816 -11.722847828196507 0 -11.722847828196507 -13.356135614551022 0 0 0 0 3.7937926377215074 2.7302700617497067 0 2.7302700617497067 -5.3951512553076526 0 0 0 0 -189.39787935743334 89.378301876815385 0 89.378301876815385 200.32753574411618 0 0 0 0 143.86604022940082 199.18468095628486 0 199.18468095628486 41.427967163908761 0 0 0 0 -23.547932036736459 12.777397041071637 0 12.777397041071637 -10.278344793953941 0 0 0 0 72.831887218398322 25.154468104392436 0 25.154468104392436 -228.796656494731 0 0 0 0 -555.80442287626215 -149.45014134080702 0 -149.45014134080702 -96.253224752930691 0 0 0 0 -408.84023357914339 -566.81521856963445 0 -566.81521856963445 -471.09502327357404 0 0 0 0 -5.7427923386921256 -1.1842295545728945 0 -1.1842295545728945 -3.3068972938735897 0 0 0 0 5.0568958095971226 92.397511523406138 0 92.397511523406138 7.5277640350323054 0 0 0 0 -329.97110563003207 -60.347232182466541 0 -60.347232182466541 89.7576057009137 0 0 0 0 21.145843382188957 11.661861040498479 0 11.661861040498479 -89.627637296973262 0 0 0 0 -10.837794350615326 21.422376922339026 0 21.422376922339026 -82.260217257062322 0 0 0 0 36.330044849728068 -15.350058529744274 0 -15.350058529744274 -85.197093384413165 0 0 0 0 3.283861054196052 -5.9787570428889012 0 -5.9787570428889012 -77.412308609418687 0 0 0 0 -17.572722248962918 -102.95042460585682 0 -102.95042460585682 -157.20431112890947 0 0 0 0 -163.96105959889974 -228.65392367519962 0 -228.65392367519962 -163.43072766852129 0 0 0 0 -114.16976706205043 -341.8506733519539 0 -341.8506733519539 -372.85228543035191 0 0 0 0 -219.41358893774003 -296.05086517697964 0 -296.05086517697964 -245.3432981306978 0 0 0 0 -104.95205584076689 -303.32398157139323 0 -303.32398157139323 -264.60495954964063 0 0 0 0 -47.53687548324001 -368.84287428821517 0 -368.84287428821517 -531.51322127554158 0 0 0 0 -45.137077386432111 -372.83548778785917 0 -372.83548778785917 -690.51670153611849 0 0 0 0 -435.63716391429261 -430.32152665851208 0 -430.32152665851208 -643.09060989506543 0 0 0 0 -395.80288144400276 -334.70562926438288 0 -334.70562926438288 -538.92657829106975 0 0 0 0 52.379022127700864 -456.66853180003091 0 -456.66853180003091 -792.74199693262199 0 0 0 0 -75.204767009694137 -213.60144501107243 0 -213.60144501107243 -649.368050194018 0 0 0 0 -184.79703087328278 -504.25237062812084 0 -504.25237062812084 -1408.9947553988604 0 0 0 0 -585.17916759637592 -475.88809491989377 0 -475.88809491989377 -654.49446730966156 0 0 0 0 -138.22649888557726 297.6259989860373 0 297.6259989860373 -1315.3547924753439 0 0 0 0 -34.959402184364762 -295.7536031137206 0 -295.7536031137206 -2892.0970527550089 0 0 0 0 -97.65675782106166 42.7945594350997 0 42.7945594350997 -650.34715835551469 0 0 0 0 1220.9434895131299 1005.1811066047267 0 1005.1811066047267 -2263.4386156399269 0 0 0 0 840.51273929975764 3317.6985981755315 0 3317.6985981755315 -5483.7414342871525 0 0 0 0 1068.4674491676874 1046.1497403199992 0 1046.1497403199992 -1147.962150684798 0 0 0 0 2.698026247914652 2.3425858979932741 0 2.3425858979932741 -6.5828932168365668 0 0 0 0 -509.89173619773237 -1381.5089866749986 0 -1381.5089866749986 -3325.8536707269814 0 0 0 0 -141.83634077405668 -624.06385071239492 0 -624.06385071239492 -2451.7377225550699 0 0 0 0 -232.89111204671917 -1135.9026722457202 0 -1135.9026722457202 -2732.2850582931642 0 0 0 0 -333.49272597539391 -839.29310840625703 0 -839.29310840625703 -2079.8043642300181 0 0 0 0 6.9570577424760245 4.5731227183225229 0 4.5731227183225229 -13.300969132618818 0 0 0 0 974.93114604540767 -310.18223589552508 0 -310.18223589552508 -5501.4744335805153 0 0 0 0 103.24938482419049 -679.86801899477359 0 -679.86801899477359 -3194.32926878531 0 0 0 0 4.665688773765881 1.4419932445033083 0 1.4419932445033083 -12.012906112846522 0 0 0 0 -541.89516907270956 -1905.3289729628523 0 -1905.3289729628523 -5497.7346373611581 0 0 0 0 -335.76413199725232 -812.39053925248845 0 -812.39053925248845 -2235.0427952155587 0 0 0 0 -291.06677494151245 -630.01436994086544 0 -630.01436994086544 -1756.6617114473338 0 0 0 0 -115.72691267734899 -880.32476951579883 0 -880.32476951579883 -2214.9069413144898 0 0 0 0 -415.17045479909126 -484.20536813028048 0 -484.20536813028048 -1269.3607320591109 0 0 0 0 -236.33568578314248 -701.62538814683649 0 -701.62538814683649 -1732.7364670724455 0 0 0 0 -553.43604433183714 -379.99907716319285 0 -379.99907716319285 -1236.4247708368421 0 0 0 0 -285.71408968291598 -386.76026364110294 0 -386.76026364110294 -2001.2890009224211 0 0 0 0 -400.76751060788217 -417.86119872163363 0 -417.86119872163363 -1234.4943905536347 0 0 0 0 -511.76962128562309 -382.6789354036282 0 -382.6789354036282 -754.36656960989785 0 0 0 0 -234.52461337067172 -387.22408915624328 0 -387.22408915624328 -1297.2557009601733 0 0 0 0 -414.19845207171903 -440.77530960798322 0 -440.77530960798322 -752.24878729434749 0 0 0 0 -277.52319900576111 -210.53523321791363 0 -210.53523321791363 -744.51313077137456 0 0 0 0 -374.08875806638594 -220.81225236103273 0 -220.81225236103273 -485.47485672857147 0 0 0 0 -220.05580750541958 -74.994871809663891 0 -74.994871809663891 -346.80740308498207 0 0 0 0 -170.05718476070979 -55.610902619187982 0 -55.610902619187982 -650.22347551013809 0 0 0 0 -523.80399800777116 -296.27727779652923 0 -296.27727779652923 -546.85440607281998 0 0 0 0 -443.85955149830261 -449.49859738478699 0 -449.49859738478699 -879.87631331459852 0 0 0 0 -582.73396474728554 -700.35376502445069 0 -700.35376502445069 -1122.3362785327336 0 0 0 0 -227.95863336779894 -656.24945224569819 0 -656.24945224569819 -1553.9343632453047 0 0 0 0 -447.59704228901302 -1576.5455276835673 0 -1576.5455276835673 -2484.1721928207335 0 0 0 0 -101.06939061346225 -985.2150843359268 0 -985.2150843359268 -1563.0030179768034 0 0 0 0 605.6131178917617 -1021.9095829267408 0 -1021.9095829267408 -2788.241860662929 0 0 0 0 149.75760762442258 -549.16165360452942 0 -549.16165360452942 -2141.074605698348 0 0 0 0 102.75643738919742 -2509.0432126295054 0 -2509.0432126295054 -5478.3345473123409 0 0 0 0 -1547.1425118304549 -1288.9143935130633 0 -1288.9143935130633 -660.69045605848805 0 0 0 0 265.8610236205368 -163.43457411354029 0 -163.43457411354029 -565.61909084360377 0 0 0 0 -815.45443473444629 -315.25301554820726 0 -315.25301554820726 -128.10630714870786 0 0 0 0 -227.08525330004588 892.89982174395482 0 892.89982174395482 -5801.7761686201557 0 0 0 0 -3139.8471078264442 -2614.8866711215524 0 -2614.8866711215524 -1215.2390414365364 0 0 0 0 -7.900871273018244 -10.548108294407122 0 -10.548108294407122 -21.725582302944446 0 0 0 0 -528.96297671504851 617.42699865960822 0 617.42699865960822 -47.978495294926688 0 0 0 0 -995.87513824208418 2712.8032225888892 0 2712.8032225888892 -5978.3936123534477 0 0 0 0 -1879.3045481166905 3586.4763833342731 0 3586.4763833342731 -4986.2355271436099 0 0 0 0 1.8111839169333392 -1.1312251461700669 0 -1.1312251461700669 -20.058392986982511 0 0 0 0 -2491.933676424931 853.24706973973662 0 853.24706973973662 -5493.3822128800239 0 0 0 0 -1871.5886209078622 3033.7218844510207 0 3033.7218844510207 -3569.8825840784921 0 0 0 0 -111.11021457793959 -284.80910361383212 0 -284.80910361383212 -105.87598409933935 0 0 0 0 27.924978277184891 42.17832354541315 0 42.17832354541315 176.62507860915866 0 0 0 0 -9.518656398948302 -23.052913575334173 0 -23.052913575334173 -54.058719035157765 0 0 0 0 -167.7784047105128 137.832445766413 0 137.832445766413 -68.44512394850608 0 0 0 0 465.45754664500373 -497.39929940156071 0 -497.39929940156071 -342.95158054948843 0 0 0 0 -498.69230173381385 -38.772340109334436 0 -38.772340109334436 -175.24472714291187 0 0 0 0 21.811319470198214 -22.530923093218007 0 -22.530923093218007 -500.68087472061961 0 0 0 0 -139.89432861418732 135.08821246571097 0 135.08821246571097 -212.27345311958925 0 0 0 0 -9.8559805666606302 -28.634886678373409 0 -28.634886678373409 -66.067282241639845 0 0 0 0 379.97465103337163 -299.15457846023492 0 -299.15457846023492 65.040748606274065 0 0 0 0 270.23732065580953 144.21721911267196 0 144.21721911267196 -315.71359514576034 0 0 0 0 -618.95412190934621 -614.58397528889645 0 -614.58397528889645 -946.84339350474875 0 0 0 0 -609.27834809576598 -583.24605627373694 0 -583.24605627373694 -965.42453448616652 0 0 0 0 58.327070975148217 26.133967236010484 0 26.133967236010484 -158.35628604121771 0 0 0 0 -131.29049419298963 19.371575181510707 0 19.371575181510707 -465.86178182404547 0 0 0 0 -816.86885203144993 -483.3661636463612 0 -483.3661636463612 -894.4782895988933 0 0 0 0 -947.1328536470337 -637.06807744842627 0 -637.06807744842627 -989.99497392744433 0 0 0 0 -719.51241448223664 -566.57987874572245 0 -566.57987874572245 -762.08446109511442 0 0 0 0 -492.97488170283395 -635.598252875855 0 -635.598252875855 -390.00380618753843 0 0 0 0 -299.44525951428295 -265.64508361820936 0 -265.64508361820936 -523.03785299895253 0 0 0 0 -458.21470768170911 -689.81108106390002 0 -689.81108106390002 -911.93020338945917 0 0 0 0 -613.53975245840638 -1171.8702616818127 0 -1171.8702616818127 -904.59207846925347 0 0 0 0 -133.58432449461907 -728.14677167015452 0 -728.14677167015452 -1272.5243131359475 0 0 0 0 -261.46484449604486 -574.41179607261142 0 -574.41179607261142 -1079.9387962326 0 0 0 0 -238.6555028907369 79.252805769633596 0 79.252805769633596 -478.60390216697124 0 0 0 0 -65.37520939820206 -95.259732439600157 0 -95.259732439600157 -1205.1208273579741 0 0 0 0 83.803872528244028 557.54935346605907 0 557.54935346605907 -2655.2356990200933 0 0 0 0 -501.70792661641099 -1502.006948215947 0 -1502.006948215947 -2318.7045674428718 0 0 0 0 -15.667311934984603 -15.335887054350515 0 -15.335887054350515 -7.8594302993628844 0 0 0 0 15.965420159245831 -5.0836139381395924 0 -5.0836139381395924 -76.659981597446262 0 0 0 0 87.031698444914582 108.55020633772347 0 108.55020633772347 -488.6143888327606 0 0 0 0 56.704651321735753 19.861278854795049 0 19.861278854795049 -168.05339673406976 0 0 0 0 -116.40715537127517 50.736122673286445 0 50.736122673286445 -497.78703357052655 0 0 0 0 58.964319884610703 26.52538937903509 0 26.52538937903509 -159.03177611134828 0 0 0 0 -232.86936071895661 3.0873635073730838 0 3.0873635073730838 -480.54097307713164 0 0 0 0 -100.08714281561242 71.741870371664845 0 71.741870371664845 -473.90298172333132 0 0 0 0 -127.12019164542653 48.30252201370422 0 48.30252201370422 -432.47949828824494 0 0 0 0 -102.83695466859604 57.062219599078162 0 57.062219599078162 -471.37037187645183 0 0 0 0 -18.603511639761109 -33.538864593738253 0 -33.538864593738253 -425.49101209985474 0 0 0 0 3.9465886492553182 -25.936576913893077 0 -25.936576913893077 -482.73705435022566 0 0 0 0 196.3242309392233 -55.173235412501526 0 -55.173235412501526 -521.09123360779449 0 0 0 0 -71.648293825925975 25.929126124461618 0 25.929126124461618 -462.88475704208668 0 0 0 0 69.915730279157174 60.806741433363186 0 60.806741433363186 -498.53113894224225 0 0 0 0 0.45368954789910276 -225.02886697325448 0 -225.02886697325448 -363.33470457766816 0 0 0 0 44.861148770836735 -164.45225694615874 0 -164.45225694615874 -283.75690203635895 0 0 0 0 79.684136550754829 -120.71635570645958 0 -120.71635570645958 -391.56745790125751 0 0 0 0 52.076744264877789 -167.9331473700131 0 -167.9331473700131 -470.3475439448157 0 0 0 0 207.44835287275782 -198.12701421130987 0 -198.12701421130987 -465.38024650059015 0 0 0 0 127.08988648990766 -288.11510244233023 0 -288.11510244233023 -564.65097623680776 0 0 0 0 138.54791431596482 -335.69466767475024 0 -335.69466767475024 -540.6179675896783 0 0 0 0 360.82456163095412 -228.46339439448639 0 -228.46339439448639 -599.25722774135829 0 0 0 0 708.30793297978846 33.889336487813125 0 33.889336487813125 -483.88064420139727 0 0 0 0 415.52078580175021 -309.68981436765534 0 -309.68981436765534 -479.10046040898305 0 0 0 0 165.15226421098987 -220.00248958297016 0 -220.00248958297016 -519.5959592263971 0 0 0 0 221.019950980874 -427.05509619003351 0 -427.05509619003351 -652.43649418735004 0 0 0 0 -92.138096390101055 94.298440434569784 0 94.298440434569784 -455.47666984872922 0 0 0 0 615.04311829498147 82.216484039086936 0 82.216484039086936 -619.00623016652025 0 0 0 0 66.998521783168599 27.416524051324814 0 27.416524051324814 -572.29006990159905 0 0 0 0 -49.075638398144292 387.94483342868443 0 387.94483342868443 -710.28606459863659 0 0 0 0 11.567707486106794 6.7392589982175508 0 6.7392589982175508 -36.965512839598375 0 0 0 0 48.19952898191071 20.704652443351367 0 20.704652443351367 -161.46282958021942 0 0 0 0 -141.30933336055068 142.93750985539737 0 142.93750985539737 -419.44250291036769 0 0 0 0 -1003.3989664280324 -725.84066829807978 0 -725.84066829807978 -359.29708749162819 0 0 0 0 -43.748466967987028 -49.251098780522291 0 -49.251098780522291 -85.072685021908427 0 0 0 0 862.80956177563758 1.3748017753168824 0 1.3748017753168824 -159.64669970628529 0 0 0 0 882.50232331894108 -251.22278750672194 0 -251.22278750672194 -67.217715699756809 0 0 0 0 2.444767559177178 24.387820546481223 0 24.387820546481223 -93.196717934338352 0 0 0 0 -988.49867369019864 -908.17739720436384 0 -908.17739720436384 -1154.9080546429204 0 0 0 0 -926.08927775036113 -343.69938054729937 0 -343.69938054729937 -1146.6565124084991 0 0 0 0 603.53393960845551 159.17552989581964 0 159.17552989581964 -489.13673768834815 0 0 0 0 438.6874756935191 -312.40392252505626 0 -312.40392252505626 -659.98691845759458 0 0 0 0 870.88592150590569 83.551138844151637 0 83.551138844151637 -425.12196758320351 0 0 0 0 921.94206198383006 -196.31192515574276 0 -196.31192515574276 -339.75653678639355 0 0 0 0 1696.3619416895194 780.21318889661416 0 780.21318889661416 -359.40626731920838 0 0 0 0 628.8876352290099 46.827658036256253 0 46.827658036256253 -252.87570868487819 0 0 0 0 404.95994356702266 -235.63404042816001 0 -235.63404042816001 -1042.3588537665892 0 0 0 0 363.0355181364983 158.85455346038179 0 158.85455346038179 658.61916511209711 0 0 0 0 45.548145423917845 1040.6682810494131 0 1040.6682810494131 -1603.7300398531152 0 0 0 0 3.5740503349637303 25.254524615870217 0 25.254524615870217 -69.841359789454032 0 0 0 0 -1953.7368833986172 -3442.6668173993185 0 -3442.6668173993185 -5494.0364734981631 0 0 0 0 580.32305137993626 2500.6038894532685 0 2500.6038894532685 142.76244592410922 0 0 0 0 -0.38660820415629282 8.8195465521114045 0 8.8195465521114045 -30.950252042084756 0 0 0 0 -795.14537843951575 -1134.5331119447335 0 -1134.5331119447335 -2598.9807868907628 0 0 0 0 -408.04912907448056 -458.88325763383 0 -458.88325763383 -3628.6287885281213 0 0 0 0 -779.03588047961921 -1285.3928910996756 0 -1285.3928910996756 -2901.0641309797738 0 0 0 0 -990.62300953256079 -1858.7816544669167 0 -1858.7816544669167 -2926.3715731116272 0 0 0 0 97.979283564394152 -1559.1857591941834 0 -1559.1857591941834 -5499.3735385960154 0 0 0 0 193.99322856547525 -843.18877512823292 0 -843.18877512823292 -3783.6898839408786 0 0 0 0 251.53022236082526 -516.39609685801497 0 -516.39609685801497 -5500.0980869682317 0 0 0 0 35.883452215366404 199.36520697063224 0 199.36520697063224 -4423.8837778605648 0 0 0 0 -207.30212976323031 -101.24668019643616 0 -101.24668019643616 -3440.3656635273855 0 0 0 0 -100.90187496121152 184.36686880477305 0 184.36686880477305 -3623.2731893738419 0 0 0 0 -398.10042803525204 -386.87797900443184 0 -386.87797900443184 -3425.5253580841672 0 0 0 0 -955.09049693830912 -45.002262228121253 0 -45.002262228121253 -1531.4033906566092 0 0 0 0 -105.1769084570584 334.23702388907532 0 334.23702388907532 -2706.3848901875444 0 0 0 0 -1188.9529631699966 -790.93415784714034 0 -790.93415784714034 -527.83165502478914 0 0 0 0 -58.488496824382025 -50.960014153590116 0 -50.960014153590116 -42.699193312930355 0 0 0 0 -13.440660266671568 -13.143021375548702 0 -13.143021375548702 -21.438503217549012 0 0 0 0 198.67965564378392 38.792956416751622 0 38.792956416751622 -28.213017938630344 0 0 0 0 -26.39693370900639 -5.4126133075639631 0 -5.4126133075639631 -29.37261985024028 0 0 0 0 -39.16022450389746 -33.963484497105327 0 -33.963484497105327 -34.395433252373842 0 0 0 0 203.49235104376203 -169.91272546716209 0 -169.91272546716209 -24.613234182168526 0 0 0 0 -804.88323180781845 -318.07961025150144 0 -318.07961025150144 -193.07384839870247 0 0 0 0 -557.1679282987534 -421.56731825870202 0 -421.56731825870202 -827.8520658287016 0 0 0 0 -709.40252176011381 -554.17562019355523 0 -554.17562019355523 -903.18902139865531 0 0 0 0 -5.1239995499890867 10.454524976228726 0 10.454524976228726 -14.082609175340838 0 0 0 0 -969.2840556971787 -373.0618657748164 0 -373.0618657748164 -1004.6413971193658 0 0 0 0 -693.23524095921675 -642.92739107555872 0 -642.92739107555872 -744.49621408053827 0 0 0 0 -8.853841602237253 85.114604568570712 0 85.114604568570712 -146.6324125176543 0 0 0 0 -9.5307243271003657 -28.357359698842263 0 -28.357359698842263 -19.069228004591782 0 0 0 0 -36.117805112274269 41.394301785044185 0 41.394301785044185 -48.061704507078389 0 0 0 0 -261.82428368750698 -624.22128016560509 0 -624.22128016560509 -1129.3660893206525 0 0 0 0 185.08669236682795 106.95193236509408 0 106.95193236509408 -311.96046771285182 0 0 0 0 223.31439211138604 -225.52352066160893 0 -225.52352066160893 -355.04376330042481 0 0 0 0 83.105285613966316 474.45261866561123 0 474.45261866561123 -365.7895067595432 0 0 0 0 -445.33306950731276 11.021552888295446 0 11.021552888295446 308.86615395872923 0 0 0 0 -1304.4906952643539 -1859.1198877803595 0 -1859.1198877803595 -2340.7395945313328 0 0 0 0 -422.52357036165404 -181.32769223477248 0 -181.32769223477248 269.96895706610212 0 0 0 0 -14.294829781248893 -12.607472624935529 0 -12.607472624935529 -15.07460855870875 0 0 0 0 82.313600163038814 286.62321090599926 0 286.62321090599926 -7765.6920474403742 0 0 0 0 -1779.8725343901058 -745.91996344342783 0 -745.91996344342783 -5499.6855996731792 0 0 0 0 -1382.4808049745272 113.04964618399487 0 113.04964618399487 -5638.1471614369966 0 0 0 0 53.137175885150661 -815.64657843459941 0 -815.64657843459941 -5500.3083192642271 0 0 0 0 513.24582053585061 -1003.6334275391005 0 -1003.6334275391005 -5067.5251575644979 0 0 0 0 759.51396102779779 -721.01593822590667 0 -721.01593822590667 -5754.6907514269769 0 0 0 0 608.56135435933243 -396.37898414410711 0 -396.37898414410711 -5002.0477177532139 0 0 0 0 214.78509249380818 -1494.5028789361038 0 -1494.5028789361038 -4589.8769866836483 0 0 0 0 497.95343283667881 -1006.4818122580687 0 -1006.4818122580687 -6297.4043217349581 0 0 0 0 304.12383433789796 -84.984748340633359 0 -84.984748340633359 -2912.700429117097 0 0 0 0 -421.65454360178711 -1347.0743266250156 0 -1347.0743266250156 -5848.4000777763649 0 0 0 0 346.16382504675227 -733.68339609835857 0 -733.68339609835857 -5500.5458892384631 0 0 0 0 32.482334256438918 130.03549988704708 0 130.03549988704708 -5705.7738788534325 0 0 0 0 54.789168706089981 -547.39225820930096 0 -547.39225820930096 -8263.6581133510008 0 0 0 0 -261.17321779824488 -714.15356215064094 0 -714.15356215064094 1279.6212461377509 0 0 0 0 113.46433707706194 -497.17925609659869 0 -497.17925609659869 -4038.9564760853482 0 0 0 0 -17.335567166765099 -32.401613263525121 0 -32.401613263525121 -16.341230453585055 0 0 0 0 291.2470120539565 -413.59591078641279 0 -413.59591078641279 73.585762528993655 0 0 0 0 413.14563112937503 -8.2627627917172504 0 -8.2627627917172504 -256.7337114919028 0 0 0 0 422.73673694070521 -565.19339056768149 0 -565.19339056768149 -692.16136923360682 0 0 0 0 484.25743255402722 13.14719804568449 0 13.14719804568449 -738.809769991434 0 0 0 0 -19.029801507335872 -38.35497381582374 0 -38.35497381582374 -14.867298417055757 0 0 0 0 -877.85001910544906 -1232.3759927062956 0 -1232.3759927062956 -1072.2428522137088 0 0 0 0 100.63311614007034 -114.9116149910642 0 -114.9116149910642 -240.06309242134375 0 0 0 0 112.76519955961658 57.816609134642931 0 57.816609134642931 -256.04874745789311 0 0 0 0 -28.170141682477663 -10.511528572976886 0 -10.511528572976886 -92.355533504545747 0 0 0 0 116.17606019026698 108.59782362757323 0 108.59782362757323 -54.167903808418487 0 0 0 0 -2390.8688388046139 -238.71980919589987 0 -238.71980919589987 -407.21124281118767 0 0 0 0 -420.51219230986203 380.33757780487309 0 380.33757780487309 -403.03210226393821 0 0 0 0 -33.48434812612193 41.344244370084311 0 41.344244370084311 -41.508482119035207 0 0 0 0 124.7729665259593 144.45112089838858 0 144.45112089838858 62.783634072824498 0 0 0 0 339.12359978731683 157.02233459127092 0 157.02233459127092 -317.4029481057778 0 0 0 0 499.59272647510579 104.75184394070675 0 104.75184394070675 -550.06601767809479 0 0 0 0 434.98699775448449 354.22861726915289 0 354.22861726915289 -518.93466967051791 0 0 0 0 331.38812149971318 247.56026604932049 0 247.56026604932049 18.753306858929136 0 0 0 0 382.8770295975205 194.05509127316873 0 194.05509127316873 32.293210938810262 0 0 0 0 303.33872969801041 343.34789795947108 0 343.34789795947108 117.36381873939899 0 0 0 0 -17.938517620688458 29.068229220725485 0 29.068229220725485 -33.764194651197769 0 0 0 0 1267.0970284541147 307.22853877576017 0 307.22853877576017 320.81097393274467 0 0 0 0 309.52470458080597 283.91764559664625 0 283.91764559664625 320.2455484468519 0 0 0 0 -2.8691475171031326 9.7994865844314489 0 9.7994865844314489 -14.506583089696491 0 0 0 0 -282.12617646733781 -1218.4381103385922 0 -1218.4381103385922 -1938.9813029674951 0 0 0 0 -66.923633605982104 -238.48322280967841 0 -238.48322280967841 -1859.8675722519556 0 0 0 0 -289.99924010510404 -690.9617624859502 0 -690.9617624859502 -1427.8579537290098 0 0 0 0 -542.31668935447397 -903.84380363512628 0 -903.84380363512628 -1163.2214183840624 0 0 0 0 -242.22522040843069 -838.5335722892778 0 -838.5335722892778 -818.06092167125098 0 0 0 0 -249.59114066302391 -883.15818592146388 0 -883.15818592146388 -1055.2215993895443 0 0 0 0 -1924.3289066115904 -800.73756638038503 0 -800.73756638038503 -59.380124402971205 0 0 0 0 -775.65150426943364 -708.17778085183636 0 -708.17778085183636 -520.43440907728655 0 0 0 0 -256.38769417390358 50.064532369618973 0 50.064532369618973 -152.68657336545721 0 0 0 0 -1016.6961198914314 -1767.2061351007851 0 -1767.2061351007851 -1705.5644645270913 0 0 0 0 315.82232642340387 -831.49297043550541 0 -831.49297043550541 -2673.5592892511559 0 0 0 0 246.56386630322413 -316.20075415216888 0 -316.20075415216888 -1323.2117419613023 0 0 0 0 -371.19849975546117 96.570803638867801 0 96.570803638867801 158.93452811456518 0 0 0 0 -871.01003466853558 -569.19314006615605 0 -569.19314006615605 -1276.5307847802469 0 0 0 0 -300.26327747219079 -171.68943915447016 0 -171.68943915447016 21.267074632251024 0 0 0 0 -1.3868325517042079 4.1640925429021536 0 4.1640925429021536 -7.1159310770267155 0 0 0 0 -145.28834816100016 -919.07345966896901 0 -919.07345966896901 -2306.4585690796957 0 0 0 0 -173.32699519976057 -247.22042575471642 0 -247.22042575471642 -387.1716600742584 0 0 0 0 -320.18417233594641 -84.800516692132078 0 -84.800516692132078 31.266663342183165 0 0 0 0 -135.01942019331318 -44.880823587380291 0 -44.880823587380291 -337.11064215615625 0 0 0 0 1273.4060013693907 52.645188528582366 0 52.645188528582366 -244.20480885709185 0 0 0 0 291.31461119889218 134.86534016335281 0 134.86534016335281 -425.81907834309823 0 0 0 0 250.79050655196761 5.3695460872258991 0 5.3695460872258991 117.86878378074471 0 0 0 0 -120.12205924564023 38.405125497378322 0 38.405125497378322 107.33137071559031 0 0 0 0 0.87931393513853984 -9.8948253499464194 0 -9.8948253499464194 -55.304708695551227 0 0 0 0 1468.2032640104694 -340.96760655808612 0 -340.96760655808612 -298.91260747541673 0 0 0 0 1746.5898762868662 378.10712762590265 0 378.10712762590265 -1869.3463572743349 0 0 0 0 1029.3347077608018 -675.20165901598375 0 -675.20165901598375 -251.38358754679484 0 0 0 0 293.53096654435467 -103.96739924991562 0 -103.96739924991562 -11.86204935461501 0 0 0 0 362.75459692169125 301.31382778065381 0 301.31382778065381 243.7084518325064 0 0 0 0 -256.53211443569171 -319.67980523443111 0 -319.67980523443111 -63.055201697210578 0 0 0 0 845.68748049911073 -279.99701904591893 0 -279.99701904591893 -1012.3885051983088 0 0 0 0 -0.14105284698444187 -9.6679391703151829 0 -9.6679391703151829 -46.616199141158461 0 0 0 0 816.32160147154934 197.49802832531168 0 197.49802832531168 -28.681246895695949 0 0 0 0 -197.49586605966556 681.55003400558599 0 681.55003400558599 -703.03318731129184 0 0 0 0 160.74304915924779 83.943548421647392 0 83.943548421647392 -5.376205017681059 0 0 0 0 -1239.6042654916957 -1623.4087315542147 0 -1623.4087315542147 -725.1273108360183 0 0 0 0 -851.83778792158205 -690.59972161269616 0 -690.59972161269616 84.116075280566292 0 0 0 0 -2.000932610369659 -5.8449463461281006 0 -5.8449463461281006 -18.463968376302077 0 0 0 0 -886.07475296602831 -1154.0680668894129 0 -1154.0680668894129 -208.75332179645193 0 0 0 0 -269.06662506883504 -1312.1458839573461 0 -1312.1458839573461 -353.32244291747338 0 0 0 0 -415.8513564397544 -768.58715698346532 0 -768.58715698346532 -1321.6477531898054 0 0 0 0 -475.27651419628705 -1451.2145950132626 0 -1451.2145950132626 852.84865866984183 0 0 0 0 -3.4702717572323545 -4.6493820683223248 0 -4.6493820683223248 -3.9702957099854927 0 0 0 0 268.58342488142307 -67.428024917615403 0 -67.428024917615403 -2779.1412521451857 0 0 0 0 -67.3145820692489 -351.73574845243638 0 -351.73574845243638 379.99465551253525 0 0 0 0 -73.288221347829221 -738.5075427001284 0 -738.5075427001284 -1200.7367934556951 0 0 0 0 469.72065834166597 -554.68726711288582 0 -554.68726711288582 -2753.910223879051 0 0 0 0 -302.97511321175034 -1047.4690240089694 0 -1047.4690240089694 -1308.2319029117398 0 0 0 0 -220.93409578778568 -910.4749854391348 0 -910.4749854391348 -2630.7003058983173 0 0 0 0 31.830452434605775 -380.09638436923706 0 -380.09638436923706 -3692.3896581756853 0 0 0 0 64.325317985087679 -619.94692954132188 0 -619.94692954132188 -2762.3132166329715 0 0 0 0 466.13732851817622 352.42318078960852 0 352.42318078960852 -1756.3671639471249 0 0 0 0 -938.92649928808999 -817.51225721798619 0 -817.51225721798619 -2556.2515034075823 0 0 0 0 -250.08057640154425 -812.7917071142474 0 -812.7917071142474 -4348.4913121798181 0 0 0 0 -1263.904785599339 -1369.0046925863962 0 -1369.0046925863962 -3492.0678580250569 0 0 0 0 -6.8749395478641766 -12.706566924168307 0 -12.706566924168307 -9.7270999521485919 0 0 0 0 -882.38629259906065 -2214.9145000590706 0 -2214.9145000590706 -1789.2553206193845 0 0 0 0 -871.18207855664707 -1411.1326953283551 0 -1411.1326953283551 -6179.0839766818171 0 0 0 0 -551.0108067366931 -477.57048198012535 0 -477.57048198012535 -4159.8903846118519 0 0 0 0 -732.10865284331067 -931.06171650808665 0 -931.06171650808665 -5499.0070940196783 0 0 0 0 792.58189161770929 -196.5519414713508 0 -196.5519414713508 -4023.8110848905671 0 0 0 0 430.80952738582005 -617.30907297923932 0 -617.30907297923932 -5500.1132193318099 0 0 0 0 720.76637417453355 51.334666955120156 0 51.334666955120156 -3966.9026053700181 0 0 0 0 1381.1183761177601 393.43979473330546 0 393.43979473330546 -5497.6935851589151 0 0 0 0 1119.9132380819633 161.70702351007822 0 161.70702351007822 -3431.3808086932718 0 0 0 0 1449.8212863224087 955.36423874098182 0 955.36423874098182 -3236.2033920322719 0 0 0 0 1573.7845697727455 1743.3330691684132 0 1743.3330691684132 -5502.5128380205315 0 0 0 0 1055.3958018041585 1301.3067415029309 0 1301.3067415029309 -5790.7803210299317 0 0 0 0 645.81983321051814 1530.4123900113937 0 1530.4123900113937 -5489.7853258463765 0 0 0 0 129.44522760181326 745.34411201364128 0 745.34411201364128 1327.4961109160895 0 0 0 0 9.7085272973730525 10.758589718078326 0 10.758589718078326 -1.693872570939309 0 0 0 0 1386.5588322764324 925.27050738341495 0 925.27050738341495 -1419.8819564117912 0 0 0 0 382.79163847261998 269.45628952160769 0 269.45628952160769 -728.30600288575442 0 0 0 0 298.09591341410351 194.51259068761829 0 194.51259068761829 -699.12075103524694 0 0 0 0 340.05488078554708 -66.408446167968577 0 -66.408446167968577 -1756.2541073382245 0 0 0 0 839.66550925857177 155.73271471211319 0 155.73271471211319 -3170.3428214726919 0 0 0 0 527.08345559823897 -399.71119734205968 0 -399.71119734205968 -1492.7169773427777 0 0 0 0 405.76753162625005 -686.68142593828816 0 -686.68142593828816 -1504.3485511475956 0 0 0 0 712.81626398036997 -527.91274508946663 0 -527.91274508946663 -2382.988954014425 0 0 0 0 754.73767794604339 29.989513704070305 0 29.989513704070305 -2391.3148947192494 0 0 0 0 616.87589251584279 -1202.9667290737052 0 -1202.9667290737052 -5500.3861650087201 0 0 0 0 160.33908876040505 -355.19841319952684 0 -355.19841319952684 -3615.9351115796526 0 0 0 0 -1904.5154529458739 -1165.6489866378251 0 -1165.6489866378251 -3622.0303294822079 0 0 0 0 -1619.956766699454 -2216.6642592586068 0 -2216.6642592586068 -3822.8850227287112 0 0 0 0 -20.243629036289793 -6.0310635043475997 0 -6.0310635043475997 -25.826465529700151 0 0 0 0 -4.0162287893397126 8.6668794996698324 0 8.6668794996698324 -30.976598207058856 0 0 0 0 -1682.6674910276508 -2897.2594111825692 0 -2897.2594111825692 -5491.5918602572419 0 0 0 0 -1871.1334041738342 1444.97190513858 0 1444.97190513858 -1145.9670328905004 0 0 0 0 38.289559781901772 12.784282358828776 0 12.784282358828776 -25.321745395799287 0 0 0 0 79.858007182651818 228.82717968291036 0 228.82717968291036 173.80135997885964 0 0 0 0 337.6654850146133 -130.46110369742564 0 -130.46110369742564 -1302.614270638609 0 0 0 0 -14.778795898890166 97.626524178325781 0 97.626524178325781 -612.4632775807986 0 0 0 0 275.435817500138 131.62007038880802 0 131.62007038880802 -621.95139683506932 0 0 0 0 46.048602128186118 -8.8430879864047043 0 -8.8430879864047043 -120.18608671783474 0 0 0 0 -1935.2156148527829 -302.92665161544937 0 -302.92665161544937 -90.101617633670685 0 0 0 0 -1263.4460755092077 445.41507508489303 0 445.41507508489303 -326.31652971805397 0 0 0 0 1171.2330360576971 -402.502446159182 0 -402.502446159182 -4676.5661155502603 0 0 0 0 41.021213246289932 -4.2715393278200864 0 -4.2715393278200864 -143.37215931873075 0 0 0 0 -19.358612249722682 -93.575390517848064 0 -93.575390517848064 -1189.5556935646528 0 0 0 0 35.089362528826314 -1773.20836770186 0 -1773.20836770186 224.63140421521348 0 0 0 0 -10.608351440792381 -18.611913738516535 0 -18.611913738516535 -25.428156376944344 0 0 0 0 -113.29959718979268 -2906.3401320966359 0 -2906.3401320966359 2164.1838309606974 0 0 0 0 -420.30379031484472 -645.19787680550144 0 -645.19787680550144 1860.1424600058235 0 0 0 0 -704.2823920975477 -1691.2742219269203 0 -1691.2742219269203 -1762.4868416592944 0 0 0 0 -1003.4149724243505 839.4545364980595 0 839.4545364980595 -1809.913730820379 0 0 0 0 43.091289564370591 6.2254767723322288 0 6.2254767723322288 -132.91871580814879 0 0 0 0 -1795.686730831867 1658.8502662595602 0 1658.8502662595602 1086.9164429204029 0 0 0 0 -563.7641390399458 223.9498994487567 0 223.9498994487567 -1221.4443265472146 0 0 0 0 -934.69341783145865 -92.664891497639474 0 -92.664891497639474 -1349.5742063239595 0 0 0 0 -41.601434143394386 -212.57773639098468 0 -212.57773639098468 -1050.7192019210706 0 0 0 0 -28.730878270485846 -41.833978074555489 0 -41.833978074555489 -1496.0280958884068 0 0 0 0 285.61903469698427 -171.68015136207759 0 -171.68015136207759 -1271.7701877129493 0 0 0 0 22.318624383020506 124.07481881785498 0 124.07481881785498 -1395.1702602926307 0 0 0 0 135.4186058023829 -77.665420635921691 0 -77.665420635921691 -1241.1850533433753 0 0 0 0 -33.321784039604609 180.70068012907359 0 180.70068012907359 -1243.170495394821 0 0 0 0 -10.533095504992161 152.91051256681021 0 152.91051256681021 -1462.1381945524336 0 0 0 0 -143.56339351980932 266.99911229110876 0 266.99911229110876 -1458.4678544800463 0 0 0 0 -27.873763358507858 141.68728681884022 0 141.68728681884022 -1503.6272159196378 0 0 0 0 -179.76709061882138 192.92049392227636 0 192.92049392227636 -1609.4343116150703 0 0 0 0 -531.89937921791716 166.99615307899512 0 166.99615307899512 -1409.1852180611459 0 0 0 0 -233.14186544977201 230.50680611334974 0 230.50680611334974 -1492.8006272847997 0 0 0 0 -183.51756238748385 88.749024739878223 0 88.749024739878223 -1276.0066547614479 0 0 0 0 -177.39885226177256 200.68686527965633 0 200.68686527965633 -1525.3589312355471 0 0 0 0 -473.60262650568257 199.06598463440605 0 199.06598463440605 -1335.7148330534037 0 0 0 0 -514.53217599209347 81.121703995526332 0 81.121703995526332 -1466.673920849149 0 0 0 0 -743.36286597331673 406.91783826868414 0 406.91783826868414 -1891.4201798777649 0 0 0 0 -1173.9924626553475 310.20049340007972 0 310.20049340007972 -1400.5394070809289 0 0 0 0 -523.97432502194317 70.494157321689954 0 70.494157321689954 -1339.7181744114059 0 0 0 0 -375.90483732520806 111.79124693870835 0 111.79124693870835 -1586.620755009455 0 0 0 0 -361.29684562138937 43.872425038382062 0 43.872425038382062 -1632.5709078767613 0 0 0 0 -597.9052104763723 -75.422497055180429 0 -75.422497055180429 -1461.8947567376745 0 0 0 0 -642.09385851550815 -284.81310166837102 0 -284.81310166837102 -1381.7105738407554 0 0 0 0 -800.44482384703588 -464.61324209734448 0 -464.61324209734448 -1168.0822634968936 0 0 0 0 -314.09140567780196 -485.74093629997515 0 -485.74093629997515 -1748.8329483506968 0 0 0 0 -330.97871568136452 -601.58566545264512 0 -601.58566545264512 -2441.4696441039559 0 0 0 0 -847.37730149207755 -293.64604735094872 0 -293.64604735094872 -523.44722436273878 0 0 0 0 -104.01079880807811 -131.89278635157098 0 -131.89278635157098 -824.91742945809528 0 0 0 0 -853.90409454318433 -212.92488498401872 0 -212.92488498401872 -779.56718927073234 0 0 0 0 -1851.8026378219874 336.47607729300216 0 336.47607729300216 -969.5336438066297 0 0 0 0 -875.52482463325032 -654.20214942324674 0 -654.20214942324674 -214.0776523946115 0 0 0 0 -3.1627162101034187 -6.3635333468623827 0 -6.3635333468623827 -31.44405046425597 0 0 0 0 347.60670481123816 -342.19876504107742 0 -342.19876504107742 -643.77386922842925 0 0 0 0 161.19099148841053 72.153692031583887 0 72.153692031583887 -1997.5536714579648 0 0 0 0 714.25765905675507 -297.86793583885446 0 -297.86793583885446 -1383.5915776695783 0 0 0 0 -2.6304044222922709 -9.8739116241975609 0 -9.8739116241975609 -9.3358464624331816 0 0 0 0 556.84753551570941 -657.07101904975843 0 -657.07101904975843 -1238.0738562712431 0 0 0 0 -0.93373770915005849 -3.507359332867992 0 -3.507359332867992 -4.2944097519046096 0 0 0 0 328.12459684001715 -799.96351123496424 0 -799.96351123496424 535.08374848538006 0 0 0 0 588.4829108008862 -549.8323957149405 0 -549.8323957149405 -989.22610935633566 0 0 0 0 158.08206947176222 26.424613309347478 0 26.424613309347478 -900.13818748151243 0 0 0 0 373.44628604474428 -143.5678770834802 0 -143.5678770834802 -820.31825202804612 0 0 0 0 397.3494058823382 -285.95643122622187 0 -285.95643122622187 -1037.0850693655084 0 0 0 0 447.35995742759087 -36.328932928005088 0 -36.328932928005088 -1281.966290458171 0 0 0 0 94.393958931102134 198.93063339209402 0 198.93063339209402 -1457.3832604872805 0 0 0 0 58.135086680113318 11.818093498207872 0 11.818093498207872 -1131.7457075186976 0 0 0 0 204.02630130971238 -123.9417655320467 0 -123.9417655320467 -1166.4632139529785 0 0 0 0 213.89165105740176 -93.986160471307812 0 -93.986160471307812 -1097.2849025708244 0 0 0 0 243.20973251992564 -269.14064762564522 0 -269.14064762564522 -628.62774771536351 0 0 0 0 126.55555516955928 -507.48056120320325 0 -507.48056120320325 -1112.1595972935293 0 0 0 0 169.94707573695723 -27.672064241694898 0 -27.672064241694898 -1046.3366089027986 0 0 0 0 -196.49296672354603 -777.47134161532449 0 -777.47134161532449 -1197.342834506002 0 0 0 0 -3.5926495329989181 8.8823594671246724 0 8.8823594671246724 -12.356804001916387 0 0 0 0 29.330155628276771 -379.50328539976545 0 -379.50328539976545 -846.38607812232294 0 0 0 0 -124.5245292994793 180.98097353546109 0 180.98097353546109 -499.69922875994598 0 0 0 0 -251.4844855077439 -444.41555099163452 0 -444.41555099163452 -866.65780075598741 0 0 0 0 -80.234420753835707 227.37792347242794 0 227.37792347242794 -1515.4833659438518 0 0 0 0 -11.951685883898676 61.040216840265657 0 61.040216840265657 -621.05527263235126 0 0 0 0 26.244914227827365 -151.52487490567637 0 -151.52487490567637 -1977.0938656402577 0 0 0 0 -119.63319545072375 204.9157459601447 0 204.9157459601447 -2099.6538427535415 0 0 0 0 -73.281273509433959 -1.2218660154903773 0 -1.2218660154903773 -602.60870635889114 0 0 0 0 -32.966798117883876 12.478777137788924 0 12.478777137788924 0.03595002409565673 0 0 0 0 -22.566480038206464 172.31062684433709 0 172.31062684433709 -2244.1627116782838 0 0 0 0 -30.112536699409247 22.234549744607648 0 22.234549744607648 -605.65601532981236 0 0 0 0 139.25753994163142 -454.22665257295739 0 -454.22665257295739 -1927.2830477498492 0 0 0 0 -0.33484958598764614 4.951415666651485 0 4.951415666651485 -8.6623903271832745 0 0 0 0 97.269298666286886 -265.50488574464725 0 -265.50488574464725 -2647.0526446710282 0 0 0 0 112.88640717295584 469.3654129812312 0 469.3654129812312 -519.05519042290325 0 0 0 0 110.26411578387706 626.02253851338901 0 626.02253851338901 -1470.1478954659106 0 0 0 0 -107.70158015175366 442.67066616655211 0 442.67066616655211 -1082.3279873842089 0 0 0 0 85.295399989680845 344.24312179034132 0 344.24312179034132 -1765.7180263295304 0 0 0 0 52.76805799081194 298.4234146311137 0 298.4234146311137 -1468.3601381588669 0 0 0 0 196.66594026712573 483.34855914317814 0 483.34855914317814 -2111.8450362027506 0 0 0 0 -38.003771178527948 -44.401032146848138 0 -44.401032146848138 -15.452299696777732 0 0 0 0 -112.90055172234861 -1.0658274716843152 0 -1.0658274716843152 -285.14241076241888 0 0 0 0 -46.838547332008879 10.607731710640621 0 10.607731710640621 -12.69196044756719 0 0 0 0 33.076736330425774 172.39555652971467 0 172.39555652971467 -1962.6698768849164 0 0 0 0 -24.152638257053468 101.18634790347687 0 101.18634790347687 -667.19729295365687 0 0 0 0 -0.086616426475302433 419.05385911670601 0 419.05385911670601 -2576.7158954754432 0 0 0 0 -223.96682920795683 -103.05237112069881 0 -103.05237112069881 -2246.9181302475263 0 0 0 0 10.370032456183253 -71.361513610499969 0 -71.361513610499969 -428.14960251239245 0 0 0 0 133.33457320365778 -0.6321417883009417 0 -0.6321417883009417 -505.24988939147443 0 0 0 0 57.531312489645643 109.76741647025483 0 109.76741647025483 -445.51791763326037 0 0 0 0 -37.550936397967234 82.656766015090398 0 82.656766015090398 -452.1781873703294 0 0 0 0 0.21473056913964683 -33.104218737164047 0 -33.104218737164047 -511.63661049925577 0 0 0 0 26.116436347223498 13.775796121888561 0 13.775796121888561 -597.87055824366689 0 0 0 0 -42.752294716068718 -37.687109709855577 0 -37.687109709855577 -639.58697468021637 0 0 0 0 -88.099789742514986 -83.770735312860779 0 -83.770735312860779 -381.0655894118463 0 0 0 0 5.5725741612186539 47.254732704612252 0 47.254732704612252 -607.28596557289711 0 0 0 0 -94.320225273801043 36.517466764060373 0 36.517466764060373 -993.2296744844316 0 0 0 0 -8.4982410373806374 -1.8931658577764949 0 -1.8931658577764949 -2.1150152982528887 0 0 0 0 29.760589275869279 93.134318314310804 0 93.134318314310804 -828.81950923449767 0 0 0 0 -53.36453866388274 -2.5292614536338078 0 -2.5292614536338078 -599.2983085023734 0 0 0 0 -2.6615567051662623 -1.3096640675003925 0 -1.3096640675003925 -1.5851161510523042 0 0 0 0 -15.656671332955739 90.381970556678425 0 90.381970556678425 -843.13193232951107 0 0 0 0 -191.91225269847109 91.534942548486015 0 91.534942548486015 -565.45451690527261 0 0 0 0 28.054414016911323 110.68829816357902 0 110.68829816357902 -953.74965629091457 0 0 0 0 -161.02549768823269 -158.10816625444977 0 -158.10816625444977 -737.29878748384363 0 0 0 0 -40.905045333613089 7.5342207054200117 0 7.5342207054200117 -615.65203402885527 0 0 0 0 -104.22037352076768 130.99404628611228 0 130.99404628611228 -422.28596735576866 0 0 0 0 58.500635959298052 -70.910452256077406 0 -70.910452256077406 -592.56989670815528 0 0 0 0 -35.121905506806144 -52.322083828228173 0 -52.322083828228173 -16.944797168529782 0 0 0 0 -164.25192027026787 90.394809795281617 0 90.394809795281617 -348.22698520957783 0 0 0 0 -144.28162641768722 -12.615346422127914 0 -12.615346422127914 -311.98313099714869 0 0 0 0 -135.42298977473547 28.029553658314398 0 28.029553658314398 -433.07069063325434 0 0 0 0 -128.69347872779144 -7.8697264644979441 0 -7.8697264644979441 -439.43271821102826 0 0 0 0 -83.947527749951405 85.462772308455897 0 85.462772308455897 -569.43424544687878 0 0 0 0 -187.00288782254074 154.57706063720798 0 154.57706063720798 -342.12553910883435 0 0 0 0 -78.135348364907259 -198.79363778658444 0 -198.79363778658444 -272.38417409767862 0 0 0 0 1358.1248191477425 149.57896461790369 0 149.57896461790369 -2062.9849700335253 0 0 0 0 92.21692856210575 419.78314600204612 0 419.78314600204612 -2358.6268726461858 0 0 0 0 -414.16233854290476 359.86835854516539 0 359.86835854516539 -1864.2341606753362 0 0 0 0 -188.37438427902907 -80.851810498279519 0 -80.851810498279519 -2402.7645869516709 0 0 0 0 -238.72088665693809 -78.460070109424123 0 -78.460070109424123 -1936.5774601588455 0 0 0 0 -345.95603233017755 -14.528290841117268 0 -14.528290841117268 -1875.0120590103033 0 0 0 0 -391.22976059778739 114.52836395862687 0 114.52836395862687 -1921.3916918185423 0 0 0 0 -436.60057980290003 75.441219446191099 0 75.441219446191099 -1918.996824212576 0 0 0 0 -492.60792608812335 115.40209254547517 0 115.40209254547517 -1893.1854501790076 0 0 0 0 -324.30633044461138 60.63384150431375 0 60.63384150431375 -1959.6044142097089 0 0 0 0 -288.43334884259639 58.039212952250182 0 58.039212952250182 -1837.358995456947 0 0 0 0 -288.35824765136203 56.43921273201704 0 56.43921273201704 -1929.488555757518 0 0 0 0 -354.91128763155575 -6.5344759484760289 0 -6.5344759484760289 -1675.210640720732 0 0 0 0 -248.33410322068084 80.347741762059741 0 80.347741762059741 -1826.7023564500705 0 0 0 0 -251.49838248116657 120.31877311733024 0 120.31877311733024 -1741.367861659237 0 0 0 0 -185.34307315392653 143.00548682766384 0 143.00548682766384 -1911.8545532610442 0 0 0 0 -191.31303526366355 141.2709260468946 0 141.2709260468946 -1871.0017909334565 0 0 0 0 -184.89541770392134 186.88113957608221 0 186.88113957608221 -1877.5976952112687 0 0 0 0 -165.68274064257275 159.93277038776432 0 159.93277038776432 -1999.5198799177597 0 0 0 0 -62.200188447608525 234.68457580075483 0 234.68457580075483 -1948.7758713567309 0 0 0 0 -9.3966286129598373 -1.8235157384776528 0 -1.8235157384776528 -1.6354772760066254 0 0 0 0 -362.89190877266265 -72.607732095239044 0 -72.607732095239044 106.96898893736216 0 0 0 0 -312.12243606148695 52.916847801257973 0 52.916847801257973 14.616666387664736 0 0 0 0 -93.469485671592167 -17.662281945123254 0 -17.662281945123254 0.10044013406221097 0 0 0 0 339.28673702321248 -155.38253501529107 0 -155.38253501529107 -9.6790413741255179 0 0 0 0 -898.57589888962957 270.30680916064011 0 270.30680916064011 350.35642672090762 0 0 0 0 -225.26982963325281 110.87699688735302 0 110.87699688735302 -1992.7212030792725 0 0 0 0 -67.099139549276174 -20.969751526204533 0 -20.969751526204533 -15.004172208590683 0 0 0 0 -63.211585314062177 325.33264088064607 0 325.33264088064607 -1742.7755187188959 0 0 0 0 -283.42592224323585 120.57411374120056 0 120.57411374120056 127.77847272575309 0 0 0 0 -31.214010140991057 -0.067895715287122016 0 -0.067895715287122016 -3.1620117950972286 0 0 0 0 -175.5256709137102 -141.38667145604268 0 -141.38667145604268 -103.23832376453538 0 0 0 0 9.4014659119784483 -253.00096997946093 0 -253.00096997946093 -312.20128365739947 0 0 0 0 154.171605353833 -140.66416423912597 0 -140.66416423912597 -497.58323901053518 0 0 0 0 -19.481611366579273 338.85995644808645 0 338.85995644808645 -1794.0585458402056 0 0 0 0 -105.54603167837922 213.61858856501931 0 213.61858856501931 -1810.184629952244 0 0 0 0 -118.91953286138505 228.20607890770407 0 228.20607890770407 -1792.5214835257939 0 0 0 0 -185.7424525716815 188.36721992666571 0 188.36721992666571 -1678.6294073070094 0 0 0 0 -195.12948161001805 198.291097706051 0 198.291097706051 -1603.8480530981178 0 0 0 0 -67.883374528999411 301.84419837613677 0 301.84419837613677 -1707.9692341956543 0 0 0 0 -87.853543598352189 354.76555539475521 0 354.76555539475521 -1519.2892770033959 0 0 0 0 -51.337134128972139 280.73072007948213 0 280.73072007948213 -1715.948806267319 0 0 0 0 -91.631299155975285 159.55620994381025 0 159.55620994381025 -1859.4178670748042 0 0 0 0 -96.982916507999107 317.70214363295236 0 317.70214363295236 -1730.3473391468069 0 0 0 0 4.8119886790991586 -80.805602958724194 0 -80.805602958724194 -578.05117851178511 0 0 0 0 -62.475654226551342 48.087117154955195 0 48.087117154955195 -314.03494082401448 0 0 0 0 -42.939006327174866 -84.311639682113309 0 -84.311639682113309 -691.94277879065703 0 0 0 0 -102.14438831860662 78.367021055497389 0 78.367021055497389 -634.95469972821593 0 0 0 0 48.803814272478121 -2.2889958081759687 0 -2.2889958081759687 -1001.7329892021226 0 0 0 0 -1024.8219159102373 -282.14194794013747 0 -282.14194794013747 -945.03656103005778 0 0 0 0 -10.458724116506872 -0.67514568725545132 0 -0.67514568725545132 -2.0547055153668339 0 0 0 0 541.66997115912091 117.46769435763417 0 117.46769435763417 -1288.4461630296428 0 0 0 0 434.93355132115175 403.00227949758118 0 403.00227949758118 -2052.1854490045516 0 0 0 0 -29.907675972686775 96.685858367767651 0 96.685858367767651 -864.09205817771726 0 0 0 0 29.373969881664379 -65.512496533236117 0 -65.512496533236117 -746.83831177468528 0 0 0 0 -126.45190181635189 -114.12626830495719 0 -114.12626830495719 -695.74244609795278 0 0 0 0 -162.98653103378092 7.1321514520677738 0 7.1321514520677738 -686.22486998228123 0 0 0 0 -64.33952705867523 -19.515827721870664 0 -19.515827721870664 -431.696630393737 0 0 0 0 -19.052479360974758 -12.293291928228427 0 -12.293291928228427 -515.08062420738861 0 0 0 0 -364.79450630262545 -154.6766126020666 0 -154.6766126020666 -570.12125941009435 0 0 0 0 -370.08884061149729 -25.236918365262682 0 -25.236918365262682 -331.48068809276447 0 0 0 0 13.390854869456234 -140.47058252598799 0 -140.47058252598799 -845.88436139389523 0 0 0 0 2.4253895193978678 138.03586783898572 0 138.03586783898572 -360.93942947429605 0 0 0 0 -30.632191833065008 -215.00618417691294 0 -215.00618417691294 -1360.5127613403165 0 0 0 0 -4.8081453828659377 1.1757769407769842 0 1.1757769407769842 -1.5620762412285032 0 0 0 0 -27.629393957999127 134.13597111587296 0 134.13597111587296 -1081.9935666036017 0 0 0 0 -266.82212858465391 -222.52006461261772 0 -222.52006461261772 -1192.4252273464081 0 0 0 0 -286.95505841490285 -228.31118774601782 0 -228.31118774601782 -1135.5872510678673 0 0 0 0 -377.5092756140117 116.69394328025692 0 116.69394328025692 -552.87303090046044 0 0 0 0 -123.55305760452211 -6.7501114095866797 0 -6.7501114095866797 -1097.7254887265735 0 0 0 0 -133.9136299471993 18.554692524259735 0 18.554692524259735 -532.43276805210917 0 0 0 0 -258.41535613918586 326.88356043894601 0 326.88356043894601 -712.67132028774358 0 0 0 0 -398.18107479275204 274.89926302225649 0 274.89926302225649 -529.41652816739224 0 0 0 0 -109.22448788662223 12.371227780568006 0 12.371227780568006 -728.18884721124778 0 0 0 0 -113.95707318526547 147.06850174493593 0 147.06850174493593 -1350.6671493001377 0 0 0 0 7.6185208108745428 45.227747838816867 0 45.227747838816867 -1298.0922115780268 0 0 0 0 -155.81222625452574 41.930993142341322 0 41.930993142341322 -745.4607862867706 0 0 0 0 -410.68567794369665 230.67383444312873 0 230.67383444312873 -370.00382288353285 0 0 0 0 -288.4982306999882 161.16457726898079 0 161.16457726898079 -210.06847651602402 0 0 0 0 -176.35375118946786 -31.144817402717308 0 -31.144817402717308 -545.79951344936853 0 0 0 0 219.02317626146396 -351.10640807418531 0 -351.10640807418531 -287.89818243312584 0 0 0 0 393.66062432375475 -472.58320589938376 0 -472.58320589938376 -655.62064267390815 0 0 0 0 743.59370410713927 -419.87131594290986 0 -419.87131594290986 -1705.5006629808777 0 0 0 0 -996.27663131813824 1408.926817576641 0 1408.926817576641 -1778.0169398412545 0 0 0 0 0.75863193610273072 -3.8694169677565355 0 -3.8694169677565355 -15.592676662030129 0 0 0 0 447.52497345098163 511.7771268810684 0 511.7771268810684 -2294.2208248444731 0 0 0 0 1248.5730761799759 -1268.1681775626166 0 -1268.1681775626166 -360.21085411147942 0 0 0 0 325.64595962063686 42.495944247857551 0 42.495944247857551 263.8607027770413 0 0 0 0 147.63032856172003 -522.45199351988595 0 -522.45199351988595 505.85429225757252 0 0 0 0 167.85693475793823 -281.62679259822107 0 -281.62679259822107 286.15529915280058 0 0 0 0 376.20284427822207 98.748224227972969 0 98.748224227972969 -269.95246517076157 0 0 0 0 -27.845217324371333 272.50846274440846 0 272.50846274440846 -313.56177825763007 0 0 0 0 -401.42574532494473 176.34432150050998 0 176.34432150050998 -96.720505337507348 0 0 0 0 -274.21478599991042 362.48981446089601 0 362.48981446089601 -367.42670920716773 0 0 0 0 -571.71651362741977 445.80817585454497 0 445.80817585454497 -165.59634837518388 0 0 0 0 -216.69317851187225 250.35800026890502 0 250.35800026890502 -322.07706605136627 0 0 0 0 -203.93773568154938 319.00783043427509 0 319.00783043427509 -54.266292675005388 0 0 0 0 209.63456865548687 -181.84961321811716 0 -181.84961321811716 -145.46955811494263 0 0 0 0 -479.80995082420122 -32.293927445804002 0 -32.293927445804002 -374.98970110132359 0 0 0 0 -677.06568516847074 368.50200315339316 0 368.50200315339316 -441.2828951581032 0 0 0 0 -167.47961312215557 479.99679182926047 0 479.99679182926047 -759.65966377359291 0 0 0 0 -0.77868742467933316 -2.9206358106070383 0 -2.9206358106070383 -7.5738132970232925 0 0 0 0 -484.22304933361738 563.40096428118704 0 563.40096428118704 -632.58997553596419 0 0 0 0 -1111.1684478539901 353.48212163054995 0 353.48212163054995 -131.72036871299497 0 0 0 0 -3.1110092223671302 3.509758717662649 0 3.509758717662649 -3.1770995468463923 0 0 0 0 -599.04440467316817 296.53860778480157 0 296.53860778480157 -125.965551488247 0 0 0 0 5.1196542242854548 46.548876845660743 0 46.548876845660743 -33.264617654582253 0 0 0 0 3.3917765510486788 22.108340082915674 0 22.108340082915674 48.255152072044439 0 0 0 0 0.47354586717230518 12.486980339722351 0 12.486980339722351 -41.841941508619357 0 0 0 0 25.901641917722372 26.459794574904663 0 26.459794574904663 -58.76118117493661 0 0 0 0 76.140635270381608 -41.753810708323726 0 -41.753810708323726 -51.726679526836961 0 0 0 0 -10.745179246485172 -12.259270595385928 0 -12.259270595385928 -19.475583815574936 0 0 0 0 -229.52607759150851 226.75315725382097 0 226.75315725382097 -554.47688165355794 0 0 0 0 -108.68821393372491 188.42368956025166 0 188.42368956025166 -817.66996675608607 0 0 0 0 -120.95926352627885 169.71775458727643 0 169.71775458727643 -555.71664388180943 0 0 0 0 20.848405596210796 209.41695557776256 0 209.41695557776256 -701.07329317332187 0 0 0 0 -36.764111518008576 138.88445611677889 0 138.88445611677889 -708.51682593325677 0 0 0 0 -119.39367670150568 208.46943817717784 0 208.46943817717784 -767.03681802625943 0 0 0 0 -101.96883157626144 35.49061192550289 0 35.49061192550289 -1013.2233769524746 0 0 0 0 -63.077512299158116 252.96735761393938 0 252.96735761393938 -1305.2805736389419 0 0 0 0 -52.760950273102935 163.34402360056265 0 163.34402360056265 -809.9483311836957 0 0 0 0 -387.6194950529698 467.3018257539461 0 467.3018257539461 -669.01401977583009 0 0 0 0 -367.2225139295897 383.6755925777652 0 383.6755925777652 -648.04053322556501 0 0 0 0 -287.09689924768372 291.22949224993863 0 291.22949224993863 -571.61821280917502 0 0 0 0 -326.16571443727844 263.68829220547559 0 263.68829220547559 -301.91292130106012 0 0 0 0 1324.9658068277904 -557.17868593548701 0 -557.17868593548701 10.634665512967331 0 0 0 0 4.1353676913109965 -9.3221133070149023 0 -9.3221133070149023 -39.345731249533742 0 0 0 0 413.27203902907058 89.707208113468369 0 89.707208113468369 -94.722317881787603 0 0 0 0 810.71121207455963 -513.48419779044343 0 -513.48419779044343 47.492994561049272 0 0 0 0 6.7032534979488538 -10.704473173280974 0 -10.704473173280974 -50.624309417055144 0 0 0 0 -343.83990526337402 177.18101408233269 0 177.18101408233269 -311.67807320609745 0 0 0 0 -336.265599464974 151.78422448210404 0 151.78422448210404 -268.87663878952299 0 0 0 0 -178.41711233216483 115.45179659134374 0 115.45179659134374 -310.21575842543825 0 0 0 0 -72.752975453968247 216.12932792351057 0 216.12932792351057 -564.58359923420176 0 0 0 0 -51.189415660654049 155.4118333393526 0 155.4118333393526 -417.41160896053771 0 0 0 0 -179.1913943856307 102.87903955226284 0 102.87903955226284 -243.8316419715411 0 0 0 0 110.28231725134901 139.58915195606824 0 139.58915195606824 -419.53830182028469 0 0 0 0 41.236976046482596 149.57999476263649 0 149.57999476263649 -289.97275355153033 0 0 0 0 152.42952069498824 282.06477612100753 0 282.06477612100753 -493.1772916696209 0 0 0 0 253.56308389274 158.37250806239172 0 158.37250806239172 -506.77453521858843 0 0 0 0 152.49781748749683 260.05265829302516 0 260.05265829302516 -631.7374205289525 0 0 0 0 86.12852285108238 210.09475894225761 0 210.09475894225761 -519.0391339499929 0 0 0 0 131.39625133845857 203.30642948651439 0 203.30642948651439 -613.02499042865384 0 0 0 0 1.8158698208280839 201.56221543853098 0 201.56221543853098 -608.2592482177788 0 0 0 0 96.081321624500561 197.21714092147522 0 197.21714092147522 -678.66796907860407 0 0 0 0 65.047247116061953 238.31713109134216 0 238.31713109134216 -597.05463364796015 0 0 0 0 62.840281688131654 261.41029347623407 0 261.41029347623407 -629.08108550371253 0 0 0 0 38.322842033863708 158.61889139192499 0 158.61889139192499 -646.60511183163908 0 0 0 0 40.174585086351726 162.57197794617241 0 162.57197794617241 -642.13398886473442 0 0 0 0 40.873546383880239 191.53940885492193 0 191.53940885492193 -762.56176891984069 0 0 0 0 -145.67347789934684 194.69398032933168 0 194.69398032933168 -433.89886654919974 0 0 0 0 -121.21584321513546 103.27091768175887 0 103.27091768175887 -236.76323924956887 0 0 0 0 -300.55335624471172 294.96327262137493 0 294.96327262137493 -322.04005730706558 0 0 0 0 16.957504361846077 162.15172031634575 0 162.15172031634575 -551.05745223486156 0 0 0 0 22.24304735250189 222.49905082106125 0 222.49905082106125 -591.4959730795963 0 0 0 0 -36.150876611686726 254.37864454623741 0 254.37864454623741 -554.67653256835183 0 0 0 0 -41.315679653125699 222.54720369605639 0 222.54720369605639 -459.77892742623226 0 0 0 0 -25.133713656096916 374.76627239737354 0 374.76627239737354 -622.46449113103154 0 0 0 0 66.629838493461648 280.71278299335972 0 280.71278299335972 -566.76851631174031 0 0 0 0 -116.79235444760161 337.05304862143021 0 337.05304862143021 -550.65652671426506 0 0 0 0 -101.72106599174003 302.35012979099702 0 302.35012979099702 -484.25960496865082 0 0 0 0 -194.74701593144164 362.91206108668848 0 362.91206108668848 -685.62211469444446 0 0 0 0 -222.77711997935057 386.98954784614034 0 386.98954784614034 -568.26339600249776 0 0 0 0 -128.17469839643945 472.42390004167828 0 472.42390004167828 -595.64850676716014 0 0 0 0 -242.874865353735 211.82980361475529 0 211.82980361475529 -688.86857630853774 0 0 0 0 -263.03950637284106 241.40628089609527 0 241.40628089609527 -575.5615845983275 0 0 0 0 29.05507048723689 30.196061684129951 0 30.196061684129951 -134.08940126779277 0 0 0 0 108.32870850874679 244.55020171612705 0 244.55020171612705 -517.24934414998279 0 0 0 0 133.04020006259816 297.19285563864105 0 297.19285563864105 -636.97123447416379 0 0 0 0 317.0999987397081 282.30168641228374 0 282.30168641228374 -630.96992077834875 0 0 0 0 241.51426730701132 21.896953733317787 0 21.896953733317787 -254.87300042081915 0 0 0 0 39.416191792332654 23.834056537124866 0 23.834056537124866 -120.66777299802754 0 0 0 0 -263.84090341033863 217.19989492951754 0 217.19989492951754 -633.84930628832194 0 0 0 0 -253.75022522716051 202.23778441431568 0 202.23778441431568 -660.67770025152277 0 0 0 0 -40.538143336302028 182.42564933742869 0 182.42564933742869 -699.46537133071251 0 0 0 0 -245.06628322907 344.99441085604394 0 344.99441085604394 -698.60314477435895 0 0 0 0 -466.21240685525413 186.91197624798588 0 186.91197624798588 -632.37838306486015 0 0 0 0 -194.74701593143982 362.91206108668121 0 362.91206108668121 -685.62211469443901 0 0 0 0 -128.03521402703427 -111.64454278025914 0 -111.64454278025914 -1028.3807469666481 0 0 0 0 -33.11194677198182 46.78536307007198 0 46.78536307007198 -774.18545310678564 0 0 0 0 -67.021260682663069 175.87473080037034 0 175.87473080037034 -643.19138889849637 0 0 0 0 2.6431932826749289 53.15330718711175 0 53.15330718711175 -794.54977497742948 0 0 0 0 -148.96324727318643 116.15664246751476 0 116.15664246751476 -431.25328041958937 0 0 0 0 -277.01142583013893 159.06253267459886 0 159.06253267459886 -150.98546887333578 0 0 0 0 -43.813041748668184 99.752995910006575 0 99.752995910006575 -428.93772297809528 0 0 0 0 -12.936266741492545 -10.772660322678348 0 -10.772660322678348 -224.0877151168188 0 0 0 0 -22.865210428027147 185.17070254265406 0 185.17070254265406 -70.808754009158292 0 0 0 0 -3.5933133102186909 32.673960789886763 0 32.673960789886763 -39.037471068301912 0 0 0 0 -40.22529537412538 -50.578412257667878 0 -50.578412257667878 -168.358481157602 0 0 0 0 17.766588950942342 27.707694754478673 0 27.707694754478673 -130.8633301766348 0 0 0 0 -8.629635688616041 10.402955218746925 0 10.402955218746925 -73.31433184636191 0 0 0 0 -75.334056453399171 76.525215930867489 0 76.525215930867489 110.6751610317915 0 0 0 0 -194.86308415765598 -12.884919934809659 0 -12.884919934809659 73.812000380632526 0 0 0 0 28.261745929364146 28.449137059566098 0 28.449137059566098 -83.552788104841639 0 0 0 0 -336.62286770348601 363.78621933551767 0 363.78621933551767 -450.20274190968485 0 0 0 0 -8.83340747680543 21.295985288551471 0 21.295985288551471 -65.784455521994204 0 0 0 0 -318.79052660262096 161.73292084770219 0 161.73292084770219 -138.12382287518994 0 0 0 0 -194.74701593144709 362.91206108668121 0 362.91206108668121 -685.62211469450267 0 0 0 0 -81.523043113097629 -71.764499249387882 0 -71.764499249387882 -94.751750149982399 0 0 0 0 64.397579068225014 -55.881113926869148 0 -55.881113926869148 -504.38281595499666 0 0 0 0 85.929163687213759 197.21655448844831 0 197.21655448844831 -825.18222172713195 0 0 0 0 -60.36194146152684 14.614007778902305 0 14.614007778902305 -201.12052947922348 0 0 0 0 -44.204959216509451 -82.216234727751726 0 -82.216234727751726 -198.11974762962927 0 0 0 0 -91.108387748578707 74.826001376823115 0 74.826001376823115 -345.67073006668943 0 0 0 0 15.273181644801756 -41.976016262787198 0 -41.976016262787198 -47.068903668928769 0 0 0 0 53.576480731762786 -1.9655499832097121 0 -1.9655499832097121 -308.21594534554606 0 0 0 0 -326.08096779029074 -375.31863815204633 0 -375.31863815204633 -38.085953240298295 0 0 0 0 -9.055139463591793 3.0269750434256366 0 3.0269750434256366 -0.87734462768093735 0 0 0 0 236.31084290429339 331.81991111799562 0 331.81991111799562 -1066.6979237849482 0 0 0 0 -137.49908250281953 -407.83852332918741 0 -407.83852332918741 -222.23537565885636 0 0 0 0 -38.319277878931189 -46.204323270485474 0 -46.204323270485474 -237.47298852013046 0 0 0 0 -55.09492653025427 -96.608882493698275 0 -96.608882493698275 -298.67053127763461 0 0 0 0 -40.4966774331183 -60.906389100293424 0 -60.906389100293424 -89.58510140339709 0 0 0 0 59.005572090143566 12.062908248441794 0 12.062908248441794 -174.99486249895216 0 0 0 0 145.65805803451531 663.20983323103883 0 663.20983323103883 -165.56681690210826 0 0 0 0 62.939756430443175 23.18260381611536 0 23.18260381611536 -150.93209782662657 0 0 0 0 343.26715891085041 152.74078297890264 0 152.74078297890264 -206.01513422412972 0 0 0 0 -294.07447676296215 -286.77536924810374 0 -286.77536924810374 -347.93989231606974 0 0 0 0 102.63824617833598 -432.24860294216705 0 -432.24860294216705 -562.53700810346982 0 0 0 0 -294.46664194847835 -566.93832576368004 0 -566.93832576368004 -525.35169506131206 0 0 0 0 -200.5094772378834 -491.57624145841237 0 -491.57624145841237 -828.28893728457479 0 0 0 0 -87.829247507426771 -285.98699664083324 0 -285.98699664083324 -327.62777241070035 0 0 0 0 -127.62451668053018 -243.46859303014298 0 -243.46859303014298 -371.96439207025833 0 0 0 0 -23.217557414660405 -689.65104661017904 0 -689.65104661017904 -1215.2085068711613 0 0 0 0 -257.86949460142 -1986.6318413506524 0 -1986.6318413506524 -1863.574387530316 0 0 0 0 1590.501010737371 -1053.4790610914397 0 -1053.4790610914397 -3119.7734643906078 0 0 0 0 1086.2889081542999 79.316441937412492 0 79.316441937412492 -1025.2499348447018 0 0 0 0 -308.08649423340057 -358.07888701781212 0 -358.07888701781212 -570.57341434324917 0 0 0 0 90.122250379874458 21.217969181248918 0 21.217969181248918 -222.60775905170931 0 0 0 0 159.37364289053858 -381.57321267803854 0 -381.57321267803854 -729.26376129130222 0 0 0 0 -340.4909579636851 -704.65184280019184 0 -704.65184280019184 -851.74872720277926 0 0 0 0 -253.78012770261375 -601.74826596912317 0 -601.74826596912317 -1130.457582955014 0 0 0 0 -295.54945939734387 -944.11893328905012 0 -944.11893328905012 -740.23109520014987 0 0 0 0 344.69341643056532 -1237.1897901096127 0 -1237.1897901096127 -944.23627082753228 0 0 0 0 -646.39674279492283 -1183.502562913658 0 -1183.502562913658 -900.37931809386282 0 0 0 0 -11.15351128819259 1005.0882948176313 0 1005.0882948176313 -1391.4190061327245 0 0 0 0 95.879481118344074 1284.0473930272965 0 1284.0473930272965 889.93135420197359 0 0 0 0 -1.5075405703754787 -6.8213163811790842 0 -6.8213163811790842 -26.8839282515045 0 0 0 0 -656.96230351548229 -1163.0336324382138 0 -1163.0336324382138 555.03830878499866 0 0 0 0 -734.63487515847442 -1796.7132546211069 0 -1796.7132546211069 -544.43341726213112 0 0 0 0 36.068243281745708 658.68604832999699 0 658.68604832999699 -67.8753178048064 0 0 0 0 707.32907555817837 -530.87805030111122 0 -530.87805030111122 256.23629754693684 0 0 0 0 -2921.9490494668967 -620.30163339464343 0 -620.30163339464343 -1947.4012577348985 0 0 0 0 475.35079275000879 1011.4155142111022 0 1011.4155142111022 -2328.9734078335168 0 0 0 0 854.83415108570262 698.08459925685747 0 698.08459925685747 -2766.8465046279234 0 0 0 0 889.77758953939201 321.18684299881716 0 321.18684299881716 -2203.7141731479605 0 0 0 0 969.85397133039987 443.44677614689863 0 443.44677614689863 -2212.8821872433382 0 0 0 0 649.21513947649601 682.46329674158187 0 682.46329674158187 -2199.6685850474828 0 0 0 0 681.59145011427017 446.85299469230085 0 446.85299469230085 -1485.7084564928664 0 0 0 0 516.52886439414283 815.91855917802786 0 815.91855917802786 -1446.2541746842617 0 0 0 0 610.08850680439696 183.01011973600907 0 183.01011973600907 -2103.6953630391799 0 0 0 0 354.610510401174 479.39473328455642 0 479.39473328455642 -837.38109843850543 0 0 0 0 476.72290911563005 440.62575672870298 0 440.62575672870298 -1320.4554115102019 0 0 0 0 509.51813381150168 497.70358282836969 0 497.70358282836969 -1487.4491611736444 0 0 0 0 62.992203835134205 46.812974202832265 0 46.812974202832265 -455.03025995303324 0 0 0 0 92.618213502862545 118.61719293057831 0 118.61719293057831 -897.70744387160812 0 0 0 0 -150.56035796106971 -64.353008786150895 0 -64.353008786150895 -344.89266175938974 0 0 0 0 19.025540226708017 -12.811450351509848 0 -12.811450351509848 -1361.7469716342166 0 0 0 0 306.33255932046723 190.12494319434336 0 190.12494319434336 -1583.1371620756277 0 0 0 0 12.753647078578979 108.97111795906312 0 108.97111795906312 -898.15447223150113 0 0 0 0 -79.370812219408805 -15.177617366900449 0 -15.177617366900449 -964.59237195826427 0 0 0 0 -190.19884106271223 164.12740926691913 0 164.12740926691913 -992.6199951190647 0 0 0 0 -202.42425920472488 -32.270979428343708 0 -32.270979428343708 -1268.7613786678703 0 0 0 0 -17.766535255694794 7.0372206179613386 0 7.0372206179613386 -2.4037992430582591 0 0 0 0 140.37074339695459 211.37316375903538 0 211.37316375903538 -2367.7062818798622 0 0 0 0 11.740040631748798 139.41891871600274 0 139.41891871600274 -1839.3815792576934 0 0 0 0 -628.70765702517406 111.70305353563526 0 111.70305353563526 -1718.2204169050819 0 0 0 0 -291.73502595293758 471.66317510361114 0 471.66317510361114 -1855.6069783337721 0 0 0 0 611.30837472526537 38.73806370600505 0 38.73806370600505 -2412.6954344411206 0 0 0 0 -13.363568994784611 2.0370985928012999 0 2.0370985928012999 -2.8489661733636531 0 0 0 0 384.84649624702388 178.10128337661445 0 178.10128337661445 -1583.5744548909552 0 0 0 0 313.07320786612536 13.557242298018537 0 13.557242298018537 -1959.1322188209742 0 0 0 0 -190.95331871567942 22.082890778227011 0 22.082890778227011 -1360.9184028032007 0 0 0 0 -37.197182794307992 102.79614705679705 0 102.79614705679705 -1722.2148084540386 0 0 0 0 -74.013902001858469 -267.06831416370187 0 -267.06831416370187 -2103.4780707287428 0 0 0 0 -19.026918586998363 64.206952725326119 0 64.206952725326119 -502.98960672454268 0 0 0 0 90.691521554958854 174.77072374022464 0 174.77072374022464 -727.26186204235273 0 0 0 0 -69.549098093120847 -47.595340343410498 0 -47.595340343410498 -472.06578185070248 0 0 0 0 -43.935357386006217 21.132371261817752 0 21.132371261817752 -509.55791661093826 0 0 0 0 -31.972381538500159 -50.880004592819944 0 -50.880004592819944 -16.63921627273232 0 0 0 0 -53.873736185008966 -128.06535462590546 0 -128.06535462590546 -550.51505577428543 0 0 0 0 1.0138427802812657 42.597393953408755 0 42.597393953408755 -583.93294902317575 0 0 0 0 27.487948738889827 90.007347588085395 0 90.007347588085395 -660.49683191454096 0 0 0 0 13.289872546469269 -7.0337828562405775 0 -7.0337828562405775 -659.86836082300579 0 0 0 0 -37.823147350574231 -54.7573771998957 0 -54.7573771998957 -573.43684117574594 0 0 0 0 35.716008895815321 65.133280504938739 0 65.133280504938739 -715.02012606653807 0 0 0 0 21.972478923880772 81.805555130398716 0 81.805555130398716 -600.17028646660037 0 0 0 0 2.2048560641851509 97.530344844330102 0 97.530344844330102 -580.76295655784634 0 0 0 0 0.31324372068411321 47.240881694066047 0 47.240881694066047 -543.89675645364332 0 0 0 0 -27.525541415856424 83.116210079075245 0 83.116210079075245 -512.34249875980458 0 0 0 0 -41.972558750749158 155.63388572618715 0 155.63388572618715 -543.01331654528622 0 0 0 0 2.3109549658204287 100.59122923524865 0 100.59122923524865 -502.11406386224553 0 0 0 0 -16.836387532446679 61.115591612382559 0 61.115591612382559 -471.36144524942574 0 0 0 0 -61.069091786534045 141.8205594874089 0 141.8205594874089 -447.06726956146304 0 0 0 0 -49.84368736145916 114.25141860270378 0 114.25141860270378 -379.38468406720494 0 0 0 0 -87.901764870104671 49.245480794077594 0 49.245480794077594 -317.43956197780062 0 0 0 0 -17.760838311009138 48.233929257985437 0 48.233929257985437 -408.1451391417213 0 0 0 0 -10.694517707946808 -45.05050865963976 0 -45.05050865963976 -10.372816112712627 0 0 0 0 -16.363133925288071 -0.16224534238395449 0 -0.16224534238395449 -2.7144770272829621 0 0 0 0 185.37412321462853 280.12625183507771 0 280.12625183507771 -900.26588520720452 0 0 0 0 -98.814030621011625 -299.64699342453969 0 -299.64699342453969 -414.03836265901919 0 0 0 0 -24.099260066249165 -49.793217884931934 0 -49.793217884931934 -17.03495052963715 0 0 0 0 685.87797129279284 580.90978198426455 0 580.90978198426455 -2566.9651857882418 0 0 0 0 640.28718650510746 -838.55434397869249 0 -838.55434397869249 -6151.9584160688682 0 0 0 0 -2.1338087535912935 1284.1013328082554 0 1284.1013328082554 -1725.1361359307193 0 0 0 0 2.3367899113781565 6.811789315153419 0 6.811789315153419 -14.745755222973969 0 0 0 0 1998.8999986980798 769.2376024814439 0 769.2376024814439 -2960.7459037587396 0 0 0 0 -329.59579067620143 1245.5506070943811 0 1245.5506070943811 -2146.3286086456465 0 0 0 0 -1446.0411451568093 867.25386268716102 0 867.25386268716102 -440.4978588114318 0 0 0 0 -119.22957799556934 724.05546602841787 0 724.05546602841787 -863.68788243622112 0 0 0 0 157.25892425370103 360.09379299228385 0 360.09379299228385 -1488.2664601783035 0 0 0 0 144.68455502812094 189.14429754044249 0 189.14429754044249 -2599.2851396133483 0 0 0 0 -291.49089110340719 -201.92897977684333 0 -201.92897977684333 -1837.8896657126315 0 0 0 0 121.53927374961131 56.022265224790317 0 56.022265224790317 -1702.7907526067575 0 0 0 0 -21.799080899410001 227.52305604537105 0 227.52305604537105 -1405.344051981032 0 0 0 0 -87.245493001877833 -102.48802544060163 0 -102.48802544060163 -3603.7781151626186 0 0 0 0 -38.077407485544924 9.1083789411778469 0 9.1083789411778469 -7.9649120148202499 0 0 0 0 -264.14264711424073 842.1212289823452 0 842.1212289823452 -3072.7214970321802 0 0 0 0 -224.1476591331666 -244.94868081049935 0 -244.94868081049935 -709.98651073590736 0 0 0 0 -4.1683410058236738 -1.2433772162321475 0 -1.2433772162321475 -0.54946705504789861 0 0 0 0 2.7420617792629969 27.087316037068376 0 27.087316037068376 -4763.306506406454 0 0 0 0 -12.014885942184199 20.138847712028848 0 20.138847712028848 -35.944331503557578 0 0 0 0 11.189559261923229 11.384117413443164 0 11.384117413443164 -82.077263896033401 0 0 0 0 1.8631189984665752 -20.205634846824978 0 -20.205634846824978 -4906.8305431119516 0 0 0 0 -331.40873092526783 322.25558890910634 0 322.25558890910634 -1745.4879844157695 0 0 0 0 -9.9093694998795172 -4.6374763850762974 0 -4.6374763850762974 -1808.8459678331274 0 0 0 0 -1.2851523318684197 6.0140355511776136 0 6.0140355511776136 -18.063453926875695 0 0 0 0 0.068664906478127591 39.02773088075628 0 39.02773088075628 -14.437975185777759 0 0 0 0 1.4668075819805182 10.900782362790778 0 10.900782362790778 -20.884516229234578 0 0 0 0 -0.061366408588032433 39.564480149778902 0 39.564480149778902 -60.298955187463434 0 0 0 0 -0.95738429102181632 -5.126020825271155 0 -5.126020825271155 -10.620026178230191 0 0 0 0 21.432781373639131 29.679895747627597 0 29.679895747627597 -97.224556813504023 0 0 0 0 -0.10073823397511722 -60.837614682175627 0 -60.837614682175627 -4674.8563662614397 0 0 0 0 163.0007841721243 -599.87811171839712 0 -599.87811171839712 -5497.8070592597032 0 0 0 0 -66.051894899723607 166.51430494668602 0 166.51430494668602 -4550.2990199628839 0 0 0 0 -73.832405693698234 -107.64666021882658 0 -107.64666021882658 -4407.2862576124026 0 0 0 0 -75.212526468975241 -62.895604091125279 0 -62.895604091125279 -4639.8915785732825 0 0 0 0 -0.075519172058630568 -0.47905977237155639 0 -0.47905977237155639 -9.5801737049116404 0 0 0 0 -0.89070934754046538 -100.83235079068982 0 -100.83235079068982 -4761.4104288301151 0 0 0 0 123.03723191639219 -95.955332363922935 0 -95.955332363922935 -5028.9113716511711 0 0 0 0 34.417524229846947 -677.82665027090115 0 -677.82665027090115 -4532.0202478481515 0 0 0 0 -18.799253128883173 -184.51166616119644 0 -184.51166616119644 -3877.9606459951028 0 0 0 0 -172.82743257989983 -533.70946815751813 0 -533.70946815751813 -4107.2344120964699 0 0 0 0 89.838640785436098 -153.066909420304 0 -153.066909420304 -4685.8056840565368 0 0 0 0 -0.066198340717534165 -0.23243418691964735 0 -0.23243418691964735 -7.3801551146798641 0 0 0 0 -121.66363873030501 171.15333369361542 0 171.15333369361542 -3880.5640066461056 0 0 0 0 171.52388629225831 282.40408386765921 0 282.40408386765921 -3473.5742607994762 0 0 0 0 8.023702256272145 -422.11847975598357 0 -422.11847975598357 -4240.1280112769891 0 0 0 0 -198.57993254143705 -309.62699680462538 0 -309.62699680462538 -3576.5079410523213 0 0 0 0 -43.141043474362334 -149.05767299242143 0 -149.05767299242143 -3538.1653210477671 0 0 0 0 -466.22059976435253 48.609224135594559 0 48.609224135594559 -2921.6276156067033 0 0 0 0 11.815124602062269 226.5438539502793 0 226.5438539502793 -2983.3093111205271 0 0 0 0 -780.42798946449523 -417.48144327051705 0 -417.48144327051705 -2422.1055572465848 0 0 0 0 -507.00453099589316 -212.35922117194878 0 -212.35922117194878 -3114.9460748852871 0 0 0 0 -82.125773841777431 -431.37953360272513 0 -431.37953360272513 -4081.4267011681513 0 0 0 0 -412.07265320469071 -601.07309651992364 0 -601.07309651992364 -3800.1321265976876 0 0 0 0 -137.25048087436551 -1238.4662915769441 0 -1238.4662915769441 -4838.5657931526803 0 0 0 0 -863.09013566738099 -777.01507617404422 0 -777.01507617404422 -4842.5482306818531 0 0 0 0 -240.84962353001586 -846.77227466258046 0 -846.77227466258046 -6151.6870018632326 0 0 0 0 -8.3581196444341401 -3.05977473335318 0 -3.05977473335318 -5.9257706436138733 0 0 0 0 -35.093276546834204 -7.4140027914108941 0 -7.4140027914108941 -2218.9216650997332 0 0 0 0 -152.93139646641345 -627.60733997226453 0 -627.60733997226453 -5692.0790841854468 0 0 0 0 -23.884758273079175 -11.417333710388903 0 -11.417333710388903 -5.9604902212552275 0 0 0 0 -90.602109556949472 -158.52726580109083 0 -158.52726580109083 -1852.442364045055 0 0 0 0 84.034033548049592 6.8958650808490347 0 6.8958650808490347 -2829.2639054169849 0 0 0 0 -23.367858843806061 29.566872825293103 0 29.566872825293103 -2726.6531113883102 0 0 0 0 5.5802763470963654 5.1593451761171991 0 5.1593451761171991 -5.3225767773432668 0 0 0 0 2.23746058392401 3.2043910164852889 0 3.2043910164852889 -4.5838672187720206 0 0 0 0 -84.953245799150864 65.468967762222746 0 65.468967762222746 -3045.6634370474912 0 0 0 0 -31.784755942995616 -40.895351852857857 0 -40.895351852857857 -2859.8288399676967 0 0 0 0 -1.3238935512326861 196.24110198859125 0 196.24110198859125 -2933.8029191001515 0 0 0 0 50.85293249186725 54.486600429139799 0 54.486600429139799 -2757.1788167286868 0 0 0 0 -22.199215364714291 156.51156084421382 0 156.51156084421382 -2572.4603773461422 0 0 0 0 -18.224037124318102 229.38860929317525 0 229.38860929317525 -2614.7066683188023 0 0 0 0 -30.273947454344579 214.56822198194641 0 214.56822198194641 -2377.8072128714703 0 0 0 0 -98.746160660506348 189.59660511010316 0 189.59660511010316 -646.4053206457902 0 0 0 0 -223.72748245805997 197.18760087784176 0 197.18760087784176 -806.80662603483688 0 0 0 0 -128.91316632515691 326.59580696311605 0 326.59580696311605 -2580.0042031915073 0 0 0 0 -63.682537982432521 -5.0231641495130646 0 -5.0231641495130646 -4.2275790278316947 0 0 0 0 -130.243769369554 203.26334565522848 0 203.26334565522848 -2428.9251648685022 0 0 0 0 91.363073992251884 115.38206878069468 0 115.38206878069468 -1180.9459162670501 0 0 0 0 -321.21640596300642 103.99263489700388 0 103.99263489700388 -2669.3546705596527 0 0 0 0 -55.198718778382315 0.35542618934431403 0 0.35542618934431403 -2.102464252642072 0 0 0 0 37.505811149920191 260.09826156271447 0 260.09826156271447 -1524.4203845547308 0 0 0 0 -468.11288008093288 997.13041058299132 0 997.13041058299132 -1870.8608100262936 0 0 0 0 596.50775715468808 -92.105309090860828 0 -92.105309090860828 -565.74437122770178 0 0 0 0 406.06947685127125 600.59697143495578 0 600.59697143495578 -1794.6613615243914 0 0 0 0 2.4333146075285441 0.94888201963050278 0 0.94888201963050278 -3.1695873637663681 0 0 0 0 -231.62468550938502 639.36300848115206 0 639.36300848115206 -1248.4530260479805 0 0 0 0 -137.21622398724503 440.63078229531675 0 440.63078229531675 -928.52404529580963 0 0 0 0 -71.043328259274404 313.67742592897321 0 313.67742592897321 -1234.2270013846282 0 0 0 0 -155.67755930796193 432.12456165211916 0 432.12456165211916 -1089.0969220109328 0 0 0 0 -43.96368131660347 164.83261798350577 0 164.83261798350577 -832.91438377348095 0 0 0 0 -92.67825067125159 354.40657785152143 0 354.40657785152143 -976.47565809611297 0 0 0 0 -139.50837671419868 431.12776422867319 0 431.12776422867319 -960.70595475185291 0 0 0 0 -247.0287149167516 521.29232461938773 0 521.29232461938773 -987.5110190732812 0 0 0 0 82.478125570375852 2.2028147279766728 0 2.2028147279766728 -182.40848006514301 0 0 0 0 -335.07617348338681 300.28505463563488 0 300.28505463563488 -873.09387651169891 0 0 0 0 224.9671785135879 941.98696085820484 0 941.98696085820484 -864.96801820681139 0 0 0 0 -283.84016859601616 -173.39433409848425 0 -173.39433409848425 -1181.7181818901481 0 0 0 0 -120.91437100142957 442.54804398234091 0 442.54804398234091 -545.30927159225394 0 0 0 0 402.54937803898792 198.38682318235806 0 198.38682318235806 -458.28920491919416 0 0 0 0 85.817020381745706 6.9359199082219334 0 6.9359199082219334 -167.49867038878222 0 0 0 0 -63.48392178401236 -18.348858757457151 0 -18.348858757457151 -28.616355246553638 0 0 0 0 -374.53702521588275 53.966726616246888 0 53.966726616246888 -226.15622258132498 0 0 0 0 -161.85089691219628 -314.48910121312292 0 -314.48910121312292 -1521.425815987066 0 0 0 0 19.862955077621336 152.93204964749384 0 152.93204964749384 -248.06650184062164 0 0 0 0 103.48903106598394 45.202249705593346 0 45.202249705593346 -24.433383661973771 0 0 0 0 -204.74972620961944 80.791184224788594 0 80.791184224788594 209.31802998539206 0 0 0 0 -9.4214859811307505 33.448063863602044 0 33.448063863602044 -50.253308032817415 0 0 0 0 -6.965294868703193 10.539838796361835 0 10.539838796361835 -19.972124755909135 0 0 0 0 -54.77221955386176 -375.27204922986857 0 -375.27204922986857 -2008.5641542729863 0 0 0 0 66.826545703013835 -498.5109101269918 0 -498.5109101269918 -2021.8304130388742 0 0 0 0 173.88108500242197 -471.43992328699824 0 -471.43992328699824 -2770.2720527905476 0 0 0 0 93.457890299705468 26.212882550476934 0 26.212882550476934 -1960.4570725389203 0 0 0 0 113.66221247906924 85.277780446172983 0 85.277780446172983 -2444.206115792389 0 0 0 0 -67.424027538133089 -8.380199383105662 0 -8.380199383105662 -0.68396330528666738 0 0 0 0 -2.1551383345122304 78.038156956317835 0 78.038156956317835 -2209.4296623400587 0 0 0 0 111.95420630974422 74.02729823772097 0 74.02729823772097 -2584.5500044663204 0 0 0 0 -144.13641385446931 -494.44782250511344 0 -494.44782250511344 -5501.5649506528171 0 0 0 0 97.657152279770344 100.26669460384983 0 100.26669460384983 -2451.5229653529532 0 0 0 0 33.729430832474236 95.399323945961441 0 95.399323945961441 -2585.5873949841189 0 0 0 0 400.97765272171273 106.7104672974092 0 106.7104672974092 -2581.7297316075783 0 0 0 0 3.7733396026514114 5.9262453451880219 0 5.9262453451880219 -4.5356478115710175 0 0 0 0 161.00898543915537 321.71484834344301 0 321.71484834344301 -2223.3583040463127 0 0 0 0 36.694580538483933 78.393053464213153 0 78.393053464213153 -2548.2082984446388 0 0 0 0 72.292995145278837 -69.522626723890426 0 -69.522626723890426 -2706.7506661481311 0 0 0 0 92.452494050570749 18.712910410788027 0 18.712910410788027 -2134.6153960126294 0 0 0 0 -89.025813240923426 -422.89229810526012 0 -422.89229810526012 -5591.8836885013816 0 0 0 0 -223.35303773708256 -121.30609230797199 0 -121.30609230797199 -1446.0755965323915 0 0 0 0 265.5966907231068 47.569234511785908 0 47.569234511785908 -2072.8034760904557 0 0 0 0 -36.109343232831641 -20.53386359240227 0 -20.53386359240227 -3.7753775363817113 0 0 0 0 -41.201976377728066 -324.38558355324858 0 -324.38558355324858 -6041.503331966087 0 0 0 0 -84.642878331894366 -373.20468106170301 0 -373.20468106170301 -5704.1204956818401 0 0 0 0 -43.461747395992049 -31.532486289217161 0 -31.532486289217161 -0.61297520274911221 0 0 0 0 -453.58852633258903 44.033425837711548 0 44.033425837711548 -933.40267347999179 0 0 0 0 452.66161629028466 -0.95487329565003165 0 -0.95487329565003165 -2212.634962044438 0 0 0 0 0.33680619678182921 1.866977389661713 0 1.866977389661713 -2.6560656836673573 0 0 0 0 310.24450772937962 -143.67826079233055 0 -143.67826079233055 -2520.889873406064 0 0 0 0 -1739.1488156212399 553.16754099897662 0 553.16754099897662 -800.61014441166481 0 0 0 0 518.2280047397071 475.27448082363117 0 475.27448082363117 -2788.366998747777 0 0 0 0 419.16698751763283 50.088845437596319 0 50.088845437596319 -3134.6262847220933 0 0 0 0 -1001.6440251296171 1556.2619007504982 0 1556.2619007504982 -4064.3031355744897 0 0 0 0 -373.95932464166253 -1935.3763879245816 0 -1935.3763879245816 -5425.3024297830707 0 0 0 0 -2611.2536110257133 -316.05901769013144 0 -316.05901769013144 -2388.7613953006367 0 0 0 0 423.87993002133226 193.34795128530095 0 193.34795128530095 -5302.6502949666465 0 0 0 0 385.42749849285065 548.8199904209323 0 548.8199904209323 -2646.5475025466003 0 0 0 0 -535.17643467794164 -485.79514195794036 0 -485.79514195794036 -1006.3067683302652 0 0 0 0 -38.915958775978652 434.75970284864889 0 434.75970284864889 -2624.8217212726086 0 0 0 0 42.046174765739124 147.86372530304652 0 147.86372530304652 -2338.5210482482744 0 0 0 0 -655.74453644031564 -164.11887721496896 0 -164.11887721496896 -1379.5618454084033 0 0 0 0 -1173.530081276338 108.38595295636333 0 108.38595295636333 -475.2520973503124 0 0 0 0 -40.956447987464649 -45.370381095932856 0 -45.370381095932856 -8.4258182182661017 0 0 0 0 -186.08179884991432 -943.81271597126033 0 -943.81271597126033 -5847.3164722711226 0 0 0 0 -795.52369467009703 241.90828528993006 0 241.90828528993006 -428.10767797395965 0 0 0 0 -295.32920248522862 67.882326637485676 0 67.882326637485676 -5499.4109934669832 0 0 0 0 -13.031931529046235 0.15209550425501561 0 0.15209550425501561 15.199342844323866 0 0 0 0 -2.8409858892446209 -220.41197730573913 0 -220.41197730573913 -1006.6148591342499 0 0 0 0 -651.71477889029757 -552.59864813266176 0 -552.59864813266176 -1167.7261568262475 0 0 0 0 -21.050430623009099 -55.889239579110296 0 -55.889239579110296 -75.087225779276196 0 0 0 0 1374.7628424296665 158.80091997016279 0 158.80091997016279 -4452.1928592328213 0 0 0 0 -219.44388081515035 -688.57890049205162 0 -688.57890049205162 -1082.0388760408678 0 0 0 0 -1233.3132673253642 -120.00232252514252 0 -120.00232252514252 -916.80931152904577 0 0 0 0 -177.96459024850401 929.43536586425034 0 929.43536586425034 -6397.1599027482007 0 0 0 0 -3.851625683167001 -9.2100237552014335 0 -9.2100237552014335 -17.548893890137773 0 0 0 0 338.33631319884489 767.31032475407847 0 767.31032475407847 -6458.5526523833214 0 0 0 0 1652.3475722890439 -301.88767977924726 0 -301.88767977924726 -4781.8369793069432 0 0 0 0 1283.2228620353947 -833.23211260326934 0 -833.23211260326934 -4514.9043930869811 0 0 0 0 1132.2862216650551 -593.24062274192329 0 -593.24062274192329 -3739.6352558108629 0 0 0 0 1217.9655450447708 344.19626178823819 0 344.19626178823819 -3073.7636660951139 0 0 0 0 237.96996876897174 -1547.5888896587703 0 -1547.5888896587703 -2840.8957047195145 0 0 0 0 1469.7379520593065 -514.2914434537779 0 -514.2914434537779 -1976.5819909684287 0 0 0 0 1433.2134454949842 -2052.8817007676553 0 -2052.8817007676553 -274.75121006839618 0 0 0 0 -17.550659234756132 -46.530836787690603 0 -46.530836787690603 -68.863572582510756 0 0 0 0 -67.613469404148859 691.95262935122264 0 691.95262935122264 -2359.4843237160967 0 0 0 0 -202.96475912814321 875.31847964321787 0 875.31847964321787 -2489.4326533312924 0 0 0 0 -643.12669322600732 2214.4494238633779 0 2214.4494238633779 -4538.6684512131906 0 0 0 0 -264.99201078956992 -257.13028341628342 0 -257.13028341628342 -3305.5329644809099 0 0 0 0 82.239904237440655 42.271081373850592 0 42.271081373850592 -14.367789999737468 0 0 0 0 -490.24506589068869 386.25852819837019 0 386.25852819837019 -1051.6469140291447 0 0 0 0 454.9048148398997 126.48688679459156 0 126.48688679459156 -2568.1351571712585 0 0 0 0 267.61993539732157 904.62729027246678 0 904.62729027246678 -2802.5171525340702 0 0 0 0 457.53629892696836 493.08886388406063 0 493.08886388406063 -2607.5099411100964 0 0 0 0 -270.84472912710407 1117.2526573287687 0 1117.2526573287687 -1834.9406816642659 0 0 0 0 -1401.9214496510813 2113.5786685474013 0 2113.5786685474013 -1254.1760597362154 0 0 0 0 125.70083814680765 -31.65759302378865 0 -31.65759302378865 -662.42789472361801 0 0 0 0 -191.7714490552853 119.18374412141202 0 119.18374412141202 -546.63451217010152 0 0 0 0 81.455853454949136 48.1066976182465 0 48.1066976182465 16.175345691619466 0 0 0 0 -112.7040982301769 -89.978686046993971 0 -89.978686046993971 109.42367029921297 0 0 0 0 90.291200420515452 322.54195355674165 0 322.54195355674165 -819.7251085133903 0 0 0 0 152.6224964602643 358.65661355684279 0 358.65661355684279 -429.59434722240985 0 0 0 0 -95.199190383558744 245.93326875485218 0 245.93326875485218 -1177.1595845645243 0 0 0 0 49.068549642999642 -140.99266529990473 0 -140.99266529990473 -917.54016274294554 0 0 0 0 69.110175032210464 199.33640200674563 0 199.33640200674563 -838.78828897810945 0 0 0 0 285.15572208685353 -30.796881321926776 0 -30.796881321926776 -2000.0437065512087 0 0 0 0 251.58318150112609 541.14364434065283 0 541.14364434065283 -2745.4851038739289 0 0 0 0 -212.41305763831406 853.67043069640204 0 853.67043069640204 -376.71880127896293 0 0 0 0 -2.6249968591583794 5.1506421755331928 0 5.1506421755331928 -18.833026840764461 0 0 0 0 -1127.1414859270926 -1896.4066753766747 0 -1896.4066753766747 -2873.0499438846309 0 0 0 0 -886.60971356536174 -1212.3700689552061 0 -1212.3700689552061 -1139.5895832249516 0 0 0 0 209.20416825475695 -62.164961205504369 0 -62.164961205504369 32.738926154252113 0 0 0 0 4.3307260171395967 24.702171542769534 0 24.702171542769534 -40.143958728359962 0 0 0 0 86.852929427814473 -248.25099471189836 0 -248.25099471189836 -228.23847790807486 0 0 0 0 -218.15784253505808 81.833906786348962 0 81.833906786348962 -171.66678011214663 0 0 0 0 -77.554313454372419 -18.244775095882517 0 -18.244775095882517 -3.4485596655141393 0 0 0 0 -518.5514965077673 -432.2374350246464 0 -432.2374350246464 -477.00096024178492 0 0 0 0 -355.26815127298687 11.921386568508751 0 11.921386568508751 17.711581954530629 0 0 0 0 -98.070236209591442 -20.592581389313054 0 -20.592581389313054 -2.5409923397465235 0 0 0 0 -165.56402897200655 -117.34268382567825 0 -117.34268382567825 -402.63341916121135 0 0 0 0 -725.31166720657711 992.10481974261347 0 992.10481974261347 -2371.2452611531844 0 0 0 0 -727.15232363516407 117.63373812173086 0 117.63373812173086 -784.64950473112549 0 0 0 0 100.88030495362182 -226.29396376102522 0 -226.29396376102522 -2362.0697236063788 0 0 0 0 1.5906006886107207 -775.73709146883175 0 -775.73709146883175 -3859.4026544905355 0 0 0 0 -269.9135349431856 -945.91530904715819 0 -945.91530904715819 -2568.8353600174887 0 0 0 0 -106.98468661615516 -106.53126614727807 0 -106.53126614727807 -1988.5161084996053 0 0 0 0 57.523280982992219 -349.41261392644083 0 -349.41261392644083 -1642.6339942078484 0 0 0 0 193.59616596164051 -108.22199777861533 0 -108.22199777861533 -2549.6360487923375 0 0 0 0 -47.061220392627924 -11.144581593122069 0 -11.144581593122069 -3.7606408671347857 0 0 0 0 -93.67206252816186 35.711260307520206 0 35.711260307520206 -117.88026205330971 0 0 0 0 -112.94015255827344 -70.097434867237098 0 -70.097434867237098 -448.37620828340005 0 0 0 0 7.2532495598716196 47.776032571084215 0 47.776032571084215 -682.22440016780456 0 0 0 0 -10.902773491958385 106.41849914416753 0 106.41849914416753 -776.77593906660331 0 0 0 0 4.6276938709422666 -51.23597967888054 0 -51.23597967888054 -775.55447910836665 0 0 0 0 2.2989458706988444 102.11102283826403 0 102.11102283826403 -1050.0424053637253 0 0 0 0 -16.227068919811245 40.28935340182943 0 40.28935340182943 -1007.6436697548488 0 0 0 0 -212.58414899975469 186.50852521678462 0 186.50852521678462 -704.94123165575729 0 0 0 0 -278.37145624345612 141.13727828393894 0 141.13727828393894 -523.51466984900981 0 0 0 0 -327.31306739873253 -54.794109222770203 0 -54.794109222770203 -468.25138444008917 0 0 0 0 -654.74734007908592 6.9697426342390827 0 6.9697426342390827 -861.9171151319606 0 0 0 0 -205.15634225776412 -49.347221221216728 0 -49.347221221216728 -865.47946440899977 0 0 0 0 -284.73265972309991 505.27877653985342 0 505.27877653985342 -1916.3073682119866 0 0 0 0 -308.73857848000262 -351.45698610349427 0 -351.45698610349427 -1486.0176084169652 0 0 0 0 -288.94323117240583 320.35224457511868 0 320.35224457511868 -1286.1511279547558 0 0 0 0 41.238797272799275 -299.50977009409689 0 -299.50977009409689 -1693.7985956233315 0 0 0 0 -6.4884547879380605 -5.0424917615030722 0 -5.0424917615030722 -4.8822401127839896 0 0 0 0 -329.01566559663934 -472.75304837318981 0 -472.75304837318981 -189.38510275397857 0 0 0 0 -139.27669205719212 83.73430442836252 0 83.73430442836252 -110.65535181693485 0 0 0 0 63.735768177150021 8.2873596980871298 0 8.2873596980871298 -121.86301684415957 0 0 0 0 -258.94387958859693 -156.57138273570854 0 -156.57138273570854 -141.98529340352979 0 0 0 0 -39.362231762981537 1.580737134332594 0 1.580737134332594 -133.25316728038752 0 0 0 0 -103.2352049046458 31.46269313402081 0 31.46269313402081 -1.6694469231442781 0 0 0 0 -31.91731302514745 92.960941599383659 0 92.960941599383659 -108.65571644840566 0 0 0 0 26.361790220835246 29.423002505143813 0 29.423002505143813 -43.502125432118191 0 0 0 0 -127.22244031975606 -130.10461662257148 0 -130.10461662257148 76.378892508510035 0 0 0 0 -23.404238985819575 -93.971142742066149 0 -93.971142742066149 -696.57956977836147 0 0 0 0 -75.645384809025927 -142.52838028400583 0 -142.52838028400583 -434.31395044102101 0 0 0 0 -51.050600974679924 -240.24264978732117 0 -240.24264978732117 -324.93626882818353 0 0 0 0 39.961936835905135 67.013472301106958 0 67.013472301106958 -278.1532918611847 0 0 0 0 -21.559117271956865 -17.456809371797135 0 -17.456809371797135 -853.50136645488965 0 0 0 0 -29.676070836685085 -187.1084423704815 0 -187.1084423704815 -734.25050557740906 0 0 0 0 52.234695426840062 -88.471807771798922 0 -88.471807771798922 -1167.9929365328244 0 0 0 0 4.5469581733223947 -96.707065401755244 0 -96.707065401755244 -865.52247274904221 0 0 0 0 -89.939534025321905 37.751993197118281 0 37.751993197118281 -1037.0809647739025 0 0 0 0 -376.7673308756344 -66.435350473309882 0 -66.435350473309882 -753.24864819552749 0 0 0 0 -1367.0309678284002 -377.05429471020761 0 -377.05429471020761 -844.13066489010089 0 0 0 0 -375.59139725187424 30.932995619856229 0 30.932995619856229 -1638.6831928822357 0 0 0 0 -1297.2671648684855 468.66694642044604 0 468.66694642044604 -514.10153396537498 0 0 0 0 -664.54474960964285 -264.06321011333421 0 -264.06321011333421 7.9352159829140874 0 0 0 0 -364.69497321000904 93.284969095955603 0 93.284969095955603 -753.00817409320462 0 0 0 0 -253.97462952645537 -112.14938760334917 0 -112.14938760334917 -372.48832341018715 0 0 0 0 -584.29864290285877 -747.95923719470738 0 -747.95923719470738 -584.67478584576384 0 0 0 0 -48.502888264087609 -56.44948340116494 0 -56.44948340116494 -50.510300381496904 0 0 0 0 -231.45161540039862 136.42742216000261 0 136.42742216000261 -1164.497806828178 0 0 0 0 -40.558067464188952 -48.45183063468005 0 -48.45183063468005 -46.200946762475155 0 0 0 0 -211.32012812291941 37.686782625511114 0 37.686782625511114 -761.80149467358569 0 0 0 0 -502.65056690563142 -412.21764737456397 0 -412.21764737456397 -1109.3053499229936 0 0 0 0 -2115.5305632315831 149.67627796101442 0 149.67627796101442 -1280.604334705582 0 0 0 0 -793.52380640904448 -353.50173391746648 0 -353.50173391746648 14.719831631387933 0 0 0 0 -566.86424807719231 -100.68433251568786 0 -100.68433251568786 -783.66207039396977 0 0 0 0 -759.12677859104679 -171.08849835168076 0 -171.08849835168076 -359.25668804009911 0 0 0 0 -502.95208114437264 -468.03213622487965 0 -468.03213622487965 -569.43186164056533 0 0 0 0 -820.42418616685518 -116.29028853585987 0 -116.29028853585987 -253.11957769625587 0 0 0 0 -523.23235450867287 -651.15489261240873 0 -651.15489261240873 62.277157537433595 0 0 0 0 -156.10034686849986 -144.93318420405194 0 -144.93318420405194 -252.27629606539267 0 0 0 0 -56.092795009779238 -50.469857475311244 0 -50.469857475311244 -50.378187603630124 0 0 0 0 -688.70210965944227 -1037.2407735070492 0 -1037.2407735070492 -884.24776341451798 0 0 0 0 -591.64453677787242 440.71291240310529 0 440.71291240310529 -489.35153479714791 0 0 0 0 -15.850553075102525 -1.7605756517211262 0 -1.7605756517211262 -24.683290973641146 0 0 0 0 -1256.8317902608487 311.82483344615321 0 311.82483344615321 -399.0314369557891 0 0 0 0 13.563939335515897 206.57522418082226 0 206.57522418082226 -579.35401368614112 0 0 0 0 29.607645919385902 -334.28558411245558 0 -334.28558411245558 20.313281503185863 0 0 0 0 -130.50541377077388 179.85610593348974 0 179.85610593348974 -632.01535462052561 0 0 0 0 -625.59016777683792 378.69977144039876 0 378.69977144039876 -467.4593342709486 0 0 0 0 -514.72689392747816 310.01654212130961 0 310.01654212130961 -636.28180157396127 0 0 0 0 -539.67423168445475 411.62945799399859 0 411.62945799399859 -1051.041527901325 0 0 0 0 -497.43143826906271 258.17766268832202 0 258.17766268832202 -926.45682445011334 0 0 0 0 -371.66801077124182 256.63052463311033 0 256.63052463311033 -929.09544173238464 0 0 0 0 -589.64875610546005 15.39453184048034 0 15.39453184048034 -1175.2280409488303 0 0 0 0 -841.43069716102582 119.90543899969634 0 119.90543899969634 -636.9144727826606 0 0 0 0 -783.51286990324115 379.67675111409335 0 379.67675111409335 -556.49008424214844 0 0 0 0 -619.72933199524778 372.85382866485634 0 372.85382866485634 -580.34718021414301 0 0 0 0 -933.57791441410245 224.92905900733967 0 224.92905900733967 -589.66228263772791 0 0 0 0 -486.26693689000376 160.78378482730477 0 160.78378482730477 -687.09515333197487 0 0 0 0 -699.881339790526 -16.742032018948521 0 -16.742032018948521 -700.19864609193974 0 0 0 0 -211.83212478533278 -106.72795038717595 0 -106.72795038717595 -1000.6011668199699 0 0 0 0 -9.5066064054151411 -160.98556691023987 0 -160.98556691023987 -612.28265010441828 0 0 0 0 -572.3434957124764 57.421014462721359 0 57.421014462721359 -660.69736834499054 0 0 0 0 -713.97543691270039 235.07959170146933 0 235.07959170146933 -578.99719577505311 0 0 0 0 -1297.0939845153334 -232.09387519570009 0 -232.09387519570009 -551.94916551120423 0 0 0 0 -16.119664000807479 -1.9081767817282014 0 -1.9081767817282014 -2.5321351608259874 0 0 0 0 -773.13895684113322 249.96545555115154 0 249.96545555115154 -159.31440238143114 0 0 0 0 6.6138311006973254 290.37350035459167 0 290.37350035459167 -658.13614512325148 0 0 0 0 -204.53654325366278 -267.84677651548554 0 -267.84677651548554 -1861.9951841901566 0 0 0 0 -151.69984206237041 300.74447998085452 0 300.74447998085452 -1458.1488823627315 0 0 0 0 -353.49498214969299 -568.93610083279782 0 -568.93610083279782 -2950.9634279399979 0 0 0 0 -1074.7231312140993 398.41524608223699 0 398.41524608223699 -687.49636786538395 0 0 0 0 244.13408717922903 536.52095165518404 0 536.52095165518404 -2099.1850913917879 0 0 0 0 238.82430548402408 736.65285963918723 0 736.65285963918723 -1047.2611710802594 0 0 0 0 -75.229973847253859 405.38924352734466 0 405.38924352734466 -964.34333094133035 0 0 0 0 81.475353062798661 -2.6620459133385452 0 -2.6620459133385452 -188.59611741959151 0 0 0 0 -420.93210251748224 617.56095273977917 0 617.56095273977917 -2213.0474884780997 0 0 0 0 60.599713066887062 -6.9299063494878936 0 -6.9299063494878936 -89.849162437185839 0 0 0 0 84.715029641845831 -610.71401205340226 0 -610.71401205340226 -404.08604081813246 0 0 0 0 -177.7793656089234 -151.01435556089564 0 -151.01435556089564 -1207.9046950405445 0 0 0 0 -780.74451609698099 -718.34977476429412 0 -718.34977476429412 -1694.4857419127511 0 0 0 0 55.969443838253937 374.56300086365081 0 374.56300086365081 -957.34581252577118 0 0 0 0 -317.77570599915998 551.43267014983576 0 551.43267014983576 -916.69675760050268 0 0 0 0 -194.17878554392519 398.33707582580973 0 398.33707582580973 -1135.0971822386127 0 0 0 0 -249.2673815287053 773.00170082210389 0 773.00170082210389 -1287.3382113382977 0 0 0 0 24.000707352948851 4.0905989277950425 0 4.0905989277950425 -41.603954755894392 0 0 0 0 -89.957189183357059 334.28763076658925 0 334.28763076658925 -876.36298904483556 0 0 0 0 0.71036768920200899 2.3463055645594864 0 2.3463055645594864 2.1727144082606742 0 0 0 0 -64.561581789725096 382.69271466090868 0 382.69271466090868 -885.96658958061016 0 0 0 0 32.746100750395271 409.87734837007156 0 409.87734837007156 -895.2464497754263 0 0 0 0 -5.0339413486572084 469.5419868089557 0 469.5419868089557 -867.77719173215155 0 0 0 0 30.253018845451152 504.4549636967422 0 504.4549636967422 -838.55649261426879 0 0 0 0 -47.883608478230599 435.10525362835324 0 435.10525362835324 -799.05250992657238 0 0 0 0 -142.85640041478746 526.2764518380136 0 526.2764518380136 -484.08921515925613 0 0 0 0 -224.88690067434436 355.41178932600451 0 355.41178932600451 -834.52683441259433 0 0 0 0 -27.656706368499727 389.68699162590201 0 389.68699162590201 -918.74781475303462 0 0 0 0 16.732290665440814 325.63019700202858 0 325.63019700202858 -889.38119800596905 0 0 0 0 56.836672958081181 387.48031544788682 0 387.48031544788682 -920.03505257713186 0 0 0 0 -12.49600800016924 307.03928999921482 0 307.03928999921482 -662.47401568834903 0 0 0 0 28.123989417400786 28.662008386865182 0 28.662008386865182 15.571465064858955 0 0 0 0 -32.307708220840141 102.48102435051987 0 102.48102435051987 -242.83075243684289 0 0 0 0 64.655925381150155 321.40996711274784 0 321.40996711274784 -660.49353069279459 0 0 0 0 82.3156874692163 24.783734041797288 0 24.783734041797288 -37.355277227645274 0 0 0 0 21.617915017510086 122.96379990807509 0 122.96379990807509 -619.47888120239077 0 0 0 0 9.9280339124424017 2.4857598962597649 0 2.4857598962597649 -1.9819599142630295 0 0 0 0 -322.32360282181617 563.64082679321291 0 563.64082679321291 -577.28807443713595 0 0 0 0 10.461711113889248 16.620861824275075 0 16.620861824275075 -60.265765174597277 0 0 0 0 125.26956459542617 17.471737554116771 0 17.471737554116771 -97.693530332006048 0 0 0 0 82.247116221520628 9.6143559432020993 0 9.6143559432020993 -73.862383407686139 0 0 0 0 40.013708190801481 49.130669172416674 0 49.130669172416674 -265.08830002311151 0 0 0 0 40.468026034001468 38.465536490490194 0 38.465536490490194 -66.276647337232134 0 0 0 0 72.886102228685445 52.039807877605199 0 52.039807877605199 -106.66207502028556 0 0 0 0 66.541351704974659 39.554687606287189 0 39.554687606287189 -154.64142793987412 0 0 0 0 73.860803940699242 47.642630905309545 0 47.642630905309545 -12.996904013665585 0 0 0 0 -228.94572930593495 411.49492282222491 0 411.49492282222491 -663.14181274597649 0 0 0 0 163.42574686040462 280.63268942121249 0 280.63268942121249 -693.55557924395544 0 0 0 0 89.898775895316447 5.7478952211232439 0 5.7478952211232439 -181.03122938845598 0 0 0 0 -200.98352214306578 179.37815060515277 0 179.37815060515277 -1018.7001457688348 0 0 0 0 21.795542788942839 -234.03801435777859 0 -234.03801435777859 -257.71847310632438 0 0 0 0 81.997543458107771 2.1526094921159853 0 2.1526094921159853 -177.74276980842347 0 0 0 0 -437.70763887684916 109.75186509962805 0 109.75186509962805 -409.18106487800833 0 0 0 0 -342.31070745703619 194.67501756754064 0 194.67501756754064 -319.13379347832233 0 0 0 0 -159.83977814311856 25.72252795262466 0 25.72252795262466 -106.07582349689619 0 0 0 0 -70.167645452592794 -2.5504569642423576 0 -2.5504569642423576 -17.776128890726731 0 0 0 0 -8.2317876983159088 -74.816808215144036 0 -74.816808215144036 -90.893108404953381 0 0 0 0 -15.277052111888864 -34.53066017608441 0 -34.53066017608441 -53.087944788489807 0 0 0 0 -12.010807285560077 -13.482497704710113 0 -13.482497704710113 -118.92328628964606 0 0 0 0 -52.002875653880352 -27.208737635532088 0 -27.208737635532088 -121.08318185410462 0 0 0 0 -38.580638360183002 60.782975464382616 0 60.782975464382616 -258.68383862645715 0 0 0 0 -15.7987331297727 -46.228266360158159 0 -46.228266360158159 -156.28534241300076 0 0 0 0 103.09634965050395 -99.271772093001346 0 -99.271772093001346 -378.88517828089243 0 0 0 0 -446.47631905598882 -124.63846456530155 0 -124.63846456530155 267.42656729116788 0 0 0 0 -203.44152442347104 -269.87555253285973 0 -269.87555253285973 -919.00823854359624 0 0 0 0 -137.69662163535213 -443.66319420215586 0 -443.66319420215586 -1548.2680663624633 0 0 0 0 -437.65342958942801 -94.643988855597854 0 -94.643988855597854 -363.72114703102125 0 0 0 0 284.98359708756971 -488.66709734620235 0 -488.66709734620235 -1544.7659357652119 0 0 0 0 342.24395479631585 -176.05749711057433 0 -176.05749711057433 -2054.5251994761857 0 0 0 0 -1030.9671367019091 441.16483948326277 0 441.16483948326277 -1366.5991399372142 0 0 0 0 163.15022317933938 302.42194212063623 0 302.42194212063623 -1844.7457966026559 0 0 0 0 -1.4875138300833126 -6.9950085469874175 0 -6.9950085469874175 -14.737950106227288 0 0 0 0 259.00592983954721 -875.27570750314044 0 -875.27570750314044 -3235.5607838716678 0 0 0 0 -681.52975238344584 -1243.119865200737 0 -1243.119865200737 -1291.1252986038598 0 0 0 0 -384.50363181830573 -80.320868375649297 0 -80.320868375649297 98.959029875666602 0 0 0 0 289.63506858720848 155.4786290290358 0 155.4786290290358 -234.45787319781084 0 0 0 0 -584.1237407507324 -98.81050844919082 0 -98.81050844919082 264.60801974056812 0 0 0 0 -45.417927518327815 -0.66163126959872898 0 -0.66163126959872898 280.58441422742908 0 0 0 0 68.781315694461227 -5.9140037492252304 0 -5.9140037492252304 -105.82496970894863 0 0 0 0 20.06825176059165 31.811087684311872 0 31.811087684311872 -37.766880149369257 0 0 0 0 17.904950955483628 -36.252707859341172 0 -36.252707859341172 95.984595849731704 0 0 0 0 3.1377467457595993 -3.1256523900855253 0 -3.1256523900855253 -35.095971228800408 0 0 0 0 307.57395277783314 7.0251417763938662 0 7.0251417763938662 -64.56329116912093 0 0 0 0 41.19341525599647 9.0232022656561526 0 9.0232022656561526 -71.75603717863298 0 0 0 0 17.515768133001984 -38.771987869171426 0 -38.771987869171426 -117.34966930185328 0 0 0 0 -213.77785341079175 153.52158499769939 0 153.52158499769939 224.54003888057196 0 0 0 0 -2.5009677485763362 -5.4847513278979534 0 -5.4847513278979534 -5.0999582335497848 0 0 0 0 2.2809934129560254 4.1857667539731551 0 4.1857667539731551 -11.485718557717348 0 0 0 0 91.916151664299719 -26.464154579542083 0 -26.464154579542083 -144.68025695078541 0 0 0 0 45.190870503998667 -14.606008002971066 0 -14.606008002971066 -142.8835554200632 0 0 0 0 43.023953496885042 -13.896091679634992 0 -13.896091679634992 -64.944053268445714 0 0 0 0 109.74613570527799 16.732142848934018 0 16.732142848934018 -96.544883171096444 0 0 0 0 73.500229388196232 49.563681262467071 0 49.563681262467071 -120.98376587344683 0 0 0 0 47.084553264798842 39.459473650174914 0 39.459473650174914 -120.33364270364109 0 0 0 0 13.290011773029249 17.604503236445424 0 17.604503236445424 -100.91114034394417 0 0 0 0 58.060713070879046 33.482924234587699 0 33.482924234587699 -156.96980029461702 0 0 0 0 -3.784151803709392 95.899312565263244 0 95.899312565263244 -119.73878923968005 0 0 0 0 41.734220764486054 49.374048842961201 0 49.374048842961201 -80.475494831742253 0 0 0 0 -153.95875511146164 186.08988241491897 0 186.08988241491897 -186.20587963066646 0 0 0 0 -1.1207080728063532 -1.8845852882747067 0 -1.8845852882747067 -0.74143033310133433 0 0 0 0 -20.639683194808754 52.317666287301108 0 52.317666287301108 -52.504866276140092 0 0 0 0 13.468187013128912 -4.9333827237077799 0 -4.9333827237077799 -13.264274299022816 0 0 0 0 124.18399370715349 38.531538809853373 0 38.531538809853373 -75.346489658928476 0 0 0 0 6.1502820532046005 4.5038838099751501 0 4.5038838099751501 -9.0803726191682017 0 0 0 0 5.5871927908842736 49.023013100173557 0 49.023013100173557 -57.976240066069295 0 0 0 0 27.994975359776234 29.142879674425899 0 29.142879674425899 -24.642595992875158 0 0 0 0 2.3452679517213255 36.891617176384898 0 36.891617176384898 -53.649009240456508 0 0 0 0 -10.918834692641212 58.930904969158291 0 58.930904969158291 -44.872197235439671 0 0 0 0 6.9184676056802346 73.035886166428099 0 73.035886166428099 82.534810429438949 0 0 0 0 377.7252133840575 201.22118596993096 0 201.22118596993096 -1.4078653872420546 0 0 0 0 4.2908827828302032 -13.593375017176314 0 -13.593375017176314 -65.896871596700862 0 0 0 0 -51.82904560757413 10.942643781159859 0 10.942643781159859 255.51965664283489 0 0 0 0 170.01004579931168 -213.28439037726275 0 -213.28439037726275 -318.00355063323514 0 0 0 0 -445.80940669186839 266.35931427741889 0 266.35931427741889 379.27195129505708 0 0 0 0 131.89333899804137 459.59576893370104 0 459.59576893370104 -2247.4623252271849 0 0 0 0 143.00471361379368 -1081.8418618367432 0 -1081.8418618367432 -1579.7655579290877 0 0 0 0 -2.8811779318746407 -6.4319284818371898 0 -6.4319284818371898 -25.24541932804641 0 0 0 0 -747.28016385854562 1176.970903875248 0 1176.970903875248 -2353.8496668121079 0 0 0 0 -346.57359663138345 427.79026297390737 0 427.79026297390737 336.27399527220405 0 0 0 0 56.799021678523673 25.25466660996608 0 25.25466660996608 -767.30406008774298 0 0 0 0 346.77244974772111 -207.19627536304324 0 -207.19627536304324 -2310.3341793853033 0 0 0 0 195.61919402317903 141.88460993760964 0 141.88460993760964 -688.0078868730161 0 0 0 0 116.37213443219252 -193.8585448890808 0 -193.8585448890808 -497.42781251110137 0 0 0 0 -60.394989934513433 -105.45545170739206 0 -105.45545170739206 418.46078596546431 0 0 0 0 380.25345236193772 -190.3958660178323 0 -190.3958660178323 -707.72959630835976 0 0 0 0 0.0077097339134661325 -43.823348247948161 0 -43.823348247948161 506.14089866791619 0 0 0 0 344.49452564991213 -39.438458322147198 0 -39.438458322147198 -12.209414741926594 0 0 0 0 -242.45539646417822 160.22800691940938 0 160.22800691940938 -78.843452581364545 0 0 0 0 94.032616626306435 62.144430486034253 0 62.144430486034253 -135.162685582618 0 0 0 0 28.467923579185822 195.83657198789297 0 195.83657198789297 259.66836629752652 0 0 0 0 93.075365399917246 63.253301206525066 0 63.253301206525066 -8.9196075242871302 0 0 0 0 3.8397835891402874 -1.458278630554446 0 -1.458278630554446 0.74262027612680015 0 0 0 0 91.745328743764276 -113.86374414085003 0 -113.86374414085003 -27.338641608774196 0 0 0 0 120.66157085009127 -109.58384537684469 0 -109.58384537684469 -302.77357048846898 0 0 0 0 135.34476621280362 -3.1952287311869441 0 -3.1952287311869441 -73.845123428181978 0 0 0 0 0.20661106042942667 -18.87261438502901 0 -18.87261438502901 -515.6222679867642 0 0 0 0 -14.655196588621209 -225.30084619818081 0 -225.30084619818081 -256.06776415703644 0 0 0 0 0.27180650267976392 0.24880340156653347 0 0.24880340156653347 -3.6152055552429374 0 0 0 0 188.70518782996228 -64.790616053818667 0 -64.790616053818667 -515.54576826273114 0 0 0 0 24.526613861275433 101.3886522783032 0 101.3886522783032 21.943105410085991 0 0 0 0 228.88627365008094 45.589724247882259 0 45.589724247882259 31.277422968458268 0 0 0 0 0.23003040902475735 1.8438486156053102 0 1.8438486156053102 -8.5556513800705716 0 0 0 0 382.48919527186996 321.65313073974175 0 321.65313073974175 195.90813487855485 0 0 0 0 187.18843328587843 344.84959349715791 0 344.84959349715791 349.3240177402331 0 0 0 0 0.37790681332438081 202.83035667370132 0 202.83035667370132 301.69337516606902 0 0 0 0 136.01143318849415 99.827765444766555 0 99.827765444766555 -73.751143060973845 0 0 0 0 18.041739076628346 2.9601257395988796 0 2.9601257395988796 42.627356967132073 0 0 0 0 4.3327450772671909 93.84911368394387 0 93.84911368394387 -213.69279010576429 0 0 0 0 -1.3915184619208958 68.129355616023531 0 68.129355616023531 12.42778026862652 0 0 0 0 63.971340342787357 -114.42834098250023 0 -114.42834098250023 -118.26088124979287 0 0 0 0 71.803053408103096 -104.52938244642428 0 -104.52938244642428 -289.63013046962442 0 0 0 0 -32.641245540924956 -78.60769532530685 0 -78.60769532530685 -200.26773481695272 0 0 0 0 -132.78501549661132 5.1456419019596069 0 5.1456419019596069 -27.448763924941886 0 0 0 0 23.120627104831783 49.006248087855056 0 49.006248087855056 -342.71612384887703 0 0 0 0 66.787389142625557 50.660130832373397 0 50.660130832373397 -123.35286592360353 0 0 0 0 15.67972915402413 40.291274863979197 0 40.291274863979197 -132.40743861783994 0 0 0 0 49.922793586218631 0.24339249210606795 0 0.24339249210606795 -164.05927464261185 0 0 0 0 48.681878755368416 -11.901817167905392 0 -11.901817167905392 -69.960318413344794 0 0 0 0 50.793946979697012 -16.40702018547745 0 -16.40702018547745 -47.842381810889492 0 0 0 0 32.385358748720293 10.309066664644774 0 10.309066664644774 -8.0788744906050738 0 0 0 0 32.123638921325664 -48.239479119612952 0 -48.239479119612952 -5.5826822115377581 0 0 0 0 -34.840430509045291 -44.651727814096375 0 -44.651727814096375 -55.386659571464406 0 0 0 0 -23.665813695867882 7.4522163838992128 0 7.4522163838992128 43.959799845411908 0 0 0 0 17.849574658486972 22.312066626764135 0 22.312066626764135 -47.266823885300255 0 0 0 0 27.184235276351757 6.7791453998681277 0 6.7791453998681277 -7.1869049106153398 0 0 0 0 18.388179009428541 2.9313478745752946 0 2.9313478745752946 44.0385104569541 0 0 0 0 41.443426417488126 680.52666364521838 0 680.52666364521838 -852.70739428084926 0 0 0 0 -257.55834017753114 745.4523209333347 0 745.4523209333347 -685.30611995282379 0 0 0 0 -379.0764830183972 123.94411822262555 0 123.94411822262555 -148.90494342120655 0 0 0 0 1619.8781007200359 634.83968822215684 0 634.83968822215684 223.87019088608213 0 0 0 0 576.39765472047407 44.988946444434987 0 44.988946444434987 710.31710780638969 0 0 0 0 1.1565323695627088 1.3608183608897093 0 1.3608183608897093 -2.2774942890508783 0 0 0 0 807.0848217628693 1134.5859563280101 0 1134.5859563280101 1328.4028671564301 0 0 0 0 3313.5391253490557 875.83899402772659 0 875.83899402772659 -510.76646607238217 0 0 0 0 627.11029982558614 11.475634218535561 0 11.475634218535561 -13.652658531238558 0 0 0 0 380.31765293980584 831.59462372014241 0 831.59462372014241 245.0025198472722 0 0 0 0 432.1352413901019 652.9097836012952 0 652.9097836012952 741.50741823576391 0 0 0 0 1119.890051595781 937.06598508238494 0 937.06598508238494 464.646363671578 0 0 0 0 0.66295278616493003 736.22213335953711 0 736.22213335953711 750.32407341714134 0 0 0 0 579.8389919241007 476.6901790420452 0 476.6901790420452 356.91401936660986 0 0 0 0 1112.4733427305976 836.44887659706001 0 836.44887659706001 422.09508432156872 0 0 0 0 46.199418903777314 40.411496139437077 0 40.411496139437077 26.877115290692018 0 0 0 0 6.0846643083630338 0.59255774208811829 0 0.59255774208811829 -13.695941301133303 0 0 0 0 25.771058669686852 -92.979932166563231 0 -92.979932166563231 -157.90852800515131 0 0 0 0 13.89704082386551 49.709423885360593 0 49.709423885360593 -161.55808547264314 0 0 0 0 -0.75340298531362837 1.0015464404532111 0 1.0015464404532111 -5.1362341768943907 0 0 0 0 162.38241898174653 -93.923063629888929 0 -93.923063629888929 41.146741582629602 0 0 0 0 0.22164601679822904 1.7009963469192257 0 1.7009963469192257 -2.9382576024396352 0 0 0 0 0.42711232220227019 -74.799375221627997 0 -74.799375221627997 104.96906757573015 0 0 0 0 56.568218078986177 -100.94735070859315 0 -100.94735070859315 106.267005811329 0 0 0 0 69.123525351359191 -141.43536415291601 0 -141.43536415291601 142.97564713872271 0 0 0 0 -0.9825485653099566 -104.71617096732371 0 -104.71617096732371 -23.05413297432824 0 0 0 0 113.40433529855585 -99.851739045974682 0 -99.851739045974682 -234.78578982513864 0 0 0 0 106.40765340931813 -13.292609004478436 0 -13.292609004478436 -73.798000466194935 0 0 0 0 13.839036460145309 -90.486659747373778 0 -90.486659747373778 154.61229114632442 0 0 0 0 5.1207924550891164 -49.264464687497821 0 -49.264464687497821 112.57667784232035 0 0 0 0 83.583594488655649 -99.62358544988092 0 -99.62358544988092 144.69793569282115 0 0 0 0 91.077369943393933 -131.05393020920019 0 -131.05393020920019 -56.902379011444282 0 0 0 0 -2.4079621812244341 10.592855865179445 0 10.592855865179445 -31.866216208713695 0 0 0 0 6.2639430451300022 -4.1970268809978108 0 -4.1970268809978108 -16.794803799373028 0 0 0 0 -2.397587117244143 6.2465537485404639 0 6.2465537485404639 -32.642371900597936 0 0 0 0 -6.3178422190481172 7.9811801203941286 0 7.9811801203941286 -25.217795175674837 0 0 0 0 -841.58612425238948 438.3808530542301 0 438.3808530542301 -258.52359720878303 0 0 0 0 -1263.7911012594561 146.97092704119859 0 146.97092704119859 172.96599172940478 0 0 0 0 -392.25169802199821 516.24097400433675 0 516.24097400433675 -554.42495499900542 0 0 0 0 169.62846460852529 48.568896359778591 0 48.568896359778591 -44.070834702026332 0 0 0 0 0.36016748923903963 2.8770893179657264 0 2.8770893179657264 0.79795947781570931 0 0 0 0 61.722312348046728 59.636062772464356 0 59.636062772464356 19.914306532853516 0 0 0 0 0.84436552651193075 -5.0386555823389756 0 -5.0386555823389756 -29.746758133760295 0 0 0 0 3.0206630408323121 7.2611380506784258 0 7.2611380506784258 -7.6735518153036955 0 0 0 0 111.10391853816213 126.41494784879615 0 126.41494784879615 -52.340288033534307 0 0 0 0 -4.7171830619157511 8.423326570982681 0 8.423326570982681 -1.475558729562513 0 0 0 0 -135.64130805556533 -11.444439090817468 0 -11.444439090817468 97.871786743022312 0 0 0 0 -60.329252310930542 108.92251545611362 0 108.92251545611362 18.215897327347193 0 0 0 0 -17.48156818853003 -60.897868625914271 0 -60.897868625914271 -128.0758226638136 0 0 0 0 -112.67190402192323 -56.138233070130809 0 -56.138233070130809 -122.22476966609247 0 0 0 0 -199.00249580797561 -324.13732099473418 0 -324.13732099473418 -553.51497945497977 0 0 0 0 85.15561591286064 -250.48027681169333 0 -250.48027681169333 -1136.1924457924033 0 0 0 0 43.794200238164819 -131.71487036062172 0 -131.71487036062172 -651.5562391576168 0 0 0 0 -0.93351441469857854 -1.9078703870233937 0 -1.9078703870233937 -10.4118265424284 0 0 0 0 -570.12985145306538 1138.7587162694836 0 1138.7587162694836 -1114.3652908015065 0 0 0 0 -252.84984039564677 -485.28334833367262 0 -485.28334833367262 -453.60177939578716 0 0 0 0 -488.82965998036025 493.36437141723582 0 493.36437141723582 -528.27923607826051 0 0 0 0 -195.11242573058448 1.2800244060241539 0 1.2800244060241539 73.772502117208205 0 0 0 0 -792.87554004135654 551.41364879587491 0 551.41364879587491 -522.07691867672838 0 0 0 0 -522.12331326803246 38.085805747759878 0 38.085805747759878 -1738.9273912939461 0 0 0 0 -701.01164697027139 941.24977007723646 0 941.24977007723646 -1367.2827784124238 0 0 0 0 148.39537341335847 195.93265789247562 0 195.93265789247562 -1088.4015434373578 0 0 0 0 169.85331464683688 309.79802112873585 0 309.79802112873585 -1892.170866449138 0 0 0 0 49.70798137949437 -551.33898402486375 0 -551.33898402486375 -1613.7399514398712 0 0 0 0 129.20554404899605 112.92587468313286 0 112.92587468313286 -901.88226850017963 0 0 0 0 149.34549716490235 149.28818405891798 0 149.28818405891798 -985.63332494652423 0 0 0 0 128.8425540835045 3.4386610051005846 0 3.4386610051005846 -939.94927358641871 0 0 0 0 121.08858171104201 -67.522975449221121 0 -67.522975449221121 -806.13410052552354 0 0 0 0 109.9790190355297 -20.341797452230821 0 -20.341797452230821 -658.35302885819692 0 0 0 0 -51.879175416200155 -195.53804943427895 0 -195.53804943427895 -473.3177749698516 0 0 0 0 0.032294893566729821 -0.26606520376526532 0 -0.26606520376526532 -1.5736273682727528 0 0 0 0 44.241853130955 125.41036550185527 0 125.41036550185527 -400.0757252581534 0 0 0 0 52.103380581671317 159.1570547408046 0 159.1570547408046 -897.19147652640822 0 0 0 0 107.25024996554455 -39.779596167325508 0 -39.779596167325508 -820.14509279376216 0 0 0 0 -0.11956285496184305 27.877587058318046 0 27.877587058318046 -823.47144540972658 0 0 0 0 84.579184611763793 120.83524203547859 0 120.83524203547859 -725.52495707271737 0 0 0 0 0.22742064548692487 81.033030102873454 0 81.033030102873454 -681.73913349133363 0 0 0 0 -76.244650583274151 134.8550602469013 0 134.8550602469013 -398.57326090146671 0 0 0 0 -96.335349680186013 225.83700445590512 0 225.83700445590512 -367.60609900057898 0 0 0 0 -0.34678669504313475 23.394711267690582 0 23.394711267690582 -236.03285357544519 0 0 0 0 598.82834786431636 127.8480694946993 0 127.8480694946993 -3550.7003141758032 0 0 0 0 -2.5558870557543196 -4.9617466742733143 0 -4.9617466742733143 -9.2578190776681595 0 0 0 0 499.49248013172627 208.59033092006212 0 208.59033092006212 -2232.1003991601756 0 0 0 0 -0.34291689127369507 -469.14250804716721 0 -469.14250804716721 -1887.0232970920479 0 0 0 0 312.54840637729876 -9.7261965270299697 0 -9.7261965270299697 -4876.8061290975747 0 0 0 0 288.26182759880248 -13.88137173908035 0 -13.88137173908035 -2044.621253628593 0 0 0 0 454.41027488523946 216.26923184529369 0 216.26923184529369 -1738.0139150272444 0 0 0 0 -1859.6948718416188 -742.89312109415187 0 -742.89312109415187 -1229.1200914019428 0 0 0 0 -625.18139112556082 -659.65237902713125 0 -659.65237902713125 -1223.7387662962774 0 0 0 0 -323.98046328664532 103.11059489309991 0 103.11059489309991 -4435.1573282284662 0 0 0 0 -208.50586189376418 189.9994739756221 0 189.9994739756221 127.66731622925727 0 0 0 0 -48.812390584799232 -1080.019171674161 0 -1080.019171674161 -740.73921429805341 0 0 0 0 -9.1198364878974534 -11.454570812955353 0 -11.454570812955353 -12.210923266427073 0 0 0 0 -217.77797926710983 454.4123216978187 0 454.4123216978187 -592.76054924078926 0 0 0 0 -284.73466784684859 652.37533276777685 0 652.37533276777685 -1064.904438767946 0 0 0 0 -563.80415067567765 -262.03488344744619 0 -262.03488344744619 -1382.6913432876463 0 0 0 0 -874.77240926574427 -187.6293244415283 0 -187.6293244415283 594.98513023287524 0 0 0 0 -6.2565256864495709 -5.740401916654406 0 -5.740401916654406 -5.6114390118493702 0 0 0 0 -928.08597632377905 -344.63234686302167 0 -344.63234686302167 341.29334408705472 0 0 0 0 96.031739023708496 -753.337912249699 0 -753.337912249699 -260.02297040203121 0 0 0 0 758.0177280538569 -336.90051188449434 0 -336.90051188449434 -89.930272091383813 0 0 0 0 417.86789948074897 -616.98983723098354 0 -616.98983723098354 21.746032512899546 0 0 0 0 14.535974044168597 -222.36105200127349 0 -222.36105200127349 -352.83479751017876 0 0 0 0 -0.26748301561453869 -5.6143818424412473 0 -5.6143818424412473 -12.351502078985163 0 0 0 0 215.68178802519208 26.065960606028966 0 26.065960606028966 326.81257247096801 0 0 0 0 234.80110668523594 -1361.7096772241202 0 -1361.7096772241202 -867.36762405841728 0 0 0 0 -712.82700072695297 156.74782690890925 0 156.74782690890925 431.98314340622164 0 0 0 0 -194.41263831287253 673.10420923258209 0 673.10420923258209 -3435.2562905027298 0 0 0 0 -1.7690692528382739 -3.6402060957552749 0 -3.6402060957552749 -7.6558091197850899 0 0 0 0 -198.80941542875871 213.63119382948207 0 213.63119382948207 -197.14575323212193 0 0 0 0 -196.27751077489052 1244.3854666304396 0 1244.3854666304396 -2045.5844393346051 0 0 0 0 381.00567141867759 106.46050640712201 0 106.46050640712201 -3093.3843076866033 0 0 0 0 -445.45246002529552 -151.55767942305829 0 -151.55767942305829 -2590.9833174071609 0 0 0 0 -137.87282845304071 -1393.0486950590857 0 -1393.0486950590857 -3544.7342099005473 0 0 0 0 267.58403810608115 -413.97766703902744 0 -413.97766703902744 -4601.6202503813547 0 0 0 0 -501.92835917717298 -782.93640497343313 0 -782.93640497343313 -4247.4662698340835 0 0 0 0 315.25901056795919 -273.74594041791352 0 -273.74594041791352 -2398.3568489664467 0 0 0 0 344.06591084018874 -289.22815584031923 0 -289.22815584031923 -2406.0041965807322 0 0 0 0 358.34573837612515 -180.20065081409848 0 -180.20065081409848 -1933.8550351781887 0 0 0 0 -69.22545107169617 513.3362240386341 0 513.3362240386341 -1408.5536909938673 0 0 0 0 -76.133189914451577 -471.58529776272917 0 -471.58529776272917 -1232.3952323807753 0 0 0 0 -29.358546682623228 -139.72623760882379 0 -139.72623760882379 -305.76185934449313 0 0 0 0 -18.944884613300019 33.46679669914738 0 33.46679669914738 -30.784007163296337 0 0 0 0 -80.176350596828343 192.51348095077265 0 192.51348095077265 -371.96422420688032 0 0 0 0 -200.61650811633018 -92.967066947629064 0 -92.967066947629064 -451.56163281018962 0 0 0 0 -113.71452681365986 216.2665249544807 0 216.2665249544807 -34.752862727793399 0 0 0 0 -23.188227950131932 -29.803994220215827 0 -29.803994220215827 21.52340500876744 0 0 0 0 6.230086635652734 3.9492022878181956 0 3.9492022878181956 -12.301670501660851 0 0 0 0 509.38889631023727 138.3039739617343 0 138.3039739617343 -18.770169078750769 0 0 0 0 -92.439364330518856 78.59969635446032 0 78.59969635446032 35.15391834572074 0 0 0 0 12.257856977341362 157.94226614016952 0 157.94226614016952 -15.26707170996815 0 0 0 0 14.634543829393124 70.666962308103393 0 70.666962308103393 15.987471545231529 0 0 0 0 61.620199596582552 4.5538441984845122 0 4.5538441984845122 -152.08130543597508 0 0 0 0 11.950944588013954 -4.3290125011699274 0 -4.3290125011699274 -47.042669547721744 0 0 0 0 16.673280397993949 64.224377782942611 0 64.224377782942611 -54.315463932987768 0 0 0 0 20.361346492652046 -6.6457460815072409 0 -6.6457460815072409 -146.96901519989478 0 0 0 0 25.435261902405987 -0.83312222483584719 0 -0.83312222483584719 -47.862088635273949 0 0 0 0 33.692831790044238 28.090973917896918 0 28.090973917896918 -169.79520983985276 0 0 0 0 6.1813220649063538 35.319654462902008 0 35.319654462902008 -7.9129480368669931 0 0 0 0 -0.16883457797728063 3.6855646784829332 0 3.6855646784829332 9.3907062468463209 0 0 0 0 -9.4877747944119619 94.969787926995195 0 94.969787926995195 69.794070934673073 0 0 0 0 46.931616503987243 273.8299440118426 0 273.8299440118426 -113.66606306523022 0 0 0 0 176.84796201237668 -311.02704100704432 0 -311.02704100704432 -99.649361012880945 0 0 0 0 -34.292498909099095 359.901337544532 0 359.901337544532 444.49956917768577 0 0 0 0 519.80607042375232 176.50636853505421 0 176.50636853505421 -618.86336906827637 0 0 0 0 5.9051837625556463 5.7327066161381026 0 5.7327066161381026 -11.45981122020244 0 0 0 0 325.85668214836915 -433.91968003026705 0 -433.91968003026705 623.29212668232503 0 0 0 0 114.93937090261079 -45.088176993936941 0 -45.088176993936941 83.220964684238425 0 0 0 0 813.31782223759683 -271.51452184298978 0 -271.51452184298978 -147.92010408843635 0 0 0 0 610.64494616634329 473.38363624375779 0 473.38363624375779 -745.90460931250709 0 0 0 0 -199.23043485318613 723.97643222862098 0 723.97643222862098 -495.21758487823536 0 0 0 0 -802.95081397155616 158.03651750151039 0 158.03651750151039 -741.80387030012207 0 0 0 0 -463.22349823929085 774.03520613000728 0 774.03520613000728 -793.06735097947058 0 0 0 0 -260.65445958604937 630.06898162107973 0 630.06898162107973 -710.18238053569803 0 0 0 0 -432.24609696113271 623.76953910382872 0 623.76953910382872 -674.5520016112423 0 0 0 0 -111.77403788559513 289.44267784031399 0 289.44267784031399 -393.53295736416476 0 0 0 0 -234.07274785718505 742.6366985083896 0 742.6366985083896 -533.57710120495176 0 0 0 0 94.298251238059947 711.42216137783544 0 711.42216137783544 -788.62401480684639 0 0 0 0 112.69489519158765 481.82646652287804 0 481.82646652287804 -1968.7533783053659 0 0 0 0 -37.774298781120706 505.6199239124835 0 505.6199239124835 -920.2983448534651 0 0 0 0 -6.0071784821945595 6.1648203510417829 0 6.1648203510417829 -4.7736844358831494 0 0 0 0 -110.13390167984574 491.1778058393902 0 491.1778058393902 -654.10363481586683 0 0 0 0 -344.47853404296978 421.67725140832772 0 421.67725140832772 -623.47702575172298 0 0 0 0 5.1035459962683749 -1.0210198158512753 0 -1.0210198158512753 -44.782763283098966 0 0 0 0 48.5623088787911 -20.589901950326748 0 -20.589901950326748 -6.6791339915967001 0 0 0 0 0.86215575735705174 -2.1055576263117359 0 -2.1055576263117359 -7.1216581976487987 0 0 0 0 5.4072327137641389 0.5137401566315134 0 0.5137401566315134 -26.916321022448926 0 0 0 0 438.9926288646551 225.02328856084932 0 225.02328856084932 67.629915832157621 0 0 0 0 40.669815845611083 -19.376956630061613 0 -19.376956630061613 23.273469033301808 0 0 0 0 -10.878406330098869 17.348208967723622 0 17.348208967723622 -30.336882787349168 0 0 0 0 301.86431506199091 494.74113006610423 0 494.74113006610423 -461.77455706971523 0 0 0 0 -442.0968706584049 413.32986842873652 0 413.32986842873652 1470.2735033319623 0 0 0 0 -877.72569627986968 1454.2815672856741 0 1454.2815672856741 -393.46026369972969 0 0 0 0 -12.809873241007466 7.763859652525781 0 7.763859652525781 -6.5972790250694686 0 0 0 0 -996.33125955322976 354.89056136159343 0 354.89056136159343 332.22922201323672 0 0 0 0 113.11757349202412 107.00432656539488 0 107.00432656539488 -331.0966182940756 0 0 0 0 -278.74943537572244 829.41383955970377 0 829.41383955970377 -1016.3131368557224 0 0 0 0 -462.18686872394574 36.126187546331494 0 36.126187546331494 -75.85219942497497 0 0 0 0 -2.6725345242180047 0.98139699016110171 0 0.98139699016110171 -0.16779744259129181 0 0 0 0 80.677785489053349 181.80359376795968 0 181.80359376795968 32.885011195816332 0 0 0 0 16.887282494122317 12.262127879402954 0 12.262127879402954 -25.173789786841667 0 0 0 0 73.464588435305814 -198.16766547621955 0 -198.16766547621955 -789.59519398331759 0 0 0 0 -269.56003973092311 -260.47388294653865 0 -260.47388294653865 -318.90442099208303 0 0 0 0 28.181669275349861 15.277177862885253 0 15.277177862885253 -31.504859915327927 0 0 0 0 140.36237738142927 204.58990466286559 0 204.58990466286559 12.534592870331835 0 0 0 0 -163.97156031113991 -228.28566136985319 0 -228.28566136985319 -417.56481554522179 0 0 0 0 213.08491787152116 -66.508862732254784 0 -66.508862732254784 -180.83297577191843 0 0 0 0 145.19249880962411 116.2872646381802 0 116.2872646381802 -171.44624198408565 0 0 0 0 -109.75610652475245 -316.5804322243348 0 -316.5804322243348 -1303.2747857199574 0 0 0 0 -139.26754164950205 -176.78213339083595 0 -176.78213339083595 -1092.2981150435953 0 0 0 0 3.4457651937139584 6.1768152606000513 0 6.1768152606000513 -12.210490741330432 0 0 0 0 -24.745184730160673 29.959821468650944 0 29.959821468650944 -21.282458242329767 0 0 0 0 -87.258718045232172 -365.20036045131565 0 -365.20036045131565 -1217.3058070976113 0 0 0 0 -286.64878310914446 -386.60625433156383 0 -386.60625433156383 -900.65019273693906 0 0 0 0 -5.0217916325455008 -248.81558566336753 0 -248.81558566336753 -969.9589784299751 0 0 0 0 69.456990025954838 -8.1539264179300517 0 -8.1539264179300517 -842.4487961964478 0 0 0 0 107.90677191847885 -83.098579076482565 0 -83.098579076482565 -711.49688124013483 0 0 0 0 -140.04784025948129 -124.16628123723058 0 -124.16628123723058 -737.5681063955999 0 0 0 0 191.7436599033897 49.251987494973946 0 49.251987494973946 -603.63942383715766 0 0 0 0 247.49100600396832 42.7899703689327 0 42.7899703689327 -706.13448186992173 0 0 0 0 214.29859836600554 143.35157255534432 0 143.35157255534432 -673.26333128052647 0 0 0 0 -271.42496621579448 100.26807901051507 0 100.26807901051507 -447.01139751960363 0 0 0 0 243.80624384660177 -155.664539483525 0 -155.664539483525 -364.37973257849808 0 0 0 0 44.749405183370982 -162.90214782390831 0 -162.90214782390831 -603.7245367228752 0 0 0 0 148.92751806270644 25.340523157534335 0 25.340523157534335 -295.7238748887612 0 0 0 0 94.366444171157127 15.702175393686048 0 15.702175393686048 -114.75320205528988 0 0 0 0 38.227461208269233 44.753112735575996 0 44.753112735575996 -158.44801165562239 0 0 0 0 7.4887040965228451 16.251699005389639 0 16.251699005389639 -23.218534944803423 0 0 0 0 47.779335516579522 55.836127286784176 0 55.836127286784176 -124.56487842244678 0 0 0 0 41.241714005311223 38.521655740187271 0 38.521655740187271 -123.49298513745862 0 0 0 0 5.291887661205692 49.139159110316541 0 49.139159110316541 -121.9002515419561 0 0 0 0 -75.400008170952788 3.5389618515910115 0 3.5389618515910115 -121.31836661940361 0 0 0 0 -81.085219052067259 -87.1977613912386 0 -87.1977613912386 73.365604609149159 0 0 0 0 129.75399998850298 -7.4060380935115973 0 -7.4060380935115973 -151.83056847414991 0 0 0 0 73.084092733566649 39.638592693256214 0 39.638592693256214 5.9479455573746236 0 0 0 0 0.45286647220742537 2.0997530170262735 0 2.0997530170262735 1.0170851971997621 0 0 0 0 26.160625308089948 58.729654096881859 0 58.729654096881859 -160.4481293359604 0 0 0 0 9.9206094960898952 -13.875359832094233 0 -13.875359832094233 0.74719245392495459 0 0 0 0 -32.076187163282157 51.044429389672587 0 51.044429389672587 -123.6715505385655 0 0 0 0 10.819711874656605 -30.900774057110539 0 -30.900774057110539 -99.217465476031066 0 0 0 0 -15.312368149796839 -43.294768418832973 0 -43.294768418832973 -17.003042108786758 0 0 0 0 3.1141632601341804 1.162670848353514 0 1.162670848353514 -2.6325397814919995 0 0 0 0 -0.32372468482572003 -8.6593743792618625 0 -8.6593743792618625 -43.24752735343418 0 0 0 0 20.904405229560037 -10.065700492831752 0 -10.065700492831752 -10.588373238495432 0 0 0 0 11.540815497679432 -15.210200102970703 0 -15.210200102970703 -118.94682378286961 0 0 0 0 63.494348205624192 -1.8398851652164012 0 -1.8398851652164012 -94.194688067975221 0 0 0 0 34.855667514633751 27.677233192895073 0 27.677233192895073 36.874052912679417 0 0 0 0 42.644318227372423 -26.290812026243657 0 -26.290812026243657 -119.55190150279122 0 0 0 0 72.737071715600905 -37.421207929000957 0 -37.421207929000957 -131.6086270964297 0 0 0 0 15.249007087031714 -74.90581152671075 0 -74.90581152671075 -147.09498823751346 0 0 0 0 114.50897250524213 21.016551761611481 0 21.016551761611481 -160.13821276061935 0 0 0 0 54.584159180484676 -37.078950309522043 0 -37.078950309522043 -64.304814402159536 0 0 0 0 3.4157952194299832 -0.050322134331326041 0 -0.050322134331326041 -3.3895976053232175 0 0 0 0 -70.902198952188428 -111.15030978229333 0 -111.15030978229333 -140.17967740817403 0 0 0 0 57.325620196610544 -50.591510572005063 0 -50.591510572005063 -245.65119701091317 0 0 0 0 -17.7025764320706 -44.926501951260434 0 -44.926501951260434 -105.64370823630452 0 0 0 0 -40.998614387315683 -56.906761438200192 0 -56.906761438200192 -99.488902785247774 0 0 0 0 -197.68815757924676 64.264156947043375 0 64.264156947043375 77.77503226994304 0 0 0 0 16.481473945247501 31.465845554222199 0 31.465845554222199 -15.714155796651104 0 0 0 0 160.8469135279629 119.64338209872221 0 119.64338209872221 -53.994828498427523 0 0 0 0 9.1411831957272263 11.501243438926105 0 11.501243438926105 -83.191170397401606 0 0 0 0 135.37295616273332 -1.0158284956269199 0 -1.0158284956269199 -151.68948305262893 0 0 0 0 44.536224965691872 -83.955173258480499 0 -83.955173258480499 -227.30356687729363 0 0 0 0 -71.322863618668634 -72.503596293965529 0 -72.503596293965529 -100.52793958096299 0 0 0 0 -44.04428616597761 318.79552905088349 0 318.79552905088349 -392.71016585909456 0 0 0 0 -0.80705156475360651 4.6672638302554255 0 4.6672638302554255 -60.25139597532592 0 0 0 0 407.69188095901336 40.977357515810581 0 40.977357515810581 -564.28613123412651 0 0 0 0 -294.33028320216999 878.20367320483274 0 878.20367320483274 -1424.4633218624513 0 0 0 0 -681.51523541671304 327.86963167411886 0 327.86963167411886 -66.103256470392807 0 0 0 0 -273.58862092116942 87.574025690082635 0 87.574025690082635 -1210.5602344308645 0 0 0 0 -268.53301486049418 -5.0407147906896625 0 -5.0407147906896625 -3814.3522560354904 0 0 0 0 -0.86121484790242864 0.88370938739910976 0 0.88370938739910976 -23.576874589127897 0 0 0 0 -183.8553773641288 -1338.430683976585 0 -1338.430683976585 -2617.4133551707782 0 0 0 0 -1483.1976159790374 1358.3922953985602 0 1358.3922953985602 -1102.4518667481752 0 0 0 0 -93.967574062510721 631.34500626287627 0 631.34500626287627 -3537.7043688065605 0 0 0 0 -116.22707831732623 462.22609620945877 0 462.22609620945877 -941.70264684496942 0 0 0 0 -42.78868448681169 301.80975481912901 0 301.80975481912901 -1687.8611131792859 0 0 0 0 -75.659211340428556 346.14815977004764 0 346.14815977004764 -1236.1641757679172 0 0 0 0 -243.79445193556421 695.66017540051325 0 695.66017540051325 -831.8228667260264 0 0 0 0 -46.392393464137058 642.15482976671774 0 642.15482976671774 -1053.3356695218681 0 0 0 0 3.9299119838706247 683.55840605928097 0 683.55840605928097 -1336.5357880181837 0 0 0 0 -58.661657464769291 575.4005592162739 0 575.4005592162739 -1071.9649699519505 0 0 0 0 0.74236273420683574 406.58937514960417 0 406.58937514960417 -830.10095284148701 0 0 0 0 -88.504325230591348 339.49199985570885 0 339.49199985570885 -504.62619656174502 0 0 0 0 -118.57035676839496 284.33986210754665 0 284.33986210754665 -539.99207983324595 0 0 0 0 -41.296772814697761 49.749340593065426 0 49.749340593065426 -182.93652494585535 0 0 0 0 30.023351217806976 273.87397349435469 0 273.87397349435469 -895.93109401305264 0 0 0 0 89.970172707828169 83.031286813769839 0 83.031286813769839 -1355.6637388499657 0 0 0 0 -92.223323070356855 43.214360857135034 0 43.214360857135034 -445.65203444556391 0 0 0 0 -266.43513935776355 302.13234360434581 0 302.13234360434581 -1155.9947209585298 0 0 0 0 -241.65626558299346 466.20481488683981 0 466.20481488683981 -1366.331478168664 0 0 0 0 43.634350165382784 449.33882442090544 0 449.33882442090544 -1499.3936226099613 0 0 0 0 -158.3269811008322 809.66834679980093 0 809.66834679980093 -1232.1547059236909 0 0 0 0 -53.977990237343874 646.26627202775489 0 646.26627202775489 -999.79172957284027 0 0 0 0 -265.84311631300807 706.70961571650332 0 706.70961571650332 -1026.3125785542361 0 0 0 0 -372.28023098556514 790.93679094106483 0 790.93679094106483 -947.95505729447177 0 0 0 0 -27.706760669982309 -38.959190172450462 0 -38.959190172450462 -37.000301794663045 0 0 0 0 -239.60535875107689 454.12070404763472 0 454.12070404763472 -527.14926197237219 0 0 0 0 -168.78018771008374 533.60465008521351 0 533.60465008521351 -1037.552813234608 0 0 0 0 -30.725725226257055 -9.1063403677399037 0 -9.1063403677399037 18.736698443106434 0 0 0 0 -2.3273746510079576 15.311053564547905 0 15.311053564547905 -62.775566523060661 0 0 0 0 -15.943389440564715 42.330320373108407 0 42.330320373108407 -38.598827190493466 0 0 0 0 -11.487681672239958 -21.147313477492901 0 -21.147313477492901 -39.129130376052814 0 0 0 0 -504.8907539567648 -1.436925975851409 0 -1.436925975851409 -142.37711300916271 0 0 0 0 -1349.8497202129729 748.40982088378951 0 748.40982088378951 -404.95833412368665 0 0 0 0 78.163164639614479 20.157462499366375 0 20.157462499366375 -2219.812867749919 0 0 0 0 -4.1428859805193134 0.56227010755856099 0 0.56227010755856099 -26.714700462366352 0 0 0 0 505.15311955184734 928.45077098479669 0 928.45077098479669 -2646.8830841353265 0 0 0 0 381.18375167692466 979.392866549686 0 979.392866549686 -2461.3987244224118 0 0 0 0 -431.45377452115099 1192.1878046546044 0 1192.1878046546044 -2113.5216827182594 0 0 0 0 -934.54940601711132 -271.84803230143734 0 -271.84803230143734 -2144.148446301886 0 0 0 0 -1011.4999232525479 492.32162366545526 0 492.32162366545526 -571.8324705389241 0 0 0 0 -1631.8023539375954 1067.830880727015 0 1067.830880727015 -1708.1716361837171 0 0 0 0 -1121.6341898240753 180.71071228655637 0 180.71071228655637 -1011.9151677471891 0 0 0 0 94.795853212111979 -13.207301625108812 0 -13.207301625108812 -1057.7488652850443 0 0 0 0 813.32879792013136 918.58011195367362 0 918.58011195367362 -2452.8486260041245 0 0 0 0 326.03590647194824 75.497120244885082 0 75.497120244885082 95.856409287196584 0 0 0 0 240.51706353418922 362.64087879802901 0 362.64087879802901 -726.74691843288019 0 0 0 0 231.29836151639392 454.63468322753033 0 454.63468322753033 -504.79587987855484 0 0 0 0 109.82235718206084 201.96070427528684 0 201.96070427528684 -442.1110471465654 0 0 0 0 -454.60007321455663 89.025145895611445 0 89.025145895611445 -112.49674558796687 0 0 0 0 -460.34578306809999 498.55938448062807 0 498.55938448062807 -306.54855257271265 0 0 0 0 -280.52634385468809 490.93880620831624 0 490.93880620831624 -923.27599813678535 0 0 0 0 -819.84365225439615 -264.01131527750113 0 -264.01131527750113 724.55730725176181 0 0 0 0 -4.0731277406513229 3.2536538330465419 0 3.2536538330465419 -5.2128243262347951 0 0 0 0 0.83304962006909733 -1.7179166820004639 0 -1.7179166820004639 -5.3028259132607047 0 0 0 0 0.44281646958835807 -13.103708903042673 0 -13.103708903042673 -5.2272195616248904 0 0 0 0 2.4042769486044335 17.916179813517829 0 17.916179813517829 -26.006434835496975 0 0 0 0 29.875566057584365 -96.938752646616194 0 -96.938752646616194 -39.919522915733978 0 0 0 0 157.23360965724714 -353.95520580958691 0 -353.95520580958691 -790.37478649616241 0 0 0 0 3.4868571010829328 773.18716789418977 0 773.18716789418977 -36.76607412454905 0 0 0 0 -524.28452948687845 -628.79042576800566 0 -628.79042576800566 16.338973802980036 0 0 0 0 -208.99733577432926 -279.35084473937604 0 -279.35084473937604 -957.9449882801855 0 0 0 0 -702.44563637218562 764.6165517999907 0 764.6165517999907 -885.07491410145258 0 0 0 0 -2.0777835970609253 -3.6353040851548428 0 -3.6353040851548428 -10.342591360515257 0 0 0 0 185.67730591912459 -587.91741995283883 0 -587.91741995283883 -70.630101675633341 0 0 0 0 -175.37499587953062 -404.8494922016398 0 -404.8494922016398 -105.71301424285048 0 0 0 0 344.43702887712789 15.842125767827383 0 15.842125767827383 89.165264061732159 0 0 0 0 4.2136079139196454 -7.1810423127206349 0 -7.1810423127206349 -31.003488660739549 0 0 0 0 726.58065275611261 -297.41382197099301 0 -297.41382197099301 -530.14601824601414 0 0 0 0 -469.46595618874562 330.06868116343685 0 330.06868116343685 -219.8443683298101 0 0 0 0 -112.73208011981842 341.90634004250751 0 341.90634004250751 -401.93615131572369 0 0 0 0 34.533611366074183 308.89568034608237 0 308.89568034608237 -430.41036918293685 0 0 0 0 199.17555781181363 312.22500152431894 0 312.22500152431894 -444.4338893860695 0 0 0 0 -55.670699038973908 247.00223791399185 0 247.00223791399185 -320.80245612497674 0 0 0 0 96.087980030733888 212.49830996876699 0 212.49830996876699 -306.47090553672751 0 0 0 0 -102.99937430809678 400.31646205558718 0 400.31646205558718 -421.41726578510134 0 0 0 0 -175.90908462984225 257.65921564687596 0 257.65921564687596 -419.64057418839366 0 0 0 0 64.650649501891166 14.614185276885109 0 14.614185276885109 -31.928080322424648 0 0 0 0 13.62498132423007 26.871757040957959 0 26.871757040957959 0.8148461258724069 0 0 0 0 17.851438767496866 33.812959910738158 0 33.812959910738158 -20.917965342730696 0 0 0 0 1.6578450174949779 5.2204494979790468 0 5.2204494979790468 9.4191519975552467 0 0 0 0 167.01285947985161 200.95659132313085 0 200.95659132313085 230.94209732078889 0 0 0 0 35.304153006443812 56.000100045639556 0 56.000100045639556 -22.6176900352948 0 0 0 0 35.033002365346576 90.884918684924571 0 90.884918684924571 12.316489947688808 0 0 0 0 6.2066993569864053 8.0716517401374119 0 8.0716517401374119 -5.2932421247458024 0 0 0 0 6.5847094810287672 106.27712779093417 0 106.27712779093417 -416.25111493613804 0 0 0 0 -20.454756273122257 102.09086467752059 0 102.09086467752059 -236.48256537137786 0 0 0 0 -29.176777195267277 237.43235696089687 0 237.43235696089687 -279.31122054235311 0 0 0 0 93.223027280655515 275.44798828235071 0 275.44798828235071 -315.42134070663451 0 0 0 0 0.5093696351723338 291.8397134734987 0 291.8397134734987 -189.87659917015117 0 0 0 0 -47.216171095573372 131.26045844161126 0 131.26045844161126 -97.590293153712992 0 0 0 0 -11.638730443150052 175.78991536245303 0 175.78991536245303 -78.185031432658434 0 0 0 0 -14.729853290127267 156.96076262372662 0 156.96076262372662 -98.782685839163605 0 0 0 0 -35.702195812640639 118.20021820258262 0 118.20021820258262 -123.74225826514885 0 0 0 0 8.6296671560551346 8.904582466192366 0 8.904582466192366 -47.352557511744635 0 0 0 0 379.66400350514414 307.49554080873349 0 307.49554080873349 149.89295927109197 0 0 0 0 366.44642552330515 430.5973074189169 0 430.5973074189169 -742.92381429607485 0 0 0 0 -152.28499487234149 194.23284637629695 0 194.23284637629695 303.43376387149328 0 0 0 0 -265.679370437741 45.969157656763855 0 45.969157656763855 224.00723220038344 0 0 0 0 27.953415475705242 56.490904247515573 0 56.490904247515573 -19.326737876632251 0 0 0 0 -61.275628299413256 0.65325930036487989 0 0.65325930036487989 171.2681751933269 0 0 0 0 27.586843649432922 35.641730870724132 0 35.641730870724132 -25.931150247826736 0 0 0 0 168.70723796008133 309.03382675273315 0 309.03382675273315 187.56967169875861 0 0 0 0 0.29073134165714976 39.812825302468269 0 39.812825302468269 -51.52867035960827 0 0 0 0 21.161366664404504 34.942151173264222 0 34.942151173264222 -42.40746550998395 0 0 0 0 48.939606030415234 82.101417520838368 0 82.101417520838368 -14.370050355777494 0 0 0 0 67.780885979820596 2.8562122325529344 0 2.8562122325529344 175.08765902902815 0 0 0 0 41.466546202969766 263.16455730634334 0 263.16455730634334 139.19093999786128 0 0 0 0 -0.46327059090473455 4.2939337008332643 0 4.2939337008332643 11.464055792101448 0 0 0 0 -28.919493732610135 187.85625424783211 0 187.85625424783211 148.76109755855578 0 0 0 0 46.625805533429229 162.08952562019113 0 162.08952562019113 83.869363001897 0 0 0 0 146.47271996571817 181.23472059113556 0 181.23472059113556 26.074244481947972 0 0 0 0 -63.174782411959313 100.65992209475371 0 100.65992209475371 38.759274764175643 0 0 0 0 36.827428813065126 162.08554514402203 0 162.08554514402203 60.540725762926741 0 0 0 0 -22.236300123522597 54.668650467479893 0 54.668650467479893 62.368118534563109 0 0 0 0 -44.02072856722225 33.056689972479944 0 33.056689972479944 45.285272967325 0 0 0 0 -112.7448218227546 -17.062431648329948 0 -17.062431648329948 33.936949497714522 0 0 0 0 -73.008211658054279 17.124804257422511 0 17.124804257422511 65.223897047253558 0 0 0 0 34.003525198710122 43.728603326773737 0 43.728603326773737 68.455080872372491 0 0 0 0 -109.22780128855084 69.857060645110323 0 69.857060645110323 135.99067431295407 0 0 0 0 3.9549425265829257 43.534228214319256 0 43.534228214319256 -30.95560933845951 0 0 0 0 40.082928604173503 121.61024279313278 0 121.61024279313278 98.092861165467184 0 0 0 0 -0.11383671110063887 2.7189329784545748 0 2.7189329784545748 4.7845845769617199 0 0 0 0 -11.648676437846007 99.882203596716863 0 99.882203596716863 108.82396984851948 0 0 0 0 16.221993039138397 35.0730324200631 0 35.0730324200631 76.864548591460334 0 0 0 0 65.463487133383751 33.080616708393791 0 33.080616708393791 64.789065654040314 0 0 0 0 74.207135136370198 -27.145242939281161 0 -27.145242939281161 83.624488903093152 0 0 0 0 33.792125560506975 52.915899372281274 0 52.915899372281274 -21.689273156080162 0 0 0 0 4.0967538879264183 5.3001729710788652 0 5.3001729710788652 -4.4689773275915172 0 0 0 0 14.398565459658245 51.997789425914192 0 51.997789425914192 12.798162181384328 0 0 0 0 424.85053632351128 28.353033641957154 0 28.353033641957154 -162.88051369467576 0 0 0 0 23.255107795116601 -16.398860832101491 0 -16.398860832101491 34.188780792610487 0 0 0 0 1.5267904076811067 -7.6593102355325016 0 -7.6593102355325016 -55.939747239030623 0 0 0 0 9.407862460949989 14.26444160229417 0 14.26444160229417 -28.525865703388519 0 0 0 0 12.295084191424394 8.4240160264598671 0 8.4240160264598671 -16.985630935407244 0 0 0 0 -6.1528710840757412 -21.37005509773735 0 -21.37005509773735 40.717290363943903 0 0 0 0 -100.22343076653488 -16.563295400075731 0 -16.563295400075731 33.840489343136142 0 0 0 0 -28.126830195109505 -39.300183184212074 0 -39.300183184212074 38.627075970376609 0 0 0 0 80.276122505016701 -222.21387022682029 0 -222.21387022682029 -1.1099658259918215 0 0 0 0 -54.495253260880418 10.59557019519707 0 10.59557019519707 -25.199573671678081 0 0 0 0 -178.44850723278978 -53.967186523099372 0 -53.967186523099372 -53.275177483552397 0 0 0 0 -299.41438622767964 129.86565253259323 0 129.86565253259323 -186.73897162138019 0 0 0 0 -168.84461574861962 -48.992409526486881 0 -48.992409526486881 -501.95629125462438 0 0 0 0 -89.025369400576892 -5.4138274244360218 0 -5.4138274244360218 -558.80020252522081 0 0 0 0 -115.89669771239687 46.563801777927438 0 46.563801777927438 8.5110956484713824 0 0 0 0 -87.230623797365297 -28.365244447624718 0 -28.365244447624718 -1162.7063003494986 0 0 0 0 -390.94402769043336 -263.09139397784747 0 -263.09139397784747 -643.35546435472133 0 0 0 0 -601.62027955005306 -369.26206802735032 0 -369.26206802735032 -861.64336884881777 0 0 0 0 -331.52022424577706 71.817475190175628 0 71.817475190175628 -576.20138133887667 0 0 0 0 -101.58383904158745 -474.23672742943381 0 -474.23672742943381 -1813.0175438876249 0 0 0 0 -782.77659684613536 -1149.8678856156766 0 -1149.8678856156766 -1577.1951590416793 0 0 0 0 -46.192630792804266 -107.56988091334642 0 -107.56988091334642 -504.42432736638148 0 0 0 0 -95.630741269776991 -158.02375873670826 0 -158.02375873670826 -523.37589674661285 0 0 0 0 -19.720035555827053 -72.883410967988311 0 -72.883410967988311 -629.9814108262799 0 0 0 0 -312.0940706617057 72.542256837528839 0 72.542256837528839 -651.68802356643573 0 0 0 0 -82.70280427916623 -133.0058991876358 0 -133.0058991876358 -858.29597803545767 0 0 0 0 -126.91337081984057 -59.373471530700044 0 -59.373471530700044 -564.7688927077761 0 0 0 0 -39.44210934880266 86.583248266095325 0 86.583248266095325 -466.73972406329995 0 0 0 0 -4.2917718441585748 44.838458586273191 0 44.838458586273191 -421.29217254102696 0 0 0 0 -32.363809612482328 49.231553403260477 0 49.231553403260477 -276.83064262400148 0 0 0 0 57.51711185019667 180.82175939673834 0 180.82175939673834 -314.31378492666408 0 0 0 0 -56.547616683354136 148.90297053236281 0 148.90297053236281 -495.17015567960334 0 0 0 0 -247.03937327170388 114.15774319184857 0 114.15774319184857 -261.6495453545067 0 0 0 0 -69.026579473551465 65.933353225758765 0 65.933353225758765 -253.008514462319 0 0 0 0 -196.1141637802786 137.3889843212969 0 137.3889843212969 -21.176250573887955 0 0 0 0 -47.563385769743036 87.536952602735255 0 87.536952602735255 -13.880694574298104 0 0 0 0 -110.62567402310742 100.4162576267554 0 100.4162576267554 61.541212981529725 0 0 0 0 -143.73252156814124 92.03456876569544 0 92.03456876569544 52.357461925723328 0 0 0 0 29.567825786580215 65.12619403914141 0 65.12619403914141 -26.369515159676666 0 0 0 0 -51.765517762083618 183.96478339573514 0 183.96478339573514 -159.50134882945713 0 0 0 0 -16.467179017154194 199.14674374891183 0 199.14674374891183 62.680675246985629 0 0 0 0 250.43980722516972 63.952489138711826 0 63.952489138711826 -182.64669000568392 0 0 0 0 263.94623158678223 287.5647093455409 0 287.5647093455409 -264.66254588973243 0 0 0 0 21.157295770712381 103.08722562999446 0 103.08722562999446 159.17727060249308 0 0 0 0 -441.11996119776632 -82.547063781647012 0 -82.547063781647012 81.153892160567921 0 0 0 0 330.1662505050972 533.71062232027907 0 533.71062232027907 -36.138738675101195 0 0 0 0 -9.4715842112953901 47.668831568814625 0 47.668831568814625 -61.466619218263645 0 0 0 0 -2.7718536794494391 2.7757492643197423 0 2.7757492643197423 -6.7337041101281727 0 0 0 0 166.97375226886288 70.747745865199249 0 70.747745865199249 -53.439217084189295 0 0 0 0 -533.98132271964914 698.70745805551587 0 698.70745805551587 375.88952298063668 0 0 0 0 609.128394066076 -383.3296517161798 0 -383.3296517161798 -460.02891162832384 0 0 0 0 -451.18980887134694 36.055088249559049 0 36.055088249559049 -123.55000320996623 0 0 0 0 -45.090987619563748 340.33540296013962 0 340.33540296013962 -265.77557374967569 0 0 0 0 32.85133328034135 176.57508613062964 0 176.57508613062964 -223.99671107800532 0 0 0 0 106.46789923410506 198.14474965565023 0 198.14474965565023 -300.15829900698736 0 0 0 0 -25.529280438780916 51.222568531396973 0 51.222568531396973 -389.41510201187339 0 0 0 0 26.039172236251943 152.48846713289458 0 152.48846713289458 -269.76111365227553 0 0 0 0 136.03423981618289 -13.673691322997911 0 -13.673691322997911 -276.60594250487338 0 0 0 0 -32.698322990572706 13.86409187442041 0 13.86409187442041 -81.597326250142942 0 0 0 0 337.84152967334194 196.14818278575694 0 196.14818278575694 -82.867766569397645 0 0 0 0 197.15701951464143 18.639095395585173 0 18.639095395585173 -163.60480987247138 0 0 0 0 93.978734219343096 -56.99824916626676 0 -56.99824916626676 20.349331944918958 0 0 0 0 75.239304708647978 -121.8318420711912 0 -121.8318420711912 -282.22227892746741 0 0 0 0 232.46762338861663 -123.79458466766664 0 -123.79458466766664 -461.46548296073581 0 0 0 0 3.8621869996600253 9.4796237016580562 0 9.4796237016580562 -355.45758251089137 0 0 0 0 54.047789888407351 -65.292324577327236 0 -65.292324577327236 -424.05141952416307 0 0 0 0 1.7465999502328486 -136.99783767612826 0 -136.99783767612826 -486.37436768759653 0 0 0 0 -675.34414924308294 756.83426800398593 0 756.83426800398593 1760.0130175632075 0 0 0 0 -4.8958616674385418 8.7643479322340738 0 8.7643479322340738 -14.339839960482266 0 0 0 0 390.42597267522308 39.403484714262959 0 39.403484714262959 -22.738706686563091 0 0 0 0 382.93683281885205 200.61658529893612 0 200.61658529893612 -45.125431187188951 0 0 0 0 -748.08306848689244 -247.11170566722285 0 -247.11170566722285 503.29024661106814 0 0 0 0 145.84790351120819 -266.25859258915443 0 -266.25859258915443 -508.81498813607323 0 0 0 0 310.72324324245892 -92.127694649680052 0 -92.127694649680052 -493.52586204708496 0 0 0 0 229.27131457308315 -82.598075921858253 0 -82.598075921858253 -465.27204762501788 0 0 0 0 144.60012253653258 -232.54082239055424 0 -232.54082239055424 -99.897110060686828 0 0 0 0 -85.897402587091619 246.7460695275804 0 246.7460695275804 38.74082699653809 0 0 0 0 119.85587967611355 74.563799488329096 0 74.563799488329096 258.73348363260448 0 0 0 0 278.23290661195279 289.90006167744286 0 289.90006167744286 136.00362700712867 0 0 0 0 6.9761305868523777 353.81162679479166 0 353.81162679479166 11.507057507580612 0 0 0 0 255.05883382524826 181.15150396083845 0 181.15150396083845 -36.537020763556939 0 0 0 0 192.87333402005243 -169.54817728747003 0 -169.54817728747003 -361.20608342095511 0 0 0 0 41.154773637033941 10.330222035474435 0 10.330222035474435 -23.566770772711607 0 0 0 0 204.38389339917762 111.75498770600598 0 111.75498770600598 -35.393172618641984 0 0 0 0 96.165649300293808 160.72537120951165 0 160.72537120951165 35.318214091166737 0 0 0 0 3.5380777477034684 6.5267704283809991 0 6.5267704283809991 -12.564653386132079 0 0 0 0 276.68569587032653 -22.461728879119619 0 -22.461728879119619 -71.066634673217777 0 0 0 0 -1.8371324957142932 7.0885761488436927 0 7.0885761488436927 -9.5471196710104778 0 0 0 0 23.910834552099914 -4.4358363391365856 0 -4.4358363391365856 -72.343162337352624 0 0 0 0 -342.91730586422273 120.04908586730016 0 120.04908586730016 21.697469209786505 0 0 0 0 -225.37012248554856 -39.718017237180902 0 -39.718017237180902 -125.03005926590413 0 0 0 0 -95.157573267714497 268.92589139541451 0 268.92589139541451 -4.3807977110263892 0 0 0 0 -120.19698343931668 172.85647005711508 0 172.85647005711508 -36.081910716293351 0 0 0 0 -276.11998517944812 80.285479707847117 0 80.285479707847117 -3.8032210808305535 0 0 0 0 925.51839087569897 220.06597281427821 0 220.06597281427821 -401.29289737691579 0 0 0 0 -86.131331793805842 242.26527366157597 0 242.26527366157597 2.1679970197728835 0 0 0 0 -11.292215904708458 22.203269113057416 0 22.203269113057416 -47.411122621135576 0 0 0 0 -57.763368997048929 202.90941056117299 0 202.90941056117299 43.175674530881224 0 0 0 0 -54.697631072403965 234.51352198525274 0 234.51352198525274 -72.085860417690128 0 0 0 0 257.89704257220046 17.076680049605784 0 17.076680049605784 -29.577438119129511 0 0 0 0 308.30596931943137 34.863703567243647 0 34.863703567243647 -242.55894625352812 0 0 0 0 223.23075224150489 335.31525426072039 0 335.31525426072039 -520.64258377629449 0 0 0 0 -167.77264766377175 -329.6699636677713 0 -329.6699636677713 -140.37392770271981 0 0 0 0 304.83199973051001 -11.637115982808609 0 -11.637115982808609 -174.86511386651546 0 0 0 0 -323.76545624634309 324.23030682538229 0 324.23030682538229 -64.3917733826529 0 0 0 0 -54.33164005080107 229.4581807822251 0 229.4581807822251 -55.814760774606839 0 0 0 0 269.43842598768606 -568.97518464687164 0 -568.97518464687164 -346.46735753840767 0 0 0 0 850.52599948325224 -441.61619512140169 0 -441.61619512140169 -597.28601946341223 0 0 0 0 4.7440710998282745 8.5501490787952719 0 8.5501490787952719 -10.333714236532614 0 0 0 0 -12.942995621096316 134.28992409753846 0 134.28992409753846 483.38994488850585 0 0 0 0 -76.384358581520758 365.42721241532377 0 365.42721241532377 442.59419288529898 0 0 0 0 16.349866611602646 37.804622573488359 0 37.804622573488359 -35.066098243068694 0 0 0 0 -16.137483846170937 22.778806763439206 0 22.778806763439206 313.00163686927408 0 0 0 0 168.30582405565667 376.0215436879007 0 376.0215436879007 357.18882594694151 0 0 0 0 -22.939508198691833 21.508512930669468 0 21.508512930669468 -8.9175905681503309 0 0 0 0 -1336.8846856424834 291.83926025887195 0 291.83926025887195 259.19410701526795 0 0 0 0 84.706492508399606 67.17356615573226 0 67.17356615573226 221.07655158659327 0 0 0 0 -268.09291441109826 271.97381342696099 0 271.97381342696099 474.58721266544308 0 0 0 0 450.19813554452639 364.19973766557086 0 364.19973766557086 -128.21823137119645 0 0 0 0 41.168447939472749 32.414128484354052 0 32.414128484354052 -33.656997578682109 0 0 0 0 49.940951412601862 48.030962639950303 0 48.030962639950303 22.431313452107133 0 0 0 0 46.476186975261953 69.892636819713516 0 69.892636819713516 -16.684304678681656 0 0 0 0 36.662657046879758 74.862175229121931 0 74.862175229121931 41.3733745199861 0 0 0 0 189.15960730878214 35.312212103861384 0 35.312212103861384 3.1581526106747333 0 0 0 0 -3.0032854501156461 32.342740197846211 0 32.342740197846211 25.296435258870872 0 0 0 0 37.267924356117874 87.820278580140439 0 87.820278580140439 49.314704751071986 0 0 0 0 122.84700278040361 353.93424527312436 0 353.93424527312436 -22.035839111296809 0 0 0 0 23.117513280984255 74.33167546599708 0 74.33167546599708 -50.27808047833696 0 0 0 0 8.0212229050011956 131.32056915923022 0 131.32056915923022 87.802684189577121 0 0 0 0 -6.2967377746320281 27.255125084146329 0 27.255125084146329 7.1961699042588521 0 0 0 0 26.960892308105031 54.238894733498455 0 54.238894733498455 171.37930034429883 0 0 0 0 -24.655919312152037 109.58541695371241 0 109.58541695371241 119.97872052853927 0 0 0 0 72.14576008589961 246.74895566342093 0 246.74895566342093 177.89956376193732 0 0 0 0 -12.662528774782913 102.32866083002591 0 102.32866083002591 118.7846079369192 0 0 0 0 10.844197592215096 115.55338811339607 0 115.55338811339607 84.532769605517387 0 0 0 0 -13.314373280116715 14.29349642038926 0 14.29349642038926 -15.06261375141338 0 0 0 0 0.92687645430578414 81.488109056408575 0 81.488109056408575 57.505242401792202 0 0 0 0 -6.6118750040150189 90.692006620054599 0 90.692006620054599 49.129599421073181 0 0 0 0 343.566053301598 552.91948624943325 0 552.91948624943325 85.499876506015426 0 0 0 0 152.7334388427289 362.37465455610072 0 362.37465455610072 152.31907784547366 0 0 0 0 21.832538297636347 59.680298578416114 0 59.680298578416114 8.3419716509233695 0 0 0 0 -179.31900599075288 -103.95026464239345 0 -103.95026464239345 38.751649165904382 0 0 0 0 301.77142133608686 70.95978333162202 0 70.95978333162202 -663.83680081542116 0 0 0 0 -3.3503670454785137 5.4396356275252629 0 5.4396356275252629 -7.2091017134544586 0 0 0 0 187.34640813542546 -70.177728192633367 0 -70.177728192633367 -285.49395459747757 0 0 0 0 332.71256151211742 -28.004712990066764 0 -28.004712990066764 -605.72486939301598 0 0 0 0 266.59053011838751 150.40446223461186 0 150.40446223461186 -689.87743190908805 0 0 0 0 3.7865560368502429 21.720038572944759 0 21.720038572944759 -438.61688506562496 0 0 0 0 -119.73002593588762 -110.89602577412734 0 -110.89602577412734 -771.94799134155619 0 0 0 0 -149.54210540918479 -206.33962815021732 0 -206.33962815021732 -974.50406094224309 0 0 0 0 10.457440630642282 -46.459174904754036 0 -46.459174904754036 -1109.1435374732828 0 0 0 0 62.041667806513033 56.566438655368984 0 56.566438655368984 -927.37388341981568 0 0 0 0 -50.81556646233912 53.378806763634202 0 53.378806763634202 -189.87397881597281 0 0 0 0 -205.46295246282557 395.56044947929331 0 395.56044947929331 -719.52510524725949 0 0 0 0 -223.99497187593769 139.43197704370533 0 139.43197704370533 -176.64706600783393 0 0 0 0 -225.15704020476915 343.12567165657669 0 343.12567165657669 -1.7813632570905611 0 0 0 0 45.229375478924794 137.25676551198558 0 137.25676551198558 -45.387601671420271 0 0 0 0 96.980556754795543 233.89178969930799 0 233.89178969930799 -595.96690669110103 0 0 0 0 -264.36292753554676 -146.66652086916292 0 -146.66652086916292 411.33734725689283 0 0 0 0 -327.53821467091427 -400.64151675966423 0 -400.64151675966423 -342.28168978865142 0 0 0 0 -370.98952701834787 142.15024275842006 0 142.15024275842006 -710.25380303355632 0 0 0 0 -921.70871795531184 272.68699337498401 0 272.68699337498401 83.122467587527353 0 0 0 0 -475.91369877584106 238.23730428765703 0 238.23730428765703 -207.05370996422425 0 0 0 0 -1111.7258142192454 944.93808498616272 0 944.93808498616272 -1268.6819211094553 0 0 0 0 -182.85561388492721 -439.53865952288288 0 -439.53865952288288 -2597.3213900697592 0 0 0 0 233.20888301129844 -271.18751499490463 0 -271.18751499490463 -1956.5007069852072 0 0 0 0 -1747.35285608 -290.31608559543383 0 -290.31608559543383 -208.55529232986737 0 0 0 0 1085.5729881900604 -542.4785856847011 0 -542.4785856847011 -631.16409277378261 0 0 0 0 2.6236761670567494 -5.5904995706983129 0 -5.5904995706983129 -30.445833397720605 0 0 0 0 270.61843094304788 1.281932766508362 0 1.281932766508362 -61.228416569691035 0 0 0 0 72.918877038503865 -39.401478675517865 0 -39.401478675517865 -72.752577631297754 0 0 0 0 14.491803843853631 13.960479200221016 0 13.960479200221016 -44.281052782636834 0 0 0 0 0.16844378826038175 -0.015316193256097677 0 -0.015316193256097677 -2.6518282275702632 0 0 0 0 -64.541063462047873 65.643179280916229 0 65.643179280916229 10.126269798900466 0 0 0 0 25.003579808983432 5.0261034134600777 0 5.0261034134600777 171.3987947772257 0 0 0 0 0.9882727619221181 -6.1451983103771965 0 -6.1451983103771965 -27.100292964587709 0 0 0 0 301.56698947503583 -593.80162546093197 0 -593.80162546093197 177.59151714129257 0 0 0 0 60.265634197837585 -74.909514138687882 0 -74.909514138687882 -360.89685865471256 0 0 0 0 6.6262566593964038 65.436649326235056 0 65.436649326235056 53.69227248171228 0 0 0 0 4.4554544998470984 -7.7097560952522315 0 -7.7097560952522315 -18.821957740884443 0 0 0 0 3.3090757766447378 -121.4374470841019 0 -121.4374470841019 -147.06946640534443 0 0 0 0 10.631848345026583 -5.1650113221840002 0 -5.1650113221840002 -57.805250763627555 0 0 0 0 -0.98169606643159568 41.707936909981072 0 41.707936909981072 -104.64905071759131 0 0 0 0 -27.272850814015328 27.676635586343764 0 27.676635586343764 -54.665434506969177 0 0 0 0 1.569046689409948 -3.6987228991637267 0 -3.6987228991637267 -22.83793824542181 0 0 0 0 -16.631649318760083 -1.9967638714006171 0 -1.9967638714006171 55.25043454065235 0 0 0 0 -1.2263511140103818 -4.4438759865447679 0 -4.4438759865447679 -17.65193325124244 0 0 0 0 -40.148803794990499 18.776937459828332 0 18.776937459828332 276.93057562986269 0 0 0 0 -226.39347499701466 -186.46669256244058 0 -186.46669256244058 297.15793615585426 0 0 0 0 -108.53985095352493 -8.0418577907475992 0 -8.0418577907475992 261.99627423964557 0 0 0 0 -363.50920071726068 63.009234534692951 0 63.009234534692951 389.2303523143637 0 0 0 0 -503.24092756960363 309.21079016159638 0 309.21079016159638 194.59416961009265 0 0 0 0 -388.52572297223696 -92.990761976921931 0 -92.990761976921931 250.75283888011472 0 0 0 0 -104.96332290683608 135.61896426937165 0 135.61896426937165 261.52351468231063 0 0 0 0 -151.47487983748817 34.953876981540816 0 34.953876981540816 368.30706980117247 0 0 0 0 -5.6871546440646439 4.67618809039298 0 4.67618809039298 1.7568007850384788 0 0 0 0 -100.40052271929449 23.280596656649323 0 23.280596656649323 372.75578984181629 0 0 0 0 -98.71300345973134 25.511382498305466 0 25.511382498305466 116.03639246054809 0 0 0 0 -147.97500130297885 49.691284034430282 0 49.691284034430282 389.97956866638742 0 0 0 0 -142.7489653697279 36.306755008277833 0 36.306755008277833 227.97479328134796 0 0 0 0 -155.15700883386324 46.790127961634425 0 46.790127961634425 377.51181445748807 0 0 0 0 -11.604541562335271 12.543337425158825 0 12.543337425158825 253.8460216053063 0 0 0 0 -20.361521767204067 89.431832539150491 0 89.431832539150491 237.69866743427701 0 0 0 0 -237.58576274011966 51.5021703033417 0 51.5021703033417 252.66396908074967 0 0 0 0 -46.958507809475122 43.255055951653048 0 43.255055951653048 -203.02013834370882 0 0 0 0 66.094897272297231 51.142832890967838 0 51.142832890967838 57.384724596340675 0 0 0 0 -19.362953350519518 56.11485787174388 0 56.11485787174388 -73.20028939034728 0 0 0 0 -39.536444650388376 208.89223558967933 0 208.89223558967933 -94.56492984353099 0 0 0 0 828.73149667673511 304.99229558730258 0 304.99229558730258 -185.52698914756184 0 0 0 0 -21.073946856851773 12.022676490079959 0 12.022676490079959 24.866458442221813 0 0 0 0 -196.31199036677145 208.50208908708737 0 208.50208908708737 90.780734015977941 0 0 0 0 -63.541219859901901 14.61224449481233 0 14.61224449481233 -88.340658953064121 0 0 0 0 -8.601853151073426 16.190554851097886 0 16.190554851097886 -40.002988642865944 0 0 0 0 14.637379870964651 22.26264463935513 0 22.26264463935513 -13.483648887835443 0 0 0 0 39.2666749385819 76.986077731426121 0 76.986077731426121 -146.68910992110614 0 0 0 0 -9.5748668053721264 38.374957558278396 0 38.374957558278396 -58.961633497125547 0 0 0 0 -21.595769059625084 68.460953285557196 0 68.460953285557196 -98.625544946050354 0 0 0 0 95.726026002430444 75.332832526764832 0 75.332832526764832 -62.74625348430709 0 0 0 0 -67.707497000254079 -126.16848844775814 0 -126.16848844775814 -208.95946690607525 0 0 0 0 -20.890353946746473 68.92633585006115 0 68.92633585006115 -168.44245156861143 0 0 0 0 32.557808743753412 14.401032748777652 0 14.401032748777652 -119.18889940081863 0 0 0 0 -18.531121377214447 13.227958467014105 0 13.227958467014105 -26.986956604698207 0 0 0 0 -21.809471839867911 24.012357410974801 0 24.012357410974801 -28.214325241046026 0 0 0 0 16.596376698092172 36.315268216232653 0 36.315268216232653 -95.793275872594677 0 0 0 0 -13.442868175848425 12.166386647170356 0 12.166386647170356 -18.124799486996892 0 0 0 0 -0.14891013360221628 12.407817632221523 0 12.407817632221523 -48.787445676351354 0 0 0 0 7.0789147908976702 49.452505489927717 0 49.452505489927717 -111.85133580875117 0 0 0 0 -10.742639372287016 6.5213526198494947 0 6.5213526198494947 -45.541324875448481 0 0 0 0 -39.793292149549416 56.545795926605933 0 56.545795926605933 -51.151982187118847 0 0 0 0 -7.914713540938175 15.115522932147641 0 15.115522932147641 -34.301522922756419 0 0 0 0 -5.0452119572969423 20.836495894305699 0 20.836495894305699 -38.911200467438903 0 0 0 0 -29.324729440465944 -1.1944803991282242 0 -1.1944803991282242 -40.176850076990377 0 0 0 0 -8.2209258954059354 14.942205769638747 0 14.942205769638747 -24.616578042749268 0 0 0 0 -17.664534884594925 19.011828741805431 0 19.011828741805431 -18.595390758035094 0 0 0 0 -41.818927650917885 8.1727344758546678 0 8.1727344758546678 -21.178210914658848 0 0 0 0 -7.1779122627594916 33.519294830446597 0 33.519294830446597 -94.873980477801524 0 0 0 0 10.581240126826742 21.110802832641639 0 21.110802832641639 -25.712094188085757 0 0 0 0 -5.6775700890968128 16.647517514246545 0 16.647517514246545 -70.244204981288377 0 0 0 0 -18.848202432972144 42.056428670850849 0 42.056428670850849 -49.431077724994054 0 0 0 0 1.0168895734077523 21.053549987263978 0 21.053549987263978 -45.753189195413142 0 0 0 0 -11.151253373545261 37.779145694791794 0 37.779145694791794 -42.49870857266734 0 0 0 0 -12.554200748796575 14.704684294760227 0 14.704684294760227 -28.243080361720786 0 0 0 0 30.874196722161287 39.016145914880326 0 39.016145914880326 -248.38583561094129 0 0 0 0 0.25684763074384875 6.1817329437690205 0 6.1817329437690205 -24.107440830940263 0 0 0 0 -187.80551532137133 62.775942001175281 0 62.775942001175281 -100.99685891426634 0 0 0 0 -18.309094041884237 20.016120397049235 0 20.016120397049235 -110.87583853764227 0 0 0 0 2.4483213521552898 19.630241067105089 0 19.630241067105089 -19.918752139172284 0 0 0 0 -22.088943667022249 34.707011126010912 0 34.707011126010912 -52.410426255127277 0 0 0 0 -3.2613059582492703 15.675704353789001 0 15.675704353789001 -77.714757594059165 0 0 0 0 0.2186764164325723 12.146026089496445 0 12.146026089496445 -29.160593367414549 0 0 0 0 -13.339235173412717 14.439728078742945 0 14.439728078742945 -62.825723536719494 0 0 0 0 -6.1824836314396707 10.075741499232123 0 10.075741499232123 -33.085703436404117 0 0 0 0 6.6602538075894699 20.644434244837612 0 20.644434244837612 -45.728820190299302 0 0 0 0 10.62954304919549 15.893167521309806 0 15.893167521309806 -45.334710945608094 0 0 0 0 5.2005426508330856 18.499912457948085 0 18.499912457948085 -46.54943051392911 0 0 0 0 -11.073149301054178 5.2791510109796391 0 5.2791510109796391 -28.574086252289192 0 0 0 0 5.7229214163235156 18.140015415265225 0 18.140015415265225 -47.477571579162031 0 0 0 0 3.3170177061192057 16.817497180965177 0 16.817497180965177 -80.955544156691843 0 0 0 0 -0.27055369025993059 3.1952202670452152 0 3.1952202670452152 -32.093589829594634 0 0 0 0 10.315084622689028 15.88262655318249 0 15.88262655318249 -39.05774742984795 0 0 0 0 -20.565382752536316 31.73746128664763 0 31.73746128664763 -43.060346637855957 0 0 0 0 -2.9854433025480249 22.655492745138531 0 22.655492745138531 -34.114223931332106 0 0 0 0 -10.207633445920347 22.409685927753983 0 22.409685927753983 -17.548192157961125 0 0 0 0 7.5629231316036751 12.065558903264815 0 12.065558903264815 -44.79611955051513 0 0 0 0 -20.603326854907209 31.114127112043207 0 31.114127112043207 -46.567389506788459 0 0 0 0 0.81570867404765401 16.691373670730997 0 16.691373670730997 -33.477300869422606 0 0 0 0 9.0156588664667652 15.950863535312237 0 15.950863535312237 -43.613573184644338 0 0 0 0 -6.2841919706222642 25.139268306724489 0 25.139268306724489 -27.102881113235412 0 0 0 0 -11.097457059660883 33.392497317894595 0 33.392497317894595 -46.1310375984649 0 0 0 0 -0.71046791615596572 5.9852615301196259 0 5.9852615301196259 -33.922493997299568 0 0 0 0 -11.498563984001521 0.12353059313318226 0 0.12353059313318226 -60.59951035650738 0 0 0 0 -22.677922455395105 33.916456355684204 0 33.916456355684204 -48.612277304229792 0 0 0 0 -1.7135668930632164 2.3656759202058311 0 2.3656759202058311 -140.12859935750566 0 0 0 0 3.6475427564862422 17.28977500123456 0 17.28977500123456 2.0398390708932652 0 0 0 0 -23.989122176155433 145.12049441225463 0 145.12049441225463 -55.793764613859821 0 0 0 0 -25.692124502605111 44.472245823759295 0 44.472245823759295 -128.04326815549575 0 0 0 0 -2.7644075098390024 11.606910603025447 0 11.606910603025447 -45.596512763707494 0 0 0 0 24.868558699261484 13.943486242140352 0 13.943486242140352 -45.729518763142551 0 0 0 0 -0.037610248248446609 21.781208183044122 0 21.781208183044122 -66.654905646116731 0 0 0 0 1.4468059803246152 -6.5476032962602346 0 -6.5476032962602346 -1.3594310573278108 0 0 0 0 -5.2317507029474655 -8.8652645765832858 0 -8.8652645765832858 -17.727868600733927 0 0 0 0 -10.95268017638719 -63.625013754955944 0 -63.625013754955944 -54.982690238830401 0 0 0 0 -12.15705503428461 -57.349268594742171 0 -57.349268594742171 -87.526113488158444 0 0 0 0 -2.054801611423045 18.783094792634074 0 18.783094792634074 -125.67735618301958 0 0 0 0 -5.8033458418842159 19.129125330198477 0 19.129125330198477 -60.963297950016738 0 0 0 0 -10.190843699951529 -4.8611953929066658 0 -4.8611953929066658 -56.255487246075063 0 0 0 0 -3.4670715788619826 -7.4745501986741658 0 -7.4745501986741658 -52.938119439747993 0 0 0 0 -2.2828591698697878 10.885635493838208 0 10.885635493838208 -29.821818731294798 0 0 0 0 3.9518683764290472 8.573659236804815 0 8.573659236804815 -68.146237258886686 0 0 0 0 -8.8849079675158009 -0.072695070834015496 0 -0.072695070834015496 -28.767891529947519 0 0 0 0 -1.900569697220476 -3.3069986397094908 0 -3.3069986397094908 -20.52114999081823 0 0 0 0 -5.3293761684176566 -2.6580055968599083 0 -2.6580055968599083 -14.495638879923604 0 0 0 0 1.4856592361677818 1.8643278689311558 0 1.8643278689311558 -13.886155679927128 0 0 0 0 -5.4251602689712248 4.1402925374273991 0 4.1402925374273991 -9.5018847375758924 0 0 0 0 -5.4444506869415967 3.3303691571402396 0 3.3303691571402396 -7.1998433657281566 0 0 0 0 -5.4635808553439729 4.0178176477149918 0 4.0178176477149918 -4.5137722991036604 0 0 0 0 -3.7996765952238962 7.3700185530964859 0 7.3700185530964859 -15.57822662229637 0 0 0 0 -14.780522152380485 5.5634856997057796 0 5.5634856997057796 -31.471758847976162 0 0 0 0 -7.3049396772939872 54.48634208929434 0 54.48634208929434 -110.60510558902752 0 0 0 0 -40.730908919868853 2.9509610093955416 0 2.9509610093955416 -67.326978147902992 0 0 0 0 -85.707815760737503 94.252249317767564 0 94.252249317767564 -72.316743286035489 0 0 0 0 -5.940430054068992 2.6359493020838158 0 2.6359493020838158 7.1309469394115581 0 0 0 0 7.380542026411149 10.274136429994542 0 10.274136429994542 -137.68590843203128 0 0 0 0 -8.2233461180296672 50.31006447627442 0 50.31006447627442 -98.785580701136496 0 0 0 0 -9.4903469896862589 26.886961220894591 0 26.886961220894591 -32.186157423331679 0 0 0 0 -37.160625644166657 9.3079143661379931 0 9.3079143661379931 4.079405466793105 0 0 0 0 -1.0954483466384533 -0.65600319110933469 0 -0.65600319110933469 -0.28320653411859098 0 0 0 0 1.4569061792299181 -3.1956482620735187 0 -3.1956482620735187 -6.4608215165280853 0 0 0 0 -23.159493893138006 46.116830659928382 0 46.116830659928382 -94.838768817600794 0 0 0 0 -15.319862785346629 -3.4169983450701693 0 -3.4169983450701693 -6.4084836287220242 0 0 0 0 -18.513576266008158 -21.274068732644082 0 -21.274068732644082 -33.156406928261276 0 0 0 0 -0.61241848735288085 0.60084019906766528 0 0.60084019906766528 -0.53987476502129539 0 0 0 0 -0.12369622394578528 -0.98907899588812143 0 -0.98907899588812143 -11.111141870943356 0 0 0 0 -1.1166085999135822 0.89011415352797485 0 0.89011415352797485 -2.6685174555232702 0 0 0 0 -4.2743411996270879 0.53888856963021681 0 0.53888856963021681 -4.633693331386894 0 0 0 0 -0.18313265248319299 0.81858657379655142 0 0.81858657379655142 -5.1243527201435199 0 0 0 0 0.14916347801349161 -0.93346860255951469 0 -0.93346860255951469 -4.2523089712776709 0 0 0 0 -1.1945323925395579 -0.52820826773438512 0 -0.52820826773438512 -9.2361129707426244 0 0 0 0 -24.288190416229554 10.51000665279571 0 10.51000665279571 0.92696930520469323 0 0 0 0 -5.0809645517694957 2.8301729533865796 0 2.8301729533865796 -1.2151370618891093 0 0 0 0 7.9388181914491724 -11.283436347090174 0 -11.283436347090174 1.3688711600843817 0 0 0 0 -0.3768928007355079 0.53425076842302133 0 0.53425076842302133 -0.62342827784675592 0 0 0 0 -0.93243623925059183 2.2985522416420281 0 2.2985522416420281 -21.432172333821654 0 0 0 0 -1.3073596093482251 1.5540732264926191 0 1.5540732264926191 -16.385769713029731 0 0 0 0 -1.6804080471026737 -4.7367052791232709 0 -4.7367052791232709 -21.317030030468686 0 0 0 0 1.7864445227461374 -2.0249879001494264 0 -2.0249879001494264 -19.192024626827333 0 0 0 0 1.9405592427011129 -0.97456516348029254 0 -0.97456516348029254 -16.220429494278505 0 0 0 0 0.050671018111691057 -1.2677161292922783 0 -1.2677161292922783 -8.5795438552677297 0 0 0 0 1.7412695974714865 -2.1407314969819708 0 -2.1407314969819708 -13.820554720092332 0 0 0 0 -6.1136960162520495 -2.8807347225374542 0 -2.8807347225374542 7.2834697521611815 0 0 0 0 1.0018466902767167 -0.64048607676502911 0 -0.64048607676502911 -4.9278764373063382 0 0 0 0 -0.24590784550180766 -1.7669937984023285 0 -1.7669937984023285 0.17036109495427354 0 0 0 0 -0.90981408088698901 -3.7329652113862153 0 -3.7329652113862153 -9.6333808471633802 0 0 0 0 1.5382392392473321 -4.9434000398177886 0 -4.9434000398177886 -12.461072467674967 0 0 0 0 1.9611905052820475 -2.6557554148603231 0 -2.6557554148603231 -13.845839827368764 0 0 0 0 -0.93151614642643588 -5.5197408015208858 0 -5.5197408015208858 -5.6592083343231252 0 0 0 0 1.9234008126590811 -2.9136738351386384 0 -2.9136738351386384 -9.2282053795654519 0 0 0 0 11.422481974394486 -5.281721301143989 0 -5.281721301143989 -2.4920997507870197 0 0 0 0 3.966829625160897 -1.0511103948142591 0 -1.0511103948142591 -16.992227802011769 0 0 0 0 2.5088869400623253 -3.0709656185645144 0 -3.0709656185645144 -14.800655201019254 0 0 0 0 -4.9927428871069424 -9.8700908838218311 0 -9.8700908838218311 -13.679013734392356 0 0 0 0 3.1405825883536771 -1.386267140726261 0 -1.386267140726261 -7.8174713056773157 0 0 0 0 -1.1092950834519115 -2.7530468616459984 0 -2.7530468616459984 -14.508492260210915 0 0 0 0 30.426060165212121 -23.263965747581096 0 -23.263965747581096 -19.373171617797198 0 0 0 0 -0.35316806676049239 6.2487403091208762 0 6.2487403091208762 -6.2471947399899364 0 0 0 0 28.987343276211845 -45.713214065923239 0 -45.713214065923239 26.33733392659633 0 0 0 0 108.75663600267694 -47.176272690441692 0 -47.176272690441692 -25.822453868051525 0 0 0 0 57.419805671787913 -21.669145097606815 0 -21.669145097606815 0.84270839917007834 0 0 0 0 0.13756434974201009 -0.31445391366858644 0 -0.31445391366858644 -2.4095308417608408 0 0 0 0 -4.0464433820930026 -5.0301295688404934 0 -5.0301295688404934 -16.452978033878026 0 0 0 0 8.3063012092807753 -1.1175965565344086 0 -1.1175965565344086 -24.516244559490588 0 0 0 0 0.04013156735494039 -1.1643729145569921 0 -1.1643729145569921 -7.6829948163623385 0 0 0 0 22.648121510356276 20.575898062117631 0 20.575898062117631 -90.165985789441038 0 0 0 0 -0.065325597963639112 -0.26421911560993294 0 -0.26421911560993294 -0.24649957748812312 0 0 0 0 -5.0669251768866843 19.906823712546611 0 19.906823712546611 -29.844415770436171 0 0 0 0 -0.0046756634536695291 -46.229169878490211 0 -46.229169878490211 48.909501878268202 0 0 0 0 4.7744840717429042 0.76332718683988787 0 0.76332718683988787 65.158520317752846 0 0 0 0 -0.00032115143900801613 -80.034027685032925 0 -80.034027685032925 -62.46873843875801 0 0 0 0 -0.37826794968207766 -2.119066537140327 0 -2.119066537140327 -2.1165874358427192 0 0 0 0 0.68088682198817096 -27.725059366264759 0 -27.725059366264759 -42.66217663756106 0 0 0 0 0.70097209381377479 0.84225238055682894 0 0.84225238055682894 -3.7896064186007834 0 0 0 0 0.38765902260587337 -1.540126210777089 0 -1.540126210777089 -14.405934439710109 0 0 0 0 -0.056061162860173319 -0.5884418505899589 0 -0.5884418505899589 -1.7162744689732392 0 0 0 0 -0.41795343450939981 -1.626220882346388 0 -1.626220882346388 -7.0709921824745834 0 0 0 0 1.9213525896017529 -1.4963130857995566 0 -1.4963130857995566 -6.3340946727839764 0 0 0 0 -10.80198995064768 -6.2307968606328359 0 -6.2307968606328359 16.694417441613041 0 0 0 0 -0.78539232710787688 -1.9538169276282815 0 -1.9538169276282815 -4.7328712627256664 0 0 0 0 -0.60848577419824323 -1.4860562852700241 0 -1.4860562852700241 -9.1440347243915312 0 0 0 0 -0.55600854155272827 -0.95558864986378467 0 -0.95558864986378467 -8.7483007902337704 0 0 0 0 0.54176934588949477 -0.79703610057407559 0 -0.79703610057407559 -7.8077506025020433 0 0 0 0 6.2248140379368948 -8.3081514433906705 0 -8.3081514433906705 -41.303498014778597 0 0 0 0 0.18307750509239526 -1.7660234242943318 0 -1.7660234242943318 -10.205100011092554 0 0 0 0 -7.4263347021020536 3.5117900266777724 0 3.5117900266777724 12.856394042319153 0 0 0 0 -1.1131204200996114 -2.0829892959508243 0 -2.0829892959508243 -3.3050800381498959 0 0 0 0 1.3101815149229386 -1.656691993586719 0 -1.656691993586719 -11.919554675725522 0 0 0 0 -0.00023410921484465978 -1.9884911640983773 0 -1.9884911640983773 -11.788758701412007 0 0 0 0 0.58609962267891058 -2.8809252000501147 0 -2.8809252000501147 -12.928900790822809 0 0 0 0 0.13968794821491204 -0.80368387153430376 0 -0.80368387153430376 -8.1890365077415481 0 0 0 0 0.0015303736180257419 -1.8504889394171187 0 -1.8504889394171187 -7.5426899513149692 0 0 0 0 0.077042384471500275 -0.60048763423603191 0 -0.60048763423603191 -6.5531581553701699 0 0 0 0 1.0950351072201414 -0.13976660835032817 0 -0.13976660835032817 -4.8679768184665591 0 0 0 0 -43.391584653089986 79.779147205947083 0 79.779147205947083 -69.221432658639969 0 0 0 0 -21.403651439118562 69.342542476551898 0 69.342542476551898 -74.697247076181156 0 0 0 0 5.8987597748525786 -21.619189590739552 0 -21.619189590739552 -62.590727564602275 0 0 0 0 -33.790483331863754 50.613694252528148 0 50.613694252528148 -91.378595711750677 0 0 0 0 -9.2342808871540001 45.486867446015822 0 45.486867446015822 -97.87862753776426 0 0 0 0 -19.142848127343768 52.961253334986395 0 52.961253334986395 -95.351250484891352 0 0 0 0 -14.794836745323892 37.881178120638651 0 37.881178120638651 -53.229558379229275 0 0 0 0 -38.007001338915188 16.049789299555414 0 16.049789299555414 -72.465726761947735 0 0 0 0 39.594691172010585 -13.580314717306464 0 -13.580314717306464 -38.609786654316849 0 0 0 0 5.2318508395572971 -6.3070277101955696 0 -6.3070277101955696 -18.673540537349822 0 0 0 0 9.1772691845089014 -1.2593397670898412 0 -1.2593397670898412 -29.011459746048786 0 0 0 0 -4.9144552464610456 60.071356063315761 0 60.071356063315761 -28.142619278965867 0 0 0 0 -171.94687897266965 229.728856349946 0 229.728856349946 -230.30209968046995 0 0 0 0 0.00068763086245974062 -0.85037136946510805 0 -0.85037136946510805 -4.3375507658347487 0 0 0 0 0.016029646654594536 0.184249489534281 0 0.184249489534281 -2.3870138346011345 0 0 0 0 -17.679337379759801 35.003889140130923 0 35.003889140130923 -77.197814208586351 0 0 0 0 -48.048970017125157 -182.2061610976707 0 -182.2061610976707 649.76874706483068 0 0 0 0 8.3832515088760626 -8.4328392484786576 0 -8.4328392484786576 -19.871762751692216 0 0 0 0 -908.48259203409498 -579.41633104670473 0 -579.41633104670473 375.60351687192815 0 0 0 0 -825.42876069276144 1193.2797206136311 0 1193.2797206136311 -337.06390312072472 0 0 0 0 -731.96299722622223 1157.8211348233908 0 1157.8211348233908 -2090.6424664027072 0 0 0 0 -887.62197595059092 -475.64506693927092 0 -475.64506693927092 -2103.1333224290429 0 0 0 0 -757.36133462197199 -8.2837076983087172 0 -8.2837076983087172 308.3647113791485 0 0 0 0 -8.9183667925851235 -6.4126566990094034 0 -6.4126566990094034 -7.5642407936011296 0 0 0 0 1000.0516641160541 -179.82222060780623 0 -179.82222060780623 -873.87218656824552 0 0 0 0 -108.30244977817301 932.6685984455944 0 932.6685984455944 -1292.4826967067274 0 0 0 0 -25.212321149179797 -23.721041841969694 0 -23.721041841969694 -23.264875082975294 0 0 0 0 -62.542416753031148 -178.31758055015234 0 -178.31758055015234 -613.4140937101256 0 0 0 0 99.845494825553033 104.00016778691133 0 104.00016778691133 -219.27590086203782 0 0 0 0 99.959194406288589 -312.73072055326338 0 -312.73072055326338 261.19634558483085 0 0 0 0 10.191359946077815 -24.416282971587734 0 -24.416282971587734 -74.762597662922644 0 0 0 0 7.3579632421542556 -6.4505000294157071 0 -6.4505000294157071 76.176540731015848 0 0 0 0 1.1135633783863881 -5.7053225083096066 0 -5.7053225083096066 -1.6267090872855476 0 0 0 0 258.3348706575598 43.899048651466728 0 43.899048651466728 -310.39646761010226 0 0 0 0 27.605061918885553 117.82661108361572 0 117.82661108361572 -212.93942201029859 0 0 0 0 7.2897252120205849 -416.51641123900117 0 -416.51641123900117 257.15457109455019 0 0 0 0 6.2705906960946933 -34.466577062733876 0 -34.466577062733876 -68.104739236794941 0 0 0 0 -168.50897749848173 -402.38321950134559 0 -402.38321950134559 105.36231468502956 0 0 0 0 -178.02871712405104 315.41484294300722 0 315.41484294300722 231.39754681718478 0 0 0 0 -455.0567370932049 -541.22807257063687 0 -541.22807257063687 -522.87442150223433 0 0 0 0 -880.96465201893443 286.60231072962051 0 286.60231072962051 -238.76871023586136 0 0 0 0 3.8613080235906665 19.894735963037874 0 19.894735963037874 -36.062374978696084 0 0 0 0 -62.180570255215883 17.595568153019485 0 17.595568153019485 -85.227261660060321 0 0 0 0 63.342093503083561 -0.89374087920441525 0 -0.89374087920441525 -75.892594053526409 0 0 0 0 51.450735970296591 -9.0895365796604892 0 -9.0895365796604892 -43.632475388338207 0 0 0 0 681.47911914603537 -234.7406571743777 0 -234.7406571743777 -249.46612935097073 0 0 0 0 22.92416028165319 22.105796301797014 0 22.105796301797014 -30.16832774025292 0 0 0 0 -9.798092683257444 -1.2537501688512833 0 -1.2537501688512833 -18.188203421163024 0 0 0 0 55.982304307011873 140.16316510679826 0 140.16316510679826 -2566.9921307391778 0 0 0 0 78.02280489465943 -889.06438706361951 0 -889.06438706361951 -2663.8375175999245 0 0 0 0 230.21718814454061 -676.61685749950266 0 -676.61685749950266 -2911.9014143304958 0 0 0 0 -338.02654476570478 -1502.5490138339519 0 -1502.5490138339519 -3533.9086426037206 0 0 0 0 352.35926977373458 35.681471614263501 0 35.681471614263501 -3632.2328613159625 0 0 0 0 -55.918793831007406 260.54089620502054 0 260.54089620502054 -504.48123286518967 0 0 0 0 -6.8217928467428841 -6.1505279442581298 0 -6.1505279442581298 -6.4176472859006424 0 0 0 0 998.50785666239699 -755.75757073595514 0 -755.75757073595514 -535.59004078000726 0 0 0 0 922.66623486079629 7.9812692201739992 0 7.9812692201739992 -67.355090848199325 0 0 0 0 -10.045369968794461 -12.307798197377878 0 -12.307798197377878 -25.119687820899827 0 0 0 0 -117.59266470100857 -532.46979675631906 0 -532.46979675631906 -96.370058128566598 0 0 0 0 -1234.9380879576038 -1347.9094674681546 0 -1347.9094674681546 542.3867367256571 0 0 0 0 -1030.7672217420463 -1628.3685300188527 0 -1628.3685300188527 -1876.4112606543422 0 0 0 0 -718.03494642346323 -841.20438637337793 0 -841.20438637337793 -2607.5761006917928 0 0 0 0 -1511.2125504741848 -1198.6299705458878 0 -1198.6299705458878 -2368.8460260336433 0 0 0 0 -1068.5470779119228 -496.11350522806606 0 -496.11350522806606 -2212.8010687973292 0 0 0 0 -544.77148691427101 -276.26926006432041 0 -276.26926006432041 -1886.0514207434571 0 0 0 0 -766.24987854363781 -821.77737170486944 0 -821.77737170486944 -1935.9887800882211 0 0 0 0 -602.27748908874219 -438.06731824074086 0 -438.06731824074086 -1665.0723442608996 0 0 0 0 -230.833110359079 -288.44377704120416 0 -288.44377704120416 -1768.352913669165 0 0 0 0 -502.10869470563011 -487.34713490439754 0 -487.34713490439754 -1620.0977937299813 0 0 0 0 -346.6470397113535 -219.19005308264968 0 -219.19005308264968 -1554.115754607752 0 0 0 0 -572.7925317523916 -526.63639202204831 0 -526.63639202204831 -1522.1995144476532 0 0 0 0 -1512.4075885446682 -1156.9581024705367 0 -1156.9581024705367 -812.79822662246806 0 0 0 0 -1616.3922783792948 -693.17129290705634 0 -693.17129290705634 -1427.4474644134671 0 0 0 0 -52.483101842330143 -190.41466183094963 0 -190.41466183094963 -1546.871195051187 0 0 0 0 -7.4835846542355284 -117.61277791373504 0 -117.61277791373504 -1473.9916579568307 0 0 0 0 -200.28017394460312 -291.64641745099652 0 -291.64641745099652 -1702.6894575630395 0 0 0 0 -107.25544004283256 -137.44203687625122 0 -137.44203687625122 -1521.5922126166042 0 0 0 0 -219.05017524469076 -178.74264227820095 0 -178.74264227820095 -1566.753209760449 0 0 0 0 -161.98689355930037 -335.10266295331894 0 -335.10266295331894 -1557.5913913695481 0 0 0 0 -121.6876768843922 -222.48923834324705 0 -222.48923834324705 -1263.1626943938536 0 0 0 0 -36.991768480061182 -222.94174804480281 0 -222.94174804480281 -1485.7441160651215 0 0 0 0 -57.568943111700264 -209.79864168111226 0 -209.79864168111226 -1262.344601953635 0 0 0 0 -407.82822003859837 -518.66396528224141 0 -518.66396528224141 -1326.4270124073737 0 0 0 0 -340.36472550089729 -252.16955492196576 0 -252.16955492196576 -1322.1406688545612 0 0 0 0 -333.14212008234563 -306.08935220552667 0 -306.08935220552667 -820.81200565490144 0 0 0 0 -369.39730653144943 -355.01720083425607 0 -355.01720083425607 -824.17615580294569 0 0 0 0 -596.9354936751356 -588.73311237627058 0 -588.73311237627058 -1509.6600283680132 0 0 0 0 -847.67373181548692 -152.31988079982148 0 -152.31988079982148 -1404.8323459898602 0 0 0 0 -625.67059850585156 -488.64342306768776 0 -488.64342306768776 -715.49649069449515 0 0 0 0 -984.89698028866962 -640.03167360247062 0 -640.03167360247062 -446.92784104781458 0 0 0 0 -658.75955755340124 -58.170401194687656 0 -58.170401194687656 -8.3560596264433116 0 0 0 0 -575.91724132824038 -367.5881109204347 0 -367.5881109204347 -653.33779305513781 0 0 0 0 -797.39858559215122 -369.07721810834119 0 -369.07721810834119 -337.06435097962822 0 0 0 0 -548.27512295560473 -132.34795866248533 0 -132.34795866248533 -207.08313246222133 0 0 0 0 -489.71268633231352 -101.46510312848886 0 -101.46510312848886 -316.76342921819742 0 0 0 0 -450.66512221492906 17.607608530277503 0 17.607608530277503 -166.96986805225606 0 0 0 0 -384.56584127829069 -79.473800129049778 0 -79.473800129049778 -242.65868500148281 0 0 0 0 -294.27729164043217 -205.54201324454175 0 -205.54201324454175 -593.48965422316542 0 0 0 0 -579.60505117061257 -354.92767571842342 0 -354.92767571842342 -480.50077243436681 0 0 0 0 -611.61158414123383 -279.9400300884281 0 -279.9400300884281 -395.1053120727629 0 0 0 0 -516.88870563343062 -299.71827356987706 0 -299.71827356987706 -455.40447516325366 0 0 0 0 -521.564636866211 -308.99126820354104 0 -308.99126820354104 -311.17935921610479 0 0 0 0 -426.90855467714573 -403.81201649914146 0 -403.81201649914146 -425.55128707936274 0 0 0 0 -429.39819566826191 -302.57221281254897 0 -302.57221281254897 -613.83357214399803 0 0 0 0 -432.62199365165816 -117.52404069300246 0 -117.52404069300246 -536.30499029104249 0 0 0 0 -400.64058068959264 -211.3977749976907 0 -211.3977749976907 -375.91179130215096 0 0 0 0 -224.21365658925151 -123.92233963566468 0 -123.92233963566468 -837.29074448941628 0 0 0 0 -197.04691314571198 -31.574653184886301 0 -31.574653184886301 -532.87952932595726 0 0 0 0 -202.94419095095736 -248.05733653514471 0 -248.05733653514471 -601.64922237243809 0 0 0 0 -282.55975566923735 13.239018649785066 0 13.239018649785066 -294.34887233315749 0 0 0 0 -412.61455782810435 -27.718775548553822 0 -27.718775548553822 -274.28185496819424 0 0 0 0 -283.8980359659904 73.216096426535842 0 73.216096426535842 -525.86031480513702 0 0 0 0 -392.72904153739535 86.185355082225215 0 86.185355082225215 -434.52901367538288 0 0 0 0 -407.90936047779087 275.86019029592717 0 275.86019029592717 -446.970117238292 0 0 0 0 -391.8757248024757 71.779043596109886 0 71.779043596109886 -193.95688496322327 0 0 0 0 -459.47646056446138 62.976071349630729 0 62.976071349630729 -45.321945332972973 0 0 0 0 46.264776759103924 15.144786255747675 0 15.144786255747675 -107.79068809834952 0 0 0 0 14.468132553854275 62.279510891493828 0 62.279510891493828 -155.42506002701703 0 0 0 0 65.395354876418423 -45.30473115852692 0 -45.30473115852692 -214.60630568915076 0 0 0 0 -8.811897159165369 -35.35476231905659 0 -35.35476231905659 -291.55097449635286 0 0 0 0 -285.73132023290873 9.3363915781410469 0 9.3363915781410469 -151.56323566643914 0 0 0 0 -15.538199796494155 -33.38990794341953 0 -33.38990794341953 -264.32251615535642 0 0 0 0 -36.840424520759143 -78.114471198646243 0 -78.114471198646243 -110.26824230186321 0 0 0 0 34.968195768335818 -334.59080094046476 0 -334.59080094046476 95.235563833768538 0 0 0 0 122.48729081764759 -6.9647707461044774 0 -6.9647707461044774 -81.323006390506634 0 0 0 0 -323.0207813084271 73.703918333579168 0 73.703918333579168 -121.91700949536607 0 0 0 0 116.54525160064713 -135.21138940451965 0 -135.21138940451965 -265.84064765613948 0 0 0 0 -83.170731767899269 -2.5050332154860371 0 -2.5050332154860371 -987.59621769330988 0 0 0 0 60.905698974912525 276.12899333810765 0 276.12899333810765 -564.05730135754857 0 0 0 0 -36.734068288206096 -47.395073522379278 0 -47.395073522379278 -50.14685363521707 0 0 0 0 119.20970929422492 375.56171686597736 0 375.56171686597736 -948.66254196418777 0 0 0 0 63.99168101747955 -140.46363396798552 0 -140.46363396798552 -98.376620486909815 0 0 0 0 47.840094396643821 -0.34853425654883097 0 -0.34853425654883097 -94.923783003299491 0 0 0 0 55.64565211302579 -87.087811189063359 0 -87.087811189063359 -111.11288536684606 0 0 0 0 47.890009010322501 96.19587498684632 0 96.19587498684632 445.01512389054551 0 0 0 0 -195.46203163984319 364.45357914626948 0 364.45357914626948 -407.07459191775706 0 0 0 0 -4.3168906252939081 -6.4705244834200997 0 -6.4705244834200997 -10.422829916602439 0 0 0 0 58.382363786056885 72.594217805171866 0 72.594217805171866 153.29041082048934 0 0 0 0 126.82243817507091 216.69477556018791 0 216.69477556018791 16.225291868846398 0 0 0 0 139.88198758997896 200.59273169260268 0 200.59273169260268 142.62336662143343 0 0 0 0 246.0486669499569 301.17102522652931 0 301.17102522652931 -13.867510260097333 0 0 0 0 134.19123388589651 285.41620576364221 0 285.41620576364221 0.92879825684940442 0 0 0 0 198.50895558324555 202.40841333360004 0 202.40841333360004 -309.03448758081868 0 0 0 0 126.71851725857778 281.98595987657609 0 281.98595987657609 -5.563648403112893 0 0 0 0 90.791416726078751 143.05088544539194 0 143.05088544539194 -22.45725181659509 0 0 0 0 176.14995267514678 310.16016640443559 0 310.16016640443559 -68.966309222916607 0 0 0 0 156.63199183590041 -16.502611012350826 0 -16.502611012350826 -322.62568949292472 0 0 0 0 589.63979479934278 314.06372301634838 0 314.06372301634838 -154.48188999932972 0 0 0 0 196.4485315120728 433.14286262395763 0 433.14286262395763 399.73645074951492 0 0 0 0 64.73929776955174 -715.83576400544734 0 -715.83576400544734 -207.88284553433186 0 0 0 0 376.49396700277066 -215.97017688199412 0 -215.97017688199412 180.17390228099248 0 0 0 0 -849.3791411926004 200.45414358356538 0 200.45414358356538 -43.451218859649089 0 0 0 0 9.8220505760044468 -9.3284132789326009 0 -9.3284132789326009 -56.022614137931413 0 0 0 0 -179.18430422795612 44.918195971762103 0 44.918195971762103 -196.50382698545582 0 0 0 0 351.24407307598085 74.761709231759596 0 74.761709231759596 -110.27966649852169 0 0 0 0 176.96636122850668 -64.755198864699196 0 -64.755198864699196 -137.11423306708457 0 0 0 0 130.92522992256181 209.12299582677952 0 209.12299582677952 -395.12955442530802 0 0 0 0 -43.818007153997314 248.51375527879281 0 248.51375527879281 -184.62460060026842 0 0 0 0 644.56178869207952 -242.02075394627991 0 -242.02075394627991 -89.253634135369794 0 0 0 0 615.37515144023928 -402.8841961913713 0 -402.8841961913713 33.337865892448463 0 0 0 0 430.68439456760098 -3.6204675730114104 0 -3.6204675730114104 -204.4265340842685 0 0 0 0 355.85175309893748 37.64362074676319 0 37.64362074676319 -156.53723127736885 0 0 0 0 161.61411211407176 20.493366299095214 0 20.493366299095214 -75.796373521036003 0 0 0 0 176.42721708451063 137.27432663390937 0 137.27432663390937 -227.76741129158836 0 0 0 0 111.88038830625737 42.689543497413979 0 42.689543497413979 -111.77652418664366 0 0 0 0 254.23514171909846 26.235977527263458 0 26.235977527263458 -171.53230752485979 0 0 0 0 166.5342032931494 12.742262174426287 0 12.742262174426287 -177.55581350444118 0 0 0 0 -139.66313035351595 127.26534775136679 0 127.26534775136679 -159.87234099764464 0 0 0 0 -166.45075630663814 235.70777082131099 0 235.70777082131099 -200.10106090930822 0 0 0 0 8.0165995519286781 -18.699128365879787 0 -18.699128365879787 -26.295897666670129 0 0 0 0 -46.971101354629354 142.17379023594003 0 142.17379023594003 -225.92547027907858 0 0 0 0 -53.602246921713231 132.61677396742925 0 132.61677396742925 -152.48497471836163 0 0 0 0 121.67879597652063 82.507721605332335 0 82.507721605332335 -149.78714484945522 0 0 0 0 54.853083620972029 159.94561968844209 0 159.94561968844209 -210.31825654106797 0 0 0 0 101.18471141371811 58.762084523074009 0 58.762084523074009 -173.94940662404406 0 0 0 0 44.274019853291975 131.40729358319368 0 131.40729358319368 -210.39846997130371 0 0 0 0 127.35573117799868 53.650365699169924 0 53.650365699169924 -172.7148143941522 0 0 0 0 205.30549679260184 -9.3384724282041134 0 -9.3384724282041134 -178.044114475284 0 0 0 0 248.23324520306051 5.113342577329604 0 5.113342577329604 -150.86565242527286 0 0 0 0 206.62601956166327 -9.3925788839987945 0 -9.3925788839987945 -147.87635530041734 0 0 0 0 247.36795017133954 -57.549414567947679 0 -57.549414567947679 -120.34253829010413 0 0 0 0 218.28039198166516 -60.252968994805997 0 -60.252968994805997 -35.65290951289353 0 0 0 0 179.21416424699419 -22.436124245097744 0 -22.436124245097744 -123.86861099534144 0 0 0 0 12.782611883798438 -20.690844329565294 0 -20.690844329565294 -74.593170482028711 0 0 0 0 172.22441779756741 -333.20746714991128 0 -333.20746714991128 -571.82182142767124 0 0 0 0 182.0792553078536 14.380190773474169 0 14.380190773474169 -252.40337035787525 0 0 0 0 4.3136446014809522 3.5171600770027709 0 3.5171600770027709 -14.070539434346415 0 0 0 0 122.97322572421399 -24.897553832968697 0 -24.897553832968697 100.67172245131223 0 0 0 0 -37.013033827144682 106.86533897965273 0 106.86533897965273 -284.60462521428417 0 0 0 0 18.573568959019148 6.8890152549520565 0 6.8890152549520565 -12.529657209240455 0 0 0 0 165.48333230580101 1256.7620339307068 0 1256.7620339307068 -137.48548608637066 0 0 0 0 13.237420942107704 -9.00231823261268 0 -9.00231823261268 -68.53219997777461 0 0 0 0 437.70319707027738 -247.14044079874293 0 -247.14044079874293 -26.969104179181159 0 0 0 0 420.06819778226054 -58.094256466130901 0 -58.094256466130901 -51.404196773160947 0 0 0 0 298.85147016650717 -111.9645575154409 0 -111.9645575154409 -64.46220649839961 0 0 0 0 298.63107645170385 -39.925606814096682 0 -39.925606814096682 -97.926757309032837 0 0 0 0 220.44291364141645 -37.640416299935168 0 -37.640416299935168 -70.033116186386906 0 0 0 0 220.11305635243116 -187.14476002127049 0 -187.14476002127049 95.107173084861643 0 0 0 0 355.34040043635468 -134.12536787193676 0 -134.12536787193676 -82.551837158680428 0 0 0 0 -11.405453470481909 -35.065599716778593 0 -35.065599716778593 -55.293724130844026 0 0 0 0 33.702493645017967 1.1002858143547201 0 1.1002858143547201 -124.02906722934722 0 0 0 0 5.8802200460595486 -8.724868160134065 0 -8.724868160134065 -123.13239535860248 0 0 0 0 -9.6392710791624268 -30.89608052384574 0 -30.89608052384574 -95.573941330309026 0 0 0 0 29.664096695487842 -17.62827466354338 0 -17.62827466354338 -148.79772938392125 0 0 0 0 19.228538829582249 110.35336695513979 0 110.35336695513979 -85.693366557701665 0 0 0 0 41.612685085150588 -5.1235371146613033 0 -5.1235371146613033 -135.71474572166699 0 0 0 0 -7.8405692588057718 123.66819114450482 0 123.66819114450482 34.691593307172298 0 0 0 0 88.602591182784636 -14.835447302935791 0 -14.835447302935791 -197.54277443647152 0 0 0 0 13.26291190099073 -92.277423717721831 0 -92.277423717721831 -206.26151588573703 0 0 0 0 29.719595750382723 -51.611207519526943 0 -51.611207519526943 -120.25256428164721 0 0 0 0 -6.9961807033141667 -123.30035138246603 0 -123.30035138246603 -48.293004510953324 0 0 0 0 10.365217246022439 -181.55961168100657 0 -181.55961168100657 -34.943958475749241 0 0 0 0 -0.5157806708168664 -1.6717004444682289 0 -1.6717004444682289 -6.3883625128400467 0 0 0 0 14.116300321482413 -163.17794826937461 0 -163.17794826937461 -254.95390367710206 0 0 0 0 -498.33484586223494 635.48248641529062 0 635.48248641529062 -625.37124404240603 0 0 0 0 91.593899072120621 -34.911405405016922 0 -34.911405405016922 -461.76328343950445 0 0 0 0 -2.3323534557730596 0.13615972555476219 0 0.13615972555476219 1.7292644347453177 0 0 0 0 -528.32872700307416 -427.21965923412063 0 -427.21965923412063 32.564545123634161 0 0 0 0 7.706913985144638 191.09061309463505 0 191.09061309463505 -287.25068035413278 0 0 0 0 -735.39507088988103 621.6256345173606 0 621.6256345173606 -340.06020407133747 0 0 0 0 99.975523656565201 -195.28265450243634 0 -195.28265450243634 -284.15867593250005 0 0 0 0 -162.73793471009412 256.16708220739383 0 256.16708220739383 -640.4127522654162 0 0 0 0 -695.46945813884054 20.146779904499908 0 20.146779904499908 -257.57567104854388 0 0 0 0 -193.00301892304924 240.21756176559575 0 240.21756176559575 -105.46356659632147 0 0 0 0 -643.90039288931803 388.47472691129951 0 388.47472691129951 -188.98625481650379 0 0 0 0 -356.57160850143555 100.32190995947894 0 100.32190995947894 -187.89467968940153 0 0 0 0 -1.8178142117354774 -5.0040213341941069 0 -5.0040213341941069 -19.928562096797521 0 0 0 0 -62.935210633189854 202.30417026242867 0 202.30417026242867 -292.39734918405884 0 0 0 0 -420.90670867393783 311.93535332989268 0 311.93535332989268 -159.7337073370436 0 0 0 0 151.08092772635746 -121.71282280980904 0 -121.71282280980904 -17.070673763577361 0 0 0 0 149.84525802876124 -49.998542892128171 0 -49.998542892128171 -78.478905749187106 0 0 0 0 -34.436034795769956 -51.714020182960667 0 -51.714020182960667 81.87890427968523 0 0 0 0 -310.79380183563262 357.0480646401702 0 357.0480646401702 -971.16681565797626 0 0 0 0 16.839382638736744 -25.40113892271853 0 -25.40113892271853 -39.729162506145087 0 0 0 0 58.280658087331176 50.418604401711491 0 50.418604401711491 -84.445358870085329 0 0 0 0 -32.861998333137308 -29.086471691349288 0 -29.086471691349288 62.535093364807835 0 0 0 0 128.47825728325961 -30.724465038886592 0 -30.724465038886592 -72.060028254752979 0 0 0 0 -987.61316267121219 -175.60206886217929 0 -175.60206886217929 -657.10004952809686 0 0 0 0 -29.53311823306467 -43.461091915778525 0 -43.461091915778525 -54.915664684318017 0 0 0 0 -22.545392977535812 -41.139898871097103 0 -41.139898871097103 -74.313005180112668 0 0 0 0 -3.2659770754778066 -39.076839851905078 0 -39.076839851905078 -47.377856829275316 0 0 0 0 88.287841218189897 1337.8933131927442 0 1337.8933131927442 -1783.6252137248521 0 0 0 0 -2051.0238862184233 1035.7432407937522 0 1035.7432407937522 -1162.8976328437857 0 0 0 0 2808.0196747865575 -995.08510743399529 0 -995.08510743399529 -992.71146973366558 0 0 0 0 4.4563520732592785 1.7621758532928595 0 1.7621758532928595 -28.262059079699839 0 0 0 0 -3507.1767722719851 3344.2782852485761 0 3344.2782852485761 -1800.4366650239681 0 0 0 0 -1386.4019002426176 1341.4066483429124 0 1341.4066483429124 -624.21563103467633 0 0 0 0 929.50745037560409 1219.1860686020664 0 1219.1860686020664 -4311.5987353039527 0 0 0 0 -197.82357641061208 -560.85591254116662 0 -560.85591254116662 -52.74982270723558 0 0 0 0 1009.5190513920552 422.49537710096047 0 422.49537710096047 -516.97571132205485 0 0 0 0 416.93129136626885 603.02673382770445 0 603.02673382770445 -215.76568690773274 0 0 0 0 -837.37358853702972 1089.5520681582711 0 1089.5520681582711 -1283.1330469806671 0 0 0 0 9.6857460695269921 -2.1220414005289996 0 -2.1220414005289996 -73.212036659537318 0 0 0 0 1256.5871898385503 -267.05290598016654 0 -267.05290598016654 -467.04498134324967 0 0 0 0 -1885.0172486594329 1166.7602016529527 0 1166.7602016529527 -948.04643054844928 0 0 0 0 -816.67871033920892 610.88085909723304 0 610.88085909723304 -988.99456521604725 0 0 0 0 -399.6100850661569 906.2754372411946 0 906.2754372411946 -1070.7941102985351 0 0 0 0 -479.73670528267394 849.27145882338664 0 849.27145882338664 -1244.9867623909813 0 0 0 0 -594.39637799801949 984.9219221271851 0 984.9219221271851 -1083.0914038931951 0 0 0 0 -850.12587303209739 777.02554837348293 0 777.02554837348293 -1046.1678261678026 0 0 0 0 -479.25324271161662 918.4376929475402 0 918.4376929475402 -1125.8210477356915 0 0 0 0 -407.15769890209754 546.52847010537516 0 546.52847010537516 -671.73284843965666 0 0 0 0 -256.12418061662356 704.02541591697081 0 704.02541591697081 -1154.0570046790963 0 0 0 0 42.41538320338767 -6.5493714805809873 0 -6.5493714805809873 -34.051589934666367 0 0 0 0 -489.38986773382931 984.26384430408507 0 984.26384430408507 -1050.5936426726257 0 0 0 0 -474.17491515383881 891.71505922930373 0 891.71505922930373 -941.81073940882925 0 0 0 0 -388.00431656617729 1068.3884033542854 0 1068.3884033542854 -980.8033133631252 0 0 0 0 -484.44594857855202 943.51698708187996 0 943.51698708187996 -769.67081051939749 0 0 0 0 -396.72410578350537 1126.4469403199328 0 1126.4469403199328 -1036.3802789834299 0 0 0 0 -372.79291404588821 1214.7364297701133 0 1214.7364297701133 -946.82400804909412 0 0 0 0 -157.80247232195279 1169.6341569343904 0 1169.6341569343904 -1069.8145035536145 0 0 0 0 -233.71609165353698 1344.0295171147623 0 1344.0295171147623 -1074.0386445964978 0 0 0 0 -239.02484033417204 1132.4448769527298 0 1132.4448769527298 -1035.2320410512839 0 0 0 0 685.60058380002374 375.69419997527439 0 375.69419997527439 -1027.928815474108 0 0 0 0 520.5604482061317 930.10444519543671 0 930.10444519543671 -1316.3214476556095 0 0 0 0 -17.953978752018884 1206.0604577990744 0 1206.0604577990744 -1127.8520471870143 0 0 0 0 -5.2018695918814046 482.32631001688424 0 482.32631001688424 -800.98612175082235 0 0 0 0 -55.181100248667008 287.30050596392539 0 287.30050596392539 -105.44885012235318 0 0 0 0 1730.2047860648236 -363.78772378168651 0 -363.78772378168651 -918.34340123490256 0 0 0 0 1148.3304230193917 33.411143106521195 0 33.411143106521195 -894.79899145528907 0 0 0 0 16.552247019875768 40.354000179090022 0 40.354000179090022 12.491978133193044 0 0 0 0 636.38503166638839 241.64364069336443 0 241.64364069336443 805.53939318272751 0 0 0 0 17.981833643780668 -0.078147000703893355 0 -0.078147000703893355 -21.639046183055484 0 0 0 0 -863.56414653965476 211.69105211141868 0 211.69105211141868 -974.43981470173458 0 0 0 0 -340.13254041301479 665.07241448810964 0 665.07241448810964 -959.793569531088 0 0 0 0 -312.15325088933605 599.30423448370129 0 599.30423448370129 -828.03584788861917 0 0 0 0 -6.9293038699179306 882.46146652764583 0 882.46146652764583 -1110.2409710092179 0 0 0 0 443.41854526400857 773.62664892962493 0 773.62664892962493 -1084.8726073096623 0 0 0 0 -385.1940187769942 936.73614474160422 0 936.73614474160422 -1040.0897731385485 0 0 0 0 -199.22383441823695 895.43119832002867 0 895.43119832002867 -1044.1997759937076 0 0 0 0 -412.76006417334065 619.13103666920506 0 619.13103666920506 -988.84012729347023 0 0 0 0 222.36041549213496 88.619640485445416 0 88.619640485445416 -538.73721333607682 0 0 0 0 245.15877591681601 44.221140794878011 0 44.221140794878011 -627.75703881759546 0 0 0 0 18.091811151996779 -5.4308205499446274 0 -5.4308205499446274 -117.25304540929767 0 0 0 0 111.60416417601118 -120.56608861716086 0 -120.56608861716086 -624.68217124532271 0 0 0 0 25.914776711015783 56.118608991765967 0 56.118608991765967 -127.16853697124461 0 0 0 0 14.010467046482518 -17.305796457541874 0 -17.305796457541874 -420.96020819323894 0 0 0 0 237.73324837700784 36.856186383825843 0 36.856186383825843 -615.32088679577282 0 0 0 0 70.73103096190971 146.72712424163183 0 146.72712424163183 -462.72662998869782 0 0 0 0 217.85277841036805 178.74980134454381 0 178.74980134454381 -460.01160008576699 0 0 0 0 176.83961589522369 249.702598890628 0 249.702598890628 -545.02463920574519 0 0 0 0 352.32381862481998 9.8511769971664762 0 9.8511769971664762 -550.80865541662206 0 0 0 0 409.23849915570463 306.78826347984432 0 306.78826347984432 -535.44897180894623 0 0 0 0 216.54618237142984 287.9692994134798 0 287.9692994134798 -441.23973364269477 0 0 0 0 90.625483354415337 45.395243737882993 0 45.395243737882993 -225.24639877886511 0 0 0 0 44.899194288584113 112.03521704974992 0 112.03521704974992 -227.45706291246529 0 0 0 0 27.325935372779895 -137.80862033877565 0 -137.80862033877565 -87.72844106372213 0 0 0 0 64.433749655160057 -4.9526133104643009 0 -4.9526133104643009 -30.60472991988911 0 0 0 0 133.03320562525005 -2.5615148784854682 0 -2.5615148784854682 -174.01593273107937 0 0 0 0 75.054487953078933 28.28425976424478 0 28.28425976424478 -154.21544947609436 0 0 0 0 70.539705549651444 1.000738459842978 0 1.000738459842978 -79.524461284512654 0 0 0 0 204.73284832617068 -22.863779759864542 0 -22.863779759864542 -165.70256105362205 0 0 0 0 203.52505690380895 -152.57183022949175 0 -152.57183022949175 -42.460010372276884 0 0 0 0 193.45961162288586 -30.850590443063993 0 -30.850590443063993 -167.18834102826077 0 0 0 0 96.278972465612242 70.469912506163382 0 70.469912506163382 -191.78766304682358 0 0 0 0 118.92815122299362 0.46627771685598418 0 0.46627771685598418 -142.42349124752945 0 0 0 0 85.227285517216842 67.048621804999129 0 67.048621804999129 -205.79463536644471 0 0 0 0 91.328256596018036 30.629134064649406 0 30.629134064649406 -178.85057454877824 0 0 0 0 130.33350602113387 32.945608535279462 0 32.945608535279462 -190.94451670671697 0 0 0 0 49.796396360628037 -11.502080606657302 0 -11.502080606657302 -41.927904053388744 0 0 0 0 118.98683823608735 43.173511918794247 0 43.173511918794247 -183.02202492993092 0 0 0 0 -33.999817008047103 164.40528334630653 0 164.40528334630653 -246.41732744112778 0 0 0 0 7.5311689785266935 106.58436216689006 0 106.58436216689006 -198.65109253039918 0 0 0 0 19.073200392485887 111.26794494568639 0 111.26794494568639 -251.63466333944234 0 0 0 0 -26.720280729739898 80.440740878977522 0 80.440740878977522 -215.49024802641361 0 0 0 0 -21.286826386127359 63.749029250058811 0 63.749029250058811 -197.53903102601907 0 0 0 0 -687.02622484095627 805.75673279140756 0 805.75673279140756 -839.12975809063937 0 0 0 0 20.108245754969008 -4.3085933857483951 0 -4.3085933857483951 -8.1680727825338977 0 0 0 0 -632.72748955027805 652.7321543709968 0 652.7321543709968 -505.96924119594041 0 0 0 0 -1112.2539776262738 905.63870274712099 0 905.63870274712099 -458.773654932098 0 0 0 0 -733.20576666200577 1073.5191077018753 0 1073.5191077018753 -658.66355114945327 0 0 0 0 -769.89842519361991 1165.5825569920707 0 1165.5825569920707 -878.30280974274501 0 0 0 0 88.882791862602517 -36.010203256912064 0 -36.010203256912064 67.471103974981816 0 0 0 0 97.621963518796292 -8.2729810855016694 0 -8.2729810855016694 12.636923703335924 0 0 0 0 -68.345803499359135 -113.62905070864508 0 -113.62905070864508 -49.671014552921406 0 0 0 0 6.3319142109690656 4.9678881086890101 0 4.9678881086890101 -10.026481952993834 0 0 0 0 -1192.3652876727729 634.2237223110933 0 634.2237223110933 -355.92900612065569 0 0 0 0 -1353.6663813812334 978.70819488237612 0 978.70819488237612 -441.02793598687276 0 0 0 0 -1663.8547115685615 746.71919444261584 0 746.71919444261584 -168.72668872409849 0 0 0 0 -727.99584060234429 1448.7061986579793 0 1448.7061986579793 -1044.6976716558711 0 0 0 0 -1167.294914872602 1252.787449146068 0 1252.787449146068 -678.56162020085321 0 0 0 0 -1122.7801637696521 1133.4975390011314 0 1133.4975390011314 -385.26888054134906 0 0 0 0 -2007.8806252002323 1445.0554266744439 0 1445.0554266744439 -476.15796863492142 0 0 0 0 -1788.3893323775801 2286.5343358151949 0 2286.5343358151949 -1427.7502885095309 0 0 0 0 -82.74251090155667 484.5225840776111 0 484.5225840776111 -2983.4352123889075 0 0 0 0 -845.04997094273858 1753.970225198027 0 1753.970225198027 -1220.7871783800219 0 0 0 0 -1432.3703539383387 28.733004055353376 0 28.733004055353376 451.25536887918133 0 0 0 0 -27.517744667825777 9.8976747468350652 0 9.8976747468350652 -5.8094435308320271 0 0 0 0 -2612.3252404162558 1173.9915663536522 0 1173.9915663536522 -333.72924766478172 0 0 0 0 -35.471289355830777 -730.24943420620548 0 -730.24943420620548 -1858.8293919459793 0 0 0 0 -311.25193259564276 228.01235536224704 0 228.01235536224704 -4202.4984013051217 0 0 0 0 -24.763558121589767 -299.57654509929853 0 -299.57654509929853 -305.13572839167318 0 0 0 0 435.08505216031881 -34.981202207156457 0 -34.981202207156457 -536.67577374343819 0 0 0 0 245.2866826370464 -62.909640561789274 0 -62.909640561789274 -97.726741690945346 0 0 0 0 61.760054084251351 14.844059305672999 0 14.844059305672999 -141.87216502624869 0 0 0 0 401.37767645081226 336.09710817972314 0 336.09710817972314 -52.281484290360822 0 0 0 0 73.522131795787715 11.184756309255363 0 11.184756309255363 -37.738180420428876 0 0 0 0 96.217015095618081 108.88767177867157 0 108.88767177867157 -84.392598053193069 0 0 0 0 -59.122678913234701 37.459066784402154 0 37.459066784402154 -23.939443240625806 0 0 0 0 -292.49981951784048 242.40355282785458 0 242.40355282785458 -1165.3810069150204 0 0 0 0 31.000907617544385 -136.87151147078021 0 -136.87151147078021 -2592.5055712108297 0 0 0 0 -582.71649346632921 -270.19873722436387 0 -270.19873722436387 -1893.0801018227503 0 0 0 0 -1154.9733271692048 246.81627135684539 0 246.81627135684539 -2263.1584697602884 0 0 0 0 -1232.7493271561616 346.08147227610971 0 346.08147227610971 -1545.712188360907 0 0 0 0 -2533.7523874445615 1812.8005817543017 0 1812.8005817543017 -2751.2265085314393 0 0 0 0 -2436.593743488329 -115.23652540615149 0 -115.23652540615149 -1074.4187860018719 0 0 0 0 -395.76058393742846 -244.29607594931178 0 -244.29607594931178 -1512.3148142370046 0 0 0 0 -1190.3106804419995 -897.65410882398646 0 -897.65410882398646 -252.37812350795866 0 0 0 0 -1464.6302217999919 42.796272262239654 0 42.796272262239654 -1807.3095515495734 0 0 0 0 -4.3310668317977274 1.8722949122223724 0 1.8722949122223724 -3.5966231892369933 0 0 0 0 -1175.539818738906 -851.22653536191501 0 -851.22653536191501 -615.18658430221694 0 0 0 0 -1534.7034412155676 -137.39752767735263 0 -137.39752767735263 -262.60549826019997 0 0 0 0 -503.91638705432251 -567.13656283660748 0 -567.13656283660748 -764.32054827989487 0 0 0 0 -3.6807444791542991 5.1998537407710756 0 5.1998537407710756 -11.332337881974695 0 0 0 0 -531.88733909281109 -16.242877850239893 0 -16.242877850239893 -249.94669864542084 0 0 0 0 -562.20406759079924 -642.37078009733887 0 -642.37078009733887 -1021.765796216976 0 0 0 0 -474.8834049058064 -559.06064182699993 0 -559.06064182699993 -1198.6819567559578 0 0 0 0 -804.79643390309161 -467.20151820762294 0 -467.20151820762294 -1197.0126545260136 0 0 0 0 -1100.7617291195265 -71.882195770707767 0 -71.882195770707767 -1713.9715696584462 0 0 0 0 157.41616663578407 178.17342206171816 0 178.17342206171816 -129.64526914185262 0 0 0 0 239.39411777922396 61.756207032340171 0 61.756207032340171 -56.886804605150246 0 0 0 0 171.3062449663812 150.00874670259509 0 150.00874670259509 -92.242351154884091 0 0 0 0 186.17301215296902 380.25220982928295 0 380.25220982928295 -167.90389293036424 0 0 0 0 31.13928325101088 53.638725853614687 0 53.638725853614687 -115.5714424806244 0 0 0 0 199.07370295330475 165.71326371806936 0 165.71326371806936 -185.89166920141724 0 0 0 0 101.72780777332082 163.41927342281269 0 163.41927342281269 -102.52586071327096 0 0 0 0 -22.195740408693382 264.27475559916638 0 264.27475559916638 -320.29358900133229 0 0 0 0 -28.405137098555315 284.77952541238847 0 284.77952541238847 45.520838393538725 0 0 0 0 36.757540266378783 63.721817660676606 0 63.721817660676606 -196.37818077136762 0 0 0 0 111.71475936420211 133.94986343718483 0 133.94986343718483 -83.523687543958658 0 0 0 0 -68.544318840771666 292.92154478657903 0 292.92154478657903 -46.977685423902585 0 0 0 0 -23.004109711371711 202.32816620830272 0 202.32816620830272 -0.82654650788754225 0 0 0 0 -64.789803100926292 275.69869392818146 0 275.69869392818146 -124.73096113890642 0 0 0 0 -47.281414580238561 161.44424698927105 0 161.44424698927105 -109.13755033923371 0 0 0 0 -44.65813275704113 245.25864044908121 0 245.25864044908121 -150.47216637822567 0 0 0 0 -2.3513492580877937 206.4781394710626 0 206.4781394710626 -110.13760525206453 0 0 0 0 101.1779365421653 169.01699237825233 0 169.01699237825233 -133.61853846213126 0 0 0 0 9.3381552565224411 318.69264671683777 0 318.69264671683777 -103.20832237172817 0 0 0 0 -229.23248140925216 339.30590799333186 0 339.30590799333186 -99.564030966044811 0 0 0 0 -513.9071632205023 290.11411738388051 0 290.11411738388051 -27.204593598486099 0 0 0 0 4.0812898963564059 4.4945033792118423 0 4.4945033792118423 10.058523272553202 0 0 0 0 -142.48417274241547 214.47598423097952 0 214.47598423097952 -125.02007756920648 0 0 0 0 1590.0113467365682 625.83930854751179 0 625.83930854751179 -1046.1471335991373 0 0 0 0 2118.7564443304755 -1069.5869557807055 0 -1069.5869557807055 255.12032835035643 0 0 0 0 -136.42387940161098 848.96549479096211 0 848.96549479096211 -95.540081742801704 0 0 0 0 1714.2661568178128 323.36268953487524 0 323.36268953487524 -1750.3096610497596 0 0 0 0 -395.91893534951862 50.915293069495583 0 50.915293069495583 429.90362152183661 0 0 0 0 155.89523853241371 -1252.2740987441503 0 -1252.2740987441503 -95.598757026709791 0 0 0 0 -436.24221151173265 -256.43700348712991 0 -256.43700348712991 -564.36075188610994 0 0 0 0 -677.01296159628328 -1283.4135978472477 0 -1283.4135978472477 -885.14217419152919 0 0 0 0 86.686019341709198 143.02997445351866 0 143.02997445351866 -554.70606075366959 0 0 0 0 -208.82865036954172 -311.70310857346703 0 -311.70310857346703 -641.86122234152572 0 0 0 0 893.50374790701403 134.07061132221861 0 134.07061132221861 -506.5429723039997 0 0 0 0 82.834039795201079 142.47261057281867 0 142.47261057281867 -69.538601858948823 0 0 0 0 55.847414724832561 64.781624191116862 0 64.781624191116862 -235.19611093653293 0 0 0 0 186.77498081180784 175.99794767289131 0 175.99794767289131 -106.85257238989288 0 0 0 0 613.51069241874347 -276.04883590568716 0 -276.04883590568716 -331.80408999379142 0 0 0 0 320.20388760191145 164.04845164232393 0 164.04845164232393 -146.00863882114936 0 0 0 0 191.02108060001956 65.500036882556742 0 65.500036882556742 -129.46129331068369 0 0 0 0 -2.0029648261300146 -5.8041048061736902 0 -5.8041048061736902 -14.483649167233978 0 0 0 0 277.91981309926132 -65.957661672899121 0 -65.957661672899121 -878.70648888795404 0 0 0 0 -583.43342826061871 -964.00588395952218 0 -964.00588395952218 -545.77454461980233 0 0 0 0 -5.6032045948822615 -15.418865788442254 0 -15.418865788442254 -34.881317735494235 0 0 0 0 -176.44567785423624 -68.433199283044814 0 -68.433199283044814 365.55090369764366 0 0 0 0 -155.79183066564485 -293.99309498194407 0 -293.99309498194407 -951.70692010346102 0 0 0 0 0.93646819707968731 7.5691945478879887 0 7.5691945478879887 -21.437763691801337 0 0 0 0 -481.31140499597132 -703.93768154143982 0 -703.93768154143982 -1297.5741331542959 0 0 0 0 -206.74399241317315 -1080.9875186183344 0 -1080.9875186183344 -629.53393527426306 0 0 0 0 542.30594117819055 -2522.4539143350121 0 -2522.4539143350121 -543.61786775966175 0 0 0 0 -281.10892038089059 -859.26996540883556 0 -859.26996540883556 -1526.6368814681919 0 0 0 0 -288.65955069334996 -899.89375285930146 0 -899.89375285930146 -1501.9502856715844 0 0 0 0 0.80996798583155538 6.3111149803466162 0 6.3111149803466162 -17.192342650018276 0 0 0 0 -484.14043804898483 -804.73731908577611 0 -804.73731908577611 -1119.9017649692505 0 0 0 0 -591.69209020557901 -433.92443974100388 0 -433.92443974100388 -284.05305628122187 0 0 0 0 -102.5037649070764 -196.65872365033283 0 -196.65872365033283 -897.38277547871985 0 0 0 0 -380.09221702951345 -488.8777006197306 0 -488.8777006197306 -1681.1753154348335 0 0 0 0 -402.49361204604975 -740.64699589518204 0 -740.64699589518204 -1055.2054673188322 0 0 0 0 -147.14084747127708 -781.09414854220813 0 -781.09414854220813 -1874.584673170888 0 0 0 0 -155.42848994382803 -757.28197373964576 0 -757.28197373964576 -1761.3345427207823 0 0 0 0 -135.94946949616133 -841.68864431783732 0 -841.68864431783732 -1759.4741473618028 0 0 0 0 -204.39475842408137 -792.55990745373492 0 -792.55990745373492 -1681.0599980988918 0 0 0 0 -145.4193051222619 -795.74053026331967 0 -795.74053026331967 -1683.9165718325967 0 0 0 0 -268.26522188867602 -874.09319371834863 0 -874.09319371834863 -1526.6398661722924 0 0 0 0 -206.38394086190601 -756.64090646505065 0 -756.64090646505065 -1407.6255486793816 0 0 0 0 -189.41862121391023 -731.61537107778713 0 -731.61537107778713 -1447.0817461380793 0 0 0 0 -127.48657263979248 -774.07809914601603 0 -774.07809914601603 -1630.8206323877093 0 0 0 0 -110.46692698395782 -713.04837988610961 0 -713.04837988610961 -1554.5861416500993 0 0 0 0 -166.97847378099323 -804.82826031265722 0 -804.82826031265722 -1597.84934240031 0 0 0 0 -126.85997519972443 -820.41098665660684 0 -820.41098665660684 -1721.3796206009283 0 0 0 0 -110.36618860930321 -805.01915841401933 0 -805.01915841401933 -1723.4127711907786 0 0 0 0 -120.60890074907184 -829.10342522481733 0 -829.10342522481733 -1760.3553686722298 0 0 0 0 -168.52957399595834 -825.39057179758674 0 -825.39057179758674 -1731.4447433415844 0 0 0 0 -105.89063995109973 -784.60106970957713 0 -784.60106970957713 -1757.6252525079472 0 0 0 0 -139.56066358853059 -743.7378097572946 0 -743.7378097572946 -1609.1011826768517 0 0 0 0 -122.62838683365771 -769.53863741584064 0 -769.53863741584064 -1634.4774122452945 0 0 0 0 -154.15328139828853 -814.45597674789315 0 -814.45597674789315 -1729.8745930489968 0 0 0 0 -116.50160659440007 -658.25455016334308 0 -658.25455016334308 -1504.2545560581057 0 0 0 0 -263.30382756081417 -786.92101747512788 0 -786.92101747512788 -1733.5474992605741 0 0 0 0 -141.63408909818463 -746.95549409583327 0 -746.95549409583327 -1812.9403007581186 0 0 0 0 -151.86360453341695 -695.43493755131203 0 -695.43493755131203 -1668.0498570269992 0 0 0 0 -232.96958987400103 -842.90491829087841 0 -842.90491829087841 -1797.3644656405959 0 0 0 0 -270.15716810092272 -861.55500108432898 0 -861.55500108432898 -1780.5980915980181 0 0 0 0 -160.9747237675474 -783.12717225673259 0 -783.12717225673259 -1791.1407592972391 0 0 0 0 -187.41766562439443 -880.20155886390421 0 -880.20155886390421 -1822.7366194428178 0 0 0 0 -240.20142769081713 -925.56626445899428 0 -925.56626445899428 -1800.3398180590157 0 0 0 0 -235.68598072521854 -880.49107503139385 0 -880.49107503139385 -1701.487026924995 0 0 0 0 -186.70724608614728 -770.86483356561439 0 -770.86483356561439 -1568.5323708518554 0 0 0 0 -477.98672478870503 -975.42374592663691 0 -975.42374592663691 -1560.8043223520144 0 0 0 0 -919.03004389234411 -908.17356075334828 0 -908.17356075334828 -1258.9362465353879 0 0 0 0 -1426.8015285164756 -1576.4730648595141 0 -1576.4730648595141 -1780.633294693369 0 0 0 0 -1123.6114813459917 -1071.7720160704412 0 -1071.7720160704412 -1387.3330221131328 0 0 0 0 -558.25263808950695 -973.11866369875497 0 -973.11866369875497 -1910.5377488640697 0 0 0 0 -740.50707203212733 -1223.7777947678478 0 -1223.7777947678478 -1894.5434302859067 0 0 0 0 -478.01063822655306 -973.88031051528378 0 -973.88031051528378 -1658.0633949497133 0 0 0 0 -395.45025478478055 -965.7212350674381 0 -965.7212350674381 -1851.4408701099164 0 0 0 0 -382.96572391178779 -997.15638626080181 0 -997.15638626080181 -2011.8935034673777 0 0 0 0 -246.40552017167647 -804.68998937608558 0 -804.68998937608558 -1893.0770556798161 0 0 0 0 -410.1245768460758 -889.04544911174162 0 -889.04544911174162 -1863.4358701527817 0 0 0 0 -243.33443312365489 -761.31320209021214 0 -761.31320209021214 -1899.8994519736298 0 0 0 0 -446.13913079923077 -854.9701973968331 0 -854.9701973968331 -1857.2247145212896 0 0 0 0 -502.29222215773552 -810.63397203345085 0 -810.63397203345085 -1890.9836491554306 0 0 0 0 -616.8346583581415 -1300.817595311577 0 -1300.817595311577 -2384.5765854740457 0 0 0 0 -368.24188329465323 -851.81318189991725 0 -851.81318189991725 -2090.9474984979315 0 0 0 0 -707.04135181766651 -1064.2298960891203 0 -1064.2298960891203 -1918.7751281594683 0 0 0 0 -550.62994415882349 -1086.8467718013562 0 -1086.8467718013562 -2023.1700283708342 0 0 0 0 -432.76511821191889 -1027.803574556965 0 -1027.803574556965 -2341.6789105347125 0 0 0 0 -732.50531439710539 -1086.0039004402206 0 -1086.0039004402206 -2139.6973140434711 0 0 0 0 -456.73011066735307 -1278.8248800988804 0 -1278.8248800988804 -3100.4279376468985 0 0 0 0 -1037.0721295394542 -1978.5255379102164 0 -1978.5255379102164 -2644.9737055079604 0 0 0 0 -121.06166587050757 -311.96552285181906 0 -311.96552285181906 -948.80573802858999 0 0 0 0 -1872.6529019121372 466.59581558563514 0 466.59581558563514 -705.60451420815662 0 0 0 0 -2.12333099250435 3.3877624079676707 0 3.3877624079676707 -11.27286942069702 0 0 0 0 -1874.9283398246753 -1036.1706194245344 0 -1036.1706194245344 -805.76943791646772 0 0 0 0 -1857.3433510060895 -821.20817727105168 0 -821.20817727105168 967.96862939022685 0 0 0 0 -7.3177476184830255 -7.5019266882977007 0 -7.5019266882977007 -5.1104455001122915 0 0 0 0 29.475248547590809 -577.42444195525513 0 -577.42444195525513 -1907.0803666411375 0 0 0 0 -151.21334501300055 99.110894051795185 0 99.110894051795185 -232.7267152867862 0 0 0 0 -1355.3814426994795 -1220.0340704337759 0 -1220.0340704337759 -1249.6782734107401 0 0 0 0 -1771.4121571990108 -705.59339087123226 0 -705.59339087123226 -619.77106441264186 0 0 0 0 -1180.0042458732514 -269.26101398203537 0 -269.26101398203537 -1112.2398189672094 0 0 0 0 -374.12480210277135 -713.58580152155628 0 -713.58580152155628 -1124.6138847042894 0 0 0 0 -554.50275400065766 -694.08829301424703 0 -694.08829301424703 -1482.8693212100152 0 0 0 0 -811.40106990293407 -447.23310548637528 0 -447.23310548637528 -1278.6321253840142 0 0 0 0 -1262.3918162648642 -982.83735102349601 0 -982.83735102349601 -1418.7932187014467 0 0 0 0 -1244.1414425593357 -71.462912190530915 0 -71.462912190530915 -1969.1257837573503 0 0 0 0 -1371.423633608586 195.88870687080816 0 195.88870687080816 -2063.5734330777632 0 0 0 0 -2027.6203817166706 -197.78406174792508 0 -197.78406174792508 -552.22182841297763 0 0 0 0 -445.71676314925571 -1037.0011922168414 0 -1037.0011922168414 -2324.0230896935791 0 0 0 0 -256.9671390490239 -864.08136904634739 0 -864.08136904634739 -1778.3197172928703 0 0 0 0 -311.8295168706909 -767.09391200617029 0 -767.09391200617029 -1780.2893207143352 0 0 0 0 -600.70342112298022 -1024.4821008623112 0 -1024.4821008623112 -1607.4794907227624 0 0 0 0 -731.51138813844909 -676.82740804579225 0 -676.82740804579225 -1165.886419252638 0 0 0 0 -551.70863014991119 -575.69221062299039 0 -575.69221062299039 -1136.7820766372242 0 0 0 0 -616.3860237998415 -745.48972066128044 0 -745.48972066128044 -1135.5837564824906 0 0 0 0 -329.93501272717913 -765.20099761665915 0 -765.20099761665915 -1387.3731086136395 0 0 0 0 -347.80118779642544 -786.58115288703993 0 -786.58115288703993 -1359.7146769664832 0 0 0 0 -1078.3511028687226 -1227.8799689638763 0 -1227.8799689638763 -3642.6778949290674 0 0 0 0 -1052.1752480546493 -989.19242641871824 0 -989.19242641871824 -1466.6321386740892 0 0 0 0 -525.994892985158 50.894473416115943 0 50.894473416115943 21.733065982858534 0 0 0 0 -0.79059967656314711 2.7748214920352439 0 2.7748214920352439 -13.718708733881499 0 0 0 0 -15.610041016671815 6.3081037163077269 0 6.3081037163077269 -1.7011187170515143 0 0 0 0 -136.29099141253027 942.02546382838773 0 942.02546382838773 -2648.5868653029938 0 0 0 0 -1354.0693362474121 -429.94178766438927 0 -429.94178766438927 -1277.3141533173984 0 0 0 0 -1020.5385321535032 1421.4954717638902 0 1421.4954717638902 -2181.8158863531753 0 0 0 0 -325.61978685390932 859.15548109286465 0 859.15548109286465 -20.650706848668051 0 0 0 0 797.63371035978162 -914.90094859749115 0 -914.90094859749115 -484.01768361515133 0 0 0 0 184.74595723966922 27.935560832236661 0 27.935560832236661 -489.02130001087789 0 0 0 0 -959.58714916484951 -468.75671908048787 0 -468.75671908048787 -608.39751462565619 0 0 0 0 -535.40178405848565 1190.9657696248687 0 1190.9657696248687 -1746.5289291631889 0 0 0 0 -33.350518606413971 145.19024878587879 0 145.19024878587879 16.112613443670853 0 0 0 0 475.92857923211795 -264.26804000933589 0 -264.26804000933589 342.36077682618634 0 0 0 0 736.01959824438018 -321.49275300116278 0 -321.49275300116278 -758.04827400389513 0 0 0 0 808.75307778886781 108.04666597371397 0 108.04666597371397 -716.5058506426667 0 0 0 0 753.10268829219422 77.922499711006822 0 77.922499711006822 -324.23997595743276 0 0 0 0 943.78590775303928 190.18757097888738 0 190.18757097888738 -388.59184664760323 0 0 0 0 -186.95653390773805 -17.444153350224951 0 -17.444153350224951 74.157101913282531 0 0 0 0 -8.8573775184868282 38.008661577385283 0 38.008661577385283 -22.042468679966987 0 0 0 0 9.3731590903685671 1.0469033699014716 0 1.0469033699014716 -7.6063492911481205 0 0 0 0 -23.502230980627935 33.645191562401344 0 33.645191562401344 -39.195540012650326 0 0 0 0 837.24184657148362 299.07513434550492 0 299.07513434550492 -156.07659559507738 0 0 0 0 50.942693633844101 -90.050341990732704 0 -90.050341990732704 -485.58760417142184 0 0 0 0 679.86052875204905 200.54272748633593 0 200.54272748633593 -1.2326400432793889 0 0 0 0 817.38214336653073 134.53595456645417 0 134.53595456645417 -276.88403750112047 0 0 0 0 525.07703311221849 -85.504789400336449 0 -85.504789400336449 -198.00172189403384 0 0 0 0 366.46502639372193 24.837460267401184 0 24.837460267401184 38.240409933314368 0 0 0 0 635.90596430259211 90.975110452392983 0 90.975110452392983 52.553492103295866 0 0 0 0 -15.406723751276584 15.538373444352032 0 15.538373444352032 -14.752245016063824 0 0 0 0 -12.021762059917819 16.915516526514693 0 16.915516526514693 -41.149120162408508 0 0 0 0 9.3259105094654302 -1.9911344200928482 0 -1.9911344200928482 -31.716068463233313 0 0 0 0 447.86030713044602 -693.46797153021907 0 -693.46797153021907 986.90744884707965 0 0 0 0 256.92429027517755 -1070.2075762658278 0 -1070.2075762658278 569.72264251566958 0 0 0 0 -8.3891741872644765 -11.933652470757622 0 -11.933652470757622 -15.788604337910868 0 0 0 0 1.7196274574917467 0.31605737360081321 0 0.31605737360081321 -5.3750358532955289 0 0 0 0 19.022207049392364 -533.36935181262015 0 -533.36935181262015 -34.473127012868645 0 0 0 0 408.66949517742069 -89.6678653411509 0 -89.6678653411509 367.41587083433114 0 0 0 0 713.17101506354084 -217.92349439275131 0 -217.92349439275131 -233.38914730685065 0 0 0 0 -51.36253178512743 -867.09786991523288 0 -867.09786991523288 374.86969209741801 0 0 0 0 821.89829976262263 -367.32925010214967 0 -367.32925010214967 -207.76150648338444 0 0 0 0 -133.09610887919553 64.396709889122576 0 64.396709889122576 -95.342807117140751 0 0 0 0 72.988629806126482 177.61374020757739 0 177.61374020757739 76.0444516084317 0 0 0 0 -53.083495512830268 -176.42859834226601 0 -176.42859834226601 -106.53618866992474 0 0 0 0 -64.838107799805584 -126.14114729135326 0 -126.14114729135326 -236.80829007206921 0 0 0 0 185.30684193658817 5.5627874488782254 0 5.5627874488782254 -214.4460966888455 0 0 0 0 -65.45927589116036 16.25128872652931 0 16.25128872652931 -96.91373311663483 0 0 0 0 13.319023613962429 -6.5701515402986814 0 -6.5701515402986814 -10.630010211313149 0 0 0 0 138.76138963724952 79.831555383192608 0 79.831555383192608 -219.70204321395431 0 0 0 0 58.687052988606105 12.143391729974113 0 12.143391729974113 -45.830827576094009 0 0 0 0 55.318762193030125 -21.114238740790825 0 -21.114238740790825 18.31331858192425 0 0 0 0 12.64576936915546 -31.997996702019009 0 -31.997996702019009 21.219051804982882 0 0 0 0 3.2694323129655913 -106.13974409582625 0 -106.13974409582625 -331.60505352525797 0 0 0 0 -2.5211114070499718 29.522461969718606 0 29.522461969718606 -40.869466782330448 0 0 0 0 27.364122590930492 -11.457997259778494 0 -11.457997259778494 -96.441444490163121 0 0 0 0 -12.667729495999083 48.574537051419611 0 48.574537051419611 -48.070697077753721 0 0 0 0 -15.951685647003615 21.051553520541347 0 21.051553520541347 -28.858748973332695 0 0 0 0 -12.934574471658902 27.203392520606648 0 27.203392520606648 -39.151630717930729 0 0 0 0 384.47547120978561 384.72153129137223 0 384.72153129137223 -26.019968368613263 0 0 0 0 -32.118610278980611 37.52473496780641 0 37.52473496780641 -32.2376083184677 0 0 0 0 604.19502027968701 -700.6059626473143 0 -700.6059626473143 -723.88193992883316 0 0 0 0 761.10255263412546 49.41168872686103 0 49.41168872686103 -418.93866591026017 0 0 0 0 -139.36637903101928 253.46130142199672 0 253.46130142199672 93.953299134998815 0 0 0 0 -152.1777055936036 207.67189871155642 0 207.67189871155642 -69.519648795127068 0 0 0 0 60.496320493609801 431.71562580160935 0 431.71562580160935 -98.655233675672207 0 0 0 0 -28.294423019475289 26.243481802597621 0 26.243481802597621 -23.096760429125979 0 0 0 0 -25.596681992724118 26.779976125205792 0 26.779976125205792 -24.182304022959343 0 0 0 0 -19.412680480061681 30.467099353933008 0 30.467099353933008 -17.223769500589697 0 0 0 0 34.114882280476195 54.057079653230176 0 54.057079653230176 -486.78230569863808 0 0 0 0 -243.26105887914582 199.79534378062817 0 199.79534378062817 262.51536654994561 0 0 0 0 -362.45205458136161 -207.72483873326928 0 -207.72483873326928 -587.15349924692418 0 0 0 0 -180.7617559360192 1.9328933136712294 0 1.9328933136712294 -991.0654918285145 0 0 0 0 -107.84000497045781 -12.194668334253947 0 -12.194668334253947 -335.47480371512938 0 0 0 0 -455.2487368139964 -240.40827920621086 0 -240.40827920621086 -428.85820258344756 0 0 0 0 -719.33553906457928 204.11433204720379 0 204.11433204720379 -201.87809279859357 0 0 0 0 -403.08932706993983 452.06821055294859 0 452.06821055294859 -399.93815555368201 0 0 0 0 -279.18036600591222 168.92507216354716 0 168.92507216354716 -212.46348734483763 0 0 0 0 58.116034752947598 -61.155105006957456 0 -61.155105006957456 -181.66151661684853 0 0 0 0 -159.92670664624893 -291.99678381715785 0 -291.99678381715785 47.110314531033509 0 0 0 0 -193.86963321639178 -99.829114306645351 0 -99.829114306645351 -176.10511021343609 0 0 0 0 -121.2996972875635 -202.73650174063368 0 -202.73650174063368 -166.19678650217247 0 0 0 0 -135.12948350621082 163.13426348017674 0 163.13426348017674 283.96308358835086 0 0 0 0 -316.30817708226141 -183.31831602321472 0 -183.31831602321472 -801.42651297434168 0 0 0 0 17.092911774911499 -124.1419197522373 0 -124.1419197522373 -849.35034937050659 0 0 0 0 -12.585764522487807 -109.72277221672266 0 -109.72277221672266 -988.81481517487555 0 0 0 0 -365.93142575421689 -638.79822356237128 0 -638.79822356237128 -1166.3437955457994 0 0 0 0 -407.5985858306035 -531.29764353254723 0 -531.29764353254723 -1792.1116310871075 0 0 0 0 -451.92109433635778 -317.11789067052086 0 -317.11789067052086 -1484.1200854001654 0 0 0 0 -515.32473047530902 -423.80216278813532 0 -423.80216278813532 -1252.9278311074086 0 0 0 0 -121.95815701252195 -255.50925264785474 0 -255.50925264785474 -1220.4338734595585 0 0 0 0 -464.47530887656922 -139.70672099864896 0 -139.70672099864896 -1061.6144287872376 0 0 0 0 -457.05354806391165 -92.413227231296332 0 -92.413227231296332 -760.72614335853723 0 0 0 0 -272.09494530214215 -251.17645322597673 0 -251.17645322597673 -1019.5626168271447 0 0 0 0 -464.95508701744802 -182.81766356487424 0 -182.81766356487424 -1043.3284276724298 0 0 0 0 -407.42977695720333 -252.18520747050388 0 -252.18520747050388 -1355.6459312554216 0 0 0 0 -432.98270837955488 -140.9194574809917 0 -140.9194574809917 -1064.7483579762775 0 0 0 0 -284.44148944100107 -354.93128522282859 0 -354.93128522282859 -1540.2679179569022 0 0 0 0 -575.15701654535178 -449.19574126329826 0 -449.19574126329826 -1467.553563830952 0 0 0 0 -459.37222873072096 -326.03158162741965 0 -326.03158162741965 -1693.1147360889154 0 0 0 0 -545.70264281746131 -590.36106241651578 0 -590.36106241651578 -1921.0789100878173 0 0 0 0 -407.83598250915293 -300.86965904031968 0 -300.86965904031968 -1572.9615660300769 0 0 0 0 -597.54177856985461 -371.64621887252724 0 -371.64621887252724 -1364.1279461916197 0 0 0 0 -660.62303157103815 -366.25675106371818 0 -366.25675106371818 -1550.8399325513019 0 0 0 0 -473.21493585097323 -373.72322562906629 0 -373.72322562906629 -1820.0907218662433 0 0 0 0 -668.34156782517516 -810.96643674406369 0 -810.96643674406369 -2377.1657592987467 0 0 0 0 -849.03710469162093 -372.84487761351375 0 -372.84487761351375 -1797.2862991582369 0 0 0 0 -528.81545146704502 -532.85640960533055 0 -532.85640960533055 -1964.9219913302077 0 0 0 0 -411.59571506401812 -617.20607023082994 0 -617.20607023082994 -2833.0107403858347 0 0 0 0 -543.05068575716405 -478.32312133034247 0 -478.32312133034247 -2042.9287376074499 0 0 0 0 -430.61259345222243 -641.80680650423528 0 -641.80680650423528 -2367.4962328224683 0 0 0 0 -99.889193278771927 -565.40464125993458 0 -565.40464125993458 -2584.0396627371665 0 0 0 0 -582.67715886393273 -329.11813378673844 0 -329.11813378673844 -1931.1107363270712 0 0 0 0 -387.81200023986935 -508.80085401454744 0 -508.80085401454744 -2038.421338534652 0 0 0 0 34.732938932877914 -91.933575807554007 0 -91.933575807554007 -1457.039409969133 0 0 0 0 -108.51882997873213 -76.931264542622557 0 -76.931264542622557 -1257.9002211582556 0 0 0 0 -24.307386396758375 -64.275064502158784 0 -64.275064502158784 -1285.8237099068883 0 0 0 0 47.815514106639057 -58.566405519713953 0 -58.566405519713953 -1452.2112339337327 0 0 0 0 13.39873688238913 -95.370889777079356 0 -95.370889777079356 -1484.4886008281392 0 0 0 0 55.203202928089922 -104.498239703531 0 -104.498239703531 -1483.3975648775377 0 0 0 0 20.875647619750453 -78.551967180486827 0 -78.551967180486827 -1578.8505806111561 0 0 0 0 -43.282392148563304 -162.18337744104429 0 -162.18337744104429 -1523.0075969670288 0 0 0 0 -49.689566520608423 -132.68878544808103 0 -132.68878544808103 -1612.8931644708937 0 0 0 0 -108.70925342772171 -112.0462060767386 0 -112.0462060767386 -1444.6056411891332 0 0 0 0 -115.33640105085396 -79.118344989514299 0 -79.118344989514299 -1521.1514096311003 0 0 0 0 -309.84748353375471 -194.03094084221084 0 -194.03094084221084 -1597.3589357109886 0 0 0 0 -152.59276204256571 -231.80787325399251 0 -231.80787325399251 -1633.4327270100621 0 0 0 0 -365.30056889229991 -402.4942586772404 0 -402.4942586772404 -1818.248403219899 0 0 0 0 -676.37003394299472 -629.2779286262994 0 -629.2779286262994 -2212.447226161712 0 0 0 0 -336.62564019946149 -128.65038077942882 0 -128.65038077942882 -1659.7551697100425 0 0 0 0 -553.20204695230314 -309.13057810119972 0 -309.13057810119972 -1514.3437368916202 0 0 0 0 -333.94470226410522 -177.71047894421281 0 -177.71047894421281 -1248.529311848848 0 0 0 0 -286.57493104318928 -167.33907095408358 0 -167.33907095408358 -1502.06750564099 0 0 0 0 -481.74343364016659 -264.69746483324707 0 -264.69746483324707 -1306.0006170212728 0 0 0 0 -196.71546192802998 -85.736225561748142 0 -85.736225561748142 -1480.7008753229748 0 0 0 0 -271.33829296346084 -243.27272960258415 0 -243.27272960258415 -1473.1881344279536 0 0 0 0 -133.49790915688573 -143.83556272054557 0 -143.83556272054557 -1464.2474415643965 0 0 0 0 -88.556211073935174 -151.00627642714699 0 -151.00627642714699 -1444.1786277519714 0 0 0 0 -166.46252063418615 -57.56432921900705 0 -57.56432921900705 -1262.6213819594341 0 0 0 0 -66.870233873589314 -137.060004885745 0 -137.060004885745 -1219.3029575011933 0 0 0 0 -179.24460881649475 -177.380405316826 0 -177.380405316826 -992.67902457568562 0 0 0 0 -99.531341172927114 4.5635829814818862 0 4.5635829814818862 -1040.2446640423441 0 0 0 0 -22.155418559294048 -67.07763789188175 0 -67.07763789188175 -1001.4335556146689 0 0 0 0 -279.95598932720713 -180.64529215465882 0 -180.64529215465882 -1314.6293370896974 0 0 0 0 -161.34331064986418 -85.535829909102176 0 -85.535829909102176 -1249.4440624953163 0 0 0 0 -324.43591565183306 -209.14140303460954 0 -209.14140303460954 -1052.4814133796899 0 0 0 0 -235.27302953829167 -112.30111811421739 0 -112.30111811421739 -743.0685743396607 0 0 0 0 158.08400323437127 88.086890424820012 0 88.086890424820012 -725.00348632148143 0 0 0 0 -287.66270345970315 -242.3558364999335 0 -242.3558364999335 -634.25001171298209 0 0 0 0 -189.86786206842498 -44.227066044702951 0 -44.227066044702951 -1000.3820882795426 0 0 0 0 44.047014422149005 55.063592689220968 0 55.063592689220968 -572.06594698719709 0 0 0 0 -143.25877102663253 21.273368577574729 0 21.273368577574729 -575.4723472617552 0 0 0 0 -12.835046181129655 81.113513252676057 0 81.113513252676057 -770.93496390177461 0 0 0 0 21.358982966337862 -86.542115494907193 0 -86.542115494907193 -993.28398213699586 0 0 0 0 -177.55272262239123 89.954287789638329 0 89.954287789638329 -321.99014106171489 0 0 0 0 -42.015634857532859 2.2005889061365451 0 2.2005889061365451 -893.63268002036784 0 0 0 0 -73.710118604443778 -86.3116147408291 0 -86.3116147408291 -529.80626528686844 0 0 0 0 -99.08745871053361 -59.90014281807089 0 -59.90014281807089 -728.04388893883879 0 0 0 0 -35.633242779162174 -128.38451335697391 0 -128.38451335697391 -968.28642567346105 0 0 0 0 -16.48289806656976 -7.1421756462514168 0 -7.1421756462514168 -1252.5871748779032 0 0 0 0 1.3902601936533756 -57.497853518834745 0 -57.497853518834745 -1147.9000157947739 0 0 0 0 5.7197905830112177 -22.490293030220528 0 -22.490293030220528 -1106.7886912522517 0 0 0 0 27.651191593462499 -128.06897486532398 0 -128.06897486532398 -1260.66565532807 0 0 0 0 7.9377205672644777 -138.54263871527655 0 -138.54263871527655 -963.62007397403067 0 0 0 0 -37.999080820558447 -48.80036617157748 0 -48.80036617157748 -927.52142483445641 0 0 0 0 -38.307578628845476 -142.44069262879384 0 -142.44069262879384 -1092.778328232147 0 0 0 0 21.574251908494261 -164.6668912918467 0 -164.6668912918467 -860.802554594291 0 0 0 0 -129.77185401130191 -212.81843603908055 0 -212.81843603908055 -392.87504868477117 0 0 0 0 -1.6202524071723019 -248.53001921971736 0 -248.53001921971736 -595.71947122292477 0 0 0 0 -22.408466813594714 -52.481301023421111 0 -52.481301023421111 -883.41059159212455 0 0 0 0 -3.1077558117519857 78.145849136153174 0 78.145849136153174 -11.761466174313682 0 0 0 0 198.79249262921803 -141.44917064186302 0 -141.44917064186302 -341.72170433190331 0 0 0 0 -20.55914801867759 13.002955025607033 0 13.002955025607033 -3.6733556355008261 0 0 0 0 8.4783065904510124 6.5027562562457888 0 6.5027562562457888 -4.1665688302088952 0 0 0 0 20.430063649568183 -188.9004435181705 0 -188.9004435181705 67.279931893073808 0 0 0 0 -56.420249851354427 42.078182685654532 0 42.078182685654532 -25.39150381169047 0 0 0 0 -9.2537695214959967 140.22450586050854 0 140.22450586050854 -50.735510032191087 0 0 0 0 -8.1305218427823576 16.578457878618309 0 16.578457878618309 -18.100548559343927 0 0 0 0 -11.23641377066815 157.01286696267834 0 157.01286696267834 326.69052995254242 0 0 0 0 27.188933031720808 100.03625958815246 0 100.03625958815246 302.27630223004508 0 0 0 0 -21.302157596265843 13.566397096088572 0 13.566397096088572 -4.157712984047663 0 0 0 0 901.77882601655438 241.273300006309 0 241.273300006309 -98.283809149019362 0 0 0 0 24.527220727972235 103.32670829992276 0 103.32670829992276 365.30699741708668 0 0 0 0 7.254543538656435 230.12274272632931 0 230.12274272632931 325.1417376190193 0 0 0 0 2.3142281886612182 99.554216742148128 0 99.554216742148128 418.84785834606737 0 0 0 0 -3.5435586740977492 -0.73111212119020763 0 -0.73111212119020763 -0.69194512092744986 0 0 0 0 -117.44170730039514 371.78524993281462 0 371.78524993281462 -665.67043640052725 0 0 0 0 -402.05347806475947 398.19757414002015 0 398.19757414002015 253.44012474929332 0 0 0 0 -265.24781023096148 114.08141520743084 0 114.08141520743084 13.631208721017174 0 0 0 0 -27.840091353389653 61.696776304430387 0 61.696776304430387 -395.23431583048659 0 0 0 0 -161.33673026766155 -77.84602712299602 0 -77.84602712299602 -163.52813670134492 0 0 0 0 -245.81040556453809 359.55722685087676 0 359.55722685087676 643.81166620217118 0 0 0 0 -42.470006043443732 152.22173232733849 0 152.22173232733849 -104.45122846384038 0 0 0 0 -66.056370609209978 49.417399189911379 0 49.417399189911379 -29.065288017134705 0 0 0 0 -14.320585324082037 11.994457385855668 0 11.994457385855668 -19.141547426135745 0 0 0 0 -12.864803819726859 4.5064571146982679 0 4.5064571146982679 -0.74451846618794093 0 0 0 0 -4027.0108604522247 -691.80316032478004 0 -691.80316032478004 532.81480963486683 0 0 0 0 -1576.3176802893431 493.36735622142442 0 493.36735622142442 720.57230082292517 0 0 0 0 874.45115732363752 -283.18243378440741 0 -283.18243378440741 -794.69155447212688 0 0 0 0 1047.7079628554493 -142.76429574390568 0 -142.76429574390568 -1236.7323938248592 0 0 0 0 -327.94194589598919 523.11473278651829 0 523.11473278651829 252.84995082353998 0 0 0 0 -66.731848681452249 54.541873226856026 0 54.541873226856026 -32.781537956038235 0 0 0 0 -19.625849938341915 11.358908020194544 0 11.358908020194544 -7.129869838514594 0 0 0 0 -1107.2757800035324 285.90162396023516 0 285.90162396023516 464.02721816971462 0 0 0 0 -1409.1980386690866 422.55733053341646 0 422.55733053341646 19.801985752521432 0 0 0 0 -1198.6543150039797 -806.56552984828522 0 -806.56552984828522 4.4610776560148224 0 0 0 0 -430.43753606537939 -134.33597010131052 0 -134.33597010131052 -75.639410000600037 0 0 0 0 -23.993691361669335 -1111.6316814921192 0 -1111.6316814921192 -505.88771631948475 0 0 0 0 -636.90963583564007 650.11837167960402 0 650.11837167960402 -275.46869576427707 0 0 0 0 -258.12412335239787 560.00862087053247 0 560.00862087053247 -316.57148161079022 0 0 0 0 -76.106409209853155 385.30455403957239 0 385.30455403957239 -267.6669557578789 0 0 0 0 207.18381986147506 135.23625548928794 0 135.23625548928794 -179.81968993878399 0 0 0 0 -63.740736867908709 404.64568926251377 0 404.64568926251377 -89.511012982860848 0 0 0 0 -115.62650405883323 349.63606804928713 0 349.63606804928713 -124.55337308364687 0 0 0 0 -74.392465063167037 414.16593648996968 0 414.16593648996968 -135.90445945085094 0 0 0 0 -46.883449917833786 135.93724056044084 0 135.93724056044084 -70.848363347771738 0 0 0 0 -605.36885614671337 178.87855512072929 0 178.87855512072929 64.95071133476813 0 0 0 0 -374.60970904600981 163.86593090093083 0 163.86593090093083 -14.530478626784316 0 0 0 0 -276.3751395586296 -91.145807755034184 0 -91.145807755034184 -79.859961221918638 0 0 0 0 59.213238081243617 206.86507450266436 0 206.86507450266436 219.39684706450498 0 0 0 0 45.001258050615434 323.11287310812622 0 323.11287310812622 179.96598252336753 0 0 0 0 15.352018303608929 315.86278661808137 0 315.86278661808137 43.402544199478143 0 0 0 0 49.7139889056416 175.40512458006742 0 175.40512458006742 51.001384057548421 0 0 0 0 81.074648639285442 342.77842654765755 0 342.77842654765755 -153.31774540007245 0 0 0 0 -63.406136969118961 336.24710015843266 0 336.24710015843266 -123.85982092174709 0 0 0 0 63.828275815189045 262.97292323350666 0 262.97292323350666 -45.437616365154099 0 0 0 0 69.717746247515606 369.80805995047922 0 369.80805995047922 -146.06396747819781 0 0 0 0 -4.8353547808183066 306.44342853244689 0 306.44342853244689 -184.93029129197748 0 0 0 0 38.247225763623646 315.58431839109335 0 315.58431839109335 -366.91826919869709 0 0 0 0 3.339107829859131 338.53979084620642 0 338.53979084620642 -137.55245035007101 0 0 0 0 32.141541956181754 298.79475821375127 0 298.79475821375127 -367.05984174397389 0 0 0 0 48.005979423298413 311.44187098141811 0 311.44187098141811 -458.25024472362702 0 0 0 0 33.083903459550129 399.49297514500313 0 399.49297514500313 -151.24498048292298 0 0 0 0 -145.79144242429993 396.10297810440761 0 396.10297810440761 -69.783812366978964 0 0 0 0 -109.74793976260844 150.73159220192247 0 150.73159220192247 17.943736130502657 0 0 0 0 -32.719671696835576 208.08908664269347 0 208.08908664269347 -413.1884716623772 0 0 0 0 17.706646518161961 415.46610951295224 0 415.46610951295224 -821.28321297222283 0 0 0 0 18.025253762554414 7.2074765206016593 0 7.2074765206016593 3.133622083835558 0 0 0 0 -59.176345244772165 155.96623595185224 0 155.96623595185224 -590.63343455419999 0 0 0 0 -179.59759002068313 317.21905761331254 0 317.21905761331254 -362.28122282581899 0 0 0 0 6.5500707739758752 3.2205083733341766 0 3.2205083733341766 -0.14531422625199752 0 0 0 0 -192.16153084271082 291.14057806347955 0 291.14057806347955 -390.64999530608475 0 0 0 0 -118.69500028187576 422.60883365597692 0 422.60883365597692 -688.88453296583066 0 0 0 0 39.668596726758551 347.3559062155573 0 347.3559062155573 -562.83807874176091 0 0 0 0 -79.634755028611835 342.89952218207418 0 342.89952218207418 -562.54810102006923 0 0 0 0 258.32375539863642 309.83424360354547 0 309.83424360354547 -754.3833934979566 0 0 0 0 221.48830399942017 503.48707971661884 0 503.48707971661884 -535.56290965302469 0 0 0 0 -195.22578108879679 397.31904972545271 0 397.31904972545271 -332.64875431429937 0 0 0 0 -366.54004885877657 -10.395391962625581 0 -10.395391962625581 -552.79250619784307 0 0 0 0 -183.57056346666832 -104.01224944150727 0 -104.01224944150727 -1185.1984670214588 0 0 0 0 -145.90501582600075 275.85656771307617 0 275.85656771307617 -1112.9173843057324 0 0 0 0 -153.00743751638765 95.896759354711463 0 95.896759354711463 -839.7904846441379 0 0 0 0 -5.7045808278287637 0.88080756005356875 0 0.88080756005356875 -1.849087351186661 0 0 0 0 -10.927159607927024 -17.900960943865357 0 -17.900960943865357 -760.26068797167864 0 0 0 0 390.1727225203922 219.70559589148979 0 219.70559589148979 -1630.9583411795757 0 0 0 0 -57.278472660349507 387.48619434216198 0 387.48619434216198 -416.57958042754399 0 0 0 0 -108.93313606909214 302.24826411903268 0 302.24826411903268 -524.71223668502171 0 0 0 0 -216.33641615964734 297.08684868466298 0 297.08684868466298 -388.38719526644218 0 0 0 0 -238.48897336703521 301.06420982481541 0 301.06420982481541 -342.6108602250024 0 0 0 0 -149.09567555278045 12.952429368266166 0 12.952429368266166 -253.25779150367816 0 0 0 0 -18.840127167109969 4.16765084963248 0 4.16765084963248 -2.7049487021373615 0 0 0 0 -109.03402924210786 103.61941451966868 0 103.61941451966868 -722.22988380161041 0 0 0 0 188.46876123441325 -244.19955105253575 0 -244.19955105253575 -994.98744796511801 0 0 0 0 -86.716847006038734 -131.51886431920866 0 -131.51886431920866 -911.50565455436845 0 0 0 0 180.01468415305499 -36.501498820248798 0 -36.501498820248798 -892.00507922370161 0 0 0 0 206.1814703415057 -37.534593449919157 0 -37.534593449919157 -1325.1908373056685 0 0 0 0 95.755546967706323 -21.648620520243639 0 -21.648620520243639 -884.95515998778137 0 0 0 0 -928.65779100116197 1270.7690728622979 0 1270.7690728622979 -1266.6906246208455 0 0 0 0 1207.174498213999 673.56430643482008 0 673.56430643482008 -2629.1488920468037 0 0 0 0 577.97686385415727 -304.38104045721411 0 -304.38104045721411 -1133.7896991148664 0 0 0 0 -73.220627933871583 478.1198412097965 0 478.1198412097965 -1084.6314249880934 0 0 0 0 -257.29497459770937 75.325505603854253 0 75.325505603854253 -159.71043012348855 0 0 0 0 -271.67454703634212 356.26784800824043 0 356.26784800824043 -428.85138632122107 0 0 0 0 -5.0310686499979056 153.89180068943097 0 153.89180068943097 -553.61383180919074 0 0 0 0 11.316047067710315 -63.890446922677256 0 -63.890446922677256 -252.99554492374409 0 0 0 0 -10.621038446814055 176.30925956288229 0 176.30925956288229 -638.20192183193831 0 0 0 0 59.40238948717888 46.670037655328088 0 46.670037655328088 -603.61885461280713 0 0 0 0 -43.600362643460002 65.876465182914842 0 65.876465182914842 -55.415633436622173 0 0 0 0 -88.415729843225563 36.926419944404188 0 36.926419944404188 -243.85361913873021 0 0 0 0 15.432264440314611 77.078122502927727 0 77.078122502927727 92.41178376103926 0 0 0 0 -40.394101137942883 60.015859648849911 0 60.015859648849911 -62.201536408177567 0 0 0 0 64.984399971619951 -173.97552292087141 0 -173.97552292087141 -815.24254074243072 0 0 0 0 67.670685128277 -221.91668272008644 0 -221.91668272008644 -808.02022162481444 0 0 0 0 -16.984982920580478 -36.993360337108243 0 -36.993360337108243 -972.10737029465963 0 0 0 0 -12.010044286827906 -140.71483029503361 0 -140.71483029503361 -691.90433582965125 0 0 0 0 -25.928792536025867 -261.97975634310933 0 -261.97975634310933 -602.14741896418855 0 0 0 0 -68.80779742688901 -37.743885281710391 0 -37.743885281710391 -643.13313228919014 0 0 0 0 -18.523530128491984 15.142294361510722 0 15.142294361510722 -996.68770540100013 0 0 0 0 -51.785815846451442 30.049741621582143 0 30.049741621582143 -906.8056577462703 0 0 0 0 -186.00901715616055 72.547716174789457 0 72.547716174789457 -951.50712724131336 0 0 0 0 74.912034936023701 -51.710963443883884 0 -51.710963443883884 -875.39266920583032 0 0 0 0 29.456863117324247 28.055757993730367 0 28.055757993730367 -596.6020127595275 0 0 0 0 -198.80285587748767 917.0805097552452 0 917.0805097552452 -604.76256403428488 0 0 0 0 90.963110792497901 -322.68517133076148 0 -322.68517133076148 -904.59205706039575 0 0 0 0 -336.58977409392173 -187.41752212359643 0 -187.41752212359643 -706.08399401202405 0 0 0 0 -27.262395307388942 -367.48078548832564 0 -367.48078548832564 -772.25730045922501 0 0 0 0 -157.05406370081073 157.57365891580957 0 157.57365891580957 -1480.5802286939906 0 0 0 0 74.423365789720265 -303.21420044975821 0 -303.21420044975821 -884.78866676567304 0 0 0 0 84.574233020852262 -355.86718271037535 0 -355.86718271037535 -932.35758827577865 0 0 0 0 28.164292924178881 -807.80489375415527 0 -807.80489375415527 -2161.2665536859822 0 0 0 0 -1153.2752720072131 465.39492902404891 0 465.39492902404891 925.01791889851302 0 0 0 0 -1267.1858809083133 684.81755737798994 0 684.81755737798994 946.56672382638135 0 0 0 0 934.21613706032076 -1489.3701210786221 0 -1489.3701210786221 -720.0603799915134 0 0 0 0 -441.07160287131774 -715.22106844467271 0 -715.22106844467271 -777.10428630474053 0 0 0 0 -2.8749145233565159 -6.2724946821326739 0 -6.2724946821326739 -27.822918747565964 0 0 0 0 -949.66826928348746 1014.4428297781087 0 1014.4428297781087 1840.5573315619768 0 0 0 0 -2396.1866016249842 -175.55810665697936 0 -175.55810665697936 -239.55956578870973 0 0 0 0 2.3496115470302996 -1.0512202502907826 0 -1.0512202502907826 -11.740560320230756 0 0 0 0 845.77845124923624 -867.70996159196147 0 -867.70996159196147 -4377.3406523942576 0 0 0 0 -1164.985500681425 -1156.0584362090576 0 -1156.0584362090576 -337.90667909292824 0 0 0 0 -9.7800650648750036 6.7758954202377986 0 6.7758954202377986 -3.6912089429532564 0 0 0 0 228.93073662358074 25.454721301701284 0 25.454721301701284 -638.06601949004107 0 0 0 0 302.97974332018566 450.87519968422748 0 450.87519968422748 -1294.5456288023415 0 0 0 0 738.44518803859683 431.09112125471802 0 431.09112125471802 -2618.7924902198665 0 0 0 0 -332.11771790553757 -228.40470289049063 0 -228.40470289049063 72.009280001097068 0 0 0 0 362.24238943652745 153.68924072242953 0 153.68924072242953 78.338176603973125 0 0 0 0 -28.532239562096947 269.38440164090935 0 269.38440164090935 455.98539434940176 0 0 0 0 -84.527333593570802 -187.71952339250311 0 -187.71952339250311 1.68870266884187 0 0 0 0 -24.139101134657238 7.3558068742695504 0 7.3558068742695504 -3.2209655040639724 0 0 0 0 81.8762283976248 -279.41492677985298 0 -279.41492677985298 -437.80117645018981 0 0 0 0 -147.34576418505458 17.477035543630336 0 17.477035543630336 -242.46906137275801 0 0 0 0 51.530996532928839 467.17791039201256 0 467.17791039201256 -352.14713151693468 0 0 0 0 -222.97648735310395 216.50528961297505 0 216.50528961297505 104.11314233965459 0 0 0 0 7.2834372946854273 114.15633753475231 0 114.15633753475231 -208.84267956905205 0 0 0 0 -209.77627494858825 154.55321037271733 0 154.55321037271733 736.69555604241941 0 0 0 0 3.1645860256447804 2.0930921890432614 0 2.0930921890432614 1.0868745499428982 0 0 0 0 -43.648232899220602 25.082871161137518 0 25.082871161137518 -97.473031160450773 0 0 0 0 -15.841826977877645 75.556310555095479 0 75.556310555095479 1.4899999393037433 0 0 0 0 2.0803657933840896 19.416321515259384 0 19.416321515259384 -18.392223168139665 0 0 0 0 61.290515262560803 146.40637239344869 0 146.40637239344869 -53.975087638847981 0 0 0 0 -580.60786490636383 375.6219182694922 0 375.6219182694922 703.73126530375885 0 0 0 0 108.16901090099418 -319.67758070670243 0 -319.67758070670243 28.988966567285388 0 0 0 0 31.054938286713877 90.077742002502418 0 90.077742002502418 -137.57527705464418 0 0 0 0 4.3881861822085284 9.0045025763964901 0 9.0045025763964901 -6.8064276232208627 0 0 0 0 -770.74868718500511 306.52303073481198 0 306.52303073481198 848.73796654710713 0 0 0 0 -2.088737523330046 1.1843641964909963 0 1.1843641964909963 3.9450995521599594 0 0 0 0 587.47976058286076 134.84042961606428 0 134.84042961606428 -17.9594916513106 0 0 0 0 -13.341830446563108 53.768449228206009 0 53.768449228206009 -81.355585243261885 0 0 0 0 -22.011562454261707 43.535865044912413 0 43.535865044912413 -53.53686594093746 0 0 0 0 -27.516279137860693 45.53973769152617 0 45.53973769152617 -73.906671840719355 0 0 0 0 125.4568809489956 346.01306180731081 0 346.01306180731081 -145.4229898197882 0 0 0 0 -160.96200690829119 66.856181661998562 0 66.856181661998562 516.98187820776366 0 0 0 0 -54.531058290682267 95.734935642638447 0 95.734935642638447 -101.6936562904375 0 0 0 0 1.7327754910457216 13.103897215036369 0 13.103897215036369 -14.991412564966261 0 0 0 0 -172.9919274957756 268.67808013725517 0 268.67808013725517 -264.06014562697237 0 0 0 0 -24.547082032140047 47.446760049058724 0 47.446760049058724 -69.862131697182264 0 0 0 0 -61.430717101793562 213.6640438900813 0 213.6640438900813 -569.16715619669412 0 0 0 0 464.00463350742575 688.53218411964917 0 688.53218411964917 -904.85638012798154 0 0 0 0 -20.43851036719726 46.56358351970394 0 46.56358351970394 -73.1275721406179 0 0 0 0 -307.98190928117037 351.19611212220843 0 351.19611212220843 -587.42586421456281 0 0 0 0 401.04580332572914 793.8874723829249 0 793.8874723829249 -701.76614653438446 0 0 0 0 -100.03620248073275 505.50127705169143 0 505.50127705169143 -163.64905226876499 0 0 0 0 -553.09855071242509 584.30429656590604 0 584.30429656590604 -403.92985620455147 0 0 0 0 -525.25663697954224 535.96162905591336 0 535.96162905591336 119.65159994746864 0 0 0 0 -22.397353124313668 520.72544010179445 0 520.72544010179445 -397.45794617358479 0 0 0 0 -229.8861677491077 332.54807418488235 0 332.54807418488235 -402.63028294504784 0 0 0 0 -40.328543163905124 296.82790845870204 0 296.82790845870204 -774.17623446058496 0 0 0 0 -95.995276558292971 252.72535850894383 0 252.72535850894383 -365.4130549787551 0 0 0 0 -178.66622477977944 271.19862897174607 0 271.19862897174607 -359.23403242082759 0 0 0 0 -29.395224985215464 488.10972274953201 0 488.10972274953201 -806.33731952809831 0 0 0 0 -130.06176980107557 543.50108048855327 0 543.50108048855327 -913.7014403189205 0 0 0 0 17.865021538871645 19.602712855107114 0 19.602712855107114 -10.54996844239794 0 0 0 0 -251.01741962374217 276.40668278063822 0 276.40668278063822 -484.85854059722078 0 0 0 0 -158.58237573639417 323.05737351995049 0 323.05737351995049 -290.93375327310423 0 0 0 0 24.959992305783089 167.73492615933355 0 167.73492615933355 -483.58561603201576 0 0 0 0 -37.397420902998078 54.886912592974944 0 54.886912592974944 -60.014607415400917 0 0 0 0 241.97523612234909 633.12470554966421 0 633.12470554966421 -621.2308793815464 0 0 0 0 -42.800047054210154 252.30504021952947 0 252.30504021952947 -698.97254543367308 0 0 0 0 -21.592311357266709 50.186466898067906 0 50.186466898067906 -64.599005797145111 0 0 0 0 179.37420384921643 203.32888797322084 0 203.32888797322084 -236.60350457543245 0 0 0 0 249.52184965572815 407.28098254046199 0 407.28098254046199 -343.57696567232051 0 0 0 0 155.00154818619922 110.11849771779089 0 110.11849771779089 -384.20387252185901 0 0 0 0 164.67665743457292 143.39900544383818 0 143.39900544383818 -472.14258535065164 0 0 0 0 0.22724419436462995 6.1240206020074623 0 6.1240206020074623 -8.709920452157192 0 0 0 0 59.809240714916086 91.821617874830736 0 91.821617874830736 -246.95929007997984 0 0 0 0 -105.21676101030607 -21.313325989929581 0 -21.313325989929581 5.5098880118894158 0 0 0 0 -1295.3653350090663 1468.7119686103506 0 1468.7119686103506 -1432.1025557487192 0 0 0 0 134.02823037891358 354.97687598607445 0 354.97687598607445 -1313.2392579369634 0 0 0 0 51.235445831855031 498.79773992620176 0 498.79773992620176 -1532.197357037061 0 0 0 0 47.99819528010903 315.32275531390769 0 315.32275531390769 -2702.7935873581591 0 0 0 0 113.39564127226913 837.02236407994496 0 837.02236407994496 -635.22651165561547 0 0 0 0 82.077007329633489 987.97546313305065 0 987.97546313305065 -1280.3938582481351 0 0 0 0 401.59028073299851 945.24860893212463 0 945.24860893212463 -340.29493207541964 0 0 0 0 542.41739426601998 584.297063723463 0 584.297063723463 -1071.5597995456046 0 0 0 0 -11.534633253255798 16.640601592847432 0 16.640601592847432 -10.470462996959654 0 0 0 0 290.7213099888977 403.4942071645346 0 403.4942071645346 -880.2973236519465 0 0 0 0 300.13847120794526 449.32070563605521 0 449.32070563605521 -1348.0537593707559 0 0 0 0 -31.746011907769571 -231.93004511548497 0 -231.93004511548497 -671.89682921114581 0 0 0 0 202.78110934926372 106.11970464428305 0 106.11970464428305 -1112.7336026737103 0 0 0 0 199.32408559133228 123.38269147792835 0 123.38269147792835 -1087.7488414490654 0 0 0 0 274.80441352586422 342.41448396740452 0 342.41448396740452 -956.82886097835581 0 0 0 0 198.17627072034634 141.39077047497335 0 141.39077047497335 -645.16185687755933 0 0 0 0 121.46851201870231 2.3951502098352648 0 2.3951502098352648 -675.1793827653637 0 0 0 0 37.666504474582325 -7.2899765379042947 0 -7.2899765379042947 -530.12677479261765 0 0 0 0 -324.05712878026952 -639.95102096458868 0 -639.95102096458868 -942.97445261740359 0 0 0 0 -13.9423839785347 11.859028644112925 0 11.859028644112925 -11.318421749238496 0 0 0 0 -169.0200424686409 -590.60490508678413 0 -590.60490508678413 -2213.0077632620669 0 0 0 0 -1272.4561395505116 1269.242730146656 0 1269.242730146656 204.42216648429621 0 0 0 0 -106.37757584353494 -566.22982211592898 0 -566.22982211592898 -1529.5025559453061 0 0 0 0 223.31570974202987 173.54516901186071 0 173.54516901186071 -1870.7111878195428 0 0 0 0 -1436.7178790872767 1480.6866220128122 0 1480.6866220128122 -117.97445957848686 0 0 0 0 -1422.9252068927422 1744.8811939448024 0 1744.8811939448024 -477.05837125195103 0 0 0 0 -1532.6276773047011 -365.62218169126209 0 -365.62218169126209 -224.59992662588047 0 0 0 0 -49.098922207987926 -334.88660973760852 0 -334.88660973760852 -1596.9342342158343 0 0 0 0 -21.445193182874618 58.108556273720751 0 58.108556273720751 -368.01404332366656 0 0 0 0 328.54556497376689 -86.821477979930933 0 -86.821477979930933 -461.38115395490422 0 0 0 0 761.98343163307072 544.88841020317705 0 544.88841020317705 -707.59519083554187 0 0 0 0 -938.45136101663957 595.81829009790454 0 595.81829009790454 1285.4836897526475 0 0 0 0 -26.959499269700181 18.584310465091221 0 18.584310465091221 -18.402967201941081 0 0 0 0 353.22590020109783 735.75739232441265 0 735.75739232441265 470.1459596624627 0 0 0 0 -39.131368422556989 31.795681374118431 0 31.795681374118431 -56.814949746043567 0 0 0 0 -14.12783846154219 16.562682269329876 0 16.562682269329876 -23.694303717361919 0 0 0 0 321.04799676216498 261.50687612917682 0 261.50687612917682 371.44095929149807 0 0 0 0 578.76495262303069 730.81929582719022 0 730.81929582719022 190.96988875657553 0 0 0 0 -315.53957777596224 -633.08927886292804 0 -633.08927886292804 -933.69025128212525 0 0 0 0 -327.14001596326489 -729.73922631680034 0 -729.73922631680034 -1185.0455417214835 0 0 0 0 -269.4675497065864 -675.79719428167664 0 -675.79719428167664 -1253.8396476273774 0 0 0 0 -389.5320170708419 -683.85164025590348 0 -683.85164025590348 -866.80784968408989 0 0 0 0 -631.6195509538411 -672.65032365865773 0 -672.65032365865773 -1010.8427282592311 0 0 0 0 -608.28685753789614 -558.87915337464074 0 -558.87915337464074 -611.43839811621001 0 0 0 0 -331.94928629808055 -650.5274264368345 0 -650.5274264368345 -1104.2670149603946 0 0 0 0 10.773617657941941 29.56096343084937 0 29.56096343084937 0.29168599333206657 0 0 0 0 -10.227621643555715 24.734256874034145 0 24.734256874034145 -41.562507179634679 0 0 0 0 -248.57287271598034 -108.48360991853406 0 -108.48360991853406 -174.23816966361483 0 0 0 0 -366.05248409359774 -445.72383036468818 0 -445.72383036468818 -675.14249885296158 0 0 0 0 -356.09701100811071 -506.23581339139491 0 -506.23581339139491 -795.23256658614264 0 0 0 0 -237.94809216410488 -564.26886807655296 0 -564.26886807655296 -766.83577372689615 0 0 0 0 -304.06679088211058 -577.82379019224027 0 -577.82379019224027 -947.98267253607628 0 0 0 0 -10.605840902235263 20.983346270525008 0 20.983346270525008 -31.348803353394175 0 0 0 0 -4.906856835878898 19.656838199209233 0 19.656838199209233 -43.021602715045447 0 0 0 0 -20.536891378634991 21.190684640575775 0 21.190684640575775 -8.5098066158136021 0 0 0 0 -19.916861652990725 26.47227576220034 0 26.47227576220034 -25.667962390366199 0 0 0 0 325.89566824211215 148.1777657868879 0 148.1777657868879 -51.929032747852034 0 0 0 0 369.86905309881695 129.35984813829418 0 129.35984813829418 -50.879755597955409 0 0 0 0 -2.2824443001574863 11.605125102047268 0 11.605125102047268 -35.825829816703475 0 0 0 0 490.63055539933703 294.79330999233207 0 294.79330999233207 -296.92991314225219 0 0 0 0 425.6933946440804 205.47855520075245 0 205.47855520075245 -185.26583104362362 0 0 0 0 394.06863209177754 -3.8806325490622839 0 -3.8806325490622839 -372.99999108276461 0 0 0 0 264.52829497169296 -166.27737908838753 0 -166.27737908838753 -144.42333436362242 0 0 0 0 220.06143671588666 -83.483135347313237 0 -83.483135347313237 -32.565973829150607 0 0 0 0 19.836708431656007 31.664371135482725 0 31.664371135482725 -22.717913304048125 0 0 0 0 269.81783099433596 41.021542397720623 0 41.021542397720623 -113.84596349353524 0 0 0 0 231.14210582980013 -18.737630341165641 0 -18.737630341165641 -63.960758928828 0 0 0 0 125.56514573882032 -39.620428777540837 0 -39.620428777540837 -40.688120194958174 0 0 0 0 2.3013015100259508 6.1226851272849672 0 6.1226851272849672 -18.624172352601406 0 0 0 0 -1.2599977498369572 17.059116040954184 0 17.059116040954184 -51.638574416892141 0 0 0 0 2.9253014244750375 21.349388633016133 0 21.349388633016133 -52.069879277754808 0 0 0 0 252.66034702410616 -92.431099924171576 0 -92.431099924171576 -18.809113769211763 0 0 0 0 289.01443644909523 -9.1038005244372471 0 -9.1038005244372471 -82.413270582866971 0 0 0 0 61.094214021628432 -50.989502738946612 0 -50.989502738946612 -39.203885137270845 0 0 0 0 -139.87619642312347 48.305196325472934 0 48.305196325472934 55.954395688670047 0 0 0 0 -110.87711669361306 176.95036493691805 0 176.95036493691805 -178.15265183610245 0 0 0 0 3.8308921067887951 -1.8900369776736454 0 -1.8900369776736454 -0.12486065722531237 0 0 0 0 -218.81977586645007 -488.67381724611687 0 -488.67381724611687 473.07172699498187 0 0 0 0 -275.5053448623039 114.12287209259011 0 114.12287209259011 -41.691173752789837 0 0 0 0 211.11848458875829 -316.4998566654358 0 -316.4998566654358 -564.97982986778698 0 0 0 0 -223.45749443192108 -513.44541561754886 0 -513.44541561754886 -1442.5252252293794 0 0 0 0 -215.42314814746607 -603.10303453113306 0 -603.10303453113306 -1313.2664669315564 0 0 0 0 -231.12707041920112 -258.58181521326333 0 -258.58181521326333 -896.73488375364104 0 0 0 0 -764.35002113846895 -720.6494770824429 0 -720.6494770824429 -2334.2453651819815 0 0 0 0 -322.09473426723315 -858.09249590351078 0 -858.09249590351078 -1873.1051954665163 0 0 0 0 -714.77350551284189 -961.91400779905598 0 -961.91400779905598 -1786.8261788557138 0 0 0 0 -549.89462261897779 -613.72348118670561 0 -613.72348118670561 -2065.2417178766918 0 0 0 0 -326.00192638010463 -464.92494214890019 0 -464.92494214890019 -1573.2542508249753 0 0 0 0 -445.63221029856322 -813.38592473133758 0 -813.38592473133758 -1759.4959590672515 0 0 0 0 -342.59178947075816 -542.55500393854345 0 -542.55500393854345 -1591.8752837244683 0 0 0 0 -242.77826844670199 -728.29417177796131 0 -728.29417177796131 -1882.0009242578362 0 0 0 0 -186.85664582102618 -546.68559773148445 0 -546.68559773148445 -1596.5843874668644 0 0 0 0 -280.74305720990014 -522.64015181369905 0 -522.64015181369905 -1234.0142109039298 0 0 0 0 -224.07248568310388 -526.68904932434089 0 -526.68904932434089 -1202.0173178657569 0 0 0 0 -135.63453356849823 -347.07324377008263 0 -347.07324377008263 -1250.2249797461845 0 0 0 0 -314.74601112433083 -416.98901261360152 0 -416.98901261360152 -1314.5520151256496 0 0 0 0 -317.07267828454496 -592.9249550930399 0 -592.9249550930399 -1306.1104526496783 0 0 0 0 -185.50023367453718 -310.07151713664371 0 -310.07151713664371 -1049.7938618856424 0 0 0 0 -208.40700363030555 -467.4650322626112 0 -467.4650322626112 -1298.1866958246219 0 0 0 0 -2.9548975210636854 -155.94957960897591 0 -155.94957960897591 -936.99588295160356 0 0 0 0 -53.032769250898127 -453.24116359412437 0 -453.24116359412437 -913.03987147801672 0 0 0 0 -190.88007403164738 -151.394217745692 0 -151.394217745692 -712.17887235408853 0 0 0 0 1.4603970280916059 -1.1864788307545666 0 -1.1864788307545666 -3.4760537955738613 0 0 0 0 -173.94364680944273 -199.10568853479344 0 -199.10568853479344 -761.59491650928976 0 0 0 0 -146.00173373239522 -305.66780803995789 0 -305.66780803995789 -1037.6138281313615 0 0 0 0 -275.14902954616991 -331.3346227540751 0 -331.3346227540751 -620.82461660692934 0 0 0 0 -132.32099498184834 -481.13994758122135 0 -481.13994758122135 -1202.927651383201 0 0 0 0 -234.64309005375253 -397.35542330222233 0 -397.35542330222233 -825.79377645911882 0 0 0 0 -157.30924993106601 -524.99532888177782 0 -524.99532888177782 -622.00832533129142 0 0 0 0 -185.7675368869277 -457.96002553417929 0 -457.96002553417929 -689.52673154696822 0 0 0 0 -188.62058962452647 -393.9764846018661 0 -393.9764846018661 -948.93988872255431 0 0 0 0 -170.72944690319491 -490.75452352284628 0 -490.75452352284628 -937.67057259023932 0 0 0 0 -212.59445445992242 -394.39880214625737 0 -394.39880214625737 -986.90465612508706 0 0 0 0 -185.11664163436944 -308.28136265225476 0 -308.28136265225476 -1009.5796747029817 0 0 0 0 -195.603766539567 -515.27488224350236 0 -515.27488224350236 -1169.6469444056565 0 0 0 0 -131.64158293756191 -494.32089591734257 0 -494.32089591734257 -1446.5087737383146 0 0 0 0 -181.28272299435139 -564.06329590540918 0 -564.06329590540918 -1695.574813689891 0 0 0 0 -210.20889245392755 -649.99156730870891 0 -649.99156730870891 -1426.1311109318685 0 0 0 0 -131.2711556578306 -561.80759396231224 0 -561.80759396231224 -1519.8589748462255 0 0 0 0 -156.30858226710188 -639.34284056999604 0 -639.34284056999604 -1346.9507947338279 0 0 0 0 -124.42862870240606 -568.06258594380779 0 -568.06258594380779 -1337.6415105008055 0 0 0 0 -97.321926050419279 -514.33532788857701 0 -514.33532788857701 -1337.0078080373951 0 0 0 0 -147.98063405201174 -554.82748819576227 0 -554.82748819576227 -1150.053632299765 0 0 0 0 -97.40059537171328 -476.80921016843058 0 -476.80921016843058 -1127.9957746276632 0 0 0 0 -132.87496213909253 -532.81014198255434 0 -532.81014198255434 -1091.607682423899 0 0 0 0 -118.59710767073921 -428.9691434737033 0 -428.9691434737033 -1039.2090975916653 0 0 0 0 -211.60934377491139 -570.81867551984033 0 -570.81867551984033 -1119.7993888895144 0 0 0 0 -163.02358596529666 -602.71051007887581 0 -602.71051007887581 -1239.0234953342733 0 0 0 0 -121.78917732361333 -496.63287256343756 0 -496.63287256343756 -1176.8573479300831 0 0 0 0 -131.28748965523482 -550.08636628931708 0 -550.08636628931708 -1260.0971390450723 0 0 0 0 -175.55843399427613 -644.14699941378058 0 -644.14699941378058 -1279.66785239827 0 0 0 0 -131.71460717789159 -688.74047827449976 0 -688.74047827449976 -1472.5116499307042 0 0 0 0 -288.29784246457712 -743.84792697004741 0 -743.84792697004741 -1267.319396797684 0 0 0 0 -150.94911826829775 -644.01669939453132 0 -644.01669939453132 -1361.7103445823595 0 0 0 0 -254.17682873134618 -667.37948483627406 0 -667.37948483627406 -1154.9069543068181 0 0 0 0 -232.64770191892603 -643.44288408299326 0 -643.44288408299326 -1206.0669108080765 0 0 0 0 -272.26631072011514 -542.09710257389816 0 -542.09710257389816 -977.02429858583491 0 0 0 0 -297.64103778107528 -485.87669483484933 0 -485.87669483484933 -796.0378099581867 0 0 0 0 -190.91391802337603 -517.66299858773709 0 -517.66299858773709 -1072.3881268754485 0 0 0 0 -180.85521145247185 -409.18039497357677 0 -409.18039497357677 -937.60829579496931 0 0 0 0 -200.25167523499476 -443.42676390387351 0 -443.42676390387351 -935.31387474044459 0 0 0 0 -247.60395176104794 -376.22441267623799 0 -376.22441267623799 -838.86022483128181 0 0 0 0 1.9312247284105979 20.890406584883749 0 20.890406584883749 -43.182189632693735 0 0 0 0 -12.77377068118394 21.211836743326089 0 21.211836743326089 -29.188301125826627 0 0 0 0 -238.10987339916028 -302.42542108445195 0 -302.42542108445195 -755.33094551894465 0 0 0 0 -81.519390568435483 -328.96553310981835 0 -328.96553310981835 -908.41754346888047 0 0 0 0 -117.55874868836509 -418.76744301938743 0 -418.76744301938743 -890.9338195346063 0 0 0 0 -29.432228477700846 -480.70834153788746 0 -480.70834153788746 -968.37805412808666 0 0 0 0 -138.77633403549407 -439.9931013721507 0 -439.9931013721507 -983.16096724470844 0 0 0 0 68.417404616906424 -465.59097151915194 0 -465.59097151915194 -880.83692606177647 0 0 0 0 -112.062500430402 -413.13680669479072 0 -413.13680669479072 -874.62524155917345 0 0 0 0 1.9036406912273378 -553.0088127356139 0 -553.0088127356139 -741.77614035777515 0 0 0 0 -128.71195645262924 -387.92753124173032 0 -387.92753124173032 -726.74783897225279 0 0 0 0 -18.278255225312023 -352.32342056412017 0 -352.32342056412017 -900.25267852679826 0 0 0 0 11.204106917096368 1.4930603491623913 0 1.4930603491623913 -21.979736247562315 0 0 0 0 -19.357619780195819 5.3621932208188809 0 5.3621932208188809 -0.39139829012856353 0 0 0 0 6.7369869610615751 17.089680137432879 0 17.089680137432879 -83.058275005139876 0 0 0 0 -6.0603932078684011 15.090098928454609 0 15.090098928454609 -33.52346382275573 0 0 0 0 -3.6830192038302654 12.299701037648527 0 12.299701037648527 -38.523146675886835 0 0 0 0 1.426124274621543 9.6354228860582225 0 9.6354228860582225 -31.022218821279239 0 0 0 0 -3.6279658880110262 15.743631273041032 0 15.743631273041032 -39.196736572349977 0 0 0 0 14.474425851041133 23.911947465413505 0 23.911947465413505 -56.517687909392407 0 0 0 0 15.432491417013807 9.5202919411021867 0 9.5202919411021867 -41.205304304086894 0 0 0 0 8.6553905892633338 29.025866821773889 0 29.025866821773889 -60.641816493676743 0 0 0 0 8.105297528624348 14.21677711101907 0 14.21677711101907 -44.653839383408425 0 0 0 0 10.763581177350716 19.437982814080897 0 19.437982814080897 -87.086210506098723 0 0 0 0 26.550325419178989 26.4103734948294 0 26.4103734948294 -86.554892391708563 0 0 0 0 6.5448060914641246 14.036114771690336 0 14.036114771690336 -91.988919105468085 0 0 0 0 -0.093943254757967054 3.4246658605957379 0 3.4246658605957379 -21.556012433179731 0 0 0 0 -15.969816817407263 42.049721053510439 0 42.049721053510439 -60.295042315585306 0 0 0 0 -26.61072908349341 22.193114927841716 0 22.193114927841716 -46.950459029218251 0 0 0 0 4.8906268033388187 9.850531575124478 0 9.850531575124478 -90.38892926738481 0 0 0 0 -1.6938068055450479 2.9394681093036397 0 2.9394681093036397 -38.086363508255857 0 0 0 0 7.3631780572022762 4.7670364583136688 0 4.7670364583136688 -21.049825613095891 0 0 0 0 -8.0480150812606919 10.695782511071712 0 10.695782511071712 -34.72748088567451 0 0 0 0 -6.1940481904486333 29.106790431626834 0 29.106790431626834 -66.248339440635021 0 0 0 0 -36.031293987554818 61.81517956413154 0 61.81517956413154 -89.125987936924503 0 0 0 0 -26.920105126080898 31.615313197951764 0 31.615313197951764 -81.987542735922034 0 0 0 0 -21.002018202304807 1.3680552012357339 0 1.3680552012357339 -17.171980442245683 0 0 0 0 -11.607406897699548 6.1849940599277033 0 6.1849940599277033 -68.276926608850772 0 0 0 0 -27.128769983148231 -9.5009610942724976 0 -9.5009610942724976 -54.955490840860875 0 0 0 0 -25.676219940098235 7.2378496943856589 0 7.2378496943856589 -41.502931555223768 0 0 0 0 -2.8678196691917357 4.8509190851453639 0 4.8509190851453639 -11.623511703010735 0 0 0 0 28.056665958209123 8.1960650744185841 0 8.1960650744185841 -169.62749650108162 0 0 0 0 -30.479354254477585 47.731076353527897 0 47.731076353527897 47.980477823948604 0 0 0 0 -2.9858993276802721 5.2378584123980545 0 5.2378584123980545 -64.496376448689261 0 0 0 0 3.2569026282362756 147.78197507174627 0 147.78197507174627 -92.014505163489957 0 0 0 0 53.715869288495014 121.59609315579291 0 121.59609315579291 -143.23745308707294 0 0 0 0 -0.18148397716310427 -0.62460945447389804 0 -0.62460945447389804 -0.076710514731942681 0 0 0 0 -23.694825754530029 2.0605871202424169 0 2.0605871202424169 -61.090368133009179 0 0 0 0 -188.90213603830853 -278.03388221055502 0 -278.03388221055502 -888.07829951432359 0 0 0 0 40.730870170145863 166.06312962953234 0 166.06312962953234 -107.91608816338339 0 0 0 0 1.1331660110517987 -18.880718722051824 0 -18.880718722051824 -534.7141238556942 0 0 0 0 -19.442636438325898 -4.2680482532924202 0 -4.2680482532924202 -6.7959807211255452 0 0 0 0 -12.228674461169248 -3.2701108808832942 0 -3.2701108808832942 -47.380593174922979 0 0 0 0 157.85136183187933 -130.53148830046848 0 -130.53148830046848 -7.3462822691217298 0 0 0 0 -59.446129865569446 -9.9988526459246714 0 -9.9988526459246714 -46.51027714999509 0 0 0 0 -10.876619435571556 -16.935722786063621 0 -16.935722786063621 -27.173018032687054 0 0 0 0 159.36365473661135 -462.34773674120515 0 -462.34773674120515 442.43332173582894 0 0 0 0 116.80980548668595 -156.79648775124224 0 -156.79648775124224 265.92690252113971 0 0 0 0 85.290065015433356 -105.77230614660948 0 -105.77230614660948 -88.992654526431579 0 0 0 0 301.70042241850751 -267.56401241135609 0 -267.56401241135609 -64.614277733198833 0 0 0 0 -26.861205568970838 -21.767815423856945 0 -21.767815423856945 -14.529723613448198 0 0 0 0 -54.450533348276622 71.726764780407393 0 71.726764780407393 -540.29272113925254 0 0 0 0 -11.90323821846053 -1.2082289894911185 0 -1.2082289894911185 10.663261181696612 0 0 0 0 -118.32367859254191 -377.10771599144027 0 -377.10771599144027 -1192.3979532447411 0 0 0 0 0.55058973569612135 322.91088345317257 0 322.91088345317257 -577.12627976523072 0 0 0 0 -102.86809071593598 396.49336860557378 0 396.49336860557378 -518.02508408507856 0 0 0 0 -112.17905163906926 151.91940556490954 0 151.91940556490954 -280.46015230100602 0 0 0 0 5.7648613739206667 74.23163654624841 0 74.23163654624841 -93.151603047750541 0 0 0 0 166.00804425981914 168.00519018457999 0 168.00519018457999 -306.67745308042504 0 0 0 0 27.437626211628412 191.51178492123836 0 191.51178492123836 -481.3381774117297 0 0 0 0 -112.8953600326131 95.155581047991291 0 95.155581047991291 -294.34882525135254 0 0 0 0 23.770310291256465 -63.963103240828787 0 -63.963103240828787 -142.88158546664636 0 0 0 0 118.67401850959868 -4.4906376698854729 0 -4.4906376698854729 -309.20391866719001 0 0 0 0 217.66502442313868 -149.92337568591756 0 -149.92337568591756 -168.5811033010541 0 0 0 0 201.60998098322671 -135.27413167718623 0 -135.27413167718623 -149.81929938818212 0 0 0 0 166.1273620308275 -163.69015915018099 0 -163.69015915018099 -17.567828209052095 0 0 0 0 115.6288827985536 24.866729602381383 0 24.866729602381383 -79.251724345522234 0 0 0 0 2.0872835575676874 -1.4693093747935677 0 -1.4693093747935677 -15.574136360902195 0 0 0 0 228.32659772769694 -101.43551387256593 0 -101.43551387256593 -107.58803187246667 0 0 0 0 57.27644709535889 -77.338719422339636 0 -77.338719422339636 17.064875674725045 0 0 0 0 201.55528450818588 -145.19568168267961 0 -145.19568168267961 -205.15876455651596 0 0 0 0 44.849379256360407 28.753360517905094 0 28.753360517905094 -295.61654981412721 0 0 0 0 5.6260901177550018 -8.6275817183389591 0 -8.6275817183389591 -89.77662971299236 0 0 0 0 88.510352446253819 3.6097294888386386 0 3.6097294888386386 -130.86860028539741 0 0 0 0 75.468077451530917 -49.21735032847937 0 -49.21735032847937 -208.84639882135525 0 0 0 0 12.448146202064384 -8.5625186330271177 0 -8.5625186330271177 -72.980234952848747 0 0 0 0 22.905780289656832 -10.755834080220666 0 -10.755834080220666 -44.366149494191632 0 0 0 0 9.2968352808093186 -93.933995620755013 0 -93.933995620755013 -121.13766271432178 0 0 0 0 5.7748217468581515 -15.315599168246436 0 -15.315599168246436 -70.731758553074144 0 0 0 0 3.0205408148458091 -9.3740402285159234 0 -9.3740402285159234 -12.452963079143899 0 0 0 0 -64.978842968666868 -119.97170054473099 0 -119.97170054473099 -83.860096202319255 0 0 0 0 -31.728139110615302 -28.978776493997429 0 -28.978776493997429 -34.554018458933569 0 0 0 0 0.75071995363428456 6.300504794007459 0 6.300504794007459 -48.833620624935946 0 0 0 0 22.705082328800927 -34.103071504592663 0 -34.103071504592663 -42.233187294565141 0 0 0 0 -3.5936066101497026 -2.3572179020903476 0 -2.3572179020903476 -33.202451661655658 0 0 0 0 -10.773295401930227 -7.4261025864179828 0 -7.4261025864179828 -56.671294432977447 0 0 0 0 -0.84660395870741922 -2.6225439786794595 0 -2.6225439786794595 -42.264905997377355 0 0 0 0 12.477228973672027 0.087036476121284068 0 0.087036476121284068 -30.367773984493397 0 0 0 0 3.975390595523308 -14.917381522443094 0 -14.917381522443094 -68.839839612749401 0 0 0 0 -1.0262827274851603 3.3948330230828674 0 3.3948330230828674 -43.662476051019041 0 0 0 0 7.8801797246484853 -4.6706733945095706 0 -4.6706733945095706 -49.403982051371941 0 0 0 0 -4.9260141450679527 -13.676762699067467 0 -13.676762699067467 -37.925568006012185 0 0 0 0 -10.084255669225968 -18.125776711880462 0 -18.125776711880462 -39.944892119629912 0 0 0 0 2.0804633468942484 -5.8064133724401472 0 -5.8064133724401472 -44.502683808270376 0 0 0 0 10.335217072868922 -0.38727657280043104 0 -0.38727657280043104 -86.919920689211409 0 0 0 0 23.254090381193237 25.774823053001455 0 25.774823053001455 -90.372354042978259 0 0 0 0 3.6206989665070068 19.05404528723011 0 19.05404528723011 -81.820930436078925 0 0 0 0 26.05077248338057 32.922002902359964 0 32.922002902359964 -92.374229274875688 0 0 0 0 18.885940179889076 19.128787769892369 0 19.128787769892369 -99.578531803483202 0 0 0 0 10.406487285728645 35.411008161636616 0 35.411008161636616 -72.810017637705016 0 0 0 0 9.2722320199463866 29.436598402302479 0 29.436598402302479 -63.100726052371101 0 0 0 0 21.461911727102688 -0.69133337423559738 0 -0.69133337423559738 -55.59701272230329 0 0 0 0 52.407326094981727 9.9500894565971976 0 9.9500894565971976 -108.51742011471833 0 0 0 0 21.834733865045678 6.939802556154973 0 6.939802556154973 -105.214182771786 0 0 0 0 26.353960080374868 3.1810383230182566 0 3.1810383230182566 -83.801779494686798 0 0 0 0 23.091700811665969 -4.8311003775534163 0 -4.8311003775534163 -105.06262014553562 0 0 0 0 11.588559214673769 8.8674991962012477 0 8.8674991962012477 -21.189055069299457 0 0 0 0 238.50346524027918 51.242419751251873 0 51.242419751251873 -198.05293677696318 0 0 0 0 8.2084574114543258 -17.554397266692852 0 -17.554397266692852 -108.90359705062306 0 0 0 0 28.873559870660756 3.2569956217375875 0 3.2569956217375875 -226.656234787828 0 0 0 0 191.22066665951206 116.26455772503687 0 116.26455772503687 -284.51002480707757 0 0 0 0 19.44723284115048 -22.128263048442051 0 -22.128263048442051 -87.309147472498083 0 0 0 0 -6.9740505754005628 -11.103933005989537 0 -11.103933005989537 -84.549579599511787 0 0 0 0 0.27710587059002201 -6.3048630605463458 0 -6.3048630605463458 -105.6092250224338 0 0 0 0 8.5512801753120584 -16.308727311552502 0 -16.308727311552502 -177.63082332923659 0 0 0 0 46.547721401421768 -3.1775303421854915 0 -3.1775303421854915 -177.82350742194103 0 0 0 0 -11.161938373294106 131.0396342949789 0 131.0396342949789 -204.86418375838548 0 0 0 0 80.32350688099541 -53.344710061217484 0 -53.344710061217484 -232.86192998185288 0 0 0 0 27.670743931683319 134.5900140665326 0 134.5900140665326 -363.82709477408207 0 0 0 0 -21.353106390903122 -12.766835997645103 0 -12.766835997645103 -312.8567165799177 0 0 0 0 -19.713415192713683 28.23899582766353 0 28.23899582766353 -339.41724694483855 0 0 0 0 -17.982552837900585 -105.57168735578307 0 -105.57168735578307 -195.77817314868298 0 0 0 0 -23.334044040686422 54.139581302915758 0 54.139581302915758 -122.41331636988616 0 0 0 0 -21.516842170742244 -23.277065224984398 0 -23.277065224984398 -39.573195985369694 0 0 0 0 2.9270763333533267 -7.9001674657575904 0 -7.9001674657575904 -34.25367377244109 0 0 0 0 -11.721503549822955 113.47741467080505 0 113.47741467080505 -60.571504428517073 0 0 0 0 76.328464938778779 10.621590942260809 0 10.621590942260809 -296.59293985465774 0 0 0 0 -5.8650869791890727 -97.962264069181401 0 -97.962264069181401 98.316597173470655 0 0 0 0 -103.71061097778193 251.17718259506182 0 251.17718259506182 -20.713213578652358 0 0 0 0 -5.3212394710371242 -14.505869859090438 0 -14.505869859090438 -15.826005436900743 0 0 0 0 -15.361900885176595 -15.681793088833814 0 -15.681793088833814 -13.719628756418615 0 0 0 0 122.66029370843899 -166.88416405176395 0 -166.88416405176395 22.418736405612435 0 0 0 0 -283.10133636307 266.45167775948357 0 266.45167775948357 -309.25099710694121 0 0 0 0 35.537130169130251 115.88267998174342 0 115.88267998174342 -184.77998732039487 0 0 0 0 37.184193303114512 35.944622793919422 0 35.944622793919422 5.1081984443123787 0 0 0 0 50.910989089009036 75.749599944244665 0 75.749599944244665 -266.9098815714533 0 0 0 0 -10.573881669195238 36.161261280646045 0 36.161261280646045 -3.2773596347140046 0 0 0 0 -121.68192900517897 77.995826997119366 0 77.995826997119366 -1.0751269273914659 0 0 0 0 -70.475566689512107 37.204960232528265 0 37.204960232528265 -38.04472826217534 0 0 0 0 -47.017576833124622 39.116188973046519 0 39.116188973046519 -55.083137390885213 0 0 0 0 13.058401124220836 12.347982093175233 0 12.347982093175233 -51.391134253466589 0 0 0 0 13.187174794913517 -2.3781780218323547 0 -2.3781780218323547 -142.28577761988709 0 0 0 0 154.50202848718618 -200.57777813512075 0 -200.57777813512075 87.632100394157533 0 0 0 0 78.814111261253856 103.38441455558859 0 103.38441455558859 8.5743827838959987 0 0 0 0 68.795223852692288 266.7928660594589 0 266.7928660594589 -65.318594706321164 0 0 0 0 105.2037582738667 155.56601474969648 0 155.56601474969648 -250.96146054982091 0 0 0 0 9.8452738827463691 48.326209183856918 0 48.326209183856918 -91.168345520985895 0 0 0 0 -22.350066252001852 80.858143692537851 0 80.858143692537851 85.205097261416086 0 0 0 0 83.580850988839316 38.718693045829149 0 38.718693045829149 -24.035718864660616 0 0 0 0 133.08303397036343 42.088510692718046 0 42.088510692718046 -184.06618112139586 0 0 0 0 142.88918325012929 48.631426106252093 0 48.631426106252093 -183.30577126801654 0 0 0 0 60.89635106647529 90.74738873601018 0 90.74738873601018 -176.77098033479706 0 0 0 0 31.473250991077293 69.135481477283975 0 69.135481477283975 -113.78528419335805 0 0 0 0 77.703609468844434 42.023475107249396 0 42.023475107249396 -168.14945638911377 0 0 0 0 56.564080553454914 82.049528378969626 0 82.049528378969626 -240.96551655109943 0 0 0 0 185.20896045848326 77.661764588883671 0 77.661764588883671 -239.90024869969784 0 0 0 0 286.60754074732245 -79.343462784130679 0 -79.343462784130679 -114.5341824882762 0 0 0 0 70.935148779752126 63.86044617740481 0 63.86044617740481 -204.9427411415636 0 0 0 0 175.52752019176182 -10.309577658303169 0 -10.309577658303169 -281.06217707647011 0 0 0 0 224.48401378054359 78.909695180140261 0 78.909695180140261 -238.40350301348371 0 0 0 0 3.1958537704831542 37.289522773686258 0 37.289522773686258 -292.01272289788176 0 0 0 0 82.7751051759451 -5.3984640598537226 0 -5.3984640598537226 -274.92244492178634 0 0 0 0 -26.622354837736566 -67.911894492575811 0 -67.911894492575811 -344.07718521680954 0 0 0 0 127.52602458199317 -80.195586205900327 0 -80.195586205900327 -566.03159245322968 0 0 0 0 51.01549438623988 66.045179503067629 0 66.045179503067629 -318.4379576119245 0 0 0 0 28.244895566578634 30.008136396369082 0 30.008136396369082 -235.51449041138403 0 0 0 0 16.844472307489923 41.612550706905495 0 41.612550706905495 -269.05665343120563 0 0 0 0 331.07809743347752 48.721740610699271 0 48.721740610699271 -537.43136446475728 0 0 0 0 64.11693052370174 -229.06139260271812 0 -229.06139260271812 -720.67633705515618 0 0 0 0 36.952338995884929 -289.00862935495752 0 -289.00862935495752 -660.72836598400499 0 0 0 0 10.885798550565596 -361.02821498698813 0 -361.02821498698813 -831.51723542905893 0 0 0 0 36.81439992894957 99.916502443491481 0 99.916502443491481 -1008.2865725711281 0 0 0 0 -9.0831635351784925 -2.9470347112443989 0 -2.9470347112443989 4.3352990264663021 0 0 0 0 -213.35058570937235 -303.37836029666869 0 -303.37836029666869 -508.59158438994928 0 0 0 0 -131.36108278486438 -63.372984443305086 0 -63.372984443305086 -443.1434224592449 0 0 0 0 45.868872313464635 -94.900081747757213 0 -94.900081747757213 -453.37039171871947 0 0 0 0 30.919567961651801 -3.2729802468584239 0 -3.2729802468584239 -218.08386555573816 0 0 0 0 154.71797729858736 -23.808806271306821 0 -23.808806271306821 -208.26850504017784 0 0 0 0 133.41313224717578 17.186000538527878 0 17.186000538527878 -283.14124218089273 0 0 0 0 90.296119054847168 -158.20395077928697 0 -158.20395077928697 -311.17813711998406 0 0 0 0 27.282001727743591 -192.14551218981433 0 -192.14551218981433 -241.64420839849117 0 0 0 0 -62.145609398366332 -547.40730886999518 0 -547.40730886999518 -543.60214453293884 0 0 0 0 103.24800754512853 -417.58839030054514 0 -417.58839030054514 -729.26302233124443 0 0 0 0 -6.2795101162437277 -333.93438066267845 0 -333.93438066267845 -768.85116150815884 0 0 0 0 94.899573364632488 -486.80791385286102 0 -486.80791385286102 -942.83396099253878 0 0 0 0 -561.30835010146654 297.97036760038463 0 297.97036760038463 -397.22128851428897 0 0 0 0 103.77551896514706 -15.456489639800566 0 -15.456489639800566 -249.54026850821901 0 0 0 0 -59.177302130920452 161.99462369595494 0 161.99462369595494 141.34579580432182 0 0 0 0 159.1379840865302 116.64669112188494 0 116.64669112188494 -332.64736072793676 0 0 0 0 38.48372514429709 22.047075570868351 0 22.047075570868351 -27.607810637981771 0 0 0 0 199.51251966969994 8.1256884379008625 0 8.1256884379008625 -70.978649643955578 0 0 0 0 23.087189199692148 33.963639802204852 0 33.963639802204852 -104.68377292607329 0 0 0 0 -3.3103849148575222 -3.9405511430194906 0 -3.9405511430194906 -11.925386837567032 0 0 0 0 42.013911835268118 -365.96420126820794 0 -365.96420126820794 45.564149318008276 0 0 0 0 -54.670880034982474 -57.664618678310944 0 -57.664618678310944 -572.68389077871689 0 0 0 0 -138.5745873319529 158.69369535572332 0 158.69369535572332 -536.45696282539575 0 0 0 0 111.6195085015097 57.137810958272894 0 57.137810958272894 -507.57424449153768 0 0 0 0 -50.071921537411981 81.902230078878347 0 81.902230078878347 -316.54834046949327 0 0 0 0 -39.506728030527597 -45.694950363898897 0 -45.694950363898897 -389.47054453498276 0 0 0 0 -66.464306081936229 14.043784952329588 0 14.043784952329588 -410.64394346954941 0 0 0 0 5.5368028040793433 50.848736112428014 0 50.848736112428014 -560.3369494107028 0 0 0 0 24.43883320380337 27.68068028846028 0 27.68068028846028 -713.09166056741378 0 0 0 0 9.8330022496055705 -23.244100854389437 0 -23.244100854389437 -112.08603611337981 0 0 0 0 97.026114820940165 233.21910111746183 0 233.21910111746183 -811.75891563152982 0 0 0 0 29.671203049602809 -20.516212258553423 0 -20.516212258553423 -118.74152241000047 0 0 0 0 20.828934053489007 -26.080275409324713 0 -26.080275409324713 -116.86136653566791 0 0 0 0 14.236316423087288 -14.822012719623444 0 -14.822012719623444 -81.803963396249941 0 0 0 0 7.1333909540525013 -15.765277990517431 0 -15.765277990517431 -101.55520644675292 0 0 0 0 340.79751489869523 50.419927937771718 0 50.419927937771718 -145.86934521888907 0 0 0 0 401.16924404960628 116.82440415879682 0 116.82440415879682 -120.6719028205116 0 0 0 0 21.868858721033853 -4.2471625425116031 0 -4.2471625425116031 -33.13873168378214 0 0 0 0 487.92472237246693 -8.8515602737606969 0 -8.8515602737606969 -184.10345370206778 0 0 0 0 192.45370682091925 36.007337429236941 0 36.007337429236941 -126.83121871191543 0 0 0 0 119.67288255810877 -32.983919106978647 0 -32.983919106978647 -104.31829742726404 0 0 0 0 335.65735406941167 -30.207085615860706 0 -30.207085615860706 -180.51778373201887 0 0 0 0 276.69773506175625 35.873040320075233 0 35.873040320075233 -76.479164905373182 0 0 0 0 5.3197519924140391 -31.833948733566942 0 -31.833948733566942 -113.60117027533005 0 0 0 0 26.389477813942449 -313.47824599212527 0 -313.47824599212527 -26.658579985232791 0 0 0 0 -2.2223222843584232 -1.9910516131979819 0 -1.9910516131979819 -18.967380768009065 0 0 0 0 -118.74272261854276 -468.74586298123904 0 -468.74586298123904 -826.38422103183984 0 0 0 0 42.280667685399749 668.28723436573637 0 668.28723436573637 -1266.8076194983914 0 0 0 0 120.83077866824078 -5.763711383799091 0 -5.763711383799091 -285.01845118317942 0 0 0 0 13.255960950427831 -30.152299572328591 0 -30.152299572328591 -104.05950438033912 0 0 0 0 -107.98250622719024 -219.38309455666604 0 -219.38309455666604 -180.60150544026692 0 0 0 0 -103.51530956741408 -179.36324412796966 0 -179.36324412796966 6.8979067077234504 0 0 0 0 -287.68043288238073 60.142708694979774 0 60.142708694979774 -371.39866947440896 0 0 0 0 158.44127127918819 -112.61600434342472 0 -112.61600434342472 -754.35947368960478 0 0 0 0 47.185747179286409 202.4193792125734 0 202.4193792125734 -591.4144477862792 0 0 0 0 -230.43824135461182 13.041034624242457 0 13.041034624242457 -176.81322078427183 0 0 0 0 201.17615247647154 18.734441092576162 0 18.734441092576162 -352.08599168540968 0 0 0 0 12.123635245706293 -22.224498016812355 0 -22.224498016812355 -111.79095513515222 0 0 0 0 53.41281762624385 -151.75476692128723 0 -151.75476692128723 -173.53972580781556 0 0 0 0 -178.62781903038376 124.32222353581892 0 124.32222353581892 52.467342104238924 0 0 0 0 1.7305927004977093 -0.26153337346039507 0 -0.26153337346039507 -5.8027989101264552 0 0 0 0 92.40178697094052 339.95833187687276 0 339.95833187687276 -192.87326823054173 0 0 0 0 -8.5196750950108253 -109.23364563961513 0 -109.23364563961513 -247.23718433453178 0 0 0 0 -37.019964912460637 -98.442209687738796 0 -98.442209687738796 -561.45198297000024 0 0 0 0 -193.42860622411899 -159.2584266794147 0 -159.2584266794147 -72.620400667299691 0 0 0 0 11.909191046198664 -24.818977774380194 0 -24.818977774380194 -110.33901980050405 0 0 0 0 -30.484306769017849 -38.730484036359485 0 -38.730484036359485 -134.5689206297393 0 0 0 0 -164.7939838854727 -114.78113675568602 0 -114.78113675568602 46.702648982405663 0 0 0 0 37.57564575671222 0.21579000421297678 0 0.21579000421297678 11.723657986309263 0 0 0 0 0.58842175685661324 -0.94701342220326268 0 -0.94701342220326268 -5.1692721589642474 0 0 0 0 -7.7424399990076509 -14.85286480745043 0 -14.85286480745043 -28.114992911027173 0 0 0 0 -146.51464296551421 -116.56849358027102 0 -116.56849358027102 -143.2519439010357 0 0 0 0 -37.326198753726715 -60.7309286355312 0 -60.7309286355312 47.816446303790144 0 0 0 0 15.749602864604595 -22.757838681027771 0 -22.757838681027771 -89.144301676683085 0 0 0 0 171.51425173097505 131.7001478718521 0 131.7001478718521 -433.92958899892983 0 0 0 0 -256.22570619292856 -125.62086969531083 0 -125.62086969531083 72.296234314126195 0 0 0 0 -79.012035011835223 -187.75503055298759 0 -187.75503055298759 -120.7413197747228 0 0 0 0 -16.870600223806111 31.985478198787291 0 31.985478198787291 -46.970957814690834 0 0 0 0 -42.706682286474461 -24.852888479075773 0 -24.852888479075773 -186.97437356183218 0 0 0 0 -89.255122791638854 -38.241816643490893 0 -38.241816643490893 -190.77513873682437 0 0 0 0 -51.582016449323191 -62.45722036119696 0 -62.45722036119696 -183.43812580605299 0 0 0 0 -115.25038331421172 -96.554223580147664 0 -96.554223580147664 -177.01761350536253 0 0 0 0 -123.34298237111102 -110.20538471505279 0 -110.20538471505279 -198.23299850379954 0 0 0 0 -161.99025222347484 -39.926119994646797 0 -39.926119994646797 -93.480489170098735 0 0 0 0 -46.148336468073012 2.6985581395219924 0 2.6985581395219924 -154.72622609548125 0 0 0 0 2.2826277570755797 13.224155745992981 0 13.224155745992981 -98.438206739396975 0 0 0 0 -19.907778036656964 -7.4293055477537564 0 -7.4293055477537564 -41.205347693394287 0 0 0 0 103.67234297718076 -5.9373988585775805 0 -5.9373988585775805 -139.82828239590162 0 0 0 0 30.861988718084493 -5.6238133758140378 0 -5.6238133758140378 -64.968742692275555 0 0 0 0 -91.190662700336361 -24.321365044474078 0 -24.321365044474078 -133.97426085796906 0 0 0 0 10.594847610477187 -20.553322993917533 0 -20.553322993917533 -89.65115777027944 0 0 0 0 -35.800283041201993 -50.296632471409936 0 -50.296632471409936 -92.461793453364635 0 0 0 0 8.6116918804778475 -15.124389838867209 0 -15.124389838867209 -76.087682882666059 0 0 0 0 35.516311426785904 -60.926395717349806 0 -60.926395717349806 -109.03758673361153 0 0 0 0 8.2409073409623588 -3.2679827061873414 0 -3.2679827061873414 -78.375634357388776 0 0 0 0 -18.833495224711896 -45.456380911267843 0 -45.456380911267843 -193.46221290210087 0 0 0 0 -13.839119793225137 -11.769331471939722 0 -11.769331471939722 -13.733890171157896 0 0 0 0 2.2978036550115348 -1.4991077115230098 0 -1.4991077115230098 -28.147861419961089 0 0 0 0 -27.27706048329992 -62.630874536524061 0 -62.630874536524061 -134.14007703657262 0 0 0 0 -38.580754970011185 -51.268017747235717 0 -51.268017747235717 -134.60420165112646 0 0 0 0 66.867351400367625 -7.4054486574350449 0 -7.4054486574350449 -237.26758827918889 0 0 0 0 89.999273379155056 13.444032653119393 0 13.444032653119393 -279.2996876113466 0 0 0 0 62.03937110780862 35.455573394967359 0 35.455573394967359 -266.66876227194734 0 0 0 0 44.847948055682537 12.904920884016974 0 12.904920884016974 -123.36968841699127 0 0 0 0 17.532224711057808 28.780689635934692 0 28.780689635934692 -25.822312924922677 0 0 0 0 41.514644973356553 -7.6156769229855854 0 -7.6156769229855854 -237.26537494546324 0 0 0 0 26.140523624236721 -6.2065564433614782 0 -6.2065564433614782 -192.02637927455362 0 0 0 0 0.52244055757980767 35.362655160534104 0 35.362655160534104 -25.865195436055245 0 0 0 0 -256.16694216822486 165.94652301828592 0 165.94652301828592 273.90751054079738 0 0 0 0 -15.326771665009346 -47.589925328280515 0 -47.589925328280515 -218.77733450194137 0 0 0 0 -47.284861905884526 -56.976557394950305 0 -56.976557394950305 -215.93442357988533 0 0 0 0 -15.579732790266917 -46.061685803648288 0 -46.061685803648288 -227.93518227788445 0 0 0 0 44.715031998839549 -42.744044409650087 0 -42.744044409650087 -277.26940243297577 0 0 0 0 -55.61744449154412 -74.045804962079274 0 -74.045804962079274 -213.05483649548842 0 0 0 0 -61.151848297574361 -151.80218524527299 0 -151.80218524527299 -275.40818583215878 0 0 0 0 -52.374474022528659 -134.85095287464901 0 -134.85095287464901 -252.2298778424738 0 0 0 0 13.576672200100347 -108.32194397530111 0 -108.32194397530111 -255.00370903368457 0 0 0 0 16.611395631419555 -108.74780062005993 0 -108.74780062005993 -308.46451187501953 0 0 0 0 152.50285067224468 -67.131625695008552 0 -67.131625695008552 -373.21294344861235 0 0 0 0 158.43624269545489 -107.95715320410454 0 -107.95715320410454 -324.07347329668846 0 0 0 0 89.479116618598255 -42.064454210994427 0 -42.064454210994427 -336.17217735168379 0 0 0 0 91.319521301927125 -59.257431543519488 0 -59.257431543519488 -276.43664535010612 0 0 0 0 85.63980009716488 2.6985950343278091 0 2.6985950343278091 -302.12090405820345 0 0 0 0 153.16163305708278 8.9054068079208264 0 8.9054068079208264 -402.54110841305373 0 0 0 0 162.3457711121082 -51.470854376231728 0 -51.470854376231728 -357.78623503014023 0 0 0 0 76.654487119094483 2.3353312816107064 0 2.3353312816107064 -368.22093679091813 0 0 0 0 -105.38238252165502 47.433018893614644 0 47.433018893614644 -398.0156650709614 0 0 0 0 56.705311594074828 59.682872092140315 0 59.682872092140315 -485.61479130217049 0 0 0 0 -40.788774246732828 -14.279317377735424 0 -14.279317377735424 -442.66631178586977 0 0 0 0 19.521034417866758 81.651470564665942 0 81.651470564665942 -414.14187929841319 0 0 0 0 57.754604674440998 31.270458875245822 0 31.270458875245822 -350.20502660210332 0 0 0 0 72.011825061692434 55.126488915062509 0 55.126488915062509 -351.51931557506214 0 0 0 0 5.5679627142235404 86.756427735039324 0 86.756427735039324 -291.54513651806701 0 0 0 0 49.679227031148912 39.048852015504963 0 39.048852015504963 -259.91830502966695 0 0 0 0 -18.291755273950912 105.73479259354644 0 105.73479259354644 -379.12028838837432 0 0 0 0 -18.170680441025979 42.553760394108394 0 42.553760394108394 -271.52045025126426 0 0 0 0 -75.955475170405407 46.71960663000209 0 46.71960663000209 -139.65465143994379 0 0 0 0 -26.739195137373827 84.189362906159658 0 84.189362906159658 -241.53026790885633 0 0 0 0 -25.217475636207382 66.118460832767596 0 66.118460832767596 -170.39189238339532 0 0 0 0 -20.109230883344935 45.616900585047006 0 45.616900585047006 -180.08897879034339 0 0 0 0 48.062164760653104 -8.6714251661942399 0 -8.6714251661942399 -144.08796225642436 0 0 0 0 10.474268246500287 2.6078153675189242 0 2.6078153675189242 -74.498527835563436 0 0 0 0 22.010876971556172 -19.333676766824283 0 -19.333676766824283 14.475121648050845 0 0 0 0 -0.73368014630070988 -2.445165467025376 0 -2.445165467025376 4.9995887998377952 0 0 0 0 17.345192087464554 -4.0470778892932344 0 -4.0470778892932344 -11.323465198371878 0 0 0 0 -30.183049216884683 58.697082949685864 0 58.697082949685864 -99.978537358787435 0 0 0 0 25.334372605837416 -8.5757430325902533 0 -8.5757430325902533 -37.64724383810244 0 0 0 0 41.82591798930298 38.372166952911357 0 38.372166952911357 -185.19957393131335 0 0 0 0 98.067635908144439 52.609330896164465 0 52.609330896164465 -146.14593600383159 0 0 0 0 43.839465680230205 73.887026499418425 0 73.887026499418425 -148.37347944693556 0 0 0 0 -13.446313461677164 64.590327792297103 0 64.590327792297103 -193.81164464112953 0 0 0 0 40.976348000011058 29.890619335856172 0 29.890619335856172 -176.49242347576364 0 0 0 0 112.53582118622217 -5.2519205003063689 0 -5.2519205003063689 -82.69225953490195 0 0 0 0 30.048857480667124 7.2732834610588313 0 7.2732834610588313 -67.939110798323014 0 0 0 0 19.49958523519917 -2.8799503523202077 0 -2.8799503523202077 -64.573999730655231 0 0 0 0 80.899522222517987 17.669642729809347 0 17.669642729809347 -32.876426330848034 0 0 0 0 25.957749018852972 -15.662855662268086 0 -15.662855662268086 -35.059448446524527 0 0 0 0 53.002507605786377 -6.5345343473054527 0 -6.5345343473054527 -59.516799083528895 0 0 0 0 -11.833707125797446 -67.590158623794196 0 -67.590158623794196 -74.010981439736497 0 0 0 0 29.797069360640073 -25.920532487546421 0 -25.920532487546421 -117.02031755943015 0 0 0 0 -119.3467141692272 63.640311409981223 0 63.640311409981223 -203.59099659797357 0 0 0 0 286.88582005779335 179.62113985475162 0 179.62113985475162 -221.68541962941345 0 0 0 0 -53.604540883934533 -22.19065629576653 0 -22.19065629576653 -95.749980478263751 0 0 0 0 82.198654273461216 67.38182516204688 0 67.38182516204688 -152.84862146355044 0 0 0 0 89.909913104824227 -7.2862746645787411 0 -7.2862746645787411 48.554515862875178 0 0 0 0 -152.7403362590303 331.54535060503258 0 331.54535060503258 -246.79958076299317 0 0 0 0 -274.30127999289334 -193.43942575231097 0 -193.43942575231097 -338.18451819877373 0 0 0 0 73.296127688989145 -209.78542609955093 0 -209.78542609955093 -607.48966273829592 0 0 0 0 19.378627775873095 -25.392884630402946 0 -25.392884630402946 -119.30491501672495 0 0 0 0 284.92608938101512 -224.69542653785493 0 -224.69542653785493 -1256.7888799441316 0 0 0 0 -147.17186324165596 -17.901532232954196 0 -17.901532232954196 -389.85380469101437 0 0 0 0 -11.398812290838045 -9.8071013132987463 0 -9.8071013132987463 -28.261657606404274 0 0 0 0 -10.180855218229453 693.56904781588673 0 693.56904781588673 600.64292883669259 0 0 0 0 388.64798417959844 149.88863518769131 0 149.88863518769131 244.75849662871406 0 0 0 0 76.240989444121624 523.43407298580405 0 523.43407298580405 -170.83994754785635 0 0 0 0 -12.81936199228821 24.258568086854609 0 24.258568086854609 -42.244424498371188 0 0 0 0 414.97339785135409 714.77038751867349 0 714.77038751867349 16.103912052881242 0 0 0 0 194.71738724841271 149.3777394337194 0 149.3777394337194 234.09793214847832 0 0 0 0 -101.81856063933742 -368.14369861316641 0 -368.14369861316641 -895.15984909587723 0 0 0 0 -181.51186656346226 -389.37276556200322 0 -389.37276556200322 -560.01054773959856 0 0 0 0 5.7301839707284952 29.457548420012373 0 29.457548420012373 -83.666859502475461 0 0 0 0 511.00257326085648 109.23422010188324 0 109.23422010188324 -266.86780794751394 0 0 0 0 433.3495534084991 240.7990402022001 0 240.7990402022001 -144.928466558129 0 0 0 0 61.501573988417476 39.188156940771478 0 39.188156940771478 -355.00466519670681 0 0 0 0 250.03096149654448 0.19766220104793319 0 0.19766220104793319 -220.80963727540075 0 0 0 0 136.73071552069996 -220.16405589623355 0 -220.16405589623355 -365.51150623161175 0 0 0 0 218.82637562271157 261.25545457474209 0 261.25545457474209 -153.94589402563724 0 0 0 0 429.61552035969635 -58.153091543617393 0 -58.153091543617393 -160.33048253898596 0 0 0 0 454.76052498315039 27.933215849985572 0 27.933215849985572 -551.38029496129548 0 0 0 0 180.55059557643108 -11.130616135124001 0 -11.130616135124001 -787.81692391032993 0 0 0 0 138.98526950457381 -23.142679181282801 0 -23.142679181282801 -774.63784748144826 0 0 0 0 163.4613643652483 -129.95146385205589 0 -129.95146385205589 -1101.9925255958369 0 0 0 0 235.04077870885158 -51.929955216373855 0 -51.929955216373855 -1284.7986314835143 0 0 0 0 203.98526339359523 12.848129690988571 0 12.848129690988571 -1362.9867978239417 0 0 0 0 -18.297771928628208 34.783839314790384 0 34.783839314790384 -97.025711826800034 0 0 0 0 14.46757017593711 23.930879444306164 0 23.930879444306164 -120.76641506333684 0 0 0 0 75.832376308924722 -57.54566973125111 0 -57.54566973125111 -272.78060750219447 0 0 0 0 93.177495245436148 -71.423988513039149 0 -71.423988513039149 -488.65964363698731 0 0 0 0 110.74691876003635 139.00334130380361 0 139.00334130380361 -119.20275878186658 0 0 0 0 -64.749298793489288 103.96405411095111 0 103.96405411095111 -115.35589651392365 0 0 0 0 61.59239702103514 261.89959826253107 0 261.89959826253107 -339.12811351400887 0 0 0 0 41.710261101032899 -0.015649973163860409 0 -0.015649973163860409 -30.487969105407174 0 0 0 0 6.2264906435739249 138.99534120910903 0 138.99534120910903 -246.87220372006414 0 0 0 0 27.857814590912312 25.864020837201679 0 25.864020837201679 -94.919508751507237 0 0 0 0 10.129702966129116 20.621350835343037 0 20.621350835343037 -37.625177484223968 0 0 0 0 -140.86236828830079 143.89480773196556 0 143.89480773196556 -100.4290852896811 0 0 0 0 -18.343676654649244 -56.392413193807897 0 -56.392413193807897 -57.464272664597956 0 0 0 0 -25.8781152911547 102.38541408807214 0 102.38541408807214 -141.67986294384173 0 0 0 0 -216.49424089812965 -13.109017712013156 0 -13.109017712013156 -16.814455570653081 0 0 0 0 -0.43236541780061089 84.258685024920851 0 84.258685024920851 -145.35738678215421 0 0 0 0 25.43287394613759 29.303127151590502 0 29.303127151590502 -50.900184002153225 0 0 0 0 43.414399753863108 -15.03314346211846 0 -15.03314346211846 -223.58334936188476 0 0 0 0 39.809052398224594 24.630540398029552 0 24.630540398029552 -54.656396082675201 0 0 0 0 91.333913725029561 17.792413712748385 0 17.792413712748385 -92.307746338818106 0 0 0 0 67.335995421115811 25.670321910985628 0 25.670321910985628 -120.52650994340584 0 0 0 0 38.117482553719981 29.684958051775045 0 29.684958051775045 -108.72001932655513 0 0 0 0 105.75988524901913 39.642241162928258 0 39.642241162928258 -26.316146917361039 0 0 0 0 113.31498325076245 23.445220032059296 0 23.445220032059296 -7.9091331324307248 0 0 0 0 60.711480690703311 13.979549989711799 0 13.979549989711799 -47.201063607642951 0 0 0 0 45.094109546967587 57.599608352915936 0 57.599608352915936 -65.390064800766936 0 0 0 0 90.298187779961154 -27.646564194006714 0 -27.646564194006714 -40.7405775100342 0 0 0 0 62.290268945507705 18.415509759037377 0 18.415509759037377 -73.597631426106091 0 0 0 0 35.317420962372125 -7.0338992105107536 0 -7.0338992105107536 -94.431920218288724 0 0 0 0 25.22659643994848 -12.852018818202851 0 -12.852018818202851 -27.457630609413172 0 0 0 0 21.332778838303057 1.8600595470652479 0 1.8600595470652479 -76.287323196673242 0 0 0 0 1.5979153831408013 11.10180507157051 0 11.10180507157051 3.365744507797757 0 0 0 0 58.559912235170486 94.740257573637791 0 94.740257573637791 -25.323748385788349 0 0 0 0 -44.785495078482199 -56.926403461795417 0 -56.926403461795417 443.7608976730553 0 0 0 0 0.75369462596427184 35.372435858866083 0 35.372435858866083 -115.94653319193458 0 0 0 0 22.360074660420651 21.476010369566211 0 21.476010369566211 -119.32028190421988 0 0 0 0 81.907408295146524 -24.023487882109293 0 -24.023487882109293 -113.00879073795659 0 0 0 0 -59.34949397965579 -151.61781351004129 0 -151.61781351004129 -109.49987445871739 0 0 0 0 19.477043747184297 -4.4778901720353996 0 -4.4778901720353996 -2.2281674142814012 0 0 0 0 39.278895047184051 -49.980556111309852 0 -49.980556111309852 -5.9253894122175552 0 0 0 0 102.07200398169481 -2.1549656322201418 0 -2.1549656322201418 -28.615721599878647 0 0 0 0 122.15045668448874 -71.867776531463278 0 -71.867776531463278 -222.8458113095985 0 0 0 0 301.75060355753703 -41.946273508877312 0 -41.946273508877312 -220.28505043665064 0 0 0 0 232.00780681191827 18.580850331270995 0 18.580850331270995 -208.08995861489893 0 0 0 0 68.408493411974632 36.350899823090458 0 36.350899823090458 -94.554381945560635 0 0 0 0 116.64268190163421 39.502299850893905 0 39.502299850893905 -206.38447055135111 0 0 0 0 292.36517483665375 47.258204209490486 0 47.258204209490486 -215.44351246307997 0 0 0 0 84.634971722231057 96.066320828811513 0 96.066320828811513 -73.744948731097793 0 0 0 0 93.550475022388127 -4.003711364100127 0 -4.003711364100127 -75.545786996983225 0 0 0 0 79.833172016733698 25.804081205864598 0 25.804081205864598 -117.78635746025607 0 0 0 0 60.36163781951052 44.723613487088784 0 44.723613487088784 -106.97059827377373 0 0 0 0 22.058211100258632 40.113831653026864 0 40.113831653026864 -59.347789253821247 0 0 0 0 62.337530022947604 52.236612508174971 0 52.236612508174971 -91.030602708268916 0 0 0 0 59.640898926782285 36.340629261884644 0 36.340629261884644 -83.747897198899111 0 0 0 0 87.098605210442102 14.682281222393161 0 14.682281222393161 -50.081283039237746 0 0 0 0 78.683417893655133 20.419539033581032 0 20.419539033581032 -70.018256330129589 0 0 0 0 44.243239038445616 31.562745600324476 0 31.562745600324476 -68.134654415443606 0 0 0 0 174.50701239951013 -13.207232745057809 0 -13.207232745057809 -72.956653945297148 0 0 0 0 90.199038232207386 40.878072353705647 0 40.878072353705647 -93.716594379485286 0 0 0 0 116.46654151608163 20.824957531621749 0 20.824957531621749 -81.058008119751776 0 0 0 0 94.22441857017111 18.604839981631471 0 18.604839981631471 -72.797963435648853 0 0 0 0 115.79266251217996 47.312551391896704 0 47.312551391896704 -79.311626882314158 0 0 0 0 94.76020765276553 17.464640080828758 0 17.464640080828758 -70.466181304371048 0 0 0 0 23.607837194562574 32.19609466459373 0 32.19609466459373 -72.073820872898082 0 0 0 0 199.95819083164679 -24.318866135704411 0 -24.318866135704411 -111.38350730560705 0 0 0 0 73.713458082303987 -13.456833200747496 0 -13.456833200747496 -53.913235696858465 0 0 0 0 99.101275831708335 82.790684194322239 0 82.790684194322239 -97.3794418113539 0 0 0 0 130.17131151876674 40.768021390977083 0 40.768021390977083 -115.20445340416336 0 0 0 0 71.223541559753357 38.822309060886255 0 38.822309060886255 -158.31655168645375 0 0 0 0 98.733971901425321 3.0787973450641744 0 3.0787973450641744 -96.00556413311233 0 0 0 0 80.593582209414308 21.099505110627888 0 21.099505110627888 -72.412444269250955 0 0 0 0 27.458586909778216 34.131335443672491 0 34.131335443672491 -77.545160130559339 0 0 0 0 36.753499765502056 40.152659769617458 0 40.152659769617458 -249.54552365565905 0 0 0 0 14.611443324232823 58.71583007270965 0 58.71583007270965 -259.6982747504735 0 0 0 0 -1.2198319586732396 27.542911560540915 0 27.542911560540915 -189.98729111945431 0 0 0 0 -10.022419362532673 63.092953105478955 0 63.092953105478955 -226.96650473689078 0 0 0 0 -1.486513429869774 22.116190656388881 0 22.116190656388881 -255.7450369260041 0 0 0 0 138.88295244442998 -12.281255807927664 0 -12.281255807927664 -278.10166889035463 0 0 0 0 272.74768336190755 1107.2217594782428 0 1107.2217594782428 -568.38210202422488 0 0 0 0 -5.294383578315319 -91.933666278520832 0 -91.933666278520832 -313.37268302278244 0 0 0 0 -120.31392131090979 -19.898825151176425 0 -19.898825151176425 -163.0131915640668 0 0 0 0 -55.642137780843768 12.430075827986002 0 12.430075827986002 -192.64567966572213 0 0 0 0 -23.304572694352828 54.470708483255294 0 54.470708483255294 -169.74505282858445 0 0 0 0 -94.033128462542663 24.451184137473319 0 24.451184137473319 -135.50424225465395 0 0 0 0 -34.634927349601639 52.200529667214141 0 52.200529667214141 -122.65893887275161 0 0 0 0 6.5540562382084318 46.287522668739257 0 46.287522668739257 -153.51864223738085 0 0 0 0 -13.806865613689297 23.961888686404563 0 23.961888686404563 -113.28274763459922 0 0 0 0 -15.979115660593379 41.052355342617375 0 41.052355342617375 -152.64527551340871 0 0 0 0 1.3296949409632361 69.635673707241949 0 69.635673707241949 -179.04799598676618 0 0 0 0 -10.95501523691928 64.625586493832088 0 64.625586493832088 -180.0134761708614 0 0 0 0 -1.2587389079853892 89.477931613924738 0 89.477931613924738 -219.60895735165104 0 0 0 0 -7.4814311253430787 76.890267534916347 0 76.890267534916347 -143.71810033809743 0 0 0 0 14.018417968218273 41.507170423101343 0 41.507170423101343 -154.46028543557622 0 0 0 0 6.5807725476321934 34.424664888265603 0 34.424664888265603 -95.922055148992513 0 0 0 0 37.447828430929803 58.13110316858365 0 58.13110316858365 -144.83570437658636 0 0 0 0 44.370098764717113 8.9146662809580448 0 8.9146662809580448 -91.14687326036983 0 0 0 0 93.178941773147017 57.827858566068699 0 57.827858566068699 -135.70811954277451 0 0 0 0 9.5488345390331233 123.51474345733732 0 123.51474345733732 -157.09314558180267 0 0 0 0 0.83593823089904618 61.253414571863686 0 61.253414571863686 -110.6203676730438 0 0 0 0 3.3406991005758755 101.73018120524102 0 101.73018120524102 -209.13143558798765 0 0 0 0 -3.446678775610053 165.95027251114698 0 165.95027251114698 -302.52034335917415 0 0 0 0 -35.325200281884463 140.43622768079513 0 140.43622768079513 -194.36393187870999 0 0 0 0 23.713591824161995 82.144370227561012 0 82.144370227561012 -186.77092048737541 0 0 0 0 -6.8790961175836856 112.6052445034511 0 112.6052445034511 -182.00093186223239 0 0 0 0 0.011653845605906099 103.94177553494228 0 103.94177553494228 -213.19886315902841 0 0 0 0 8.6515561946362141 110.43401849021029 0 110.43401849021029 -240.64809139422141 0 0 0 0 -1.7336111140466528 137.32649171769663 0 137.32649171769663 -242.40656178339941 0 0 0 0 10.426368334257859 136.57156115075122 0 136.57156115075122 -280.7381321034045 0 0 0 0 4.3453621261014632 161.04116592129367 0 161.04116592129367 -322.29783481478808 0 0 0 0 8.8637304781987041 116.56183022194364 0 116.56183022194364 -281.77114088260714 0 0 0 0 26.450456788414158 97.082466324638517 0 97.082466324638517 -260.34428549058782 0 0 0 0 14.023363045453152 167.52620441646104 0 167.52620441646104 -390.80655441114504 0 0 0 0 5.3930955425603315 167.33947336147685 0 167.33947336147685 -321.81917279716299 0 0 0 0 7.4666008244385011 180.71339196557801 0 180.71339196557801 -372.17340251983842 0 0 0 0 19.39214178291877 181.93409652593436 0 181.93409652593436 -372.5762201768448 0 0 0 0 -7.0517113935347879 166.63305728793421 0 166.63305728793421 -302.25517337475503 0 0 0 0 0.65313070267438889 192.20890550899639 0 192.20890550899639 -363.73744454312691 0 0 0 0 16.323323077464011 134.45099939870852 0 134.45099939870852 -465.45452254359407 0 0 0 0 19.2780275735131 151.69258083440945 0 151.69258083440945 -369.65997102916299 0 0 0 0 -18.29412842142483 165.75550759110229 0 165.75550759110229 -493.00058946573699 0 0 0 0 17.813408600675757 142.84935879076875 0 142.84935879076875 -846.7753352681757 0 0 0 0 -43.978542404915061 155.5310394450064 0 155.5310394450064 -321.39023141789949 0 0 0 0 -35.621024804320768 235.14295577524172 0 235.14295577524172 -400.32795378912851 0 0 0 0 -69.378179782273946 195.88873948610126 0 195.88873948610126 -247.14283865139078 0 0 0 0 -7.4636341882287525 125.42458894844094 0 125.42458894844094 -275.24762948963325 0 0 0 0 -109.96247313391359 206.53840126049545 0 206.53840126049545 -270.07546476559946 0 0 0 0 -33.163697568117641 240.38262213530106 0 240.38262213530106 -508.18704581767724 0 0 0 0 98.786081834652578 417.98401821932202 0 417.98401821932202 -1200.447551158235 0 0 0 0 -43.854141821328085 248.83745275100227 0 248.83745275100227 -506.81118693816097 0 0 0 0 -5.6266104766384331 2.1050286297765979 0 2.1050286297765979 -1.8460616752490822 0 0 0 0 159.15848972462118 -67.693696334548804 0 -67.693696334548804 -1285.282549375559 0 0 0 0 -106.51880080686533 120.28800557750947 0 120.28800557750947 97.214268340729177 0 0 0 0 152.39520991651807 -211.64104537464664 0 -211.64104537464664 53.391886560656076 0 0 0 0 -70.641269746785838 -130.38683472163666 0 -130.38683472163666 -539.84747800366313 0 0 0 0 -47.609510484762723 -172.99502407038381 0 -172.99502407038381 -749.9283015326364 0 0 0 0 -12.486192591131839 79.743821944774027 0 79.743821944774027 -264.15601421986139 0 0 0 0 -63.71605670604913 74.169638049552304 0 74.169638049552304 -173.89448621077463 0 0 0 0 -14.382402136614814 10.427275938446186 0 10.427275938446186 -1.7855619102607108 0 0 0 0 -43.463940408124472 -16.370526969538332 0 -16.370526969538332 -222.85732617680333 0 0 0 0 0.16896473670203704 34.250890512827027 0 34.250890512827027 -403.43310296392883 0 0 0 0 42.226190679583894 5.9183214000401971 0 5.9183214000401971 -54.54969498636769 0 0 0 0 190.15977769410529 46.848898175804152 0 46.848898175804152 -514.03861074544102 0 0 0 0 -129.48167552344239 277.96033084138344 0 277.96033084138344 368.12113219098319 0 0 0 0 55.901087084093888 -200.09889955896961 0 -200.09889955896961 -836.38551027193898 0 0 0 0 33.825983574761501 31.276810267004123 0 31.276810267004123 -129.10129298524294 0 0 0 0 187.93531400632855 -445.86006087909664 0 -445.86006087909664 -627.09259296748496 0 0 0 0 10.466218343444581 8.5080150290925811 0 8.5080150290925811 -15.081428452433968 0 0 0 0 338.05969740076034 189.60639749524853 0 189.60639749524853 -477.63673936820487 0 0 0 0 -124.81189222776447 -358.84421738459059 0 -358.84421738459059 -532.37331913743401 0 0 0 0 15.843385094789198 9.8422321442369594 0 9.8422321442369594 -30.510087649336384 0 0 0 0 66.12112816919398 160.97976490184374 0 160.97976490184374 5.1858816520125401 0 0 0 0 77.161045554894372 202.147359602488 0 202.147359602488 -264.93301180137496 0 0 0 0 -21.855032782565104 130.97582541526936 0 130.97582541526936 -118.77190205393345 0 0 0 0 -633.32306517101824 -160.77669342005538 0 -160.77669342005538 -560.82502903117529 0 0 0 0 1.5314575278607663 97.79029678965162 0 97.79029678965162 -375.46375600923784 0 0 0 0 -196.39005218747479 725.10968388734909 0 725.10968388734909 -471.52509445971646 0 0 0 0 -71.784068821492838 -297.26638302276842 0 -297.26638302276842 -602.12833281626808 0 0 0 0 -44.171613075614047 65.440758163629994 0 65.440758163629994 -56.510207623761346 0 0 0 0 -258.94206919174758 394.70221492067503 0 394.70221492067503 -744.4288352993608 0 0 0 0 -155.42292867580909 163.00308600457674 0 163.00308600457674 -34.943202420758553 0 0 0 0 -7.6166335037523822 65.628007831654941 0 65.628007831654941 -187.30345168544545 0 0 0 0 -3.4528056056642313 20.655080168110757 0 20.655080168110757 -25.098712357421647 0 0 0 0 1352.5724241854259 -255.1369900651207 0 -255.1369900651207 -1505.7468663045074 0 0 0 0 233.38474672375742 808.99235261298418 0 808.99235261298418 1082.6661026194397 0 0 0 0 94.519829507105896 -90.551776428640551 0 -90.551776428640551 -905.83659396919234 0 0 0 0 -65.021697361094994 586.18717048844246 0 586.18717048844246 -687.73034577438375 0 0 0 0 226.16058515999612 1291.0844459777036 0 1291.0844459777036 505.72649447920048 0 0 0 0 251.64230890405452 268.72039345721714 0 268.72039345721714 11.607614538675989 0 0 0 0 -212.28310012967813 33.726010628739459 0 33.726010628739459 -85.703220863655588 0 0 0 0 7.9505195471374037 -2.9329161313949754 0 -2.9329161313949754 -84.337098539132057 0 0 0 0 401.18922974278394 59.436104532176614 0 59.436104532176614 -205.73726145550609 0 0 0 0 6.3246513523623236 -2.6543863079094336 0 -2.6543863079094336 -13.231690167574328 0 0 0 0 239.55620979961532 -40.45936794183217 0 -40.45936794183217 -101.61426380199555 0 0 0 0 174.49238076588517 38.553909302274405 0 38.553909302274405 -93.479359192104312 0 0 0 0 103.30538430226443 10.111336312060303 0 10.111336312060303 -41.039204567365232 0 0 0 0 -105.66026105792844 -23.845834687285787 0 -23.845834687285787 -55.74133155769232 0 0 0 0 -39.55928813618084 -35.785209218265663 0 -35.785209218265663 -157.31281423210748 0 0 0 0 21.204690410100739 74.635880565198022 0 74.635880565198022 -74.225735261563386 0 0 0 0 211.93291120886715 89.228419660053987 0 89.228419660053987 -124.11546688473754 0 0 0 0 2.8248816491141042 -63.946925571635802 0 -63.946925571635802 -277.01280112568202 0 0 0 0 -70.483222693634161 3.3642743022683135 0 3.3642743022683135 -96.064476308308258 0 0 0 0 -247.50941286127636 -581.95898484979625 0 -581.95898484979625 -835.34154500052318 0 0 0 0 -343.99239618807042 -209.71053433362249 0 -209.71053433362249 168.29007014280796 0 0 0 0 -168.04948221201994 -329.92103453867458 0 -329.92103453867458 -255.82391651452781 0 0 0 0 -151.87059287407465 -224.18108015229518 0 -224.18108015229518 -390.47962970103981 0 0 0 0 -181.37519252397396 -214.13664665147917 0 -214.13664665147917 -393.83675440026127 0 0 0 0 -118.08743169347872 -256.01393059037582 0 -256.01393059037582 -855.42831850412949 0 0 0 0 16.543276499532112 -265.12841884980025 0 -265.12841884980025 -565.32618866904522 0 0 0 0 13.797640773864259 -146.53714197933368 0 -146.53714197933368 -609.56892948032782 0 0 0 0 0.11468699507804558 19.066572889523741 0 19.066572889523741 -208.39360121601203 0 0 0 0 -66.676985051775773 -46.420913977925011 0 -46.420913977925011 -168.14688757410477 0 0 0 0 5.6097059043313493 -8.9389649284312327 0 -8.9389649284312327 -237.92273509977895 0 0 0 0 42.085795805288399 -44.612028770746292 0 -44.612028770746292 -178.52690748800524 0 0 0 0 -35.4636525509286 62.764826394592092 0 62.764826394592092 -1.201881513796252 0 0 0 0 30.563187279723934 -39.298195256375038 0 -39.298195256375038 -185.21192431242889 0 0 0 0 15.319808242678846 16.889569760089216 0 16.889569760089216 -92.881550486999913 0 0 0 0 44.50549671025874 54.10109158220439 0 54.10109158220439 -15.237063206441235 0 0 0 0 -1.2535860281712132 3.1576673429649702 0 3.1576673429649702 -3.5804331601179271 0 0 0 0 27.395267064065639 -2.3197788396541839 0 -2.3197788396541839 -31.370384249221175 0 0 0 0 45.529374107591138 -1.9087530129108927 0 -1.9087530129108927 -49.760139027552214 0 0 0 0 31.419389483917321 26.846661468448254 0 26.846661468448254 -28.742718415878329 0 0 0 0 19.577822829120123 -12.469433009959175 0 -12.469433009959175 -106.84239561808135 0 0 0 0 12.677612729263274 -11.945248871190415 0 -11.945248871190415 -68.972885974500969 0 0 0 0 19.745539918374561 14.074671564972959 0 14.074671564972959 -62.319296734945965 0 0 0 0 91.221883157142656 18.532122308384714 0 18.532122308384714 -76.791578201198718 0 0 0 0 35.591904418182821 15.776288699735233 0 15.776288699735233 -59.676030563721724 0 0 0 0 91.724823746517359 -1.7911385577781402 0 -1.7911385577781402 -61.19079461002184 0 0 0 0 163.38041118564252 10.651508118769925 0 10.651508118769925 -59.22747400452954 0 0 0 0 17.670723615340023 18.388826347460622 0 18.388826347460622 -73.31394891115491 0 0 0 0 165.26858838086264 16.534652437294426 0 16.534652437294426 -43.673147046531085 0 0 0 0 18.976363227674671 -3.9286694726051508 0 -3.9286694726051508 -52.104982164816342 0 0 0 0 90.36015304303146 16.19841072287818 0 16.19841072287818 -31.613822660438018 0 0 0 0 46.421101646914394 28.778300591720665 0 28.778300591720665 -54.695970760899364 0 0 0 0 53.328625622846943 -7.5921228912977057 0 -7.5921228912977057 -91.696987608148945 0 0 0 0 69.135954116249422 -25.683252730931201 0 -25.683252730931201 -151.71773848593057 0 0 0 0 65.929570293719735 -18.270116286437769 0 -18.270116286437769 -98.986023491775995 0 0 0 0 80.604045530968506 71.195960679972814 0 71.195960679972814 -110.32375947061519 0 0 0 0 47.529514974423307 11.079929092460596 0 11.079929092460596 -42.935715285679954 0 0 0 0 56.629275667990441 70.994841192135937 0 70.994841192135937 -68.063929454503523 0 0 0 0 -30.879071584585361 -46.832072594290366 0 -46.832072594290366 -97.191552709788084 0 0 0 0 2.398981848831319 5.9186027018122331 0 5.9186027018122331 -17.054288371394193 0 0 0 0 -33.460903654783472 -53.616022425238043 0 -53.616022425238043 -92.999890112492722 0 0 0 0 -30.684079854523105 -45.350452942191623 0 -45.350452942191623 -86.48552301597374 0 0 0 0 -33.284045633604315 -52.393565624850453 0 -52.393565624850453 -84.687769168584055 0 0 0 0 1.0586670251102324 -0.193679195517376 0 -0.193679195517376 -9.1239234326683345 0 0 0 0 -0.056158279418413164 -18.808276642128476 0 -18.808276642128476 -52.582300546040642 0 0 0 0 -347.83176625306555 -876.98827153286402 0 -876.98827153286402 -1636.4307340814412 0 0 0 0 -142.84932526310044 -543.5559359996696 0 -543.5559359996696 -1592.9598550540104 0 0 0 0 63.69531660285358 -497.59580353833735 0 -497.59580353833735 -1541.3475423329364 0 0 0 0 39.635208052872088 -540.45719702987117 0 -540.45719702987117 -1497.090353658481 0 0 0 0 -24.991589089656827 0.81263117094931658 0 0.81263117094931658 -1165.9979731658677 0 0 0 0 -256.92340756815219 -627.24289902155579 0 -627.24289902155579 -967.42350884720508 0 0 0 0 -52.504799732084912 -76.654544500034405 0 -76.654544500034405 -39.507586012589798 0 0 0 0 -9.903275609783849 -7.3679090767100774 0 -7.3679090767100774 -45.243936732173495 0 0 0 0 -82.991925259747234 -130.50173230986547 0 -130.50173230986547 -781.05334932090409 0 0 0 0 -57.403328789031377 -64.885132151939615 0 -64.885132151939615 -147.71559350524331 0 0 0 0 -72.755452227845339 -57.253375648767474 0 -57.253375648767474 -27.225590778121855 0 0 0 0 -208.05870397377029 -265.51993107787712 0 -265.51993107787712 -637.48354187478253 0 0 0 0 362.35626171710101 -653.29747451789444 0 -653.29747451789444 338.5111422446862 0 0 0 0 675.5530345174011 35.196871447420563 0 35.196871447420563 -109.51395263287122 0 0 0 0 -9.6516740519151085 -20.097209881097115 0 -20.097209881097115 -15.585012956564981 0 0 0 0 -93.639848066524792 -141.59127552756036 0 -141.59127552756036 -428.41224296329892 0 0 0 0 -127.64063860084207 -117.28507062153949 0 -117.28507062153949 -104.1858848471602 0 0 0 0 -85.973461080535344 -307.75935567919805 0 -307.75935567919805 -568.55273870646488 0 0 0 0 -68.144225304453357 -173.48480384473805 0 -173.48480384473805 -497.80997756382567 0 0 0 0 -39.996421569919484 -75.357504066287049 0 -75.357504066287049 -51.254851265986616 0 0 0 0 16.769498315354255 -49.566058610842447 0 -49.566058610842447 -211.07567786063009 0 0 0 0 40.725688704639545 49.83675496908964 0 49.83675496908964 -56.263184487519652 0 0 0 0 -9.8121638796346815 -145.26535440824955 0 -145.26535440824955 -386.20367384585552 0 0 0 0 -21.131668635622816 -53.65774926613085 0 -53.65774926613085 -140.21094800831634 0 0 0 0 -58.044378484043932 -66.511589517562243 0 -66.511589517562243 -116.80846717476379 0 0 0 0 -39.784509516713172 -46.809107437744387 0 -46.809107437744387 -96.185638022972853 0 0 0 0 -0.032846963769037202 -47.624707097114879 0 -47.624707097114879 -114.40972268882615 0 0 0 0 -17.891743651814725 -65.86862413990093 0 -65.86862413990093 -130.11598719726317 0 0 0 0 2.5686518711672695 -0.088226157220447021 0 -0.088226157220447021 -40.963920219457123 0 0 0 0 -0.042545268945745639 -38.573387460230151 0 -38.573387460230151 -123.06663210413535 0 0 0 0 -3.4739343633963626 -11.859949615084474 0 -11.859949615084474 -38.564924355137691 0 0 0 0 -30.129616252901769 -54.729836574202636 0 -54.729836574202636 -119.7555485246412 0 0 0 0 17.497317162951632 -26.602875701821176 0 -26.602875701821176 -343.90039497946418 0 0 0 0 -22.955001978213325 -58.58747041875904 0 -58.58747041875904 -104.76854380517034 0 0 0 0 0.018023691586877201 -74.552556005786755 0 -74.552556005786755 -193.58076036092825 0 0 0 0 13.414245472879458 -33.0687600326346 0 -33.0687600326346 -201.85989026720927 0 0 0 0 -0.24707062939154412 -0.94877202255582915 0 -0.94877202255582915 -0.62082166248075765 0 0 0 0 38.578810396153102 -70.422852731720923 0 -70.422852731720923 -386.22332458375604 0 0 0 0 0.016141017763976057 -83.069581268548362 0 -83.069581268548362 -362.00666501151863 0 0 0 0 -0.07476394367953515 -0.62876999852989002 0 -0.62876999852989002 -0.669021650343538 0 0 0 0 65.562617297961509 -36.357333365813247 0 -36.357333365813247 -506.39495960331988 0 0 0 0 44.963709144675505 26.254746139515191 0 26.254746139515191 -234.8922396050184 0 0 0 0 44.798050362704259 -46.086617341265082 0 -46.086617341265082 -369.57339766892255 0 0 0 0 96.416244141408868 -51.311265016338439 0 -51.311265016338439 -379.91404146482819 0 0 0 0 61.281860252170702 66.388734730193391 0 66.388734730193391 -180.31214741891017 0 0 0 0 -5.975004137158372 -42.415110587472554 0 -42.415110587472554 -39.804973342223093 0 0 0 0 52.661470675963017 0.72273594202124514 0 0.72273594202124514 -189.50601828621075 0 0 0 0 3.2782445037283523 47.341021981603262 0 47.341021981603262 -7.7339446186670102 0 0 0 0 44.583382298498464 -80.209973603079561 0 -80.209973603079561 -15.515528488554992 0 0 0 0 0.22824532218419336 -21.07968698287732 0 -21.07968698287732 7.5400594395468943 0 0 0 0 0.012699781769045508 -58.462732023181161 0 -58.462732023181161 -154.1409028408525 0 0 0 0 -8.5966169965129353 -3.2172069627558812 0 -3.2172069627558812 -11.4014987941664 0 0 0 0 -16.190346565843811 -32.767824043869041 0 -32.767824043869041 -65.866698613972403 0 0 0 0 -50.968502642439717 -212.04042882128851 0 -212.04042882128851 -306.87530126981437 0 0 0 0 -35.233266893278596 -125.71734801551793 0 -125.71734801551793 -392.71926238556625 0 0 0 0 -131.10505992926804 -197.36065837796195 0 -197.36065837796195 -296.34207948867697 0 0 0 0 -1.9174429316423984 0.32133883883560088 0 0.32133883883560088 0.21811763712861421 0 0 0 0 -251.26856303849121 -177.24380288465181 0 -177.24380288465181 -64.020400743698701 0 0 0 0 -4.7549911990452074 -6.4835603733954486 0 -6.4835603733954486 -0.26339474855922163 0 0 0 0 -4.9379512555587688 -7.3432611220686397 0 -7.3432611220686397 1.5194419238103478 0 0 0 0 -0.87231981087713262 -0.63526156609717077 0 -0.63526156609717077 0.14484911919140586 0 0 0 0 -132.57316605903634 0.52968131771194749 0 0.52968131771194749 48.319480889942497 0 0 0 0 0.30110830815001921 -1.6605060913043701 0 -1.6605060913043701 -2.2568686146119603 0 0 0 0 12.313981186798969 -49.982078819080925 0 -49.982078819080925 9.2254560985602438 0 0 0 0 -4.8943783609120999 -4.0112447366818742 0 -4.0112447366818742 -3.9097457221942022 0 0 0 0 19.39499666517986 9.9688762429141207 0 9.9688762429141207 -19.50929563853424 0 0 0 0 -197.2987316986364 -80.03786845493596 0 -80.03786845493596 -36.401186672970653 0 0 0 0 -49.344767354372834 152.29408667328244 0 152.29408667328244 -222.16406342685514 0 0 0 0 25.016840948897411 -61.689650761763914 0 -61.689650761763914 -0.21111544710583985 0 0 0 0 -69.193953728459746 -0.067107457405654714 0 -0.067107457405654714 0.80656474328134209 0 0 0 0 -259.75034870182071 -245.34622639977169 0 -245.34622639977169 -203.80950803041924 0 0 0 0 -0.55201121826569621 -1.1893547164400928 0 -1.1893547164400928 -3.5999268412009542 0 0 0 0 81.398298702024874 35.816217342704476 0 35.816217342704476 -526.67978242319077 0 0 0 0 67.225820697043559 -127.08481185956043 0 -127.08481185956043 -576.45663549708115 0 0 0 0 51.019146137425651 -115.30067435605451 0 -115.30067435605451 -715.96787719462009 0 0 0 0 -69.420411924271605 -337.8374030667328 0 -337.8374030667328 -518.64238052046858 0 0 0 0 -49.644256172788346 -206.4885386271344 0 -206.4885386271344 -310.97406929321005 0 0 0 0 -49.537305581426935 -204.57387250598549 0 -204.57387250598549 -363.43252212600783 0 0 0 0 40.129986888678367 -102.85761995265784 0 -102.85761995265784 -428.99551154405344 0 0 0 0 28.441144647197092 -92.003622626711149 0 -92.003622626711149 -386.9361410481506 0 0 0 0 -155.9021198820341 -42.583900348239695 0 -42.583900348239695 -24.577443283284083 0 0 0 0 -18.641104140751139 28.966209120517306 0 28.966209120517306 -221.54780395905254 0 0 0 0 49.085429817362808 21.382552853727248 0 21.382552853727248 -406.52262381991386 0 0 0 0 -19.522053059592167 61.711425321176648 0 61.711425321176648 -557.36643628963793 0 0 0 0 61.963956236983904 -24.139536136295646 0 -24.139536136295646 -244.44370340678142 0 0 0 0 -74.346596376354057 -100.62482441982138 0 -100.62482441982138 -238.78026562203013 0 0 0 0 -320.67310802864193 -115.83831934890623 0 -115.83831934890623 -309.49980091687758 0 0 0 0 87.547531392975429 9.623961539065931 0 9.623961539065931 -277.34494878525584 0 0 0 0 57.21232220262138 49.838437354823043 0 49.838437354823043 -43.047888256215202 0 0 0 0 33.083398324003781 -36.294095166253101 0 -36.294095166253101 -254.45647290200577 0 0 0 0 -57.569002539162909 40.209787564599537 0 40.209787564599537 -192.32267304541892 0 0 0 0 256.99977292229448 -61.875204177747946 0 -61.875204177747946 -410.52793858691439 0 0 0 0 -0.18233936628509162 -0.23551281634729548 0 -0.23551281634729548 -0.3418310514844336 0 0 0 0 -212.79369369330379 -430.38775126583641 0 -430.38775126583641 -92.358157255395781 0 0 0 0 591.40724505421713 540.80007842377381 0 540.80007842377381 -299.58027089037932 0 0 0 0 69.136222369348943 47.420046832917677 0 47.420046832917677 -41.948925103773092 0 0 0 0 -106.88372574882504 59.355003683449468 0 59.355003683449468 -166.57682017990737 0 0 0 0 95.387647917694267 184.69890595159086 0 184.69890595159086 -438.36142212460982 0 0 0 0 60.713795070158085 47.365559931757161 0 47.365559931757161 -58.607094364536351 0 0 0 0 113.32800595592562 46.531681211694377 0 46.531681211694377 17.006150567525765 0 0 0 0 66.104485760294665 68.889075592578592 0 68.889075592578592 20.587766019263654 0 0 0 0 53.077139209340203 12.355905534976046 0 12.355905534976046 -280.354937947297 0 0 0 0 76.951082771482348 40.360294151731324 0 40.360294151731324 -57.996974244458244 0 0 0 0 94.353849404838229 11.662277701580024 0 11.662277701580024 -283.1028448867728 0 0 0 0 45.366765557118271 10.736631302192109 0 10.736631302192109 -160.04006361792199 0 0 0 0 72.840618301305199 31.270000357955723 0 31.270000357955723 -245.26164608006366 0 0 0 0 113.20018104433619 -17.697301950109249 0 -17.697301950109249 -263.70340811947244 0 0 0 0 83.802880868949529 21.562932100088801 0 21.562932100088801 -286.62770305584127 0 0 0 0 92.105386446490456 10.560292617199593 0 10.560292617199593 -347.19598145197961 0 0 0 0 44.522111280120839 17.251005291054753 0 17.251005291054753 -243.15930351032875 0 0 0 0 19.532043108441066 -37.206776885734143 0 -37.206776885734143 -329.46839343215106 0 0 0 0 -107.77623627547824 -55.512048886423145 0 -55.512048886423145 -281.92454566410743 0 0 0 0 73.531727633028538 -10.877566275303252 0 -10.877566275303252 -328.50290073259384 0 0 0 0 73.656427778732478 -13.355504240134906 0 -13.355504240134906 -309.20568409812404 0 0 0 0 109.56328147267095 1.0277908929856494 0 1.0277908929856494 -318.18506213647197 0 0 0 0 58.640266609312675 13.384194470680086 0 13.384194470680086 -269.03662162122782 0 0 0 0 84.506310223919385 -33.480004388881753 0 -33.480004388881753 -192.73572224067175 0 0 0 0 108.86440553502796 -4.3139349090006363 0 -4.3139349090006363 -278.60148381564068 0 0 0 0 89.406879252477665 1.7323144677939126 0 1.7323144677939126 -295.01319776201854 0 0 0 0 30.756413148562046 -81.171792881534202 0 -81.171792881534202 -141.69042405101936 0 0 0 0 -11.638531807107938 18.147187694637978 0 18.147187694637978 -125.01886513284262 0 0 0 0 76.933614854402322 -93.769151516455167 0 -93.769151516455167 -149.3016529957531 0 0 0 0 12.669918467950424 -27.393705696255495 0 -27.393705696255495 -98.735429640839868 0 0 0 0 13.504953639470106 -16.428368616282256 0 -16.428368616282256 -27.445270983565308 0 0 0 0 147.98880786566087 -27.213317245594226 0 -27.213317245594226 -90.811141712400058 0 0 0 0 38.283815535574732 -155.38811458442069 0 -155.38811458442069 -173.46118696272606 0 0 0 0 -88.322715521915995 -66.681586094753584 0 -66.681586094753584 -40.065009065699996 0 0 0 0 48.847418688745876 -59.898548894881969 0 -59.898548894881969 -367.02022850301 0 0 0 0 41.234852439244463 -33.800853841908975 0 -33.800853841908975 -171.85221042559715 0 0 0 0 112.14516359434992 -86.186550381389679 0 -86.186550381389679 -254.1659291357355 0 0 0 0 108.82207392292253 132.46522665974044 0 132.46522665974044 -321.6732612006308 0 0 0 0 4.5753206604608287 5.4707372139229378 0 5.4707372139229378 -108.23001266873064 0 0 0 0 79.283300670094832 -8.3601638097024988 0 -8.3601638097024988 -367.37229366163956 0 0 0 0 -206.45628781232335 271.65473230287898 0 271.65473230287898 -300.31569946525269 0 0 0 0 176.92417203972946 -2.0194235214585206 0 -2.0194235214585206 -144.84541762444132 0 0 0 0 1.816439783789499 14.109109899089319 0 14.109109899089319 -2.2481858665991581 0 0 0 0 1.3762680087093031 -1.4530233840996516 0 -1.4530233840996516 -136.28610874625156 0 0 0 0 59.004962751249629 5.3225490496747625 0 5.3225490496747625 -282.63147038538591 0 0 0 0 18.20664121717067 -22.742452887988208 0 -22.742452887988208 -125.62118600353432 0 0 0 0 26.744132071408103 -6.0841718631709227 0 -6.0841718631709227 -268.32419645598566 0 0 0 0 32.772337242206305 -7.6085488455818222 0 -7.6085488455818222 -120.01425984534708 0 0 0 0 108.27460614459778 -126.02349789206346 0 -126.02349789206346 -212.62379022460664 0 0 0 0 184.1110056479265 83.849613303355 0 83.849613303355 -319.85191465378739 0 0 0 0 8.3012208696635845 -15.174420480787617 0 -15.174420480787617 -49.085375520805655 0 0 0 0 9.9153175993142213 26.855144330074836 0 26.855144330074836 -78.827936464345839 0 0 0 0 40.931778725402843 1.5932161760621852 0 1.5932161760621852 -114.99460748108902 0 0 0 0 21.910753148986721 25.972967016380892 0 25.972967016380892 -77.713128314987614 0 0 0 0 40.569440938742446 27.420750446151942 0 27.420750446151942 -139.4928124807775 0 0 0 0 -5.3519788510859794 31.592021366994118 0 31.592021366994118 -17.156152592264732 0 0 0 0 10.649045915165516 38.430320806452073 0 38.430320806452073 -39.215966748437495 0 0 0 0 6.3110519423803879 23.771633290350167 0 23.771633290350167 -20.165542070948476 0 0 0 0 -396.54339738697036 425.13897497818107 0 425.13897497818107 38.139892193648848 0 0 0 0 -7.9826378892723007 24.666561172908814 0 24.666561172908814 -25.344026966770343 0 0 0 0 11.392111124365442 22.201159034611919 0 22.201159034611919 -69.438357426202856 0 0 0 0 -884.04133547800416 157.61408240445598 0 157.61408240445598 -49.24119805637747 0 0 0 0 343.0527936994622 129.0810932542081 0 129.0810932542081 -1672.68354544061 0 0 0 0 512.04489354089492 -203.9201355191035 0 -203.9201355191035 -1713.0810288400826 0 0 0 0 -646.62330910601042 -421.16698750009164 0 -421.16698750009164 -789.32320909050759 0 0 0 0 23.778159622692328 640.25068001746695 0 640.25068001746695 310.22885062317073 0 0 0 0 1218.0731448253682 603.03575078005088 0 603.03575078005088 -1240.0710673588292 0 0 0 0 1073.9198869534703 320.33324608956173 0 320.33324608956173 -2752.0733770850056 0 0 0 0 401.50251448783092 240.63424511690391 0 240.63424511690391 -1117.986664253629 0 0 0 0 266.16373168132668 174.87191765372881 0 174.87191765372881 -749.15611859237833 0 0 0 0 -464.70492926699444 -1329.547713656073 0 -1329.547713656073 -2289.0169809924555 0 0 0 0 512.23546151979644 -170.07382648276689 0 -170.07382648276689 -1686.4189853069984 0 0 0 0 192.80861916748108 -452.49739432037313 0 -452.49739432037313 -1165.8638453659369 0 0 0 0 -47.648607147530129 176.51224904767878 0 176.51224904767878 141.34692938171065 0 0 0 0 -66.99765058345929 349.55551677496624 0 349.55551677496624 -1851.567190101443 0 0 0 0 -6.8871346625193866 7.6163357283268738 0 7.6163357283268738 -9.0693148238127037 0 0 0 0 -0.04060510462231548 1.6552297663483131 0 1.6552297663483131 -11.468063873824576 0 0 0 0 500.73871132494969 -541.52085784550582 0 -541.52085784550582 -2207.6082213837581 0 0 0 0 -105.61175644207106 418.31192353685037 0 418.31192353685037 -217.83816404076788 0 0 0 0 710.7124164288698 82.483081537124235 0 82.483081537124235 -1211.5905242993613 0 0 0 0 -137.55867424803364 321.29867835866753 0 321.29867835866753 -67.61945158855815 0 0 0 0 518.58090971233469 -856.2929282476689 0 -856.2929282476689 -544.85970688377711 0 0 0 0 39.724806418376829 642.79438302701965 0 642.79438302701965 248.22202507985639 0 0 0 0 -969.46471383386597 -1529.858863816029 0 -1529.858863816029 2125.3891144579175 0 0 0 0 -69.403166820875427 -46.167843972592237 0 -46.167843972592237 -18.17632506174553 0 0 0 0 -2000.0259741245645 -135.09389219830337 0 -135.09389219830337 -446.16352793300757 0 0 0 0 1249.8267713253226 -1559.6636173976149 0 -1559.6636173976149 -205.32614457769887 0 0 0 0 -70.924991268241683 -257.900837729263 0 -257.900837729263 -1888.2201964869018 0 0 0 0 -257.93793008980845 -96.412069995669299 0 -96.412069995669299 -2026.9306823423867 0 0 0 0 51.169276868133636 -37.031736163939058 0 -37.031736163939058 -1639.2527015325322 0 0 0 0 -159.04578481977978 -674.59434124196559 0 -674.59434124196559 -1666.4269362266277 0 0 0 0 129.07910800145493 -565.83573672333296 0 -565.83573672333296 -1950.6486734371574 0 0 0 0 -525.35382902391973 -802.30584055566578 0 -802.30584055566578 -1518.2021941123676 0 0 0 0 -225.45683992039289 -930.92922929045744 0 -930.92922929045744 -2240.5055600175965 0 0 0 0 -1040.223062511323 -1762.4419703787789 0 -1762.4419703787789 -3065.8341985872539 0 0 0 0 -645.83464876247126 -321.97949385084212 0 -321.97949385084212 -1340.0954348217929 0 0 0 0 -1859.6451774218028 -1005.2151662551551 0 -1005.2151662551551 -1135.1735215582303 0 0 0 0 -4294.1450016675763 -3584.1935295735166 0 -3584.1935295735166 -2874.4311841701565 0 0 0 0 -1918.1900265638415 -2734.6160604079046 0 -2734.6160604079046 2123.3015058371238 0 0 0 0 -227.94072819377857 10.472115762531757 0 10.472115762531757 -3770.3639773875402 0 0 0 0 -32.533841094209059 -14.775768090264933 0 -14.775768090264933 -7.3287496261930585 0 0 0 0 247.39961276224574 -992.02952835103497 0 -992.02952835103497 -6749.8578313612888 0 0 0 0 -5.2406244961988513 0.26402673430533241 0 0.26402673430533241 -0.051020840908904574 0 0 0 0 -425.0580056937788 -303.57588147301431 0 -303.57588147301431 -778.99979273557256 0 0 0 0 -949.95520744642363 810.73698166068061 0 810.73698166068061 2162.5556512847252 0 0 0 0 -371.47063643050387 395.41369906313048 0 395.41369906313048 -306.49752521295159 0 0 0 0 -1884.4417377916877 -3759.8751247435443 0 -3759.8751247435443 -2168.1532279095845 0 0 0 0 -1636.0393062441281 438.55236792525102 0 438.55236792525102 603.58157443022355 0 0 0 0 -458.28001939800606 133.33839378837365 0 133.33839378837365 -2573.2444797113712 0 0 0 0 -4.1267853160102295 -14.363897314782179 0 -14.363897314782179 -41.938158276189995 0 0 0 0 -418.41496237520914 -733.62981280707754 0 -733.62981280707754 -596.15794826467754 0 0 0 0 2742.1987153762793 693.79198299629206 0 693.79198299629206 -1256.6638696575174 0 0 0 0 -167.91357654044259 -274.88679602749471 0 -274.88679602749471 -30.562266027351143 0 0 0 0 -1.6150907218090111 -18.003880135243591 0 -18.003880135243591 -93.037541079276764 0 0 0 0 -98.580634750758691 22.983021287342126 0 22.983021287342126 -41.60659153094457 0 0 0 0 -230.88716735837079 14.013263380969875 0 14.013263380969875 -201.79523035192688 0 0 0 0 -93.042600699784089 -70.616867257027479 0 -70.616867257027479 -216.30390680735945 0 0 0 0 -8.357687666082974 -0.04513889373347979 0 -0.04513889373347979 0.4454812228958076 0 0 0 0 -110.64814271514842 120.64175936946413 0 120.64175936946413 -394.72657837932638 0 0 0 0 94.05111520770879 -125.49929061151488 0 -125.49929061151488 -1811.9815926377487 0 0 0 0 -181.00305061874042 -981.92117900804442 0 -981.92117900804442 -1602.115345318045 0 0 0 0 -130.84409645459709 -112.27631493191075 0 -112.27631493191075 -1129.7494661129313 0 0 0 0 -512.85161205407894 -853.68603767592504 0 -853.68603767592504 -726.06443962146295 0 0 0 0 -443.09305286100243 -1389.3346138832858 0 -1389.3346138832858 -1872.1862610307985 0 0 0 0 -226.60669863881913 -1133.2504542523693 0 -1133.2504542523693 -1888.8955654173187 0 0 0 0 70.749463215001015 -1168.8815667693707 0 -1168.8815667693707 -2830.3747099799657 0 0 0 0 -892.82559186351136 -2052.836071828031 0 -2052.836071828031 -2053.1202731632802 0 0 0 0 -1071.5476851333369 -1388.3832249937841 0 -1388.3832249937841 -1362.7701305519149 0 0 0 0 -68.020330539739916 620.69991906814539 0 620.69991906814539 -3213.0977445523749 0 0 0 0 -277.46974688072987 -1951.354490010177 0 -1951.354490010177 -4525.0057041751716 0 0 0 0 -1215.7269180388694 -3333.050372583486 0 -3333.050372583486 -2063.1731947045919 0 0 0 0 -641.32536767171655 -780.86999005247765 0 -780.86999005247765 -5044.9542739613098 0 0 0 0 -2841.8246353134746 -103.53018213892938 0 -103.53018213892938 -1246.2758228137245 0 0 0 0 -2582.4519650205666 -2741.7166747321753 0 -2741.7166747321753 -2403.928193342319 0 0 0 0 -338.14824509611799 -238.28776157854008 0 -238.28776157854008 -1292.7525641292814 0 0 0 0 -458.4815132413114 -599.7893327626989 0 -599.7893327626989 -819.94374728265393 0 0 0 0 -681.25675965755909 181.8510896544758 0 181.8510896544758 -399.46252440844546 0 0 0 0 226.37731440430889 -678.69132927827013 0 -678.69132927827013 244.59784996938834 0 0 0 0 -1078.9878670508365 -1706.4085765390464 0 -1706.4085765390464 -1042.0539696651394 0 0 0 0 -7.4445120519364227 2.7909211129044849 0 2.7909211129044849 5.0285706390295672 0 0 0 0 -792.82675274043322 -699.31998583467066 0 -699.31998583467066 -494.66444939315988 0 0 0 0 -407.16727597423142 -1114.1687219120249 0 -1114.1687219120249 -1733.2641820413119 0 0 0 0 -456.93627374266725 -1414.7355719821644 0 -1414.7355719821644 -1367.8938935900951 0 0 0 0 13.425391698309795 -35.288413478585426 0 -35.288413478585426 -111.98287892281951 0 0 0 0 -5.8719701095511265 -11.015643082966506 0 -11.015643082966506 0.31586686610390302 0 0 0 0 -40.852689707430727 -34.748770728074305 0 -34.748770728074305 -100.54645319118572 0 0 0 0 3.2514930602656023 -15.792149856337346 0 -15.792149856337346 -92.632819364127499 0 0 0 0 -3.6103586490579573 -24.435892912842974 0 -24.435892912842974 -94.640813755278941 0 0 0 0 1.2457639626263699 -31.862639804923674 0 -31.862639804923674 -106.97360693718656 0 0 0 0 19.983605897037705 -19.066235495440196 0 -19.066235495440196 -107.56471908860158 0 0 0 0 25.62657397565977 -5.0065739935833165 0 -5.0065739935833165 -16.047371033481312 0 0 0 0 -43.622535821048132 -5.3504914011100482 0 -5.3504914011100482 -196.98991946295428 0 0 0 0 -189.73566388483414 -297.48545529160765 0 -297.48545529160765 -351.08744871196541 0 0 0 0 30.939753494447359 5.1739423154795077 0 5.1739423154795077 61.833052856120048 0 0 0 0 14.007786668431464 -2.6614575380899623 0 -2.6614575380899623 1.7839125722404674 0 0 0 0 -23.608110290031618 -37.49352939183882 0 -37.49352939183882 -87.916044536730624 0 0 0 0 17.408516400928562 -51.797636527668374 0 -51.797636527668374 -98.397097561741248 0 0 0 0 100.74204114619533 -11.424578210484469 0 -11.424578210484469 -381.20701829066093 0 0 0 0 38.97734424297073 -42.480398425717794 0 -42.480398425717794 -162.32574955394375 0 0 0 0 287.64030419513801 166.0898570297868 0 166.0898570297868 -391.02843903813482 0 0 0 0 145.97921411931179 179.24727041148981 0 179.24727041148981 -379.20568815880688 0 0 0 0 217.34234064395514 0.50345345946334419 0 0.50345345946334419 -433.50438075064449 0 0 0 0 211.82764347079137 35.833568419591757 0 35.833568419591757 -614.80854519628338 0 0 0 0 434.7923106911494 144.00316193745675 0 144.00316193745675 -920.86265635263408 0 0 0 0 323.6001140922192 -118.25781344571624 0 -118.25781344571624 -887.4007339096861 0 0 0 0 143.59933817642195 -1519.8848947126098 0 -1519.8848947126098 -2373.3239803689066 0 0 0 0 -241.17874538928299 399.96631799657916 0 399.96631799657916 -461.42241129087051 0 0 0 0 1.3574732573387269 1.3014405552621611 0 1.3014405552621611 1.2854685622792772 0 0 0 0 -4.1827827076540416 195.26595529780025 0 195.26595529780025 -715.40480867505539 0 0 0 0 556.38102451273335 450.76233813040744 0 450.76233813040744 -489.29199620686995 0 0 0 0 162.5206594932788 282.63420779103762 0 282.63420779103762 69.388508522513348 0 0 0 0 5.6898930638080856 -189.31309059084742 0 -189.31309059084742 -569.492064207574 0 0 0 0 5.420355752859642 -0.099397802504142874 0 -0.099397802504142874 -1.9359548081494324 0 0 0 0 -60.961964535643347 -62.14504625605332 0 -62.14504625605332 -119.59966177800743 0 0 0 0 83.559440736207762 -8.3746799761720467 0 -8.3746799761720467 -379.77183793167933 0 0 0 0 -28.007425419038555 -196.29706700397946 0 -196.29706700397946 -464.85428918015532 0 0 0 0 5.1098061954889999 -43.56603581113086 0 -43.56603581113086 -367.12987856223481 0 0 0 0 113.12524728774952 -90.365277424192755 0 -90.365277424192755 -461.34472822242276 0 0 0 0 9.217589608657363 -41.88301047267305 0 -41.88301047267305 -121.83901379535382 0 0 0 0 -18.342714603992135 -67.809024704823969 0 -67.809024704823969 -123.84503151480021 0 0 0 0 -622.34355203727682 -898.22774387103527 0 -898.22774387103527 -2171.4814991899475 0 0 0 0 -6.4208762965628843 -8.0186629742938464 0 -8.0186629742938464 4.5583478067590875 0 0 0 0 -14.27513183031283 -71.153878127595817 0 -71.153878127595817 -129.96494423497643 0 0 0 0 -476.55017455077905 -1154.5475321541453 0 -1154.5475321541453 -1952.975748953686 0 0 0 0 -370.09547516888779 -1102.6667734565126 0 -1102.6667734565126 -1929.1303256782558 0 0 0 0 -452.64125372196941 -1388.7746799368615 0 -1388.7746799368615 -1858.1634715284454 0 0 0 0 -277.59793869292344 -1258.5067705532692 0 -1258.5067705532692 -2243.9367904189567 0 0 0 0 -479.53948272869457 377.57295335887466 0 377.57295335887466 -2103.9139711936659 0 0 0 0 -594.22008636182727 -793.93630819428654 0 -793.93630819428654 -2578.5153654923997 0 0 0 0 -9.6089843757742415 -6.8949097796668468 0 -6.8949097796668468 -6.2098313932889369 0 0 0 0 -1041.1842980610345 -1514.1837771029677 0 -1514.1837771029677 -2926.0239023671238 0 0 0 0 -1283.5396523529853 -1570.1055176350346 0 -1570.1055176350346 -1908.6848798615392 0 0 0 0 -1115.5324768714447 -2098.2050734443505 0 -2098.2050734443505 -2520.3009259080281 0 0 0 0 -1285.5261913642189 -1473.1215484192653 0 -1473.1215484192653 -2511.0568170281622 0 0 0 0 -1.649677045131007 -2.1881204263655718 0 -2.1881204263655718 -1.3835688877615411 0 0 0 0 -58.276001662949056 -39.907463436888065 0 -39.907463436888065 -113.47452791467367 0 0 0 0 -103.52922210149154 -35.591608500231814 0 -35.591608500231814 -108.88052711384444 0 0 0 0 -1044.3434236468038 -1544.7805855166516 0 -1544.7805855166516 -2576.0595445168801 0 0 0 0 -750.19994175771353 -1077.319645091753 0 -1077.319645091753 -1660.8271743735677 0 0 0 0 -1913.99313288962 -1094.311642764369 0 -1094.311642764369 -1423.9020529675399 0 0 0 0 -857.45509048666281 -502.05231779013411 0 -502.05231779013411 -1035.1364464066719 0 0 0 0 -1095.9848337763397 -589.20460620391532 0 -589.20460620391532 -520.2622842482524 0 0 0 0 -909.35905420205472 -1170.6068998019291 0 -1170.6068998019291 -874.29485564527567 0 0 0 0 -0.19971613125356669 -0.082525355278960433 0 -0.082525355278960433 -1.4288895401066668 0 0 0 0 -723.53492008230387 -1224.1701617724902 0 -1224.1701617724902 -1839.6189628341162 0 0 0 0 -759.52485866767836 -1095.7812865859137 0 -1095.7812865859137 -1734.8581572760886 0 0 0 0 -725.50173838200317 -1171.7570423716315 0 -1171.7570423716315 -1772.30068920333 0 0 0 0 -702.3140436648082 -1197.6675745951288 0 -1197.6675745951288 -1750.0412533067865 0 0 0 0 -1148.3610892692477 -2024.8372707751259 0 -2024.8372707751259 -2657.9161877095612 0 0 0 0 -239.99483123937716 -1033.9315807515013 0 -1033.9315807515013 -2475.3687003101004 0 0 0 0 99.645715566290164 -148.61423648328491 0 -148.61423648328491 -1596.8360895225778 0 0 0 0 -378.39751096375767 -230.98430875840859 0 -230.98430875840859 -642.5205395208468 0 0 0 0 -63.471080964402063 -821.87334100175212 0 -821.87334100175212 -4224.6681391711099 0 0 0 0 -12.285541467519451 -9.4891580451483719 0 -9.4891580451483719 -5.4600127469796149 0 0 0 0 -1064.8952103014351 -1495.2225452284183 0 -1495.2225452284183 861.68263080803445 0 0 0 0 -77.709656332732266 204.3449507428013 0 204.3449507428013 -31.878786788467551 0 0 0 0 -558.02425393200645 -330.12452124729225 0 -330.12452124729225 -517.65174375276547 0 0 0 0 41.98703903342539 242.99120491766371 0 242.99120491766371 -360.22731416508395 0 0 0 0 94.880424340128229 210.13000026911322 0 210.13000026911322 -609.10583139763912 0 0 0 0 -2.7479652231268119 427.87428323556378 0 427.87428323556378 -1084.0902726268687 0 0 0 0 -304.21248630167247 678.22309299575863 0 678.22309299575863 -772.73764213809045 0 0 0 0 545.86896183657518 -464.2136909267283 0 -464.2136909267283 12.632469563439372 0 0 0 0 578.92931875820432 -15.745292341365712 0 -15.745292341365712 -420.22778355437913 0 0 0 0 251.67190044086692 195.12762699923587 0 195.12762699923587 -473.46729293020326 0 0 0 0 221.79335005996109 -76.550548856539535 0 -76.550548856539535 -218.95944020870957 0 0 0 0 163.69333371353423 -64.620790191154811 0 -64.620790191154811 -191.66290930374817 0 0 0 0 -64.197996868097107 86.711087432791828 0 86.711087432791828 -271.30905608367175 0 0 0 0 211.73962222000955 -27.742149177298415 0 -27.742149177298415 -294.40428773339954 0 0 0 0 -35.452803636209865 283.9709492501861 0 283.9709492501861 -365.50886558674392 0 0 0 0 -98.445234696202533 350.53982799896039 0 350.53982799896039 -417.98554311381304 0 0 0 0 -116.72292280395777 369.57382963341661 0 369.57382963341661 -378.30139601133124 0 0 0 0 -224.32274206857983 297.02937286638189 0 297.02937286638189 -382.12721306073945 0 0 0 0 -288.58411061467086 428.83523216299363 0 428.83523216299363 -391.89575623552082 0 0 0 0 23.631114664702181 148.13111689634388 0 148.13111689634388 -360.34995887291734 0 0 0 0 -293.06044590187958 227.53932293629623 0 227.53932293629623 -351.26520398488537 0 0 0 0 -69.279334559883864 83.628112629798125 0 83.628112629798125 -579.71537129110948 0 0 0 0 -406.67650982849591 98.674460220063338 0 98.674460220063338 -439.71180116464984 0 0 0 0 -101.61810054196394 -261.01798586310179 0 -261.01798586310179 -406.47298199878423 0 0 0 0 -81.126672302732914 107.70616457479628 0 107.70616457479628 -439.58670378243551 0 0 0 0 -415.9341821500675 397.87461668004107 0 397.87461668004107 -361.82114245562116 0 0 0 0 -504.9690944720569 259.03602659021271 0 259.03602659021271 -365.98246327952074 0 0 0 0 301.26863322280769 -504.63643672147009 0 -504.63643672147009 155.30309767880681 0 0 0 0 -5.0531820683468354 -4.8951121797375947 0 -4.8951121797375947 -4.5239047785907474 0 0 0 0 -95.732665337285965 428.36139402363449 0 428.36139402363449 243.42853837739676 0 0 0 0 165.55826971065835 -111.09425615133659 0 -111.09425615133659 -64.618486826540902 0 0 0 0 255.90227521093038 -264.39447456956259 0 -264.39447456956259 22.817294756852789 0 0 0 0 82.958808251518349 -131.28686924319481 0 -131.28686924319481 407.11096624184574 0 0 0 0 506.04191901711965 -421.84371626983921 0 -421.84371626983921 -294.10097791318549 0 0 0 0 -235.14092185844493 501.42139764616149 0 501.42139764616149 -441.12814620771678 0 0 0 0 467.18028477030748 -712.08321127149975 0 -712.08321127149975 -1153.9470524108619 0 0 0 0 -11.276316015266119 -15.289841817790148 0 -15.289841817790148 -17.376621033965563 0 0 0 0 -261.7065202786107 494.10081228610943 0 494.10081228610943 -432.81506691203685 0 0 0 0 -138.84063681164844 476.41544105275534 0 476.41544105275534 -456.62537923057971 0 0 0 0 -143.94067536765306 472.60356243140268 0 472.60356243140268 -457.02897564752493 0 0 0 0 -80.778951179214346 492.95730985698174 0 492.95730985698174 -589.81613062796532 0 0 0 0 11.354168348567327 404.09588073962368 0 404.09588073962368 -522.82877797544643 0 0 0 0 -271.43502813331361 504.89485849203629 0 504.89485849203629 -435.26230758344173 0 0 0 0 -385.32515602593412 572.77816904618521 0 572.77816904618521 -473.08904463957879 0 0 0 0 -208.78723598619763 542.31393034168286 0 542.31393034168286 -511.08950271288631 0 0 0 0 -177.9824800099268 564.20196451728407 0 564.20196451728407 -695.11785465548746 0 0 0 0 -139.37627835429157 475.9203052969242 0 475.9203052969242 -536.01591653223295 0 0 0 0 -430.42736560387129 651.25701629593095 0 651.25701629593095 -606.96278976410395 0 0 0 0 -559.15409975000512 -363.08008869453624 0 -363.08008869453624 914.30986392841442 0 0 0 0 716.23422158373432 522.3291570978472 0 522.3291570978472 -352.54969576123403 0 0 0 0 1283.1335199687092 501.8644140326287 0 501.8644140326287 -1854.6873401189805 0 0 0 0 -903.92149443026847 -948.24057722441285 0 -948.24057722441285 -58.734760157269193 0 0 0 0 -704.46520583823622 -1465.5914665557211 0 -1465.5914665557211 -1664.2560528161703 0 0 0 0 -60.339922846667832 145.79383639640582 0 145.79383639640582 -539.09054079273847 0 0 0 0 -362.81364647159171 -31.325244814979669 0 -31.325244814979669 -281.95464607546455 0 0 0 0 51.960826270151301 -59.088284873836528 0 -59.088284873836528 -254.80742401414318 0 0 0 0 492.10760211373417 -312.11460989651096 0 -312.11460989651096 -701.65934533893596 0 0 0 0 371.38855992913159 -219.78663293008867 0 -219.78663293008867 -296.8318589659757 0 0 0 0 285.51163099890255 84.878500948601868 0 84.878500948601868 -478.87018133560559 0 0 0 0 317.06151655947542 -189.63205720125552 0 -189.63205720125552 -313.54977553439676 0 0 0 0 110.51214359055666 -27.581934025831288 0 -27.581934025831288 -109.02520968293538 0 0 0 0 134.39218056086793 49.780387909431738 0 49.780387909431738 -406.04188926325878 0 0 0 0 -60.231000011650394 114.12217299838085 0 114.12217299838085 -415.14397714988809 0 0 0 0 -96.552483335541183 157.65458188972116 0 157.65458188972116 -229.20383211477747 0 0 0 0 -121.01871450305043 208.26572614675388 0 208.26572614675388 -285.06016262143385 0 0 0 0 25.889451524766628 121.48416231914598 0 121.48416231914598 -258.87047692120541 0 0 0 0 -4.2683160202370871 1.2442509872547589 0 1.2442509872547589 0.75493693470201606 0 0 0 0 183.8765671542933 20.752018930303166 0 20.752018930303166 -285.62895304947233 0 0 0 0 8.163024545123335 -42.135423725056171 0 -42.135423725056171 -297.96013202849463 0 0 0 0 54.855127975554296 87.988083602906045 0 87.988083602906045 -204.08267825801158 0 0 0 0 119.70664367400605 -53.286397696225322 0 -53.286397696225322 -186.5828726555992 0 0 0 0 122.55693746969905 18.773696131542238 0 18.773696131542238 -91.260596649546642 0 0 0 0 150.55790234753658 -82.083539675484644 0 -82.083539675484644 -32.621102265198715 0 0 0 0 131.94570026481347 -114.73067996410964 0 -114.73067996410964 -68.89898435206851 0 0 0 0 261.9339442839364 -76.697461174453565 0 -76.697461174453565 -60.244574601121712 0 0 0 0 250.27574873699859 60.876381320408655 0 60.876381320408655 134.3313597018132 0 0 0 0 179.93678321204061 -218.88602560415165 0 -218.88602560415165 42.550614073756151 0 0 0 0 157.92939123704855 66.76066966682265 0 66.76066966682265 88.009686621542642 0 0 0 0 80.191892646194901 -51.923376613915025 0 -51.923376613915025 -77.529307196411537 0 0 0 0 20.232483804518779 137.56518608530314 0 137.56518608530314 -201.79687957827991 0 0 0 0 171.84482470772127 -98.042101655919396 0 -98.042101655919396 -44.105739423335763 0 0 0 0 31.113971923112331 124.01773282410431 0 124.01773282410431 -517.57787621859461 0 0 0 0 105.25246080159195 97.995437258323363 0 97.995437258323363 -773.27849643326772 0 0 0 0 105.49476828772458 54.142359615645546 0 54.142359615645546 -452.69836921044043 0 0 0 0 95.295611167417519 7.6378447458409937 0 7.6378447458409937 -341.00111948391714 0 0 0 0 123.01604484159452 115.42838164075965 0 115.42838164075965 -539.7087746791367 0 0 0 0 33.046459445244182 4.9339942607693956 0 4.9339942607693956 -492.01215769851842 0 0 0 0 18.303636294208445 9.5757243351436045 0 9.5757243351436045 -398.53790105614462 0 0 0 0 21.289805774351407 -27.495060513278077 0 -27.495060513278077 -376.81639078505395 0 0 0 0 -3.7055541957706737 -25.399180930387956 0 -25.399180930387956 -386.94396258958295 0 0 0 0 5.6407556963754359 8.7162450449632161 0 8.7162450449632161 -339.51360450286302 0 0 0 0 32.256839779603979 -82.789501632476458 0 -82.789501632476458 -283.67601848428603 0 0 0 0 -30.761332022457054 -14.811795751515092 0 -14.811795751515092 -246.10197016852908 0 0 0 0 -39.321787681137721 -7.5790393932147708 0 -7.5790393932147708 -113.38421961387212 0 0 0 0 10.349522447766731 4.7964957634258099 0 4.7964957634258099 -77.294676735094981 0 0 0 0 206.002522175575 58.988593794572807 0 58.988593794572807 -110.78913739908603 0 0 0 0 93.455371245945571 -174.81263064048107 0 -174.81263064048107 -615.94991721497354 0 0 0 0 72.689681293526519 -189.03415215920541 0 -189.03415215920541 -381.47471270559618 0 0 0 0 213.13719272922208 42.008114205593301 0 42.008114205593301 -155.28342807084846 0 0 0 0 2.0826550586097525 0.4535307511162685 0 0.4535307511162685 -9.3421269638323565 0 0 0 0 0.94555752260384907 -2.9915224910146208 0 -2.9915224910146208 52.515060334655573 0 0 0 0 146.67640665990712 202.1150539768023 0 202.1150539768023 -63.097597477666568 0 0 0 0 1.8932026253576026 -0.63869315690553918 0 -0.63869315690553918 -5.177789712226172 0 0 0 0 -25.078972020146466 -116.86648974986747 0 -116.86648974986747 -70.697349572896201 0 0 0 0 -24.081264580137031 -161.49671474542265 0 -161.49671474542265 -278.87448354340449 0 0 0 0 -31.939011915131232 -68.073103138343868 0 -68.073103138343868 -150.62218053964898 0 0 0 0 -0.56683174109639367 171.93975189448975 0 171.93975189448975 -316.11799384046935 0 0 0 0 0.13111800464470491 13.147027919297159 0 13.147027919297159 -10.713353419613441 0 0 0 0 40.759890419613384 -204.85860002765003 0 -204.85860002765003 -174.87663332783268 0 0 0 0 -41.155709279802977 -54.341319882601965 0 -54.341319882601965 -154.63330413738731 0 0 0 0 -15.299257405954606 0.63185307243540478 0 0.63185307243540478 4.0799739728166173 0 0 0 0 24.291966341457737 -193.74241775447445 0 -193.74241775447445 -65.83498658426106 0 0 0 0 -55.449654373889643 -19.451511379069416 0 -19.451511379069416 -147.32267813012004 0 0 0 0 -8.1614860701947691 -34.161204202182489 0 -34.161204202182489 -72.372345070223673 0 0 0 0 -84.176303965752595 37.423017014691141 0 37.423017014691141 136.40334030301892 0 0 0 0 -22.901536020473287 2.5496758121931009 0 2.5496758121931009 2.0521494626700019 0 0 0 0 -42.005043520820436 -54.262826154839786 0 -54.262826154839786 -129.81341174201225 0 0 0 0 -37.977928192500258 -49.634311699483078 0 -49.634311699483078 -132.73320891204639 0 0 0 0 -37.03182170060245 80.517626897169976 0 80.517626897169976 -75.199816394480877 0 0 0 0 -6.5392939111922104 14.930100824092875 0 14.930100824092875 -14.155871624684835 0 0 0 0 84.683772945187229 6.1604528809257317 0 6.1604528809257317 -372.74820744445606 0 0 0 0 87.857490798986873 -16.816303975856499 0 -16.816303975856499 -253.6907983480196 0 0 0 0 -23.043518021779164 49.361214600721723 0 49.361214600721723 -229.57222700404236 0 0 0 0 -0.69129455820930019 1.156165114358032 0 1.156165114358032 0.043687422887018101 0 0 0 0 -64.984152253276989 85.760092267773871 0 85.760092267773871 -91.423201548750512 0 0 0 0 67.299851430729177 45.325973182945745 0 45.325973182945745 -293.91816246393137 0 0 0 0 66.019401932488108 55.569434817778529 0 55.569434817778529 -318.50250283484638 0 0 0 0 -7.7540077427493088 36.430180936185934 0 36.430180936185934 -125.81087783301882 0 0 0 0 -60.864982204143871 27.234993895801381 0 27.234993895801381 -75.103337770808139 0 0 0 0 -60.166799547390383 31.800306460811044 0 31.800306460811044 -121.5068483469513 0 0 0 0 -7.0203131432608643 17.656664686692238 0 17.656664686692238 -129.84241508886043 0 0 0 0 -36.256948635078516 0.66988706929259934 0 0.66988706929259934 -83.662086282114615 0 0 0 0 -36.470777352546065 39.792919543127937 0 39.792919543127937 -124.64014801068697 0 0 0 0 -9.4708466420343029 8.0845832356935716 0 8.0845832356935716 -104.0845536834604 0 0 0 0 -0.70283625671300598 3.7496383952682208 0 3.7496383952682208 -18.153636313513857 0 0 0 0 -6.6995188803457495 10.468839476401627 0 10.468839476401627 -103.05006879927532 0 0 0 0 18.29108646908935 -11.612129194050794 0 -11.612129194050794 -106.97172207158292 0 0 0 0 2.2493697969968318 -3.4828936900315099 0 -3.4828936900315099 -93.065318109810278 0 0 0 0 84.686097973978804 53.194807637206395 0 53.194807637206395 -105.81838710227748 0 0 0 0 -31.147397528431611 17.926633101982588 0 17.926633101982588 -21.00935202621622 0 0 0 0 -23.0009131515435 -10.120609509693168 0 -10.120609509693168 3.8492504363384796 0 0 0 0 -18.897912906517377 -7.5187462436151691 0 -7.5187462436151691 -74.816082628291042 0 0 0 0 10.554487598823471 10.229625568215852 0 10.229625568215852 -19.884058666539204 0 0 0 0 43.634408326051926 47.079785516223637 0 47.079785516223637 -97.282383607955126 0 0 0 0 -3.4372325356925693 32.832025133323924 0 32.832025133323924 -27.828112978900919 0 0 0 0 10.613871107871091 67.16289466573653 0 67.16289466573653 -83.10667404004198 0 0 0 0 9.0302690521743898 63.28637856253772 0 63.28637856253772 -60.744877046439797 0 0 0 0 51.890390154139368 73.596468545983953 0 73.596468545983953 -91.651688700978411 0 0 0 0 27.658700172187309 61.868075061967829 0 61.868075061967829 -83.786325850840512 0 0 0 0 262.77023284568895 82.276496494545427 0 82.276496494545427 -158.17121080675861 0 0 0 0 0.49332015459742351 -8.6350009172464581 0 -8.6350009172464581 -96.22868833509466 0 0 0 0 30.212716447820526 75.220029809714106 0 75.220029809714106 -148.15605075625353 0 0 0 0 370.96464662028427 -42.434951335128062 0 -42.434951335128062 -310.50904974529112 0 0 0 0 -12.391378725314553 111.4512815094713 0 111.4512815094713 -143.57409716022084 0 0 0 0 -81.68885296991084 87.84075140949426 0 87.84075140949426 -334.14531491120579 0 0 0 0 0.34264833959108909 -9.3257964426622166 0 -9.3257964426622166 -98.718496467995465 0 0 0 0 -2.6338481270449847 23.776013284616056 0 23.776013284616056 -446.09751809595036 0 0 0 0 -64.459271653235191 -2.06716719733231 0 -2.06716719733231 -130.47663949719572 0 0 0 0 -118.93954375051885 145.98546604343937 0 145.98546604343937 -255.12566291514668 0 0 0 0 -70.23887620361711 61.241782095778035 0 61.241782095778035 -149.89851943834947 0 0 0 0 -17.775095166858591 19.748801274436119 0 19.748801274436119 -269.26235181300945 0 0 0 0 -93.442357815936703 -67.354392675806594 0 -67.354392675806594 -404.40237219831397 0 0 0 0 2.8221374118465974 21.142562665057994 0 21.142562665057994 -327.65129894032725 0 0 0 0 -181.3907921426362 -180.37827162446774 0 -180.37827162446774 -384.96697765533463 0 0 0 0 -281.77417444421963 222.16363322804682 0 222.16363322804682 -17.977819257197552 0 0 0 0 1016.5859471357617 72.054912633946515 0 72.054912633946515 -563.93181310439832 0 0 0 0 -0.2524713953635418 -12.436787390831654 0 -12.436787390831654 -98.949012254317438 0 0 0 0 -264.76643792674258 55.432122451275063 0 55.432122451275063 -384.88755068124738 0 0 0 0 -841.97615610468984 -460.21225834442885 0 -460.21225834442885 -448.52857434973703 0 0 0 0 -489.09041418651941 -451.45133870363861 0 -451.45133870363861 -813.37794431269867 0 0 0 0 -630.62953202339122 -285.03141836739087 0 -285.03141836739087 -1005.6474098584913 0 0 0 0 -1006.6748175404537 -298.49598989059814 0 -298.49598989059814 -607.05921452192706 0 0 0 0 -359.56055926980059 -468.43064910930116 0 -468.43064910930116 -1117.9360299850232 0 0 0 0 -252.29373835500266 -674.34460758934983 0 -674.34460758934983 -1321.09039908048 0 0 0 0 -713.40911419950498 -818.88715750303345 0 -818.88715750303345 -1449.0300994494755 0 0 0 0 11.742295062451888 -556.76317125825153 0 -556.76317125825153 -1594.1229315083692 0 0 0 0 0.066627774201439394 1.4192769721496745 0 1.4192769721496745 -4.5206006854647285 0 0 0 0 -412.52514236997126 -192.11607831007859 0 -192.11607831007859 -230.34420749099809 0 0 0 0 -139.00596821661264 -179.94026812401353 0 -179.94026812401353 -266.2623774100357 0 0 0 0 -113.77447694357511 -125.9312411733481 0 -125.9312411733481 -219.94209688923002 0 0 0 0 -80.070912237745688 26.968159155643662 0 26.968159155643662 -238.51212991384455 0 0 0 0 -403.13293205751552 117.55724891707666 0 117.55724891707666 -263.80269699983182 0 0 0 0 -40.919203941886735 0.71664829320070567 0 0.71664829320070567 -636.58900714668562 0 0 0 0 -254.49016479119973 -67.294856870201329 0 -67.294856870201329 -152.29046593887324 0 0 0 0 -105.51101471511561 42.414631942276174 0 42.414631942276174 -96.913353277210263 0 0 0 0 -36.104981894536081 15.76062687025842 0 15.76062687025842 -142.90244005793647 0 0 0 0 -75.829292961811802 29.300573425913171 0 29.300573425913171 -70.937036896240897 0 0 0 0 -36.992985164743004 98.267040608981915 0 98.267040608981915 -86.870733600691892 0 0 0 0 11.357982798256671 60.436159891862189 0 60.436159891862189 -69.418954539240076 0 0 0 0 -33.311607912591398 72.249179118010943 0 72.249179118010943 63.950494328440982 0 0 0 0 -9.553498460872909 35.492103619273337 0 35.492103619273337 -15.820769973183559 0 0 0 0 -16.211473530399417 94.52893026201491 0 94.52893026201491 2.6143341222486924 0 0 0 0 13.432477552803448 37.694742970306834 0 37.694742970306834 -71.819881835021079 0 0 0 0 -40.393809012634847 57.781239834876033 0 57.781239834876033 -76.921349042910151 0 0 0 0 -33.002033815928961 -40.491906953594935 0 -40.491906953594935 -134.74258988301153 0 0 0 0 -55.163176797936984 -114.47353492293951 0 -114.47353492293951 -279.62938480736921 0 0 0 0 -99.790570328993908 -32.230037237990473 0 -32.230037237990473 -128.89286159299081 0 0 0 0 -114.7924665573405 -138.50864523313066 0 -138.50864523313066 -242.29251178377308 0 0 0 0 -0.6270240490710639 3.4407122189222719 0 3.4407122189222719 -6.3459211055726428 0 0 0 0 -145.96494845542401 -225.72979294412107 0 -225.72979294412107 -366.15726770379115 0 0 0 0 -160.02071327766572 -136.52002841726062 0 -136.52002841726062 -339.63036369110341 0 0 0 0 -45.623095027930688 -110.61704951601132 0 -110.61704951601132 -406.54063671754557 0 0 0 0 -23.257472715605672 0.65371606130793225 0 0.65371606130793225 -197.03677579963551 0 0 0 0 -44.675541201105545 104.09433035219263 0 104.09433035219263 -150.22974280201015 0 0 0 0 0.26598779543274109 -1.5948336326163961 0 -1.5948336326163961 -1.5161155139824132 0 0 0 0 -40.255614623588372 -25.223460101959063 0 -25.223460101959063 -2.8531234091860824 0 0 0 0 -22.334108848075402 78.687895147071686 0 78.687895147071686 -48.669260538066737 0 0 0 0 -43.667337574651434 6.027645511800074 0 6.027645511800074 -341.3312334754155 0 0 0 0 -78.184114971537099 -100.2259821939806 0 -100.2259821939806 -137.39858439896489 0 0 0 0 -91.731480098114687 12.421332687190443 0 12.421332687190443 108.54410567377636 0 0 0 0 -21.640477316614493 -1.739912508870475 0 -1.739912508870475 -264.01927070530292 0 0 0 0 30.659750557635718 -104.9783822139143 0 -104.9783822139143 -536.99286590857082 0 0 0 0 -89.75993530394318 -455.76257457924658 0 -455.76257457924658 -755.76741795289217 0 0 0 0 -64.616889869772166 -208.77396678403602 0 -208.77396678403602 -233.90513172457213 0 0 0 0 44.975833466225737 -197.50438239811047 0 -197.50438239811047 -324.3325888926629 0 0 0 0 39.15437576491864 -119.62728312551917 0 -119.62728312551917 -761.63465737836668 0 0 0 0 -0.061730779723571411 -227.0278780173054 0 -227.0278780173054 -708.32758711674251 0 0 0 0 93.140473274495037 0.66958711514780589 0 0.66958711514780589 -237.78527007132652 0 0 0 0 -0.17342386230903784 -47.237665208056569 0 -47.237665208056569 -174.40390125331032 0 0 0 0 -0.19151031405520674 1.110937248264122 0 1.110937248264122 -2.9811995807026506 0 0 0 0 -240.13681050392685 -231.00997119156818 0 -231.00997119156818 -450.56778007170942 0 0 0 0 -13.739026137468926 -31.934112184739206 0 -31.934112184739206 -361.86169912625337 0 0 0 0 -133.91614657878148 -323.15215800417354 0 -323.15215800417354 -495.21594868632383 0 0 0 0 0.40512657111729394 -113.8411618579994 0 -113.8411618579994 -632.5364712854207 0 0 0 0 -20.371842887435747 -385.03895187082526 0 -385.03895187082526 -1231.1735254446703 0 0 0 0 -122.9018733951149 -241.14585277691367 0 -241.14585277691367 -628.00177242195059 0 0 0 0 -217.27650124844584 -231.80483401103993 0 -231.80483401103993 -430.85964748011611 0 0 0 0 -72.149573508871583 -432.33348582322287 0 -432.33348582322287 -1153.2184885395836 0 0 0 0 -0.801642288316601 3.7389723449803682 0 3.7389723449803682 -7.207804996401876 0 0 0 0 -47.257526216065003 -319.03812259700499 0 -319.03812259700499 -1242.4280302456464 0 0 0 0 -112.91781707437548 -636.59043726596428 0 -636.59043726596428 -1622.9767525287461 0 0 0 0 22.000620930274597 -602.29459922122714 0 -602.29459922122714 -1716.8913969255809 0 0 0 0 -522.66833975366251 -819.55044654243829 0 -819.55044654243829 -1684.3997013022454 0 0 0 0 -475.31243889702091 -1528.4249797023876 0 -1528.4249797023876 -3553.5169755451789 0 0 0 0 -2.7364329633712603 -347.28307794815834 0 -347.28307794815834 -1751.2386668536346 0 0 0 0 -320.16624650304652 -344.89283771930786 0 -344.89283771930786 -1222.6724889793513 0 0 0 0 19.269867431141179 -398.13270950275728 0 -398.13270950275728 -1986.6504888198688 0 0 0 0 -584.51251459506238 33.326403329148889 0 33.326403329148889 -2336.9456483832473 0 0 0 0 -354.91190831461716 219.22228895930311 0 219.22228895930311 -2199.0410391685 0 0 0 0 -0.74285540879526357 244.82506731086323 0 244.82506731086323 -2495.8043310100911 0 0 0 0 -235.24654151577863 349.07529673176759 0 349.07529673176759 -2201.1138896904667 0 0 0 0 -0.21888717178269884 511.07472674146993 0 511.07472674146993 -2110.8002273450984 0 0 0 0 -354.69401705975747 634.18053704432532 0 634.18053704432532 -1935.0378911057924 0 0 0 0 -465.03243542153928 546.59281687527255 0 546.59281687527255 -1995.1569172416057 0 0 0 0 -488.39675445239118 619.68585143633391 0 619.68585143633391 -1592.0320525388088 0 0 0 0 -348.85511238729487 248.45297336229123 0 248.45297336229123 -1771.5339861238244 0 0 0 0 -444.82408823243645 487.77492663471912 0 487.77492663471912 -1872.9033593703352 0 0 0 0 -722.38942122178764 396.6856662388891 0 396.6856662388891 -1911.7511670098102 0 0 0 0 -400.63497234073509 140.76401218778483 0 140.76401218778483 -2260.2566336753371 0 0 0 0 -422.36893701237079 438.55779901315327 0 438.55779901315327 -2256.4373006364622 0 0 0 0 -266.01283519494609 273.21678013477504 0 273.21678013477504 -1898.5509808079805 0 0 0 0 163.05699242860373 -126.61505821958417 0 -126.61505821958417 -2074.2320276969549 0 0 0 0 -172.52911200026233 268.57892748668382 0 268.57892748668382 -2539.1669213078276 0 0 0 0 321.25883070262171 -445.07173141019302 0 -445.07173141019302 -2593.4754164238302 0 0 0 0 173.90969524110187 -379.43157851259457 0 -379.43157851259457 -2001.8947644518339 0 0 0 0 -882.77625389911179 617.05507308563392 0 617.05507308563392 -2730.6963658659297 0 0 0 0 66.222236864315619 39.23791824914224 0 39.23791824914224 -3512.1432186868187 0 0 0 0 -1100.7034501088372 -406.101183963322 0 -406.101183963322 -2734.7187017896213 0 0 0 0 -199.01694501312218 87.508699374746357 0 87.508699374746357 -2605.4512424355635 0 0 0 0 0.91002997943536623 -264.57217930020852 0 -264.57217930020852 -3316.5718259984496 0 0 0 0 148.90833418170112 715.23903830109339 0 715.23903830109339 -2570.5693108510022 0 0 0 0 -628.77018335504704 766.45633132775674 0 766.45633132775674 -303.40293500022381 0 0 0 0 -1.0010812430732474 -1.0984873046542987 0 -1.0984873046542987 -22.753242076619699 0 0 0 0 -23.238782731100287 -366.51506796530157 0 -366.51506796530157 -466.20761733409927 0 0 0 0 -0.71202918661275416 -153.16167884555034 0 -153.16167884555034 -516.87206696500652 0 0 0 0 -14.389757004455149 18.705174782866379 0 18.705174782866379 99.785493468523782 0 0 0 0 -236.23405705096022 123.2093096085955 0 123.2093096085955 377.28909924361506 0 0 0 0 0.78962294149060175 -1.1694119521438324 0 -1.1694119521438324 0.75787458423081944 0 0 0 0 3.2692107214235095 6.3706591556898431 0 6.3706591556898431 -55.608473844157174 0 0 0 0 -18.703927337699433 73.43747656451751 0 73.43747656451751 62.722905402624747 0 0 0 0 148.36943374118528 -81.313678823375085 0 -81.313678823375085 -4.5251518122968264 0 0 0 0 5.485970590502407 -1.6179930823362838 0 -1.6179930823362838 -9.7970711451057468 0 0 0 0 114.73925261637547 80.19935923183948 0 80.19935923183948 -39.621822066008463 0 0 0 0 -0.12362846995783534 53.410801021296415 0 53.410801021296415 -18.138224129535956 0 0 0 0 -0.16176926420212762 4.0935385335718095 0 4.0935385335718095 -0.46688058216909667 0 0 0 0 -17.340837358281249 17.072402509547828 0 17.072402509547828 45.924089252759586 0 0 0 0 23.307833309266726 -206.18948406591699 0 -206.18948406591699 -562.33432845892094 0 0 0 0 0.20683654688678033 32.975576713962482 0 32.975576713962482 -23.933855340364033 0 0 0 0 -153.26874563716228 74.061964366861503 0 74.061964366861503 -81.415578307227406 0 0 0 0 121.99647365064448 -215.6322302705521 0 -215.6322302705521 -593.08973115605477 0 0 0 0 -234.25456916413003 -751.17861055995706 0 -751.17861055995706 -1370.3467444078124 0 0 0 0 -226.70428204027803 -203.86211688483309 0 -203.86211688483309 -516.00128947666235 0 0 0 0 -868.02576339287236 -1686.1581808702012 0 -1686.1581808702012 -2274.0701545054908 0 0 0 0 294.13317638194621 -484.70895488157112 0 -484.70895488157112 -2039.0504844772586 0 0 0 0 370.89891411896042 -415.92347666903515 0 -415.92347666903515 -1985.6449710265297 0 0 0 0 299.87543688877304 -548.46159538491338 0 -548.46159538491338 -1864.6775143193081 0 0 0 0 389.33450198069841 -472.14553843712201 0 -472.14553843712201 -1951.6482633232081 0 0 0 0 398.63037598454139 -500.98051599196333 0 -500.98051599196333 -2010.9802362266637 0 0 0 0 385.84299202160673 -341.87859869078602 0 -341.87859869078602 -2001.1585309727816 0 0 0 0 173.19140598759441 -196.22068244661205 0 -196.22068244661205 -1010.7277984780958 0 0 0 0 364.89858633617223 -223.1346777153376 0 -223.1346777153376 -1722.7935663785083 0 0 0 0 312.85729908953726 -0.80323644327290822 0 -0.80323644327290822 -1749.4368594911066 0 0 0 0 210.81338434997633 -277.44787488455768 0 -277.44787488455768 -1493.3028020703423 0 0 0 0 309.02533151579496 -323.86748134125082 0 -323.86748134125082 -1479.3836739287071 0 0 0 0 -21.117299572878892 -128.19988945285877 0 -128.19988945285877 -637.04063147852867 0 0 0 0 22.297816773219893 215.0431647405494 0 215.0431647405494 -677.34788668940018 0 0 0 0 203.38858458842424 -48.24529976501799 0 -48.24529976501799 -488.21725590561982 0 0 0 0 -9.0824141210414293 36.9118723332831 0 36.9118723332831 -17.062632026588119 0 0 0 0 -59.036971926324213 47.823043314499955 0 47.823043314499955 122.83843702620652 0 0 0 0 -95.323860851908648 168.36050640205212 0 168.36050640205212 -35.154426155881083 0 0 0 0 20.010065285881865 -41.142251272212889 0 -41.142251272212889 -188.4463915481756 0 0 0 0 -100.53326966318673 -105.94891427259063 0 -105.94891427259063 42.018270234257216 0 0 0 0 -12.373179254652182 37.048750687756979 0 37.048750687756979 -17.951923032859824 0 0 0 0 -109.93457858873171 283.5558544220039 0 283.5558544220039 -199.65095897071296 0 0 0 0 -217.59478677387779 99.293578498123679 0 99.293578498123679 290.56621454538981 0 0 0 0 55.056214135836854 -65.184883690424613 0 -65.184883690424613 -558.83268761727959 0 0 0 0 -72.823086971273369 380.88058960545459 0 380.88058960545459 -1091.9469089669001 0 0 0 0 -16.189810892194146 210.23224850138649 0 210.23224850138649 -953.07745689043077 0 0 0 0 -282.05522034030218 638.54048361480818 0 638.54048361480818 -461.52484312656452 0 0 0 0 -367.12509020532707 287.71266729762283 0 287.71266729762283 -324.06723402955686 0 0 0 0 -117.73338264343602 106.75528195184597 0 106.75528195184597 -8.6451568068005145 0 0 0 0 -103.981622997675 76.282076013856567 0 76.282076013856567 -278.2405934840499 0 0 0 0 -110.2220255654629 769.16453696733515 0 769.16453696733515 -2293.1738690835191 0 0 0 0 -64.511016735079465 296.60620080857188 0 296.60620080857188 -2101.6936825249286 0 0 0 0 29.591548974935904 92.55168791419419 0 92.55168791419419 -3419.8128768623574 0 0 0 0 235.46798843046417 239.23907793269609 0 239.23907793269609 -2802.495363939146 0 0 0 0 -315.09644853338614 -386.76405115591479 0 -386.76405115591479 -2487.5221424273695 0 0 0 0 -112.9725743201634 471.24095219685114 0 471.24095219685114 -4434.4344678332272 0 0 0 0 -1284.1943344895153 939.80207436307683 0 939.80207436307683 -3457.6119633961789 0 0 0 0 -1990.3951452205074 -467.99749838706339 0 -467.99749838706339 -2808.1471838219441 0 0 0 0 246.8393004367008 -73.715441825945163 0 -73.715441825945163 -1484.6235409906658 0 0 0 0 -169.34023204612095 648.43343853043916 0 648.43343853043916 -1393.4429776926991 0 0 0 0 238.5654935567436 81.013686557736946 0 81.013686557736946 -2242.9711267580569 0 0 0 0 249.37517005384643 151.92343322716442 0 151.92343322716442 -1859.7052773006726 0 0 0 0 387.88074574631355 -250.9951239143702 0 -250.9951239143702 -2328.3235565317154 0 0 0 0 214.76887632701383 -254.68437768773174 0 -254.68437768773174 -2524.2838936707703 0 0 0 0 216.8462468714406 -344.0303963906772 0 -344.0303963906772 -2144.8609630887804 0 0 0 0 205.97157597698788 -416.01733011122269 0 -416.01733011122269 -2132.6344986293116 0 0 0 0 381.15071334671848 -435.28116605668038 0 -435.28116605668038 -2055.1066272678727 0 0 0 0 356.69546793543486 -504.03802905295743 0 -504.03802905295743 -2226.5204042842743 0 0 0 0 -1065.5565692965338 231.68879308084433 0 231.68879308084433 -2575.5487909105723 0 0 0 0 -27.939980085178831 -146.21102978297858 0 -146.21102978297858 -2521.9102218073676 0 0 0 0 -338.22665616127415 132.0849014010455 0 132.0849014010455 -3073.8295356768504 0 0 0 0 -176.66948306544145 -198.3356600078987 0 -198.3356600078987 -3047.8137540785829 0 0 0 0 144.53510278378235 -554.35965181270149 0 -554.35965181270149 -2385.7050222823309 0 0 0 0 -412.36548411281547 -214.40831989327853 0 -214.40831989327853 -2130.5369893988536 0 0 0 0 86.265502099024161 -362.45450776239159 0 -362.45450776239159 -1872.3180900934094 0 0 0 0 29.639967196411817 -380.36566870989918 0 -380.36566870989918 -1897.0373581740423 0 0 0 0 228.65935061015989 -291.6683685281605 0 -291.6683685281605 -2132.9090462349395 0 0 0 0 232.73454423701514 -163.05713568384817 0 -163.05713568384817 -1708.5616169737623 0 0 0 0 422.05450163647129 -397.76991420587728 0 -397.76991420587728 -1896.668569606496 0 0 0 0 430.12419193606411 -344.58542243362263 0 -344.58542243362263 -1575.9468199160765 0 0 0 0 581.26666871879479 -0.12923350647906773 0 -0.12923350647906773 -1249.5627803493553 0 0 0 0 523.46920184152896 -453.09804707130388 0 -453.09804707130388 -1419.2561486387276 0 0 0 0 417.876675470392 -289.50758796809532 0 -289.50758796809532 -1599.5309610583499 0 0 0 0 253.0647550977319 -550.78244533270481 0 -550.78244533270481 -1772.971767565512 0 0 0 0 236.60345775642418 -566.3341228235804 0 -566.3341228235804 -2092.2141157053848 0 0 0 0 407.55562229906718 -526.83497876478941 0 -526.83497876478941 -2050.8745698008433 0 0 0 0 302.07544716543271 -432.9136356585368 0 -432.9136356585368 -1879.8597313566133 0 0 0 0 402.6866458667364 -513.91163940229308 0 -513.91163940229308 -1995.5529788967106 0 0 0 0 323.717650086508 -364.71450642356649 0 -364.71450642356649 -1926.8956702592841 0 0 0 0 162.37596027443578 -155.46553974846029 0 -155.46553974846029 -2162.6679543433056 0 0 0 0 281.0201883175564 -481.07217676911387 0 -481.07217676911387 -2027.5018976843858 0 0 0 0 240.80127819140262 -361.31045366578473 0 -361.31045366578473 -1679.0916526984074 0 0 0 0 289.33404722829164 -279.91908391054312 0 -279.91908391054312 -1767.9794055068051 0 0 0 0 322.61299011754181 -168.51782966317842 0 -168.51782966317842 -1430.4397489105395 0 0 0 0 335.54480837942424 -487.49647657639798 0 -487.49647657639798 -1682.6161239336943 0 0 0 0 -120.91058869656445 -26.655625402374426 0 -26.655625402374426 -1244.6930923844047 0 0 0 0 -429.37334580031813 342.68253100723177 0 342.68253100723177 -1339.17722458957 0 0 0 0 -81.84268354555843 108.23398679162347 0 108.23398679162347 -1751.1383746442007 0 0 0 0 -374.50053825929808 489.58454274965334 0 489.58454274965334 -1508.7807896058075 0 0 0 0 -478.20131392477197 309.51744611846516 0 309.51744611846516 -925.30412166172755 0 0 0 0 141.7004736853778 -154.59450455534898 0 -154.59450455534898 -672.37349101228756 0 0 0 0 -30.240313735335803 138.67166979065951 0 138.67166979065951 -1172.5525681391882 0 0 0 0 69.910200729626013 85.680858680061647 0 85.680858680061647 -1367.6402443722327 0 0 0 0 331.970252079489 574.59309143682185 0 574.59309143682185 -673.97868076193151 0 0 0 0 445.97789282842177 105.10782146456404 0 105.10782146456404 237.71671810225234 0 0 0 0 1589.2895622947653 1829.9188571368722 0 1829.9188571368722 571.09526820886276 0 0 0 0 973.14648909329117 116.86903486694064 0 116.86903486694064 -631.69644284097285 0 0 0 0 335.03825743330708 -95.944767999448231 0 -95.944767999448231 -609.72334585653152 0 0 0 0 873.79805682567621 70.741777136056044 0 70.741777136056044 -1101.986698761044 0 0 0 0 257.09619676321017 -250.39934772199922 0 -250.39934772199922 -972.24157067431952 0 0 0 0 237.97795704973396 -142.16281072807033 0 -142.16281072807033 -160.9809498486502 0 0 0 0 670.40997957078071 798.81731037639838 0 798.81731037639838 294.53553816241765 0 0 0 0 11.408397380095344 17.648606242835456 0 17.648606242835456 -30.011475592304578 0 0 0 0 83.905826484500722 -170.8171615481624 0 -170.8171615481624 -1334.0158290399559 0 0 0 0 56.178043047338633 -181.62480933975894 0 -181.62480933975894 -1076.5471356716589 0 0 0 0 47.855706505866692 64.424847364272864 0 64.424847364272864 -1070.6540176005947 0 0 0 0 -4.6942028902358288 -175.95697377493343 0 -175.95697377493343 -635.22958815784659 0 0 0 0 18.145834500443215 17.141147846098512 0 17.141147846098512 -100.96505096539283 0 0 0 0 469.11616329680328 -504.99758153210132 0 -504.99758153210132 -979.38494838430233 0 0 0 0 -3.7121949004304757 29.629856683983093 0 29.629856683983093 -69.215669892941492 0 0 0 0 1062.8982413278579 -68.01896984245127 0 -68.01896984245127 -724.57491551458952 0 0 0 0 -0.82687440909649013 141.23929178798426 0 141.23929178798426 -410.18266004643374 0 0 0 0 16.412473163447139 19.778232307992084 0 19.778232307992084 -44.054119644469779 0 0 0 0 -85.944679261603596 228.28681593865622 0 228.28681593865622 -317.24724197658361 0 0 0 0 411.12291226916932 110.99808363712509 0 110.99808363712509 -1137.3395951870189 0 0 0 0 -457.84764673265454 -1262.7844603626581 0 -1262.7844603626581 -931.01745500431571 0 0 0 0 286.16963687582688 -394.20023100842991 0 -394.20023100842991 -1378.7002414113085 0 0 0 0 -20.178787277142462 45.050701611452865 0 45.050701611452865 -53.003138693996817 0 0 0 0 -42.40213834844667 -181.55618136471844 0 -181.55618136471844 -2760.1018225706939 0 0 0 0 1157.4719633439781 987.55112081533298 0 987.55112081533298 287.95727314872056 0 0 0 0 -2.7672840091992854 19.297741334902518 0 19.297741334902518 -4.7242848984197394 0 0 0 0 -280.43072722563011 -582.20830629944976 0 -582.20830629944976 -2674.9122288429353 0 0 0 0 -233.15169480207442 -495.70480305074307 0 -495.70480305074307 -2924.3980698359956 0 0 0 0 171.76921656948252 -329.51534528937191 0 -329.51534528937191 -2874.7661383741433 0 0 0 0 534.60185292312963 94.004255562394974 0 94.004255562394974 -2391.7175342975388 0 0 0 0 279.23793793364894 -273.71569997479673 0 -273.71569997479673 -2716.9437465917727 0 0 0 0 -37.540669511614396 -1.7176473733634339 0 -1.7176473733634339 -2495.4253859953023 0 0 0 0 477.0053492535335 38.456825570116052 0 38.456825570116052 -2882.6117702263582 0 0 0 0 488.24167846118507 116.15041223328444 0 116.15041223328444 -2369.5662357032852 0 0 0 0 603.84190471048942 274.12251553337865 0 274.12251553337865 -2678.9910794201714 0 0 0 0 607.04143452112453 225.83334440583349 0 225.83334440583349 -2501.2369975922629 0 0 0 0 509.12291191331315 74.682495932516758 0 74.682495932516758 -2153.1838849222695 0 0 0 0 475.03226251519663 297.50131996095297 0 297.50131996095297 -2301.7205722911895 0 0 0 0 531.46790576706189 -71.07585056584503 0 -71.07585056584503 -1882.2889302703989 0 0 0 0 475.79655390450353 -187.75321733958663 0 -187.75321733958663 -892.58721433900064 0 0 0 0 507.37086665640891 199.42543340619886 0 199.42543340619886 -1503.7130628844461 0 0 0 0 610.48908427437891 -181.01718422807608 0 -181.01718422807608 -1254.9984530407237 0 0 0 0 539.81761551947602 216.79819767360459 0 216.79819767360459 -888.93546429206617 0 0 0 0 542.56031938084107 -87.197424118864546 0 -87.197424118864546 -1584.6491108823684 0 0 0 0 365.52587623453337 92.526694485766711 0 92.526694485766711 -1489.666177678766 0 0 0 0 387.65317043291361 -154.7196195700526 0 -154.7196195700526 -1780.8660400055815 0 0 0 0 364.27484153823752 224.16833058075281 0 224.16833058075281 -1830.1894053396536 0 0 0 0 115.60683904740392 147.59291281570768 0 147.59291281570768 -2039.2217672877887 0 0 0 0 -286.27361802374435 335.04274941375479 0 335.04274941375479 -2445.8344594249356 0 0 0 0 259.12839879265448 -16.753728889831109 0 -16.753728889831109 -2262.7320885056688 0 0 0 0 211.77252968489211 376.73365234974426 0 376.73365234974426 -2378.1496153443877 0 0 0 0 233.69198054456137 366.69877574987186 0 366.69877574987186 -2844.9865179063054 0 0 0 0 233.90980299636794 283.47770830574154 0 283.47770830574154 -2575.5951427206164 0 0 0 0 162.37098375826463 111.18438616435742 0 111.18438616435742 -2833.3262106085076 0 0 0 0 -66.416943324591557 169.93685518141137 0 169.93685518141137 -2856.6651879602578 0 0 0 0 144.15206223001587 137.73328896391831 0 137.73328896391831 -2851.7457001950825 0 0 0 0 -142.77195403965925 472.30966040735802 0 472.30966040735802 -3444.8373606374371 0 0 0 0 524.45425808896834 348.61370726165478 0 348.61370726165478 -2543.8823398837558 0 0 0 0 592.53338028791404 386.92974298297486 0 386.92974298297486 -2641.0845300441142 0 0 0 0 517.66643305877551 386.75087138684466 0 386.75087138684466 -2648.1942684557289 0 0 0 0 398.010854319793 239.21359138080152 0 239.21359138080152 -2563.6566918260942 0 0 0 0 413.38550332955856 313.64501957059838 0 313.64501957059838 -2617.1711223751772 0 0 0 0 418.97660435544822 352.77918670287181 0 352.77918670287181 -2810.3047930498724 0 0 0 0 544.30327043173747 383.41066701270756 0 383.41066701270756 -2620.9474337579159 0 0 0 0 562.88684256436318 365.18789632872358 0 365.18789632872358 -2640.1756410957896 0 0 0 0 475.59794936623075 282.81863972738211 0 282.81863972738211 -2322.6244425133627 0 0 0 0 410.66103577886679 160.64986874168972 0 160.64986874168972 -2462.4209163598716 0 0 0 0 193.79912066816178 -147.00979330705013 0 -147.00979330705013 -2559.6335542140005 0 0 0 0 395.06748462740143 234.27629220204835 0 234.27629220204835 -2721.4420942575671 0 0 0 0 255.54454516441911 155.29525974273565 0 155.29525974273565 -2681.9919538541435 0 0 0 0 135.25932098059093 -312.48296069809294 0 -312.48296069809294 -3099.49540433113 0 0 0 0 158.45085662865313 -159.22098147678116 0 -159.22098147678116 -2463.6516165512148 0 0 0 0 -328.92074650921131 -1059.3988846389111 0 -1059.3988846389111 -2531.4556619182113 0 0 0 0 -472.52871399340802 -947.38483193930006 0 -947.38483193930006 -1600.0374949292454 0 0 0 0 94.331527433969313 -401.42586582439253 0 -401.42586582439253 -2609.8170369284926 0 0 0 0 -247.88620229525259 -629.8979543360183 0 -629.8979543360183 -1332.1751072586339 0 0 0 0 63.334557422338548 -409.60277965229761 0 -409.60277965229761 -1936.2279565371573 0 0 0 0 255.72577435433777 -39.155219323467463 0 -39.155219323467463 -2417.3349803016172 0 0 0 0 254.33823845399252 -13.955515876814843 0 -13.955515876814843 -1820.5702574820025 0 0 0 0 145.69585731546613 -170.69371761349612 0 -170.69371761349612 -1849.9246143649216 0 0 0 0 94.529320847112103 -209.3050243735197 0 -209.3050243735197 -1572.1680468482082 0 0 0 0 82.606459936170722 156.93932632051656 0 156.93932632051656 -983.30949562136084 0 0 0 0 64.128257007607317 57.431815116753569 0 57.431815116753569 -1300.8152942381566 0 0 0 0 203.37883572882856 -633.30483029097377 0 -633.30483029097377 -4162.5819286778278 0 0 0 0 -75.067763651055429 854.08423754593969 0 854.08423754593969 -1208.2796183758328 0 0 0 0 -475.19447272652178 -134.29831234208541 0 -134.29831234208541 339.58417929639108 0 0 0 0 -7.7300988793424885 11.800791276378447 0 11.800791276378447 -13.777457729666168 0 0 0 0 191.07297331889458 35.450986379131791 0 35.450986379131791 -3684.4342138823122 0 0 0 0 52.788377405726351 -46.761170713085448 0 -46.761170713085448 -3447.9216297724051 0 0 0 0 174.22839266458686 232.55281826293503 0 232.55281826293503 -3321.9590501854545 0 0 0 0 155.63594551216374 -154.78214894767734 0 -154.78214894767734 -3254.7875082366518 0 0 0 0 296.23242900466721 162.70862565418065 0 162.70862565418065 -3031.4018292600522 0 0 0 0 223.33252333757264 -297.9527475728828 0 -297.9527475728828 -3387.5699554159073 0 0 0 0 151.85526787985145 -59.033032185019692 0 -59.033032185019692 -3076.5279841865413 0 0 0 0 52.38565754420415 -83.726210042310413 0 -83.726210042310413 -2808.6105046530138 0 0 0 0 18.220152691174007 -1007.7920256880752 0 -1007.7920256880752 -3468.0088620745992 0 0 0 0 -1.0368375902193101 0.50229253381823469 0 0.50229253381823469 0.41038813633969085 0 0 0 0 -139.74056885045138 301.96382027259097 0 301.96382027259097 71.652051505428972 0 0 0 0 -24.28808304575432 -23.553458845766727 0 -23.553458845766727 139.48334636009531 0 0 0 0 -40.262283242605918 6.7532264683686662 0 6.7532264683686662 115.73896847560536 0 0 0 0 34.24142362144994 -35.911530915385811 0 -35.911530915385811 -61.51601314747677 0 0 0 0 52.471564733379637 -72.282253692246741 0 -72.282253692246741 10.646462034783326 0 0 0 0 82.778096572978029 -93.120516570241307 0 -93.120516570241307 87.704235314275138 0 0 0 0 29.489430260975496 -16.798468526045326 0 -16.798468526045326 -3.7723499442363391 0 0 0 0 -1.1730806431194125 6.4605690175232553 0 6.4605690175232553 -10.540358456649045 0 0 0 0 347.45624429216605 201.8526214832018 0 201.8526214832018 -445.63296017258835 0 0 0 0 73.578151507215807 20.959035708689044 0 20.959035708689044 -24.584250338375568 0 0 0 0 -575.82077046632185 -543.26192026090575 0 -543.26192026090575 -390.92927788256202 0 0 0 0 -415.13316687847691 -691.25720636561164 0 -691.25720636561164 -664.47754642402288 0 0 0 0 -498.52991821726027 -145.20736965406104 0 -145.20736965406104 -220.88854720437666 0 0 0 0 -145.65733807785728 133.42805136350216 0 133.42805136350216 -665.74893535381852 0 0 0 0 -88.511270462884568 150.01872091903351 0 150.01872091903351 -976.52629002206959 0 0 0 0 -235.48536002107721 -199.61773676896701 0 -199.61773676896701 -727.71105372055899 0 0 0 0 -232.44553094523144 -184.23106841085246 0 -184.23106841085246 -801.5106337419129 0 0 0 0 148.08448969312303 -61.046429079040536 0 -61.046429079040536 -6.7044703652791213 0 0 0 0 20.422597702425264 42.46175863145254 0 42.46175863145254 -23.618585179327056 0 0 0 0 63.080983255025785 -27.017687824551103 0 -27.017687824551103 -20.234714968915796 0 0 0 0 -17.571624415607403 -4.6864786186124547 0 -4.6864786186124547 -24.160814235088765 0 0 0 0 -19.824967050060877 -3.5887010342412395 0 -3.5887010342412395 123.10463241714751 0 0 0 0 93.847668450642232 -29.218576593731996 0 -29.218576593731996 -24.802902536845068 0 0 0 0 -212.32883149017289 363.90598168088763 0 363.90598168088763 809.88367625730461 0 0 0 0 -25.346240786281669 10.596100357350224 0 10.596100357350224 -14.012486168940086 0 0 0 0 -30.873787404198083 27.261690606363118 0 27.261690606363118 8.5088311244162469 0 0 0 0 591.29494596489531 484.86649581897655 0 484.86649581897655 211.96516654847073 0 0 0 0 -26.366703539661827 27.747073302873531 0 27.747073302873531 -30.788488024462623 0 0 0 0 -3.7728019592363511 9.6211155381005256 0 9.6211155381005256 -23.560886492666725 0 0 0 0 -25.160061321510511 34.375139360694448 0 34.375139360694448 -17.275945468005375 0 0 0 0 -201.00434881565889 213.66872887974023 0 213.66872887974023 -327.25453994251438 0 0 0 0 -15.483507429080806 14.841962671912555 0 14.841962671912555 -1.8378466476102631 0 0 0 0 960.48377919673294 451.75745931806159 0 451.75745931806159 119.89379295957042 0 0 0 0 -28.318611761355555 26.854695041256434 0 26.854695041256434 -19.456277167912674 0 0 0 0 57.51000027768896 62.776552918563539 0 62.776552918563539 644.37139197945362 0 0 0 0 90.323133384343237 204.68334500207857 0 204.68334500207857 -520.01922220579581 0 0 0 0 -79.461563604858384 302.09716347360518 0 302.09716347360518 -493.97961951672914 0 0 0 0 1145.0710960205688 503.43438799976138 0 503.43438799976138 -988.25464199544513 0 0 0 0 326.86618330673809 498.05138702495606 0 498.05138702495606 -970.44091039181512 0 0 0 0 133.09297825277827 152.13311010009056 0 152.13311010009056 489.72170834676945 0 0 0 0 713.03506736738927 638.2786551011377 0 638.2786551011377 132.85257827397436 0 0 0 0 447.26056066528326 708.11762652413745 0 708.11762652413745 210.27139222383266 0 0 0 0 108.0134015960939 543.05246884652297 0 543.05246884652297 -651.26557347842027 0 0 0 0 -208.44454739587673 26.207509415504319 0 26.207509415504319 182.7984430915094 0 0 0 0 -75.528311502210272 676.80651368697727 0 676.80651368697727 -1774.0175276560476 0 0 0 0 527.34936892415135 665.96483914840064 0 665.96483914840064 -1605.9688796120463 0 0 0 0 112.61709474097006 185.53271609749936 0 185.53271609749936 -802.41788500711846 0 0 0 0 288.27823119318782 578.95584630113444 0 578.95584630113444 -2018.6078694283351 0 0 0 0 475.27897661706083 356.86477686007856 0 356.86477686007856 -1884.5675302880409 0 0 0 0 278.80486738188847 768.46539753051184 0 768.46539753051184 -2724.01513630728 0 0 0 0 -25.831211399929089 362.28049910768459 0 362.28049910768459 -2010.8995899297297 0 0 0 0 270.64896141442296 214.03684031665034 0 214.03684031665034 -1659.1646086943801 0 0 0 0 464.81762210258603 465.00963032443542 0 465.00963032443542 -1746.7302260269716 0 0 0 0 342.28561777266441 628.08863533328986 0 628.08863533328986 -915.83057830086909 0 0 0 0 395.85063170571084 588.6099880693946 0 588.6099880693946 -1522.8462879790786 0 0 0 0 487.3756513402077 464.84589896586112 0 464.84589896586112 -1509.2920258772792 0 0 0 0 554.13952518196311 503.34378093342821 0 503.34378093342821 -2268.3292217442213 0 0 0 0 512.17437514383346 386.88152022460417 0 386.88152022460417 -2212.0153327953303 0 0 0 0 486.85328511830448 236.28736363226562 0 236.28736363226562 -2307.8994156169356 0 0 0 0 581.38988038373645 461.82566528665484 0 461.82566528665484 -2349.6802122943591 0 0 0 0 629.67431948187004 461.47734218072583 0 461.47734218072583 -2696.711734822602 0 0 0 0 608.05493376010782 468.34624783451727 0 468.34624783451727 -2756.8356600114494 0 0 0 0 445.36572992496804 490.56806841574144 0 490.56806841574144 -2729.1313897276414 0 0 0 0 643.98758196447307 290.13545212236932 0 290.13545212236932 -2970.8578976599965 0 0 0 0 370.12907688986161 155.01969376798661 0 155.01969376798661 -2755.7006908816838 0 0 0 0 594.33145025820704 323.61608841610723 0 323.61608841610723 -2703.0584733929609 0 0 0 0 620.15019206334182 362.96034296629659 0 362.96034296629659 -2644.9500786917342 0 0 0 0 -387.21666560198355 1047.3119778154069 0 1047.3119778154069 -3120.2902660274995 0 0 0 0 474.51205872488936 290.76293874473777 0 290.76293874473777 -2960.7238405643729 0 0 0 0 349.63539075371227 398.72888944466831 0 398.72888944466831 -3049.7816767255135 0 0 0 0 396.07413935386239 -105.59850227996139 0 -105.59850227996139 -3431.6546732235001 0 0 0 0 380.52556519604514 413.42121546421913 0 413.42121546421913 -4397.954141829483 0 0 0 0 96.628848119042232 -634.47723914164453 0 -634.47723914164453 -4074.0742873095733 0 0 0 0 -992.8216483502074 2010.5200182658009 0 2010.5200182658009 -5304.9043765688402 0 0 0 0 -695.05378247132467 447.31390165747143 0 447.31390165747143 -2330.8546059670334 0 0 0 0 -344.76839156989081 1001.5620619188485 0 1001.5620619188485 -4925.7631685308588 0 0 0 0 -2520.7085519127613 976.24972198695104 0 976.24972198695104 -1340.631503521814 0 0 0 0 -798.27282695539179 -180.22399318874523 0 -180.22399318874523 -1625.9694487963097 0 0 0 0 -780.46058100567097 150.75006334087811 0 150.75006334087811 -821.5782089856948 0 0 0 0 -690.88224588551384 826.25875115874805 0 826.25875115874805 -2099.7589309934483 0 0 0 0 -1556.4097634776444 267.72833878298843 0 267.72833878298843 -695.50300701794913 0 0 0 0 -479.62560456472056 222.47420774375496 0 222.47420774375496 -939.75175574756577 0 0 0 0 -448.44721860071149 548.93498604309571 0 548.93498604309571 -771.43016315127898 0 0 0 0 -804.8423187948265 38.80022410141828 0 38.80022410141828 57.665401992504485 0 0 0 0 -651.63964430316264 218.16214969738212 0 218.16214969738212 -711.59196931322549 0 0 0 0 -259.87099506812956 -241.14276841318497 0 -241.14276841318497 82.489990302012302 0 0 0 0 -888.81689876603014 -406.98544782608951 0 -406.98544782608951 42.384436076128623 0 0 0 0 -206.39153707305377 -15.348207175746211 0 -15.348207175746211 570.75186698401376 0 0 0 0 -376.49272535652744 -355.27218821149654 0 -355.27218821149654 348.48540030515869 0 0 0 0 -13.196504500771844 14.409368795632105 0 14.409368795632105 -11.624334135840485 0 0 0 0 -21.784050326673551 7.8805671794578132 0 7.8805671794578132 -5.1671849532379213 0 0 0 0 -43.209565795288654 -37.031171811220702 0 -37.031171811220702 -113.14252762350952 0 0 0 0 49.036876114663755 200.91038193613349 0 200.91038193613349 32.627126276344825 0 0 0 0 -317.7102865630186 618.48404120382475 0 618.48404120382475 414.67440157778401 0 0 0 0 345.82408052253595 -226.88858064595843 0 -226.88858064595843 -73.66376600293006 0 0 0 0 59.481793456889136 -397.91528730571008 0 -397.91528730571008 -104.41171824422781 0 0 0 0 16.028304912750173 -206.71639083597256 0 -206.71639083597256 -74.127147011487978 0 0 0 0 -64.285555103655497 -385.50798492517788 0 -385.50798492517788 89.765410449492265 0 0 0 0 -121.20739979730934 -227.98108639550628 0 -227.98108639550628 97.636644933139905 0 0 0 0 21.057023239096452 -212.32721465037321 0 -212.32721465037321 -73.728938020649366 0 0 0 0 -329.23015499334724 -538.3115144756157 0 -538.3115144756157 31.33619021170307 0 0 0 0 44.774411187983787 -549.92790395031625 0 -549.92790395031625 -244.66276398970513 0 0 0 0 180.48849046317628 -208.4340373701707 0 -208.4340373701707 -222.38117520242577 0 0 0 0 997.10083068010135 -93.230837351351511 0 -93.230837351351511 -182.18309390811919 0 0 0 0 393.39224666425434 -293.8163631024363 0 -293.8163631024363 -109.14955704170279 0 0 0 0 406.89392969880646 -299.39350511193334 0 -299.39350511193334 -119.62243962768116 0 0 0 0 482.77120239837677 121.51358569116201 0 121.51358569116201 155.72838834591676 0 0 0 0 175.88541835619253 -86.277608785276243 0 -86.277608785276243 26.043600996956229 0 0 0 0 775.4845746160172 280.69240744873241 0 280.69240744873241 45.634242121304851 0 0 0 0 1637.4363423614359 173.87917457635376 0 173.87917457635376 -419.17228177370271 0 0 0 0 1534.3416344526559 -670.60658086752665 0 -670.60658086752665 -424.0607790339709 0 0 0 0 0.10955883656050958 18.488934384680469 0 18.488934384680469 -68.634315566414671 0 0 0 0 -305.31859728148447 173.89776023503146 0 173.89776023503146 330.05587271085824 0 0 0 0 345.71678182330288 -471.41786056537239 0 -471.41786056537239 -126.94534459355054 0 0 0 0 336.55526907056446 -796.59421408781964 0 -796.59421408781964 539.6624730299518 0 0 0 0 -631.94788017519295 -675.68278440647282 0 -675.68278440647282 -182.09931618787232 0 0 0 0 195.33598545470886 -179.32100017822813 0 -179.32100017822813 -1346.969506744208 0 0 0 0 -24.952657055924647 2052.5800733039578 0 2052.5800733039578 -1059.3910580423835 0 0 0 0 -293.68542723591236 1549.6778952417444 0 1549.6778952417444 -1285.0429624392855 0 0 0 0 -408.02608929215057 1504.0142804788629 0 1504.0142804788629 -1264.9811404271941 0 0 0 0 -255.13908965335122 866.60271110051144 0 866.60271110051144 683.72051438575727 0 0 0 0 -570.95664794403638 -420.16517176011439 0 -420.16517176011439 119.63252374503645 0 0 0 0 -2.7615886689424585 8.6849237747220869 0 8.6849237747220869 -29.981296880481977 0 0 0 0 -653.64958530259764 -964.89453182181933 0 -964.89453182181933 -2409.4796056050982 0 0 0 0 519.55872935117623 -179.5784487435958 0 -179.5784487435958 -2646.453754162445 0 0 0 0 405.24558088563208 -611.06851360573637 0 -611.06851360573637 -4274.5760916330182 0 0 0 0 14.507578108107445 -35.855396141162828 0 -35.855396141162828 -116.82741115453621 0 0 0 0 -1012.8074568159245 1023.5394402755919 0 1023.5394402755919 -2289.4337457862894 0 0 0 0 -2504.3401080643453 2293.5180245122901 0 2293.5180245122901 -3102.1207867074991 0 0 0 0 -784.84835595233199 763.48900838258851 0 763.48900838258851 -4837.9694182520616 0 0 0 0 105.97077240051021 2226.4148512942593 0 2226.4148512942593 -3463.1527935262129 0 0 0 0 -324.27323459155741 2545.6437297739612 0 2545.6437297739612 -3059.9602049595051 0 0 0 0 -235.40555006495561 -890.73442626635369 0 -890.73442626635369 -3119.0570515885775 0 0 0 0 -11.089737430506148 15.500658847321148 0 15.500658847321148 -19.899795991990317 0 0 0 0 -312.84708068043619 2292.0101850284263 0 2292.0101850284263 1598.9291790205898 0 0 0 0 -228.57984398201734 -1770.8303038657905 0 -1770.8303038657905 -7664.0321940206413 0 0 0 0 1078.5860033483332 136.88418604426261 0 136.88418604426261 -762.75458567764872 0 0 0 0 -638.85908486515473 1644.9395278297197 0 1644.9395278297197 -1026.2249516758748 0 0 0 0 173.90348361352153 580.90727379869168 0 580.90727379869168 -858.64952186835581 0 0 0 0 89.981418478626438 219.58228376995248 0 219.58228376995248 -2131.268903797958 0 0 0 0 933.69119403028162 -310.69809267760866 0 -310.69809267760866 -1525.831730536629 0 0 0 0 1023.6652154794938 43.358646368840709 0 43.358646368840709 -907.13595179375261 0 0 0 0 915.93809659787803 -251.85903564171167 0 -251.85903564171167 -1315.5119599435457 0 0 0 0 4.3411982990110118 -159.78140530475139 0 -159.78140530475139 -1182.1237495031164 0 0 0 0 -498.46665702497558 169.09314449584053 0 169.09314449584053 -2509.5395547104417 0 0 0 0 -974.2176260531196 -730.47444592661486 0 -730.47444592661486 -1286.4594421326692 0 0 0 0 -453.89557082217237 692.36942635940613 0 692.36942635940613 -2469.3729102458747 0 0 0 0 22.184709911448561 -32.667944802838591 0 -32.667944802838591 -115.92199508352365 0 0 0 0 -1164.764839782627 208.55925543350895 0 208.55925543350895 -1442.3014106090413 0 0 0 0 -1258.0764155279358 900.52745596297609 0 900.52745596297609 -2245.9034040336555 0 0 0 0 -163.12704359715644 -508.85100798782514 0 -508.85100798782514 -1901.5501806855027 0 0 0 0 10.39561355913429 18.05747235868057 0 18.05747235868057 -186.44114754280599 0 0 0 0 77.814927496752716 -26.506513826490846 0 -26.506513826490846 -270.29980577988317 0 0 0 0 437.40462307666172 104.46051643195096 0 104.46051643195096 -539.49486847530352 0 0 0 0 11.495665991461959 -4.9119117872349083 0 -4.9119117872349083 -88.533483183460049 0 0 0 0 -9.9991397392061305 -9.4013847082121771 0 -9.4013847082121771 -24.344629099858693 0 0 0 0 -631.5590989966222 -489.66934057373146 0 -489.66934057373146 -1130.4727181630151 0 0 0 0 51.774201571263923 -4.5969592087901106 0 -4.5969592087901106 -51.514309355138181 0 0 0 0 -591.32119124945893 -703.72620114559686 0 -703.72620114559686 -299.14337459181843 0 0 0 0 105.68554431376833 252.00916926845093 0 252.00916926845093 -313.36967455800914 0 0 0 0 18.111184711720028 8.9171467104422106 0 8.9171467104422106 -30.95021467604947 0 0 0 0 680.33885166787059 -571.13685021599849 0 -571.13685021599849 -1153.8837352736882 0 0 0 0 326.30046676008715 261.07866555557848 0 261.07866555557848 -573.88730197996483 0 0 0 0 256.95689080580996 6.8129742786113638 0 6.8129742786113638 -1214.9374096811516 0 0 0 0 70.832080763538457 6.8377588545497474 0 6.8377588545497474 -25.575721891453327 0 0 0 0 667.8233384541345 -867.58067103531357 0 -867.58067103531357 -1582.625734299254 0 0 0 0 139.8157414624859 -173.12455283899726 0 -173.12455283899726 -296.13201882367139 0 0 0 0 380.4812894267061 -327.71947151701897 0 -327.71947151701897 -521.25037170998985 0 0 0 0 85.60139246837295 5.1223067349824589 0 5.1223067349824589 -51.633500741074585 0 0 0 0 372.91017172252617 29.537704790627117 0 29.537704790627117 -1494.3417285872274 0 0 0 0 -202.21958467498189 -39.08749802514285 0 -39.08749802514285 -74.379869324344327 0 0 0 0 -852.405761798296 776.66803995158625 0 776.66803995158625 -815.43544606573414 0 0 0 0 94.033766131062293 -77.284318781807087 0 -77.284318781807087 -344.16526194343896 0 0 0 0 277.60028510894062 190.49531724924964 0 190.49531724924964 -239.90651158966648 0 0 0 0 3.49809245715619 -7.3964946946391592 0 -7.3964946946391592 -28.02011336701409 0 0 0 0 442.27451009459583 158.57294387523143 0 158.57294387523143 -890.16027533793385 0 0 0 0 12.384736869137658 -8.2656975642759161 0 -8.2656975642759161 -106.72274510380899 0 0 0 0 65.878645854412753 48.738014742993983 0 48.738014742993983 -333.43963607180922 0 0 0 0 177.58922283470093 -163.99864418822744 0 -163.99864418822744 -423.29815057113592 0 0 0 0 -80.711720862770107 -188.73171264805569 0 -188.73171264805569 -337.07049805165479 0 0 0 0 22.612061591591896 18.122909128682295 0 18.122909128682295 -188.14035827212501 0 0 0 0 23.009872623089286 -7.9810093636483828 0 -7.9810093636483828 -25.755529390626009 0 0 0 0 -17.356869167096193 -56.526214745896141 0 -56.526214745896141 -184.96352253730583 0 0 0 0 -17.947290520332217 -56.264751668098143 0 -56.264751668098143 -172.17070958322438 0 0 0 0 88.723033397904146 15.720176847673429 0 15.720176847673429 -280.73718865661067 0 0 0 0 22.587258458061569 -79.844686217631534 0 -79.844686217631534 -273.14165046979906 0 0 0 0 15.82847177592795 -20.305940052622844 0 -20.305940052622844 -111.21573431900939 0 0 0 0 3.5291468571267615 -38.765179591668129 0 -38.765179591668129 -133.49309348523821 0 0 0 0 15.56760713471007 -19.631067771578827 0 -19.631067771578827 -101.67206515021942 0 0 0 0 86.611435657793891 -2.0108100597371958 0 -2.0108100597371958 -146.19920058007119 0 0 0 0 -15.009490186155745 -67.527038469190302 0 -67.527038469190302 -177.58341353741343 0 0 0 0 1.1998399764781489 -11.20052338656474 0 -11.20052338656474 -22.549218662600936 0 0 0 0 4.3675263841568643 1.1626511726767461 0 1.1626511726767461 -3.0420478131822932 0 0 0 0 -14.285198626256033 -66.922674485065727 0 -66.922674485065727 -192.13123634236399 0 0 0 0 88.328504026230803 37.068220910819946 0 37.068220910819946 -140.44835668029555 0 0 0 0 -372.80137088574975 -134.62927787382068 0 -134.62927787382068 -200.40690699761035 0 0 0 0 -278.48048078431827 -1563.7561138131969 0 -1563.7561138131969 -3294.3841659144236 0 0 0 0 -406.01696796754482 74.42990222980734 0 74.42990222980734 62.277720553262043 0 0 0 0 -10.380582919446667 0.47537936031025652 0 0.47537936031025652 -1.8293290667918853 0 0 0 0 529.03078481913258 -439.81750015918806 0 -439.81750015918806 -2503.3209772633854 0 0 0 0 -1577.2551925623718 -404.3297685591242 0 -404.3297685591242 52.063259291677241 0 0 0 0 -41.558845606370596 -27.638814035395626 0 -27.638814035395626 -76.291779900006077 0 0 0 0 26.411042225685378 -132.34759762348313 0 -132.34759762348313 -86.279042899186607 0 0 0 0 -187.23866248942679 -18.845847957109072 0 -18.845847957109072 -46.255092622508528 0 0 0 0 -23.619754274929377 -6.0092892447093504 0 -6.0092892447093504 -18.342289168007561 0 0 0 0 -0.6490618234187322 -11.976109042966115 0 -11.976109042966115 -44.22125762362441 0 0 0 0 -4.2439928399154532 -29.943635557626493 0 -29.943635557626493 -54.697978300191018 0 0 0 0 -7.0556171877956331 -18.596408345998498 0 -18.596408345998498 -28.337653531343676 0 0 0 0 15.039476246654981 -10.901054240219935 0 -10.901054240219935 -62.449671395632492 0 0 0 0 -1334.2769362898314 -1207.6713790406648 0 -1207.6713790406648 -892.63424790347926 0 0 0 0 -2.9994413096430335 -2.4664714345984535 0 -2.4664714345984535 -28.437724880170549 0 0 0 0 -2339.634408716614 -2771.6785479129976 0 -2771.6785479129976 -3312.4967302070436 0 0 0 0 -164.18359414151726 -2265.7891896022556 0 -2265.7891896022556 -5491.0332991063915 0 0 0 0 -62.8255421353741 -2069.3260523089439 0 -2069.3260523089439 -4730.7043268243578 0 0 0 0 13.597137463736116 -1630.4027098559018 0 -1630.4027098559018 -4609.755614322261 0 0 0 0 -682.33399765022716 -2391.1196579758816 0 -2391.1196579758816 -4030.2321010556334 0 0 0 0 -18.008328479793747 13.523624609422825 0 13.523624609422825 -13.05117527284645 0 0 0 0 -1167.2735720414557 668.52572110993788 0 668.52572110993788 -259.19251805916429 0 0 0 0 -407.98507283398396 1295.2316291398092 0 1295.2316291398092 -6411.1251839160977 0 0 0 0 -652.83149445958941 1327.348364872305 0 1327.348364872305 -5808.0677485079141 0 0 0 0 60.246132653273492 891.11984845807456 0 891.11984845807456 -6163.4274392751176 0 0 0 0 -1642.3106902189265 2082.9240670901927 0 2082.9240670901927 -6379.8221442378817 0 0 0 0 452.35811172234833 170.62156120898726 0 170.62156120898726 -5492.5376654339852 0 0 0 0 -393.29267510707945 1447.8565762086 0 1447.8565762086 -4551.9296108134731 0 0 0 0 -51.854507189516085 -10.430415500166418 0 -10.430415500166418 -37.326438121788669 0 0 0 0 -3.4075456778128439 8.7370670025891428 0 8.7370670025891428 -7.9831077744295271 0 0 0 0 25.745977182677585 3.727602944563472 0 3.727602944563472 -38.921300501189997 0 0 0 0 42.282522862433325 6.4556649245059816 0 6.4556649245059816 -81.647795444325311 0 0 0 0 12.036129579974386 -1.2653217040206073 0 -1.2653217040206073 -86.040751227352303 0 0 0 0 2.4411319129275508 4.9259558423646865 0 4.9259558423646865 -26.13295867991161 0 0 0 0 44.723728838616807 11.654582271294203 0 11.654582271294203 -71.002826162955898 0 0 0 0 -100.02615273464198 -201.11433773586759 0 -201.11433773586759 16.592583626988926 0 0 0 0 -584.00827669814271 -27.248981216485845 0 -27.248981216485845 375.45535398038919 0 0 0 0 83.737581317804484 18.940915274666622 0 18.940915274666622 -95.526590454348479 0 0 0 0 37.200906256596816 27.137217800857513 0 27.137217800857513 -15.146908970867184 0 0 0 0 150.04733278621825 35.186858547269367 0 35.186858547269367 253.2734431962599 0 0 0 0 954.71026327560594 -164.50218227977894 0 -164.50218227977894 -28.5306062597665 0 0 0 0 27.405134122747121 27.911891906226813 0 27.911891906226813 -46.968815995932289 0 0 0 0 -1102.0008149143323 -149.88977219986555 0 -149.88977219986555 268.9503356035566 0 0 0 0 278.69183674693704 63.440992525698675 0 63.440992525698675 -127.05296852919855 0 0 0 0 6.180536090568796 -15.05846497043764 0 -15.05846497043764 -63.623462282769708 0 0 0 0 127.51415541150163 187.01686658470135 0 187.01686658470135 -27.384362859418616 0 0 0 0 4.7990270381210394 43.380527821507712 0 43.380527821507712 -116.6034595186793 0 0 0 0 85.403799423398596 50.247874964341463 0 50.247874964341463 -125.88355350907659 0 0 0 0 79.327599487179214 29.266695494523447 0 29.266695494523447 -196.29694881825708 0 0 0 0 52.367291025937448 -39.519120505690807 0 -39.519120505690807 -220.25453435508462 0 0 0 0 160.20773550452964 -26.431268829999681 0 -26.431268829999681 -312.51007086722529 0 0 0 0 -233.2194936770934 195.31852692364555 0 195.31852692364555 -172.62416578158445 0 0 0 0 261.73703701054728 301.04395550561458 0 301.04395550561458 -227.1198411821897 0 0 0 0 659.09011286717464 -74.741442600919981 0 -74.741442600919981 -497.04743064379727 0 0 0 0 -5.2673426965826886 -13.589090612841154 0 -13.589090612841154 -36.803841114917759 0 0 0 0 -207.55746499274028 202.71584582592186 0 202.71584582592186 -589.7707644643815 0 0 0 0 -265.04913423518428 -15.667814938886295 0 -15.667814938886295 -268.91733290138654 0 0 0 0 101.73903378919204 -346.78753265051637 0 -346.78753265051637 -115.78032460997201 0 0 0 0 -398.71774838558122 391.7438538641145 0 391.7438538641145 61.711094824317115 0 0 0 0 -994.02470750931479 425.41553356721124 0 425.41553356721124 -258.94602210057201 0 0 0 0 -380.70771667789541 401.11455345530521 0 401.11455345530521 -845.14058391386061 0 0 0 0 -2419.258241489958 1058.2248788104189 0 1058.2248788104189 -18.785380962042836 0 0 0 0 -68.916065754594456 213.56795215141028 0 213.56795215141028 5.0838157171965577 0 0 0 0 -5.144584761868356 26.922924285258752 0 26.922924285258752 -15.618959864584212 0 0 0 0 466.99221875852254 219.50006817818939 0 219.50006817818939 -783.1543360753858 0 0 0 0 -175.25438623353531 121.12774510857707 0 121.12774510857707 56.290957176213851 0 0 0 0 -84.304866264767725 40.223996957327472 0 40.223996957327472 -21.636848168971483 0 0 0 0 -356.53355744452563 -91.95434891289915 0 -91.95434891289915 328.99181078621768 0 0 0 0 2064.2795286735877 425.92412733912352 0 425.92412733912352 -1027.928002241606 0 0 0 0 -274.72810905803453 1436.3284142191114 0 1436.3284142191114 -1447.9442346672149 0 0 0 0 -1765.8145926380457 441.3867116405163 0 441.3867116405163 141.9532716331305 0 0 0 0 -1069.9575587597647 3859.3639020659321 0 3859.3639020659321 -3898.719699292662 0 0 0 0 -245.25853765961585 504.441720069648 0 504.441720069648 -3309.8877703683684 0 0 0 0 -3.8832459650252957 19.735053859148756 0 19.735053859148756 2.9221854546349846 0 0 0 0 -23.386231539051167 8.6936259524430852 0 8.6936259524430852 5.428901774308752 0 0 0 0 -981.60671426407725 2411.4478148784838 0 2411.4478148784838 -6014.1449595884151 0 0 0 0 -1061.2156671961991 -334.03488734190614 0 -334.03488734190614 552.74678735494672 0 0 0 0 -1791.7521136389562 3313.2687272003532 0 3313.2687272003532 -4968.7781534739479 0 0 0 0 -2393.2272616019186 2802.3568794549938 0 2802.3568794549938 -5250.2398852369515 0 0 0 0 -1508.7276313899313 2713.9634013666146 0 2713.9634013666146 -5503.7079416157212 0 0 0 0 -2317.1078684008717 1382.8445555813523 0 1382.8445555813523 -6501.6937605836874 0 0 0 0 558.73505606854246 938.09890520269983 0 938.09890520269983 -2097.1669910772471 0 0 0 0 -3185.9200444676462 3905.8780975052141 0 3905.8780975052141 -3103.4221323304519 0 0 0 0 -1710.7670914268717 3012.7337446734055 0 3012.7337446734055 -4703.925063418661 0 0 0 0 6.9083847254105422 3757.8531542714336 0 3757.8531542714336 -6347.0768323577231 0 0 0 0 905.85510709191453 190.1587641275546 0 190.1587641275546 -4253.9312772039266 0 0 0 0 -2366.7308565032149 1787.5652373024373 0 1787.5652373024373 -4044.3769423431222 0 0 0 0 -399.85038352607995 1515.9050061042508 0 1515.9050061042508 -5494.9763009806957 0 0 0 0 -810.62229304177481 2256.0835197920678 0 2256.0835197920678 -3441.1860159324751 0 0 0 0 -1050.7420014715733 1043.0767967533684 0 1043.0767967533684 -3711.6570926783752 0 0 0 0 -180.0325872956231 1755.763040521997 0 1755.763040521997 -3609.5511258358601 0 0 0 0 -484.55711307007772 1844.5098115833384 0 1844.5098115833384 -2327.0437639783777 0 0 0 0 -476.93703161855842 1501.710695258691 0 1501.710695258691 -2247.2454499885207 0 0 0 0 -2043.4124038150076 2486.6276732063125 0 2486.6276732063125 -1908.1804434701917 0 0 0 0 -1546.0316727591767 1555.3874793199575 0 1555.3874793199575 -863.2006804147095 0 0 0 0 -493.82290924246036 786.75813709382783 0 786.75813709382783 -763.34399472692166 0 0 0 0 -844.42834805725761 1097.2852711772084 0 1097.2852711772084 -1007.1109052704705 0 0 0 0 -684.33578162740014 1100.3292649386167 0 1100.3292649386167 -1210.4527495698421 0 0 0 0 -267.54701169754071 802.39053616934689 0 802.39053616934689 -1529.7699283171387 0 0 0 0 -164.2347852330754 583.68498713067675 0 583.68498713067675 -1070.4936270556645 0 0 0 0 300.18394657144881 340.0841269692537 0 340.0841269692537 -1282.3493870448583 0 0 0 0 -97.615706930282613 213.98752470797626 0 213.98752470797626 -1045.2867282499647 0 0 0 0 -79.467880785311536 -7.0496151390980231 0 -7.0496151390980231 -889.87790802912787 0 0 0 0 -248.63047422612863 390.60947939277685 0 390.60947939277685 -802.27250483224634 0 0 0 0 -429.35097980909444 597.73358983103481 0 597.73358983103481 -999.97658217142452 0 0 0 0 -427.55549025066045 224.60154442579812 0 224.60154442579812 -486.12505872352631 0 0 0 0 361.69125168950086 64.930717077149893 0 64.930717077149893 -706.49649835983291 0 0 0 0 115.73878231619892 14.352100769261597 0 14.352100769261597 -617.44609119732922 0 0 0 0 390.41841909449954 134.22280436972869 0 134.22280436972869 -712.39348602521932 0 0 0 0 80.314072519171532 172.94473197648767 0 172.94473197648767 -814.05540471151471 0 0 0 0 19.945879171597536 21.845696648319272 0 21.845696648319272 -99.798549631646324 0 0 0 0 -754.26546212522089 -795.48467847071151 0 -795.48467847071151 57.144120472134091 0 0 0 0 500.73527651130308 -851.03077713812309 0 -851.03077713812309 -372.44586741476087 0 0 0 0 787.61841034690042 -14.288152258202899 0 -14.288152258202899 -778.47646584076574 0 0 0 0 530.16124632492028 -330.33701408389607 0 -330.33701408389607 -508.54894695564872 0 0 0 0 -3.78839379018358 -6.6771609429616916 0 -6.6771609429616916 -11.240843331232611 0 0 0 0 262.26178372334357 -229.32049063406885 0 -229.32049063406885 60.387970411175047 0 0 0 0 315.34826565081312 -77.097402853833046 0 -77.097402853833046 -1190.7245754256146 0 0 0 0 -2130.1580475341834 630.63850417672074 0 630.63850417672074 -1109.8616722652223 0 0 0 0 -190.43479817416039 -1750.6562277512494 0 -1750.6562277512494 -312.92713597253896 0 0 0 0 256.79818670312306 58.180945063359104 0 58.180945063359104 -492.12596934337489 0 0 0 0 402.16920689512699 234.18590364344709 0 234.18590364344709 -551.1034177482361 0 0 0 0 -23.074265929322792 15.794024748174706 0 15.794024748174706 -675.56289386097342 0 0 0 0 194.69194801479898 -45.965493317897199 0 -45.965493317897199 -609.64812675899884 0 0 0 0 276.04364000157511 -109.04974206573388 0 -109.04974206573388 -682.546918905864 0 0 0 0 274.65514581418756 -90.72367023480183 0 -90.72367023480183 -877.30885699687497 0 0 0 0 116.61869005880817 76.368825509227463 0 76.368825509227463 -782.48437833032222 0 0 0 0 260.13558227438898 -11.250367611479305 0 -11.250367611479305 -792.08938776652212 0 0 0 0 52.326686064816386 -94.748122572527791 0 -94.748122572527791 -796.62846837574034 0 0 0 0 351.13928305179343 -93.44696775880584 0 -93.44696775880584 -845.79853361388086 0 0 0 0 97.996100050822861 -72.17678377410266 0 -72.17678377410266 -939.58962440119649 0 0 0 0 161.38258293993295 99.518324822371142 0 99.518324822371142 -488.06119893497089 0 0 0 0 18.266755101897409 67.362776276266288 0 67.362776276266288 -107.69994192063581 0 0 0 0 97.690247842021222 -3.6108922157532106 0 -3.6108922157532106 -30.95199909199674 0 0 0 0 180.08627951590825 -71.185452210032963 0 -71.185452210032963 -1345.182266120275 0 0 0 0 157.62292408164649 -64.498103762016399 0 -64.498103762016399 -1162.2144604897185 0 0 0 0 -43.655749657682463 125.38190571770247 0 125.38190571770247 -736.64270109881181 0 0 0 0 -755.52813479311135 -396.12773202743119 0 -396.12773202743119 -1129.0758862635557 0 0 0 0 502.5586836833736 -186.74005292777292 0 -186.74005292777292 -1398.6833570131275 0 0 0 0 -75.948887505138146 37.650556146450981 0 37.650556146450981 -1518.0716891422344 0 0 0 0 -95.74611569089052 45.746789691489539 0 45.746789691489539 -1019.6322498994123 0 0 0 0 30.6003307888368 -40.52198320448224 0 -40.52198320448224 -1170.2643179391453 0 0 0 0 53.129308664284508 -105.09299521625508 0 -105.09299521625508 -1040.7833740128408 0 0 0 0 52.590734082643948 -6.9898751035873943 0 -6.9898751035873943 0.7443465953449504 0 0 0 0 -12.821950657574234 75.735140352408052 0 75.735140352408052 -1166.2207548177685 0 0 0 0 222.48606027251026 1234.1483229659789 0 1234.1483229659789 -1580.5605577403403 0 0 0 0 642.7965169297886 -24.496210754783533 0 -24.496210754783533 -1414.0455540511175 0 0 0 0 219.4788094638227 0.57021037887898274 0 0.57021037887898274 -1944.2062842948508 0 0 0 0 17.101084414858917 -0.43107668438750579 0 -0.43107668438750579 -1.7103419814421557 0 0 0 0 -183.90394267392185 575.9299142358941 0 575.9299142358941 417.16515199364949 0 0 0 0 1459.1071571136804 371.2234576357514 0 371.2234576357514 -1934.7488249989401 0 0 0 0 6.6291438995419512 6.7750913983626049 0 6.7750913983626049 -14.309980669540096 0 0 0 0 1922.4232063468767 847.67743730067014 0 847.67743730067014 -3123.5122066688491 0 0 0 0 370.97278117299857 -1809.2134227448732 0 -1809.2134227448732 -3194.6072367910238 0 0 0 0 1262.9819277202064 286.49612581676411 0 286.49612581676411 -1349.6083844191162 0 0 0 0 239.19271804723758 -107.67065270771855 0 -107.67065270771855 -1309.8357578059949 0 0 0 0 52.481612288239717 602.15130332143417 0 602.15130332143417 -1214.1195029490918 0 0 0 0 -562.15605512489765 227.10551948026114 0 227.10551948026114 -1407.6712488582561 0 0 0 0 -635.91901029829205 622.85015054399992 0 622.85015054399992 -1283.222572706858 0 0 0 0 -909.92672152022033 1034.8615309784727 0 1034.8615309784727 -1650.7097478580836 0 0 0 0 -1310.3640674947947 132.59145678141795 0 132.59145678141795 -2269.007735393483 0 0 0 0 -395.52165866180985 824.5490855047392 0 824.5490855047392 -1810.5991474701586 0 0 0 0 -105.37984350264048 930.56337686145253 0 930.56337686145253 -3867.1378744506073 0 0 0 0 -117.127535454108 812.10894222191291 0 812.10894222191291 -1971.7949299427273 0 0 0 0 -2049.5528818864141 1643.1185404485186 0 1643.1185404485186 -2230.235076592624 0 0 0 0 -0.94304132273007735 7.9151007857516147 0 7.9151007857516147 -32.25623056237464 0 0 0 0 -3042.925922556341 2137.1282386089952 0 2137.1282386089952 -1052.7005016587063 0 0 0 0 -769.63584333191466 2459.4991705026914 0 2459.4991705026914 -3414.7969153397935 0 0 0 0 -483.83780949780385 1727.2248038107755 0 1727.2248038107755 -1885.7087509837002 0 0 0 0 -149.78348890049347 1400.9366036838765 0 1400.9366036838765 -1669.457695048186 0 0 0 0 -135.67915261170856 1348.907741472518 0 1348.907741472518 -1716.975028500543 0 0 0 0 326.07827439476114 1471.9367864743836 0 1471.9367864743836 -2736.8936477178067 0 0 0 0 454.80813847860628 948.06577820527491 0 948.06577820527491 -1868.1425126809918 0 0 0 0 113.67445321637251 717.63324609733536 0 717.63324609733536 -2023.7813337952975 0 0 0 0 44.102932797085714 1031.6250498610461 0 1031.6250498610461 -1424.6974947818817 0 0 0 0 -9.5264784177616093 1228.7205704750522 0 1228.7205704750522 -2010.9990934392335 0 0 0 0 -497.8899046389916 1400.433177558949 0 1400.433177558949 -1633.7788878334395 0 0 0 0 -110.36221856641578 1431.9969929593863 0 1431.9969929593863 -1758.4139791652997 0 0 0 0 -14.134586847830178 1257.6167814181972 0 1257.6167814181972 -1679.3608720785414 0 0 0 0 -286.14403095388388 1202.6505422314513 0 1202.6505422314513 -1336.9094209706091 0 0 0 0 462.01097351946896 616.15609544660765 0 616.15609544660765 -1534.3302933538798 0 0 0 0 341.58763690441265 593.05711525984225 0 593.05711525984225 -1407.612304723385 0 0 0 0 -21.860192678388103 1304.3787087560486 0 1304.3787087560486 -1700.6686286257973 0 0 0 0 272.02216522371873 1272.1554280819255 0 1272.1554280819255 -2426.9128669047495 0 0 0 0 596.76614523622538 992.80255622221739 0 992.80255622221739 -2865.6899913992602 0 0 0 0 1116.0894153355771 516.89798938015247 0 516.89798938015247 -2575.5512566840916 0 0 0 0 525.28800387056458 761.69512501265854 0 761.69512501265854 -1974.5988946701254 0 0 0 0 511.9702471528999 373.11745412131131 0 373.11745412131131 -1869.9918962942465 0 0 0 0 1316.93473233244 -478.06117889854067 0 -478.06117889854067 -1187.2909260517044 0 0 0 0 640.94758985209 -1435.2345646261747 0 -1435.2345646261747 715.10592785768677 0 0 0 0 384.66512184693852 635.53506978449877 0 635.53506978449877 -6016.8178119313343 0 0 0 0 11.680153547905299 -8.6709904403814448 0 -8.6709904403814448 -5.8701386225636156 0 0 0 0 361.69648908529598 -157.55424884516106 0 -157.55424884516106 -505.46055117071955 0 0 0 0 2262.4149902153249 -2739.4793251749361 0 -2739.4793251749361 -5502.9245158685608 0 0 0 0 1326.1139011321286 471.43824656189827 0 471.43824656189827 -4904.7083124392302 0 0 0 0 2304.072283514663 -1247.5634375788795 0 -1247.5634375788795 -2062.7107285095408 0 0 0 0 -237.30868353126664 -1080.4596600769128 0 -1080.4596600769128 -4524.1346280759317 0 0 0 0 8.9530228061607797 4.4478348167033364 0 4.4478348167033364 -7.3073508772572495 0 0 0 0 206.89017781969494 878.48116061769542 0 878.48116061769542 -5494.575168942446 0 0 0 0 281.93646029723459 -108.39955248136539 0 -108.39955248136539 -1012.062568064368 0 0 0 0 329.11994826577757 -36.277998045305139 0 -36.277998045305139 -913.77205050221528 0 0 0 0 31.519775798917856 -11.440430926643188 0 -11.440430926643188 -27.19091344001508 0 0 0 0 528.31658249725569 -55.645484541660835 0 -55.645484541660835 -941.57294403429842 0 0 0 0 225.12799151007493 -119.76635584113683 0 -119.76635584113683 -952.29063611835591 0 0 0 0 265.92626675884082 508.55949449411355 0 508.55949449411355 -794.68982971122023 0 0 0 0 8.32248846790662 18.643791458215006 0 18.643791458215006 -99.324669625959586 0 0 0 0 -0.46773195617833557 16.285307360055459 0 16.285307360055459 -77.609430066888081 0 0 0 0 98.060001589636158 310.21119125050609 0 310.21119125050609 -939.40275115723489 0 0 0 0 1317.9605460949917 302.00156280431042 0 302.00156280431042 -736.60665042264736 0 0 0 0 82.826423348669778 11.527013929189707 0 11.527013929189707 -626.12631287713884 0 0 0 0 -38.414441324422114 375.38609488587826 0 375.38609488587826 -1263.3084642246977 0 0 0 0 -725.8536537313305 452.26041169416749 0 452.26041169416749 -153.96688532351982 0 0 0 0 -557.29584063141465 1422.3343302880967 0 1422.3343302880967 -1506.3342240200145 0 0 0 0 150.73067496447649 1175.3592587537642 0 1175.3592587537642 -5493.2859760011779 0 0 0 0 417.54663374204119 689.34318739385344 0 689.34318739385344 -383.07302503047322 0 0 0 0 -110.45157867990389 370.01383308626464 0 370.01383308626464 -796.70630153259845 0 0 0 0 -71.353475960007472 270.50778006339169 0 270.50778006339169 -577.24090336129302 0 0 0 0 -8.437893450489355 705.69413699570578 0 705.69413699570578 -599.90431567180894 0 0 0 0 208.94538571373232 382.50580150542373 0 382.50580150542373 -583.32882216490543 0 0 0 0 351.17296683345535 388.19243389209441 0 388.19243389209441 -1173.8254958843172 0 0 0 0 248.2445925850426 492.15053367032669 0 492.15053367032669 -681.39854701087461 0 0 0 0 0.86058262765405047 3.0212216795017071 0 3.0212216795017071 0.065450069125674304 0 0 0 0 -254.95890640641687 466.14504477560331 0 466.14504477560331 337.25169882552291 0 0 0 0 -7.4658303986881265 544.66708439694048 0 544.66708439694048 -1126.9391280413838 0 0 0 0 94.112371932051246 128.01862252887804 0 128.01862252887804 -679.56548472372697 0 0 0 0 11.713802365767911 24.241598922983485 0 24.241598922983485 -9.8745957555106685 0 0 0 0 -1209.4620859327142 2200.3968433714858 0 2200.3968433714858 -3916.2686599318695 0 0 0 0 329.22455657225453 858.4070196061075 0 858.4070196061075 -5284.5002727605606 0 0 0 0 -1.7845555781527165 206.69522000602592 0 206.69522000602592 -2709.3278264484543 0 0 0 0 -465.08880503840646 382.94487125346495 0 382.94487125346495 330.1032617163728 0 0 0 0 4.4805772344071002 9.209503238914067 0 9.209503238914067 0.63019187840791346 0 0 0 0 0.9188373633469753 3.0142261948466853 0 3.0142261948466853 -1.295624202297887 0 0 0 0 309.46727127570773 887.6406279254079 0 887.6406279254079 -1694.2082857474743 0 0 0 0 -160.41023878157557 368.97718544477539 0 368.97718544477539 -395.77244099872769 0 0 0 0 -152.74562581988607 370.00825658260146 0 370.00825658260146 -780.44733958081633 0 0 0 0 -89.411729142894728 344.54271846157644 0 344.54271846157644 -781.2750901856125 0 0 0 0 -0.2142456072527269 540.98339810075413 0 540.98339810075413 -780.44144660708844 0 0 0 0 -59.075432974787191 245.87701432428003 0 245.87701432428003 -1112.298814875714 0 0 0 0 0.079041195223629804 503.57969557726273 0 503.57969557726273 -1495.6499520704238 0 0 0 0 34.993885349059497 310.78439936971699 0 310.78439936971699 -1699.8623506492877 0 0 0 0 164.65649814358818 499.10253503701097 0 499.10253503701097 -2092.270211451294 0 0 0 0 128.43854045352828 50.805172854983539 0 50.805172854983539 -1714.9610356959602 0 0 0 0 16.790619600534683 12.534413700865116 0 12.534413700865116 -250.2505630371088 0 0 0 0 1553.0953956951553 -656.42203314941071 0 -656.42203314941071 -2464.2814681431337 0 0 0 0 -12.637992143263546 1436.1770402719994 0 1436.1770402719994 -3494.6936658592531 0 0 0 0 149.83329953850671 404.78666771628923 0 404.78666771628923 -1756.6948313770508 0 0 0 0 555.85291826388971 698.32222171581816 0 698.32222171581816 -2761.6028139923146 0 0 0 0 -713.84318567946593 1264.0233190239815 0 1264.0233190239815 -2181.4475499448745 0 0 0 0 -589.47016114200051 900.89432619372383 0 900.89432619372383 -1856.2323976742482 0 0 0 0 -643.4932973648414 860.59520086130328 0 860.59520086130328 -1792.2943681639736 0 0 0 0 -230.88451649416555 697.42782284376881 0 697.42782284376881 -1963.6761545836926 0 0 0 0 -300.62198161229026 913.80234650716011 0 913.80234650716011 -1915.2930679312994 0 0 0 0 -24.21327074117778 468.32542104102322 0 468.32542104102322 -2084.8994717475871 0 0 0 0 0.14036027483514171 525.46841222942271 0 525.46841222942271 -2000.6454876936332 0 0 0 0 -138.44537302815968 707.83544783281832 0 707.83544783281832 -2090.9989328666998 0 0 0 0 -10.711186380673908 12.089428209162065 0 12.089428209162065 -12.689377276887761 0 0 0 0 51.644005687518302 -200.14844538434227 0 -200.14844538434227 -415.51314851350253 0 0 0 0 -288.67523124198215 108.49831578171779 0 108.49831578171779 98.165656181441591 0 0 0 0 -11.310229497303681 -229.7640325450102 0 -229.7640325450102 -316.81523082227704 0 0 0 0 -484.21568661639321 -78.891293123728246 0 -78.891293123728246 -255.84678046291992 0 0 0 0 -624.89961339008187 -138.10656129812378 0 -138.10656129812378 -228.20643121914645 0 0 0 0 -0.69904668754497834 264.32752769040962 0 264.32752769040962 -97.762662198161706 0 0 0 0 315.47702649103485 40.725863860447134 0 40.725863860447134 -153.61862124119943 0 0 0 0 -56.52417771319233 -204.57011065679035 0 -204.57011065679035 -133.38235941011226 0 0 0 0 -624.97688992609619 -175.42937337946205 0 -175.42937337946205 12.073077209148323 0 0 0 0 17.166026633576998 -20.574532574099223 0 -20.574532574099223 -116.84090224582478 0 0 0 0 480.75319423562905 314.40115089952815 0 314.40115089952815 -254.96244520929758 0 0 0 0 -253.48282354987896 -280.47300050232479 0 -280.47300050232479 -119.84676887300884 0 0 0 0 -246.91215253202836 -250.32907168853671 0 -250.32907168853671 -505.90515296359263 0 0 0 0 -691.92591489745428 -353.19556084852593 0 -353.19556084852593 -91.481832943234622 0 0 0 0 -2.6970245198452787 4.4133594462444776 0 4.4133594462444776 -6.3772234076863015 0 0 0 0 -341.24341212226955 106.93598310246671 0 106.93598310246671 -876.14807526835648 0 0 0 0 14.964188028399819 -26.74135618776161 0 -26.74135618776161 -112.28101879437865 0 0 0 0 -801.60474937760409 -245.25688454076771 0 -245.25688454076771 206.76807234973603 0 0 0 0 95.547975305333239 221.19723376856018 0 221.19723376856018 -0.46608899373677559 0 0 0 0 -1043.4440763919995 -28.546596398312886 0 -28.546596398312886 188.21289096958935 0 0 0 0 -976.1594614790738 -180.08987047704431 0 -180.08987047704431 221.43487924451256 0 0 0 0 7.6556251539182689 -17.344225542837648 0 -17.344225542837648 -6.8312808322975513 0 0 0 0 3464.006153338727 717.33482991509663 0 717.33482991509663 143.72486722408212 0 0 0 0 -563.04679775870613 -475.66737592114805 0 -475.66737592114805 110.12992589750138 0 0 0 0 -998.27200517534175 159.24676724322762 0 159.24676724322762 -238.49409111024943 0 0 0 0 -902.39322145634287 -94.062658848764841 0 -94.062658848764841 -31.645748679253302 0 0 0 0 -1008.3962771090864 -18.185058933151595 0 -18.185058933151595 121.91499085914984 0 0 0 0 191.43796384548375 -439.0704219509953 0 -439.0704219509953 -415.17707668179355 0 0 0 0 -199.10891812099396 -335.83153278509553 0 -335.83153278509553 -442.03264818030948 0 0 0 0 109.423773640273 -305.58095504293533 0 -305.58095504293533 -468.01435163206406 0 0 0 0 49.369260774291433 -207.27343292900059 0 -207.27343292900059 -708.4604666856103 0 0 0 0 -64.653123436885153 -226.18678435574293 0 -226.18678435574293 -488.60177777105537 0 0 0 0 -132.13669837188399 -100.21473215653987 0 -100.21473215653987 -124.64040205742276 0 0 0 0 -99.50218652474905 -34.770322995096649 0 -34.770322995096649 3.129537727947536 0 0 0 0 51.468895984396113 67.79701790555373 0 67.79701790555373 -132.93696263406127 0 0 0 0 -356.56238693661544 -397.60736241226732 0 -397.60736241226732 -178.46098928551282 0 0 0 0 -400.9551968934361 405.00922792102619 0 405.00922792102619 -601.53954627068742 0 0 0 0 -6.1048409070249292 -7.6052847714087477 0 -7.6052847714087477 -11.608478839154863 0 0 0 0 9.8747789931699117 102.6443160216636 0 102.6443160216636 -38.99863123527939 0 0 0 0 75.801097180430418 1.2089375180520392 0 1.2089375180520392 -30.097456262677952 0 0 0 0 1.0793997128577253 -14.734613197289832 0 -14.734613197289832 -42.35734428769549 0 0 0 0 59.711042969416667 122.18958275830846 0 122.18958275830846 -147.7642327911035 0 0 0 0 -107.10509734293555 161.25923232283458 0 161.25923232283458 -77.313084859470109 0 0 0 0 -254.89057407920154 108.36923137187387 0 108.36923137187387 -67.33668542279247 0 0 0 0 525.32660052554274 42.961415181027405 0 42.961415181027405 -299.75353935685052 0 0 0 0 388.43382263204785 -344.32171025368461 0 -344.32171025368461 -415.71189309674628 0 0 0 0 152.6698747236872 -100.86410188380779 0 -100.86410188380779 144.77046015203814 0 0 0 0 14.618691236226368 -234.86079647587667 0 -234.86079647587667 -254.87756706922482 0 0 0 0 152.14382108305227 -75.523999220627957 0 -75.523999220627957 -660.28223182298825 0 0 0 0 162.75633717427991 -327.65559323822163 0 -327.65559323822163 -401.58389671059285 0 0 0 0 212.64532282191294 -187.56581001181689 0 -187.56581001181689 -384.55215173537363 0 0 0 0 10.128064901645384 7.6764394411027528 0 7.6764394411027528 -81.755616701509354 0 0 0 0 7.2545825384498217 -14.022024473559327 0 -14.022024473559327 -72.192766974777186 0 0 0 0 -4.3844787040261508 350.15643071529303 0 350.15643071529303 258.51658450983086 0 0 0 0 3.3881647612379311 -491.6977497294165 0 -491.6977497294165 -776.6812568767873 0 0 0 0 36.588636429435383 -272.32312559305365 0 -272.32312559305365 -1252.3298313685755 0 0 0 0 -638.30147260908507 -645.1742349204751 0 -645.1742349204751 -157.74269567544161 0 0 0 0 -15.390974502051899 16.322830436063196 0 16.322830436063196 -13.520190918553595 0 0 0 0 -137.24073097146902 636.0262354971901 0 636.0262354971901 -328.87556347448117 0 0 0 0 -216.48520822069713 182.92166057672057 0 182.92166057672057 132.68992448933022 0 0 0 0 151.38874920375838 -22.956691895175481 0 -22.956691895175481 -343.87067472498165 0 0 0 0 -11.882014632906792 9.743440936634105 0 9.743440936634105 -20.364294750149387 0 0 0 0 81.709817660220779 47.150723132487201 0 47.150723132487201 -45.456593238295682 0 0 0 0 -154.80918639278116 -46.572074439938206 0 -46.572074439938206 234.9417201624392 0 0 0 0 -45.261128470571748 -117.59913816618928 0 -117.59913816618928 -1018.3954279093919 0 0 0 0 83.42706284763608 -16.873670388972414 0 -16.873670388972414 -2008.0916573114573 0 0 0 0 0.32906238152335199 5.5826409313231693 0 5.5826409313231693 -14.410355217933862 0 0 0 0 -2.1657286044674651 2.6497920268550637 0 2.6497920268550637 1.1569572345090648 0 0 0 0 -249.7891687491101 -283.13191663437829 0 -283.13191663437829 11.585031519884069 0 0 0 0 25.164790897311395 -22.976617357923352 0 -22.976617357923352 -89.52956011464056 0 0 0 0 -183.39396680859682 256.40378585699727 0 256.40378585699727 -232.21883437535143 0 0 0 0 37.133064351147681 -43.267246945001546 0 -43.267246945001546 -86.453231543784995 0 0 0 0 89.425073235594027 -218.2900908415977 0 -218.2900908415977 -754.10107666744079 0 0 0 0 29.056559730995943 -28.205444259093444 0 -28.205444259093444 -84.263351943784599 0 0 0 0 -57.882546348242613 -451.47167591575453 0 -451.47167591575453 -380.73386967628414 0 0 0 0 39.859621119578151 -19.086712958976477 0 -19.086712958976477 -67.478534286958165 0 0 0 0 28.810622550749258 -0.87390818925928926 0 -0.87390818925928926 -96.945296914689422 0 0 0 0 64.266885386773311 -180.87382733720779 0 -180.87382733720779 -149.58815220400902 0 0 0 0 -99.247433999399618 -350.98906883406016 0 -350.98906883406016 -313.07446173452354 0 0 0 0 8.6367576327441284 -13.77407711485516 0 -13.77407711485516 -71.116062301865171 0 0 0 0 22.57319501393431 21.617336160406921 0 21.617336160406921 -132.36966358987956 0 0 0 0 -40.547141228148917 -80.922070524889193 0 -80.922070524889193 -1027.3145797969482 0 0 0 0 1.7453656543237877 44.476244896510465 0 44.476244896510465 -96.919971183977623 0 0 0 0 111.29642256641819 238.58347846737161 0 238.58347846737161 -117.47785915138934 0 0 0 0 24.649359129965887 13.345362106207176 0 13.345362106207176 -129.14714695341536 0 0 0 0 160.2387136958132 -46.861010246560909 0 -46.861010246560909 -176.93279456510209 0 0 0 0 5.0852531229480888 15.023578198060587 0 15.023578198060587 -112.19498600060336 0 0 0 0 -147.50777772741276 -55.590522356986185 0 -55.590522356986185 -119.11277880036505 0 0 0 0 16.862663485939265 -150.69073383025534 0 -150.69073383025534 -115.55255957535115 0 0 0 0 1.3934432378988504 -17.596232268348906 0 -17.596232268348906 6.4797346611732678 0 0 0 0 -86.72162413100159 -628.12187591381371 0 -628.12187591381371 -1409.4569125323615 0 0 0 0 11.741261171810805 21.132800398274195 0 21.132800398274195 -121.42995278155779 0 0 0 0 -5.7429371602393076 -717.67594599172662 0 -717.67594599172662 -1418.6395175534635 0 0 0 0 13.981432343504039 26.345490773845142 0 26.345490773845142 -72.777380776186391 0 0 0 0 114.50438090794887 -221.97909595642818 0 -221.97909595642818 -1588.2313620937477 0 0 0 0 17.655183730338649 -268.59974256603863 0 -268.59974256603863 -1155.7214983392289 0 0 0 0 15.962205953300026 7.2425329912920127 0 7.2425329912920127 -113.78180870637283 0 0 0 0 353.25874578735238 -393.98585059834841 0 -393.98585059834841 -1160.0511702251606 0 0 0 0 124.71534747117255 -225.78038273187065 0 -225.78038273187065 -1068.6717976711357 0 0 0 0 308.43053949920795 -262.89040356598707 0 -262.89040356598707 -1503.4099539748859 0 0 0 0 -27.382489831703424 -513.85717261599348 0 -513.85717261599348 -1272.9889281241376 0 0 0 0 39.731021344832698 -408.63012757392062 0 -408.63012757392062 -1324.6464547445285 0 0 0 0 -7.5509891706142298 -668.98038918528255 0 -668.98038918528255 -1726.2930046163674 0 0 0 0 -123.87088145682438 14.185268061531477 0 14.185268061531477 -1847.145887935364 0 0 0 0 -119.37977591968571 -263.83942008270822 0 -263.83942008270822 -2865.4191864748354 0 0 0 0 84.421200900928625 -48.36763475879502 0 -48.36763475879502 -1204.7626958482801 0 0 0 0 -111.150821749123 -352.99385074470769 0 -352.99385074470769 -897.14574711061437 0 0 0 0 -13.974593817937603 -570.85681316346563 0 -570.85681316346563 -1431.2132658201808 0 0 0 0 -491.67163972528988 -984.8984740777272 0 -984.8984740777272 -1711.4216541548856 0 0 0 0 -543.20667375265475 -1303.5988042294209 0 -1303.5988042294209 -2661.4743689541683 0 0 0 0 -1.2103706118045885 7.0684977423146584 0 7.0684977423146584 -20.066249966762065 0 0 0 0 -142.13624563930171 996.31256721153204 0 996.31256721153204 -1204.4624038721158 0 0 0 0 -299.93778200312863 490.0859184141359 0 490.0859184141359 312.68872747064347 0 0 0 0 1127.4507957171709 436.02022433872389 0 436.02022433872389 -1284.1010671858803 0 0 0 0 161.803311129348 124.58439842922871 0 124.58439842922871 487.40763858805462 0 0 0 0 376.03260618815477 199.57913618750246 0 199.57913618750246 -750.02063073466343 0 0 0 0 453.57970752545953 -489.61371361564488 0 -489.61371361564488 -2539.0975488239101 0 0 0 0 -1092.838619207178 -853.77261577837908 0 -853.77261577837908 -1212.6154355322415 0 0 0 0 -639.61161286976221 -565.46136728207057 0 -565.46136728207057 -599.37874099274632 0 0 0 0 -135.01718583902857 -176.46629754414971 0 -176.46629754414971 -1124.2480433047613 0 0 0 0 -1126.1058370981573 137.33535388924247 0 137.33535388924247 -1175.2894354354339 0 0 0 0 -98.258075243635176 -519.04921706005371 0 -519.04921706005371 -1101.7306728906506 0 0 0 0 -42.868480807469723 -353.47959698572481 0 -353.47959698572481 -900.64858740051568 0 0 0 0 -308.71890797229162 -113.42912920043364 0 -113.42912920043364 -346.50002454566129 0 0 0 0 -221.35561752500189 -156.25154872833537 0 -156.25154872833537 -933.35842792808762 0 0 0 0 451.30013225340372 424.06867518182844 0 424.06867518182844 -853.71616195294382 0 0 0 0 589.6707412840185 -7.8859166954116517 0 -7.8859166954116517 -371.83031504770042 0 0 0 0 18.990067198677671 -25.010645604997798 0 -25.010645604997798 -119.09694190183774 0 0 0 0 20.716920735200411 -27.149850146625795 0 -27.149850146625795 -120.23459887287622 0 0 0 0 418.10993263392447 108.73224622781891 0 108.73224622781891 -1124.3507894277718 0 0 0 0 340.52929892085012 -310.10638905347696 0 -310.10638905347696 -1257.0080629731747 0 0 0 0 407.21698971950354 391.20981765939359 0 391.20981765939359 -852.05446026045502 0 0 0 0 346.44373286811424 -48.090294270295999 0 -48.090294270295999 -1448.3110955164084 0 0 0 0 465.37950147350148 232.58695852318851 0 232.58695852318851 -1280.4075970420672 0 0 0 0 5.4992340459702227 9.851377487937313 0 9.851377487937313 -13.599720394846159 0 0 0 0 437.52963225177155 -242.68498470025588 0 -242.68498470025588 -1133.895819822952 0 0 0 0 118.44054943698802 -344.86496546386502 0 -344.86496546386502 -1158.0204000989761 0 0 0 0 187.03703221506476 72.855971120057802 0 72.855971120057802 -162.31152679199658 0 0 0 0 88.500930977106691 -142.43351632866688 0 -142.43351632866688 -994.22079097905407 0 0 0 0 -6.2154706785021716 -6.8915922450456648 0 -6.8915922450456648 -40.893041456963118 0 0 0 0 3.2192676771737752 -128.50942097805091 0 -128.50942097805091 -505.02420693510612 0 0 0 0 -182.23960169674228 81.08461694986363 0 81.08461694986363 -328.57691812109988 0 0 0 0 19.034503179732873 -22.853183179625844 0 -22.853183179625844 -117.03082569408244 0 0 0 0 208.32095358614424 -21.597367257010774 0 -21.597367257010774 -378.23438425655149 0 0 0 0 45.483523501905438 -13.523799637388947 0 -13.523799637388947 -192.24493566548335 0 0 0 0 283.2496708259132 -75.759279854277338 0 -75.759279854277338 -381.6848493915968 0 0 0 0 205.62172366924096 15.558374051050123 0 15.558374051050123 -253.31871396359929 0 0 0 0 3.0866355742716927 3.806698786635053 0 3.806698786635053 -8.8645523271968614 0 0 0 0 475.35021577786756 627.91436711644928 0 627.91436711644928 143.14667357905546 0 0 0 0 247.71889882502546 -27.750215386702621 0 -27.750215386702621 -240.98660848002874 0 0 0 0 255.22025146502256 86.169607668700337 0 86.169607668700337 66.936177069481346 0 0 0 0 656.44511578194397 370.69643705321505 0 370.69643705321505 -677.42473913071626 0 0 0 0 420.13697804132062 17.881547813009092 0 17.881547813009092 -372.00412438530475 0 0 0 0 262.67672697011812 -140.84606637599791 0 -140.84606637599791 -444.47878492130258 0 0 0 0 219.37503393745223 -123.72319416211712 0 -123.72319416211712 -411.30494144721888 0 0 0 0 216.16099427218433 -70.291331354972499 0 -70.291331354972499 -313.085109682037 0 0 0 0 55.127955724998174 -156.55850546580768 0 -156.55850546580768 -345.40781290821906 0 0 0 0 48.069503149353181 -173.00169582314902 0 -173.00169582314902 -336.34927351368242 0 0 0 0 -1.6030012861765499 -168.95142902195948 0 -168.95142902195948 -330.96618163417224 0 0 0 0 -151.74500817205762 -200.97925474282238 0 -200.97925474282238 -274.38543444992683 0 0 0 0 -20.944280393208828 -219.05531917597909 0 -219.05531917597909 -460.75709765489592 0 0 0 0 54.047042849227637 -255.48242353307069 0 -255.48242353307069 -466.61794432179886 0 0 0 0 -80.574325818918851 -392.61026732392929 0 -392.61026732392929 -604.38602431022446 0 0 0 0 126.6451704827814 -141.64813648672134 0 -141.64813648672134 -563.35223830244649 0 0 0 0 134.56172427275669 -95.220995304174721 0 -95.220995304174721 -345.20007839056416 0 0 0 0 100.40855373638169 -264.98884267345602 0 -264.98884267345602 -749.31287904265628 0 0 0 0 504.15056740276896 -338.16781484541934 0 -338.16781484541934 -990.77448557235039 0 0 0 0 284.65202637093535 -294.28034168687009 0 -294.28034168687009 -744.92310300449208 0 0 0 0 361.33093614150675 -507.69853145071829 0 -507.69853145071829 -1179.7236849338369 0 0 0 0 -120.0040385227519 -597.7879212176158 0 -597.7879212176158 -790.87470109958667 0 0 0 0 58.495196422343724 -411.15690839728632 0 -411.15690839728632 -603.26727091779321 0 0 0 0 128.98706059055712 -454.22189059394805 0 -454.22189059394805 -879.58186056402337 0 0 0 0 335.02000408442927 -467.01111193536053 0 -467.01111193536053 -882.94540353858611 0 0 0 0 113.91991441438097 -601.02862020769498 0 -601.02862020769498 -933.37450355394685 0 0 0 0 86.881640135395514 -529.13031743936426 0 -529.13031743936426 -857.86230205617903 0 0 0 0 -103.35768049347644 -606.88463003691868 0 -606.88463003691868 -879.19548288294027 0 0 0 0 197.05623403852042 -553.80115647009734 0 -553.80115647009734 -951.73314065193699 0 0 0 0 116.23662269474517 -633.54521346296315 0 -633.54521346296315 -990.38077893598529 0 0 0 0 350.56449748444265 -608.50226245986232 0 -608.50226245986232 -926.4339460311021 0 0 0 0 430.98680117648928 -704.48207438348618 0 -704.48207438348618 -1089.2200183101086 0 0 0 0 249.93330827730642 -658.78320177931528 0 -658.78320177931528 -754.1268525661435 0 0 0 0 357.34338703038338 -847.4492479010878 0 -847.4492479010878 -702.11804693099111 0 0 0 0 123.97618774930925 -1082.3281482894818 0 -1082.3281482894818 -1040.3833305141015 0 0 0 0 370.7667305632267 -512.04076386289671 0 -512.04076386289671 -98.668517131969566 0 0 0 0 -63.393354316842306 -765.97088950758734 0 -765.97088950758734 81.436621247819858 0 0 0 0 -119.67101808298867 -500.62446770897077 0 -500.62446770897077 524.42909277956642 0 0 0 0 1.9276902972943031 -2.8286980307860352 0 -2.8286980307860352 -12.557550706736095 0 0 0 0 880.12905730406146 579.97484761654414 0 579.97484761654414 -1060.3164680312912 0 0 0 0 -28.827621084946713 -969.17951405902204 0 -969.17951405902204 -1320.7042538396636 0 0 0 0 488.52664163855934 283.0901779081978 0 283.0901779081978 -341.89951330368058 0 0 0 0 425.8933358437971 400.64138752350846 0 400.64138752350846 301.40180945530392 0 0 0 0 659.32594888380117 564.05792328454845 0 564.05792328454845 -202.7098533010867 0 0 0 0 667.47768092769184 641.49743365405448 0 641.49743365405448 -1021.2816131598956 0 0 0 0 -561.31523455444176 -736.44039118395085 0 -736.44039118395085 -3145.9872671774792 0 0 0 0 903.32976504748058 396.52797684280085 0 396.52797684280085 -2164.377917647209 0 0 0 0 -204.94391372750215 -1230.7145797923877 0 -1230.7145797923877 -2638.4885163284489 0 0 0 0 504.19933066149503 -340.57522416335581 0 -340.57522416335581 -1832.2229863728862 0 0 0 0 372.48770244242769 -739.58769876573569 0 -739.58769876573569 -1082.0299057565353 0 0 0 0 328.87898625150683 -561.9556472676486 0 -561.9556472676486 -1467.3199169484033 0 0 0 0 447.85612954667613 -788.81325640104478 0 -788.81325640104478 -3156.6435968290752 0 0 0 0 21.53924998959797 -31.378525871130797 0 -31.378525871130797 -77.313246478191729 0 0 0 0 -348.96399802911947 133.82593003861257 0 133.82593003861257 34.394897374673747 0 0 0 0 -14.103597125035975 7.7287098425816687 0 7.7287098425816687 -87.547036035730741 0 0 0 0 178.36754334872603 -105.98008823415148 0 -105.98008823415148 -88.594456878083292 0 0 0 0 180.15788481070194 -74.347188701533014 0 -74.347188701533014 -140.4457580257822 0 0 0 0 197.13844237762487 37.731600668968895 0 37.731600668968895 -138.92594104389991 0 0 0 0 55.443849749896629 -43.008122293366796 0 -43.008122293366796 -49.623213291022694 0 0 0 0 0.65612390726193404 3.3872245145611259 0 3.3872245145611259 -79.377257730696726 0 0 0 0 255.96559653269901 60.216600843119522 0 60.216600843119522 -103.02286018153063 0 0 0 0 -350.88521488163155 -132.89131493372406 0 -132.89131493372406 -100.80277618223045 0 0 0 0 -207.35375374296086 -98.940031724127039 0 -98.940031724127039 -128.42720189419197 0 0 0 0 -143.00864600318641 -60.065778344846876 0 -60.065778344846876 -171.94992280181759 0 0 0 0 -129.705971519076 -168.34538797433925 0 -168.34538797433925 -250.77887806828221 0 0 0 0 -189.6471669714866 -165.75535666981432 0 -165.75535666981432 -205.71681207012443 0 0 0 0 -289.82225296459478 -314.04517444609519 0 -314.04517444609519 -291.22772999797598 0 0 0 0 -360.92404733839237 -371.25590617245689 0 -371.25590617245689 -332.14341128208616 0 0 0 0 -217.79429791910479 -372.78067834942703 0 -372.78067834942703 -473.3856220440357 0 0 0 0 -93.173012692073144 -281.83383513600756 0 -281.83383513600756 -407.37844910411513 0 0 0 0 -262.49817859843358 -460.87578793500506 0 -460.87578793500506 -465.17090091186401 0 0 0 0 -579.56418278381875 -719.00658797253709 0 -719.00658797253709 -675.22524396749577 0 0 0 0 -98.623985899577178 -589.96841128239066 0 -589.96841128239066 -978.47003878677788 0 0 0 0 -241.59862258189878 -620.44155803699687 0 -620.44155803699687 -976.99894059978396 0 0 0 0 -1213.6282106476549 -833.70096660200215 0 -833.70096660200215 -558.16107731573356 0 0 0 0 -245.28778967135668 -734.64820376737043 0 -734.64820376737043 -1805.7843722835314 0 0 0 0 -511.43802146873259 -287.63477063242431 0 -287.63477063242431 -322.33469689347112 0 0 0 0 -454.31468883284697 -312.89543474592938 0 -312.89543474592938 -312.61727120368232 0 0 0 0 0.34589180448856749 2.1332580115586168 0 2.1332580115586168 -54.138453815378767 0 0 0 0 -1627.4755388204944 -1482.6148173009151 0 -1482.6148173009151 -1575.5712580887921 0 0 0 0 -0.85710744409511297 -0.37845111847103752 0 -0.37845111847103752 -20.595179493354976 0 0 0 0 -194.42363120888751 466.80029809305051 0 466.80029809305051 -319.51513490671095 0 0 0 0 115.15420009038826 -22.501078313627659 0 -22.501078313627659 -64.238801166851772 0 0 0 0 16.772636199667438 -40.446496809462687 0 -40.446496809462687 -100.78210869148342 0 0 0 0 -313.34622040888644 -321.66902228407707 0 -321.66902228407707 -135.11265024000204 0 0 0 0 -964.21778008055071 -183.19728759697682 0 -183.19728759697682 -2717.9417876349653 0 0 0 0 499.44726135715632 -174.19216707653322 0 -174.19216707653322 -2908.8612303460759 0 0 0 0 17.633210095994954 -35.951505289611418 0 -35.951505289611418 -116.96570210601942 0 0 0 0 -581.7743153761744 -10.373778702360141 0 -10.373778702360141 -3304.3770183530578 0 0 0 0 -1317.8127675858 150.63870055579901 0 150.63870055579901 -1849.2531995002428 0 0 0 0 -288.48474819060334 158.43169267460689 0 158.43169267460689 -2227.489663079934 0 0 0 0 -555.83854633157284 -271.27778434401807 0 -271.27778434401807 -1681.7335957380274 0 0 0 0 -446.64215519652021 -132.8080795192036 0 -132.8080795192036 -1568.7643108660268 0 0 0 0 -188.60741517303882 -290.79648690931208 0 -290.79648690931208 -1592.4324041564541 0 0 0 0 20.396816352414135 -530.70278631160909 0 -530.70278631160909 -1315.0337314235367 0 0 0 0 -149.56152014674512 -146.04135124012464 0 -146.04135124012464 -1076.4619043357088 0 0 0 0 -166.36617592413745 32.524136646217812 0 32.524136646217812 -1215.45557377355 0 0 0 0 -0.6582150771164379 47.567140589209885 0 47.567140589209885 -1410.8923848514678 0 0 0 0 -285.23534035290913 219.08628011301334 0 219.08628011301334 -1506.7267704057149 0 0 0 0 -57.044278709461423 574.20671859048161 0 574.20671859048161 -1471.5016005823636 0 0 0 0 -391.24767604166857 708.12700243286963 0 708.12700243286963 -1054.615377848917 0 0 0 0 79.577056211540139 426.93145324096986 0 426.93145324096986 -938.73786873303084 0 0 0 0 -217.30980605016657 550.06993606479591 0 550.06993606479591 -943.83611796247715 0 0 0 0 -709.5893276143197 835.71742937451199 0 835.71742937451199 -1213.4807128401444 0 0 0 0 -768.60285992574427 1382.582929989243 0 1382.582929989243 -1563.1133749454202 0 0 0 0 -405.73043826412231 594.05702499267682 0 594.05702499267682 -1684.4078687260699 0 0 0 0 -832.96973448648282 548.63808367226011 0 548.63808367226011 -1478.0429134184378 0 0 0 0 -768.30943596685461 685.72761207494477 0 685.72761207494477 -1774.4426436284048 0 0 0 0 -756.16062154673318 292.36400942297405 0 292.36400942297405 -2194.0304960836802 0 0 0 0 -732.61013109872317 702.94363382109623 0 702.94363382109623 -1853.6107307166312 0 0 0 0 -778.03690652031548 148.19885487012834 0 148.19885487012834 -2183.269026729904 0 0 0 0 -761.68615057182228 474.92536464800651 0 474.92536464800651 -2613.1717759860403 0 0 0 0 921.38053933667743 -336.93285085908428 0 -336.93285085908428 175.10384985377823 0 0 0 0 677.8718994141816 98.067382357039605 0 98.067382357039605 -378.17859965418756 0 0 0 0 500.04179313773056 382.43185509129398 0 382.43185509129398 354.53052867590122 0 0 0 0 1.5702681275357175 -0.57454016651269058 0 -0.57454016651269058 -2.9880239481145168 0 0 0 0 -451.92212435385409 458.65285473341646 0 458.65285473341646 -2.8580707707587862 0 0 0 0 2661.9396283475699 -968.87582918138651 0 -968.87582918138651 -543.61460790084675 0 0 0 0 4.6452444249163474 -3.8689403002133114 0 -3.8689403002133114 -17.839752401257158 0 0 0 0 1908.8618253711002 376.62231464967772 0 376.62231464967772 -61.142813891754486 0 0 0 0 128.0853485835446 527.43981000478561 0 527.43981000478561 -402.70155945695296 0 0 0 0 250.30114019471671 352.12028843344979 0 352.12028843344979 -492.80102267941402 0 0 0 0 1206.4572608412909 -658.47529725120694 0 -658.47529725120694 423.11824387194793 0 0 0 0 1733.6090364455322 164.43271922374242 0 164.43271922374242 -322.95915791134757 0 0 0 0 609.67107795238735 333.51841878735286 0 333.51841878735286 424.88185912255722 0 0 0 0 741.21629192819273 -306.77251524636904 0 -306.77251524636904 -402.40513765667856 0 0 0 0 381.5142790072141 -337.2365863549785 0 -337.2365863549785 -269.23026980659779 0 0 0 0 228.57020711333985 -555.19502683967949 0 -555.19502683967949 -354.07551740259805 0 0 0 0 254.66422621143101 -463.36607806434768 0 -463.36607806434768 -853.99406270945474 0 0 0 0 194.43527877347742 -242.08456109189865 0 -242.08456109189865 -396.09440692664066 0 0 0 0 423.70684672341713 -270.25604921078775 0 -270.25604921078775 -71.423358469553932 0 0 0 0 416.63700509748651 -164.47556601635006 0 -164.47556601635006 -606.82301582900254 0 0 0 0 36.451901206271941 -433.36587054560368 0 -433.36587054560368 -917.60702446983305 0 0 0 0 161.58121232671806 -540.90953381867075 0 -540.90953381867075 -836.1591286205803 0 0 0 0 122.2912487416761 -53.511593571332924 0 -53.511593571332924 -863.2004164112841 0 0 0 0 171.43996537944804 86.089105787097651 0 86.089105787097651 -932.56891328393976 0 0 0 0 7.4865353857492209 -29.416372146471986 0 -29.416372146471986 -691.17870812908222 0 0 0 0 211.28294853200714 215.36044453821523 0 215.36044453821523 -563.42312232418044 0 0 0 0 313.8952023521606 -4.1974019879380648 0 -4.1974019879380648 -97.969836251271772 0 0 0 0 207.17693140233655 458.73904437476449 0 458.73904437476449 -439.90505009541812 0 0 0 0 498.39542512996013 490.85526536648831 0 490.85526536648831 -509.54918226008886 0 0 0 0 241.69419705680684 486.21189150778264 0 486.21189150778264 -881.95114988164278 0 0 0 0 110.12534673896971 750.27495856786845 0 750.27495856786845 -818.55408099295346 0 0 0 0 561.56763924044617 778.68324217035115 0 778.68324217035115 -790.32724257739028 0 0 0 0 41.270803216977129 544.39035495143617 0 544.39035495143617 -756.07861453979967 0 0 0 0 -12.078535610653944 417.25091341434745 0 417.25091341434745 -1042.0203325720649 0 0 0 0 1.5091960836798535 732.25385629512311 0 732.25385629512311 -1034.4660310799063 0 0 0 0 98.093355056146265 737.66051888064976 0 737.66051888064976 -1059.5917970703376 0 0 0 0 100.84946328647561 656.81045526914022 0 656.81045526914022 -1045.6233533398772 0 0 0 0 -80.480196639441147 764.57150700424245 0 764.57150700424245 -1126.6572037025653 0 0 0 0 162.73911226390885 772.59705325417235 0 772.59705325417235 -1542.525488197738 0 0 0 0 295.89870321783428 515.27055316982296 0 515.27055316982296 -1051.1737129276007 0 0 0 0 -165.74792276609833 133.78091056056292 0 133.78091056056292 -1043.1798827048024 0 0 0 0 721.7500584212321 196.69608511555271 0 196.69608511555271 -1079.496945435636 0 0 0 0 1.6371368644955928 -0.90699316226158544 0 -0.90699316226158544 -5.2264754957816422 0 0 0 0 1207.8687746650712 714.70825486666854 0 714.70825486666854 -643.18932134345232 0 0 0 0 14.35718945672069 16.887449250932022 0 16.887449250932022 -10.14582063732098 0 0 0 0 1120.8190153797959 697.43444790678041 0 697.43444790678041 965.12914646901118 0 0 0 0 1995.9740007096004 -906.15558411865277 0 -906.15558411865277 -1013.3976758253702 0 0 0 0 47.954868712754262 -818.88327409695648 0 -818.88327409695648 -389.43777406541631 0 0 0 0 212.03383247185064 1598.8462756516165 0 1598.8462756516165 -812.85358977393844 0 0 0 0 1275.8164499769214 89.19379365201894 0 89.19379365201894 -1771.2095206101149 0 0 0 0 1361.6743677131346 -518.6442238835225 0 -518.6442238835225 -419.58937275968492 0 0 0 0 -128.49668744759413 1193.2933135001294 0 1193.2933135001294 647.74416368011953 0 0 0 0 1316.4047144136457 -369.22573574847775 0 -369.22573574847775 707.91668445244431 0 0 0 0 224.60631865315509 15.949462072127062 0 15.949462072127062 670.49405997421127 0 0 0 0 514.0371954264333 2172.0245654301398 0 2172.0245654301398 -1362.719341062606 0 0 0 0 652.93895452965717 875.10441245264883 0 875.10441245264883 -1992.7036282274548 0 0 0 0 502.46180206454574 1451.4742345026207 0 1451.4742345026207 -2094.3366033688435 0 0 0 0 626.73322193252352 98.534196790806163 0 98.534196790806163 -1438.464838580694 0 0 0 0 159.88466463435543 1283.7483093544615 0 1283.7483093544615 -2175.9558682878378 0 0 0 0 930.33040552553507 1236.6941293331765 0 1236.6941293331765 -2455.3833180156435 0 0 0 0 -308.09544261258816 1116.1204280057464 0 1116.1204280057464 1082.4963341505354 0 0 0 0 385.94755946884902 462.4612810393337 0 462.4612810393337 -3380.7113397228241 0 0 0 0 -5.3931914386587625 3.0424206113137444 0 3.0424206113137444 -1.9626626782974119 0 0 0 0 -15.00338601351142 11.362167450007718 0 11.362167450007718 -3.7086853222827569 0 0 0 0 281.40170660366903 634.4081133657819 0 634.4081133657819 -1703.7750453997651 0 0 0 0 -777.61491380289226 483.4029878211004 0 483.4029878211004 -1564.3951729150908 0 0 0 0 159.92682880850543 521.74739030538331 0 521.74739030538331 -1342.6950880498116 0 0 0 0 987.5478410465721 518.92730903541451 0 518.92730903541451 -5591.0012068362121 0 0 0 0 1130.2333776254027 -1405.1322340957158 0 -1405.1322340957158 -248.34826462755882 0 0 0 0 3.4064182557261766 -4.8165418131621323 0 -4.8165418131621323 -20.182137385543143 0 0 0 0 -1286.277979463061 3461.7757938715504 0 3461.7757938715504 -4708.0218624170375 0 0 0 0 371.97057216420944 834.30088700758643 0 834.30088700758643 -2691.2318596476034 0 0 0 0 -1686.7656818524665 1841.0640193798827 0 1841.0640193798827 -2366.5653683244 0 0 0 0 -33.179981417817544 916.68220555216612 0 916.68220555216612 -2284.1251628145692 0 0 0 0 11.428307126440039 -14.630262873483801 0 -14.630262873483801 -46.811436734431794 0 0 0 0 102.74519199691986 1173.6119318996061 0 1173.6119318996061 -2250.6589767100086 0 0 0 0 -471.81739772237825 134.2259058259624 0 134.2259058259624 208.69866851083498 0 0 0 0 -377.28267245263851 -1748.0610937321107 0 -1748.0610937321107 -3378.2780076298368 0 0 0 0 1054.8316769887015 646.05455619001805 0 646.05455619001805 -2322.7694795749048 0 0 0 0 2.9923556359270513 4.3580438210099146 0 4.3580438210099146 -10.81863600405967 0 0 0 0 517.14541036079845 -541.7320282247565 0 -541.7320282247565 -1058.7745355563966 0 0 0 0 324.67331591043649 554.95156556830625 0 554.95156556830625 -880.39577106176057 0 0 0 0 810.79674382891403 -671.87346166819589 0 -671.87346166819589 -565.19288317307473 0 0 0 0 86.626824878199841 970.90446582056757 0 970.90446582056757 -1884.5915956406861 0 0 0 0 -531.50144252368773 130.17296094884659 0 130.17296094884659 -1834.3449828602679 0 0 0 0 1029.3019374366984 335.66428606712907 0 335.66428606712907 -1993.0922771645655 0 0 0 0 312.85239300255199 1366.2800596417364 0 1366.2800596417364 -2597.9329165203817 0 0 0 0 729.40214755707041 724.48446204377251 0 724.48446204377251 -3213.2025105069297 0 0 0 0 557.58513858484275 1068.5300628602454 0 1068.5300628602454 -2531.2430856966566 0 0 0 0 723.8917031318432 798.29615676763228 0 798.29615676763228 -2379.8492930309367 0 0 0 0 -347.42442667811974 313.15298142976826 0 313.15298142976826 146.15624804520121 0 0 0 0 -457.97745595090328 956.87958525481372 0 956.87958525481372 -1488.2294915913226 0 0 0 0 -263.48995338305758 878.06519558821674 0 878.06519558821674 -1856.0366785399219 0 0 0 0 -207.24956844295662 -140.74100799573353 0 -140.74100799573353 -546.18205292605489 0 0 0 0 -809.56865919570146 580.99849461900885 0 580.99849461900885 -1618.4987350300362 0 0 0 0 60.119202890544102 540.10951041568842 0 540.10951041568842 -1936.0328460926903 0 0 0 0 -342.44050853715646 1200.3878250048992 0 1200.3878250048992 -2239.3136479989917 0 0 0 0 -659.08399711612924 937.39368964927417 0 937.39368964927417 244.50755565557483 0 0 0 0 -9.6363200318114188 7.4370788238244927 0 7.4370788238244927 -3.3546513034291641 0 0 0 0 -425.01248750691047 1059.3174009508803 0 1059.3174009508803 -4376.4807079168677 0 0 0 0 -532.72858707425689 1803.8881292676415 0 1803.8881292676415 -3543.4523078751154 0 0 0 0 557.31734001902441 102.5542392784555 0 102.5542392784555 -2530.5253317370516 0 0 0 0 -99.771041694087899 100.38496826711526 0 100.38496826711526 -1403.5421637576146 0 0 0 0 -705.95858546723593 -486.02115995625354 0 -486.02115995625354 -923.71595753592919 0 0 0 0 154.91065876126277 -202.47224207592444 0 -202.47224207592444 -1013.1624548832333 0 0 0 0 -0.42787095906154526 2.6898793141008355 0 2.6898793141008355 -2.1977264574744737 0 0 0 0 -378.08742737062857 43.457405857969206 0 43.457405857969206 111.46595863519906 0 0 0 0 -681.24725382172551 671.04524986247998 0 671.04524986247998 -1111.5417430058915 0 0 0 0 7.0888242561357879 3.5948915437408857 0 3.5948915437408857 0.713825440762065 0 0 0 0 -53.866397440830497 68.307874109352269 0 68.307874109352269 -110.52902629050368 0 0 0 0 24.394393864101858 -160.08835216316766 0 -160.08835216316766 -582.4633666666341 0 0 0 0 68.193599749071041 30.087606003271503 0 30.087606003271503 -323.32984329930332 0 0 0 0 -115.55696307752305 2.3587133742585138 0 2.3587133742585138 -397.12306604001787 0 0 0 0 -566.73140721847983 0.52427176940545905 0 0.52427176940545905 31.970590890792664 0 0 0 0 -958.46651134743593 -979.863420500129 0 -979.863420500129 -414.69496194387398 0 0 0 0 -125.28894004479326 -248.44007285758562 0 -248.44007285758562 -387.50813982733234 0 0 0 0 -149.45487625148462 -225.10909176559653 0 -225.10909176559653 -378.20981142000528 0 0 0 0 -109.90113285575285 -461.73531546483355 0 -461.73531546483355 -1077.1557159822114 0 0 0 0 -260.20828074465328 -370.53076888310898 0 -370.53076888310898 -454.6980799062876 0 0 0 0 -173.30712127857868 -1041.5540141688671 0 -1041.5540141688671 -1351.071423287598 0 0 0 0 -28.263460502240378 -825.78964885855385 0 -825.78964885855385 -1125.6633675401245 0 0 0 0 11.662955068931817 9.1043188247809184 0 9.1043188247809184 -29.732919254325651 0 0 0 0 -414.97967519710755 -483.08746346031694 0 -483.08746346031694 -768.28637960940978 0 0 0 0 -337.09115686155008 -863.73666537646704 0 -863.73666537646704 -1736.9005051797212 0 0 0 0 10.390739976875683 9.9254484455064187 0 9.9254484455064187 -26.688269968217782 0 0 0 0 1040.342680467965 320.39609820731494 0 320.39609820731494 -1612.6948914779205 0 0 0 0 271.15486606174682 -1378.414411866808 0 -1378.414411866808 -3706.1339998331605 0 0 0 0 898.4105045959393 -895.99891987154479 0 -895.99891987154479 -3984.1428252205151 0 0 0 0 817.65599836496676 -1206.5760221400196 0 -1206.5760221400196 -5113.7884865484375 0 0 0 0 -46.85646697265387 -1784.1463294252644 0 -1784.1463294252644 -5499.5607479675964 0 0 0 0 314.50666707748422 -1018.7518100864859 0 -1018.7518100864859 -3175.2795056816758 0 0 0 0 -660.87639997512235 -1911.7419386682595 0 -1911.7419386682595 -3604.6283084558381 0 0 0 0 -1204.4076232314203 -3015.9624621855983 0 -3015.9624621855983 -5846.1967927216538 0 0 0 0 5.501992962548738 3.0904083872795809 0 3.0904083872795809 -16.876861380159113 0 0 0 0 -365.118568008495 -1400.3014586551399 0 -1400.3014586551399 -5961.7821238573961 0 0 0 0 -884.45360137348177 -1269.1521374125296 0 -1269.1521374125296 -5501.8612711717824 0 0 0 0 -431.70618149191193 -1082.6821544167033 0 -1082.6821544167033 -4109.7489004043928 0 0 0 0 -54.378737372291084 725.83586066122371 0 725.83586066122371 -1143.1085204318952 0 0 0 0 -224.06086688478399 750.27759601925209 0 750.27759601925209 -2909.2228380341221 0 0 0 0 -530.16749909996111 1839.3805717432761 0 1839.3805717432761 -6732.2805358557962 0 0 0 0 0.68224625396427818 -8.442320263177038 0 -8.442320263177038 -22.901889792236247 0 0 0 0 -247.58488515094405 1029.7424339626323 0 1029.7424339626323 -887.87878690521393 0 0 0 0 -420.44595366660269 1407.1230876348818 0 1407.1230876348818 -1689.3022321094686 0 0 0 0 7.2869253774213814 -18.029364373175298 0 -18.029364373175298 -48.631528838163632 0 0 0 0 247.71111023342974 48.855462206032826 0 48.855462206032826 -2350.8095631674423 0 0 0 0 154.28620905958587 866.06413045698719 0 866.06413045698719 -219.90853837255918 0 0 0 0 1782.0220448675304 2169.2444068790883 0 2169.2444068790883 -402.71858630143106 0 0 0 0 875.5793103373444 -686.85327420296926 0 -686.85327420296926 -2657.1352550277697 0 0 0 0 1152.3023195690866 -267.22809178614489 0 -267.22809178614489 -5104.2481850873883 0 0 0 0 1142.9076224377916 145.31154388734987 0 145.31154388734987 -3889.1499061326904 0 0 0 0 1502.4906852656445 -911.67397503678694 0 -911.67397503678694 -5498.9819839357006 0 0 0 0 1339.422339379066 -859.97072031379867 0 -859.97072031379867 -4561.1033517791802 0 0 0 0 1167.0394967125967 -452.10754923136574 0 -452.10754923136574 -5500.2586449232986 0 0 0 0 306.12483881049923 -491.38542860533016 0 -491.38542860533016 -4724.0248191379396 0 0 0 0 -541.64009613726284 -595.15057952696225 0 -595.15057952696225 -5331.4400052533638 0 0 0 0 -455.94044794554435 -47.661602537493309 0 -47.661602537493309 -5499.183323551697 0 0 0 0 307.08031736577334 -440.73277946290591 0 -440.73277946290591 -5464.1018552188179 0 0 0 0 -365.80099066587076 186.65542365588044 0 186.65542365588044 -5006.8952311300236 0 0 0 0 -254.90467625363814 331.25532646972897 0 331.25532646972897 -5499.4617394137858 0 0 0 0 -1308.2091410152254 89.043239948463452 0 89.043239948463452 -4952.3238060583053 0 0 0 0 439.71750000781122 686.39080375811773 0 686.39080375811773 -5499.7923906319229 0 0 0 0 -28.5532204365899 684.61282720459349 0 684.61282720459349 -5013.5508372447948 0 0 0 0 276.82986896910586 832.98400319413486 0 832.98400319413486 -4953.6649230701405 0 0 0 0 338.65707578941925 660.00663522519517 0 660.00663522519517 -4893.7558788785245 0 0 0 0 -434.73253915374715 352.04203237698493 0 352.04203237698493 -4332.7031752003913 0 0 0 0 78.947204159953301 942.25852246213617 0 942.25852246213617 -3957.5428551266195 0 0 0 0 -1533.1464229405065 1081.5724877264001 0 1081.5724877264001 -3664.2292026051109 0 0 0 0 -432.21982317444076 -887.80266651444981 0 -887.80266651444981 -3942.5336027327976 0 0 0 0 -428.32315358899939 366.42648717013435 0 366.42648717013435 -4963.4289973154737 0 0 0 0 -1481.0852249890283 152.1906794160368 0 152.1906794160368 -2003.0975013968018 0 0 0 0 -63.526085654410508 -2128.5287142071156 0 -2128.5287142071156 93.818311940845888 0 0 0 0 -1059.9753731910098 248.78937533831959 0 248.78937533831959 -1574.4322864467686 0 0 0 0 -565.6077468614269 944.81065002204969 0 944.81065002204969 -2154.2649562797669 0 0 0 0 -3099.1536684328662 -274.39758860622169 0 -274.39758860622169 -2637.7745771520676 0 0 0 0 200.86966429132895 841.99659387234215 0 841.99659387234215 -4607.8535155539867 0 0 0 0 -325.48626285221462 105.16941426893572 0 105.16941426893572 -3593.0195729993338 0 0 0 0 -2619.6729082334123 1964.0254653994307 0 1964.0254653994307 -1545.9315318346635 0 0 0 0 -1282.0813982273471 1969.4295508953728 0 1969.4295508953728 -1930.3791043958809 0 0 0 0 -1365.5685055064823 1218.3915545494779 0 1218.3915545494779 -3061.2061385963098 0 0 0 0 -1299.9370707674325 1927.2888873944703 0 1927.2888873944703 330.47268091848309 0 0 0 0 -5.1213074253637449 10.029135285403157 0 10.029135285403157 -12.62719606054641 0 0 0 0 343.773068611528 293.5330477703028 0 293.5330477703028 -4313.1357441038963 0 0 0 0 130.71810336312996 -341.91375498525781 0 -341.91375498525781 -1310.2994965407706 0 0 0 0 660.25605157045857 245.91379581179967 0 245.91379581179967 -738.37942029330952 0 0 0 0 -7.7660893710135817 17.528120276114379 0 17.528120276114379 -21.048047964843533 0 0 0 0 787.56461090492303 -537.85322847050156 0 -537.85322847050156 -837.34975153068717 0 0 0 0 -320.92963279661041 -23.831299562813285 0 -23.831299562813285 -944.53016723695691 0 0 0 0 4.6042046301621014 2.8787807442250468 0 2.8787807442250468 0.72424736691569791 0 0 0 0 251.63332911077077 -141.52097954570309 0 -141.52097954570309 -836.88347259371949 0 0 0 0 301.47130676474001 -427.24882177688323 0 -427.24882177688323 128.61208541189262 0 0 0 0 -474.88734210101575 -155.69578694988195 0 -155.69578694988195 -432.97742453917454 0 0 0 0 189.36208109120685 -830.36787093818111 0 -830.36787093818111 -1041.1346068501516 0 0 0 0 -1062.5523818464317 -338.40147094922213 0 -338.40147094922213 102.4340248817573 0 0 0 0 -1160.9776206565421 -7.2652645052294247 0 -7.2652645052294247 137.53254630567972 0 0 0 0 6.6119301684498186 -16.334046650524137 0 -16.334046650524137 -88.801280596131519 0 0 0 0 633.99325632290856 -270.42602381309553 0 -270.42602381309553 0.95209369432996027 0 0 0 0 -542.55871011693125 -201.9833389016203 0 -201.9833389016203 -28.904185689261794 0 0 0 0 1369.7287213901732 245.54406668895172 0 245.54406668895172 -1372.3651965252357 0 0 0 0 89.559827344966607 771.51319086737385 0 771.51319086737385 -626.01230675807165 0 0 0 0 -838.62595874578255 104.59340484686254 0 104.59340484686254 -190.00854825939314 0 0 0 0 -4.5044221913044922 -6.743493259412717 0 -6.743493259412717 -31.133262478337201 0 0 0 0 -1574.3047437099012 2403.6310357499642 0 2403.6310357499642 -2211.585602247018 0 0 0 0 -2510.7236411346848 -445.5858489785096 0 -445.5858489785096 -128.10624115876271 0 0 0 0 -1490.5671223415056 -1327.1619590536357 0 -1327.1619590536357 -1638.3491476361996 0 0 0 0 485.71815403212565 412.0067355472429 0 412.0067355472429 -254.04314867201356 0 0 0 0 -101.20810250775406 1109.5324995152623 0 1109.5324995152623 -1026.0660548866654 0 0 0 0 214.28546216665154 224.73386872125775 0 224.73386872125775 -548.56160028742579 0 0 0 0 4.8753918606042443 -26.811194440015434 0 -26.811194440015434 -96.458698997237235 0 0 0 0 370.92728817436364 -84.804876838836208 0 -84.804876838836208 -371.86477766440731 0 0 0 0 99.961290048474893 124.47301293567443 0 124.47301293567443 -125.65032575026999 0 0 0 0 -20.770724107273963 39.835048864094006 0 39.835048864094006 -118.10254649817944 0 0 0 0 53.65085517125317 63.410177869853214 0 63.410177869853214 -191.86044102803862 0 0 0 0 53.897244146165974 37.427050369631644 0 37.427050369631644 -11.365700853955577 0 0 0 0 -2352.966179162715 446.934389729955 0 446.934389729955 -1148.1877302216781 0 0 0 0 36.839954591305485 9.8905203982220513 0 9.8905203982220513 -18.89790325028261 0 0 0 0 141.99217893728064 -42.049041521825529 0 -42.049041521825529 -148.89174881099461 0 0 0 0 -30.973572645041259 -389.10766650299047 0 -389.10766650299047 -618.54011633951995 0 0 0 0 16.664481429774117 5.9159341889062702 0 5.9159341889062702 2.3850503285025582 0 0 0 0 11.403691381560748 -17.892483129669927 0 -17.892483129669927 -316.12597706817178 0 0 0 0 -286.34209231043707 -312.91551049226655 0 -312.91551049226655 -633.13790694584895 0 0 0 0 -27.825556248084126 -57.906915956904413 0 -57.906915956904413 -854.77905728865517 0 0 0 0 -3.9165865500497627 6.6417249889580887 0 6.6417249889580887 -8.3729733656880185 0 0 0 0 -298.39810210130634 620.56784336050259 0 620.56784336050259 727.47136408126244 0 0 0 0 -168.98307051131704 1037.243022766306 0 1037.243022766306 564.21207629109267 0 0 0 0 764.78166473883834 -940.61688603580296 0 -940.61688603580296 -2326.8623144596031 0 0 0 0 -280.33233464848229 -15.440980888861304 0 -15.440980888861304 432.96837452191539 0 0 0 0 -340.15784180856519 642.45951710609916 0 642.45951710609916 -581.67547217875108 0 0 0 0 337.98767352689447 -131.5665366908961 0 -131.5665366908961 -653.18505679492228 0 0 0 0 385.34610468587766 818.35412832189286 0 818.35412832189286 -548.4897318105177 0 0 0 0 348.15013338317601 411.23115351465367 0 411.23115351465367 -1643.7637520542394 0 0 0 0 68.276354552593375 396.81597253558266 0 396.81597253558266 -1644.3794960555911 0 0 0 0 -444.56514638783074 115.91970009364627 0 115.91970009364627 -222.17698562838632 0 0 0 0 -138.22030233741259 207.80946412038679 0 207.80946412038679 -198.29903718792775 0 0 0 0 280.96828845221989 -289.3955069087815 0 -289.3955069087815 0.38738180521818322 0 0 0 0 -360.48114709150127 434.68381748082811 0 434.68381748082811 -935.04237886156807 0 0 0 0 -7.2689195453562059 -20.24401623708896 0 -20.24401623708896 -65.407135591971112 0 0 0 0 -1523.7794969703577 2315.5772373413738 0 2315.5772373413738 -3209.8921273109936 0 0 0 0 -808.03100517743712 617.63770782591291 0 617.63770782591291 -810.53361875601513 0 0 0 0 127.07853555341438 896.0493254624007 0 896.0493254624007 -3304.9782491550523 0 0 0 0 -242.41493342290059 1387.6197301562433 0 1387.6197301562433 -3421.994885895504 0 0 0 0 -191.0730144134466 1027.4158752214505 0 1027.4158752214505 -4310.0942303155907 0 0 0 0 581.97750348101226 865.16020963804704 0 865.16020963804704 -4667.8860549743858 0 0 0 0 512.47701107918601 885.14420482466812 0 885.14420482466812 -3551.8372637881075 0 0 0 0 111.78024802952478 581.69816739392957 0 581.69816739392957 -3724.93292056055 0 0 0 0 393.9899968511578 1151.191726758404 0 1151.191726758404 -4278.8725696603324 0 0 0 0 378.56844144788141 1128.5981180953654 0 1128.5981180953654 -4771.9704888602591 0 0 0 0 599.47927726229238 978.79983296367027 0 978.79983296367027 -5070.7358478067454 0 0 0 0 686.70489582475079 1012.6122791081598 0 1012.6122791081598 -5499.9504156863286 0 0 0 0 164.3501945982313 1524.0684651964775 0 1524.0684651964775 -5499.0199392499489 0 0 0 0 -197.6938067395422 1324.4997408710474 0 1324.4997408710474 -4503.4981180649065 0 0 0 0 -886.88088050009719 2153.2442921053312 0 2153.2442921053312 -5500.0014012384672 0 0 0 0 -1366.0301411423252 1323.1337505438573 0 1323.1337505438573 -4335.986088879954 0 0 0 0 -1433.7164226068826 1698.389322162147 0 1698.389322162147 -3815.0561372863417 0 0 0 0 -2005.9499955174172 2251.5926889113971 0 2251.5926889113971 -1757.5754591151285 0 0 0 0 -1252.0111801159815 2603.0211777200725 0 2603.0211777200725 -3716.6526324844481 0 0 0 0 -6973.3236615987844 3536.3895402319977 0 3536.3895402319977 9.1385970669216476 0 0 0 0 -4311.23790761704 5316.8187887187742 0 5316.8187887187742 -5493.9020780235169 0 0 0 0 -1154.5602766879854 2769.9804145024832 0 2769.9804145024832 -4598.2367390691234 0 0 0 0 -583.6249769556606 44.224811026024327 0 44.224811026024327 -768.15127073497933 0 0 0 0 -599.34221725065345 -1739.852280088769 0 -1739.852280088769 -4850.9686937126335 0 0 0 0 2.3495742163394633 -21.00447434729772 0 -21.00447434729772 4.3231634368049043 0 0 0 0 -6174.0718004161517 4784.5803926162662 0 4784.5803926162662 -3781.5796800953685 0 0 0 0 0.51819415469094476 3.3780715569467681 0 3.3780715569467681 -9.3294921090001601 0 0 0 0 299.91584507107109 -347.23234689089077 0 -347.23234689089077 -1529.4627413758026 0 0 0 0 12.254947638676008 3.0812273331000055 0 3.0812273331000055 -111.07845319272903 0 0 0 0 -1689.8643178528609 2482.8492920672029 0 2482.8492920672029 -3547.7981563155995 0 0 0 0 12.764479125296001 7.1639448418635885 0 7.1639448418635885 -113.47150379733955 0 0 0 0 296.74854132872406 187.17478847845996 0 187.17478847845996 -1073.189946673845 0 0 0 0 -341.22834171886825 83.160268528889901 0 83.160268528889901 -259.92931231323746 0 0 0 0 13.733623501731927 -169.87811004906325 0 -169.87811004906325 -480.55516979184358 0 0 0 0 -803.52413081475743 -958.84236528237943 0 -958.84236528237943 -253.78929828365096 0 0 0 0 -2.7345225366456258 -5.1640313482245706 0 -5.1640313482245706 -27.012926688219078 0 0 0 0 -1105.3624794147695 -186.59976945182376 0 -186.59976945182376 73.570834037513578 0 0 0 0 1017.9599251339278 -74.01936677899505 0 -74.01936677899505 -3190.2472568986595 0 0 0 0 -57.986199340570124 -170.75543126293996 0 -170.75543126293996 -797.62070527734977 0 0 0 0 25.817015572200063 -208.46644186859703 0 -208.46644186859703 -893.06320373258131 0 0 0 0 0.071057171190559765 -6.9230679057172182 0 -6.9230679057172182 -3.2315699628325127 0 0 0 0 -11.915608054526757 -174.21635236780912 0 -174.21635236780912 -883.94501762905566 0 0 0 0 -13.01349947656405 -176.95503183478286 0 -176.95503183478286 -872.77742717742876 0 0 0 0 50.575092699322212 -166.42704810924624 0 -166.42704810924624 -871.40878976434396 0 0 0 0 -131.3081436244897 -787.86802226513828 0 -787.86802226513828 -5249.6971318427168 0 0 0 0 -163.80394420450591 -705.91508188223452 0 -705.91508188223452 -5206.7236060640771 0 0 0 0 -40.445877580551567 -740.39651490206234 0 -740.39651490206234 -5499.707153121286 0 0 0 0 -115.98123986894801 -647.68107299060284 0 -647.68107299060284 -5415.0616798765041 0 0 0 0 -79.949631399332645 -848.92149920840529 0 -848.92149920840529 -5379.7074824309348 0 0 0 0 -75.727380449011193 -862.5599795572806 0 -862.5599795572806 -5451.0978524305137 0 0 0 0 88.591489390431917 -244.66329022420905 0 -244.66329022420905 -1013.9810154527877 0 0 0 0 82.427865801224499 -204.44453736110518 0 -204.44453736110518 -894.31062306943204 0 0 0 0 -28.856320737142369 -587.98889163728018 0 -587.98889163728018 -1759.428266766321 0 0 0 0 13.819466508417122 -336.24840936924375 0 -336.24840936924375 -933.77300130573713 0 0 0 0 189.15360060764539 172.16352396219372 0 172.16352396219372 -1289.1096111825336 0 0 0 0 0.60417991371699842 -21.77095383953754 0 -21.77095383953754 1.4462920154863426 0 0 0 0 -32.384505850779618 -925.17488292753114 0 -925.17488292753114 -5501.0085855865873 0 0 0 0 -88.066226876673056 8.5632371318424703 0 8.5632371318424703 -775.52874933274143 0 0 0 0 -32.404166669761679 -924.33769987669075 0 -924.33769987669075 -5495.5739195169062 0 0 0 0 11.356296616107494 -36.704102634971505 0 -36.704102634971505 -3.0029786659665696 0 0 0 0 339.26730751038735 -669.8167621231878 0 -669.8167621231878 -2555.2183622938901 0 0 0 0 -757.99882802906302 -1792.0685487017217 0 -1792.0685487017217 -2372.1688483006296 0 0 0 0 347.62740204600124 579.29223739479016 0 579.29223739479016 252.1125655930955 0 0 0 0 -3.2084649847509392 4.8109549800234106 0 4.8109549800234106 -9.5895120337099655 0 0 0 0 67.335365318574077 -91.265297376674425 0 -91.265297376674425 -137.48947584299822 0 0 0 0 426.50129671025547 30.535206313437811 0 30.535206313437811 -297.55296165020081 0 0 0 0 -5.9890898201081191 16.498150547688674 0 16.498150547688674 -28.482806819238917 0 0 0 0 395.74947711535305 342.01128323060766 0 342.01128323060766 39.641223672664637 0 0 0 0 -709.3437348604898 -721.58253290644359 0 -721.58253290644359 -1229.7304773490905 0 0 0 0 -207.05141570726428 -562.71992841162137 0 -562.71992841162137 -1281.4882486622228 0 0 0 0 1.0452339080006134 -1.445372073854017 0 -1.445372073854017 -1.4621429316449692 0 0 0 0 -194.75223492817094 -575.78109891141139 0 -575.78109891141139 -1348.7602427143029 0 0 0 0 -0.73155385129500416 -256.82415003218193 0 -256.82415003218193 -803.85844117290253 0 0 0 0 -249.83782886347129 -418.34092124171138 0 -418.34092124171138 -856.74752502901538 0 0 0 0 -204.07074802794477 -207.16537212403637 0 -207.16537212403637 -712.86296534735902 0 0 0 0 -25.557583333090452 24.904893390774049 0 24.904893390774049 -61.766940313079104 0 0 0 0 3.8923423304058815 37.847155174215004 0 37.847155174215004 -160.89169056089668 0 0 0 0 33.010177474995317 -43.788707221211553 0 -43.788707221211553 -199.68477523038746 0 0 0 0 44.052957439731472 -9.399378670292208 0 -9.399378670292208 -264.06971119140508 0 0 0 0 -135.69108966359863 -320.86749404958664 0 -320.86749404958664 -482.57614273381478 0 0 0 0 -12.55007817591907 27.827664382424459 0 27.827664382424459 -38.907018229816103 0 0 0 0 -98.894505376255154 -182.74329852664596 0 -182.74329852664596 -714.06804073233297 0 0 0 0 150.38646720907673 115.32450157855965 0 115.32450157855965 -72.002501613944332 0 0 0 0 15.046560946193495 -28.773277675916688 0 -28.773277675916688 -93.216970832247171 0 0 0 0 84.004493091674249 25.446625514136031 0 25.446625514136031 -178.63159530216581 0 0 0 0 53.182665469980179 -50.426941677945706 0 -50.426941677945706 -265.4299010362738 0 0 0 0 130.15599715974977 2.8152806965035779 0 2.8152806965035779 -299.67779276581132 0 0 0 0 6.1985504305338281 -99.61297293460666 0 -99.61297293460666 -210.0379746137296 0 0 0 0 272.41561481961241 -3.4670449236709828 0 -3.4670449236709828 -246.55291957412192 0 0 0 0 109.03274049779384 8.9403854379506811 0 8.9403854379506811 4.0529679907051559 0 0 0 0 93.239411932760731 -143.88027586880253 0 -143.88027586880253 -332.87569203231578 0 0 0 0 16.734180414603834 -35.364642020233376 0 -35.364642020233376 15.878555692693752 0 0 0 0 -203.82102619750185 -212.84558642655065 0 -212.84558642655065 -470.48003190976306 0 0 0 0 66.530386692410502 -120.73231141727956 0 -120.73231141727956 -635.69946596955833 0 0 0 0 56.857549276459622 -102.08166774224946 0 -102.08166774224946 -458.46572711330373 0 0 0 0 -59.579478446294161 -209.57329584716354 0 -209.57329584716354 -285.96208266833855 0 0 0 0 107.45570975384544 -56.684081479603265 0 -56.684081479603265 -343.12272728346943 0 0 0 0 34.314562926386124 -37.254499183124125 0 -37.254499183124125 3.0930106706635634 0 0 0 0 15.550127679454818 -43.836741944913229 0 -43.836741944913229 -266.49509350626613 0 0 0 0 6.2617064856104907 -7.4353393020127072 0 -7.4353393020127072 3.9203184828483444 0 0 0 0 47.705999108973629 -134.57731295259509 0 -134.57731295259509 -574.87575427597767 0 0 0 0 -15.965168534285112 -181.59779426802197 0 -181.59779426802197 -526.72918408710757 0 0 0 0 -12.781740993033964 -231.16880083307092 0 -231.16880083307092 -374.4773625821399 0 0 0 0 22.7658309395797 -99.489406373372731 0 -99.489406373372731 -249.26357995444414 0 0 0 0 -30.203655871791852 -173.68073127378011 0 -173.68073127378011 -340.80800312180509 0 0 0 0 35.622440056806887 -12.393510956803667 0 -12.393510956803667 -73.697633720016981 0 0 0 0 35.371864157345072 -10.338905116660342 0 -10.338905116660342 -34.085062062122248 0 0 0 0 17.232899928498227 -36.279269775270222 0 -36.279269775270222 -82.433366446428408 0 0 0 0 -28.143661821850401 -3.212471223774628 0 -3.212471223774628 -158.76216385674343 0 0 0 0 24.006570610535999 -46.755301029808372 0 -46.755301029808372 -49.174818544937736 0 0 0 0 0.38077925338438945 -8.0899742754809267 0 -8.0899742754809267 -263.89519174318207 0 0 0 0 11.917928482287786 -16.888518556830469 0 -16.888518556830469 -36.679542053408646 0 0 0 0 -14.091875681158854 -94.287055270311612 0 -94.287055270311612 -174.70125115974224 0 0 0 0 223.67810917370753 -53.84302844727722 0 -53.84302844727722 322.76238256169859 0 0 0 0 10.214662558423388 7.8468038098552757 0 7.8468038098552757 -34.056851734153589 0 0 0 0 19.425235320679349 -58.190749648225619 0 -58.190749648225619 512.42635468641038 0 0 0 0 -81.010044016660686 -430.07048653735546 0 -430.07048653735546 -663.76406766448054 0 0 0 0 387.2847335094707 -945.61912915906942 0 -945.61912915906942 -1461.8040720903577 0 0 0 0 -1767.482605932435 720.27205008900637 0 720.27205008900637 -516.32227513135149 0 0 0 0 728.44004057605889 -532.23600650557455 0 -532.23600650557455 -2454.6857126233526 0 0 0 0 112.82652546199461 -340.89090069082158 0 -340.89090069082158 15.023313367028095 0 0 0 0 -110.35710121894954 -459.89105214273144 0 -459.89105214273144 -22.104435739988133 0 0 0 0 -198.90431588017418 -212.06760063528074 0 -212.06760063528074 418.13745833973655 0 0 0 0 88.79324058932707 -201.84540099168959 0 -201.84540099168959 225.98382446482469 0 0 0 0 -232.93372932150032 -69.731723175940829 0 -69.731723175940829 87.37127292857167 0 0 0 0 -542.04147932610158 -345.46929793884675 0 -345.46929793884675 195.22853825573384 0 0 0 0 135.88292887177067 -741.11270081892928 0 -741.11270081892928 -218.03357618458622 0 0 0 0 511.0122197009548 -522.35973438464066 0 -522.35973438464066 -133.91743344088377 0 0 0 0 12.543971556719942 3.8436104165051752 0 3.8436104165051752 -87.045093989024295 0 0 0 0 -299.91411231798202 -199.14274566326185 0 -199.14274566326185 -204.25782578724829 0 0 0 0 71.461599177126118 -63.845906005003599 0 -63.845906005003599 -286.80861733359416 0 0 0 0 -24.068588061231821 -200.73128003167949 0 -200.73128003167949 -280.77079594415403 0 0 0 0 -105.35909227991397 -85.46290648251852 0 -85.46290648251852 -138.20499783252126 0 0 0 0 101.85081123378768 -386.37548946629249 0 -386.37548946629249 -877.49238343728393 0 0 0 0 2.2369713112632645 -27.86370940151442 0 -27.86370940151442 -8.268311609904071 0 0 0 0 6.3281973067314539 -365.78689911570837 0 -365.78689911570837 -675.12544699528371 0 0 0 0 -14.426328337955056 -253.38311758142845 0 -253.38311758142845 -354.61177420346939 0 0 0 0 27.193030420512514 -175.40527512360131 0 -175.40527512360131 -722.94923625682895 0 0 0 0 77.568188373841622 -255.85549809985241 0 -255.85549809985241 -585.54428371226822 0 0 0 0 -74.339564596383752 -298.78905833423596 0 -298.78905833423596 -556.3038649382579 0 0 0 0 113.80172721726376 -112.8268473928656 0 -112.8268473928656 -615.13187490288328 0 0 0 0 -20.943419150418777 -44.583947000375701 0 -44.583947000375701 -68.149465120259265 0 0 0 0 10.319826268078032 -124.53175459847989 0 -124.53175459847989 -384.72361035434187 0 0 0 0 29.926070223629722 -241.49617099433999 0 -241.49617099433999 123.15661950748836 0 0 0 0 295.86571492219309 -275.05184915068821 0 -275.05184915068821 -303.93054232748182 0 0 0 0 6.1207831736545133 -12.780012596230245 0 -12.780012596230245 -82.870489854637086 0 0 0 0 70.61171776707198 -99.14210630047819 0 -99.14210630047819 -434.95908458785561 0 0 0 0 7.895812404897292 -7.8740849765223517 0 -7.8740849765223517 -104.40915149668473 0 0 0 0 -167.92974071158278 -319.90048767144617 0 -319.90048767144617 -536.18183962945477 0 0 0 0 -53.72931427059666 -212.84870928437158 0 -212.84870928437158 -444.22956175929266 0 0 0 0 45.912797302217172 40.622412869751017 0 40.622412869751017 -4.5559089950327571 0 0 0 0 17.785964204512311 159.94128165302664 0 159.94128165302664 -295.42895554605821 0 0 0 0 -524.21300916463588 -303.46431220734758 0 -303.46431220734758 -191.20176671837544 0 0 0 0 11.042315685046436 -1.6821593220448694 0 -1.6821593220448694 -13.829607179064688 0 0 0 0 -510.56617094840294 688.71340725425443 0 688.71340725425443 -751.52367581614908 0 0 0 0 32.311758782472147 10.208687095369068 0 10.208687095369068 -73.981291680911369 0 0 0 0 87.327985386622686 -26.271269719490647 0 -26.271269719490647 -74.112740143827978 0 0 0 0 9.772980336930015 -7.3431010711920717 0 -7.3431010711920717 -101.04440062121688 0 0 0 0 201.11631353006305 23.986267427805615 0 23.986267427805615 -172.22496265221253 0 0 0 0 87.038755826432862 -22.321621821861299 0 -22.321621821861299 -74.546204750986135 0 0 0 0 197.46635335376868 -56.363866598148888 0 -56.363866598148888 -93.742137055549165 0 0 0 0 -85.68853353197801 61.601646615647041 0 61.601646615647041 145.33756411184004 0 0 0 0 909.02761378618925 -767.3534751015759 0 -767.3534751015759 187.46354991658882 0 0 0 0 2.9414422993919125 -10.427574834005613 0 -10.427574834005613 -94.402100572964471 0 0 0 0 -1.024067029638692 -6.8455799763384508 0 -6.8455799763384508 -90.313868869689827 0 0 0 0 191.80283172988493 -92.445501954805422 0 -92.445501954805422 -77.154004986819928 0 0 0 0 -1275.0746996318685 -527.44630781907472 0 -527.44630781907472 1124.1093112020826 0 0 0 0 347.58579691825798 -49.122171183769751 0 -49.122171183769751 -65.471556043456076 0 0 0 0 950.30833150751096 1937.2829542498966 0 1937.2829542498966 -2696.3568886026515 0 0 0 0 -3236.3789698713044 1548.9512697247192 0 1548.9512697247192 544.73185217687569 0 0 0 0 -118.98227581790889 455.28360105902539 0 455.28360105902539 -952.86282573189237 0 0 0 0 -607.61400710775524 -897.73437255430326 0 -897.73437255430326 -1370.1502600528984 0 0 0 0 -138.76808035760587 0.54197573501005536 0 0.54197573501005536 -876.87709014858956 0 0 0 0 90.157946429277672 -48.869431118676403 0 -48.869431118676403 -1178.7228064326337 0 0 0 0 -30.075494035494557 105.65685775682505 0 105.65685775682505 -2845.0824203713491 0 0 0 0 -705.14998455362729 -595.84121791241341 0 -595.84121791241341 -577.0593291658879 0 0 0 0 10.748916065387833 12.420760245005951 0 12.420760245005951 -21.283420353604498 0 0 0 0 -428.30700561561389 -664.57296320362366 0 -664.57296320362366 -918.76303135745547 0 0 0 0 -164.76283853643145 -252.7483544447241 0 -252.7483544447241 -345.55535961980058 0 0 0 0 -368.3550169510163 -573.31872623227537 0 -573.31872623227537 -821.11741391330725 0 0 0 0 -536.06555579668384 -266.38838094729363 0 -266.38838094729363 -12.649537297198549 0 0 0 0 -413.01413805816264 -289.77354245456809 0 -289.77354245456809 -65.752103791230184 0 0 0 0 11.335123008714561 -11.008444287593136 0 -11.008444287593136 -8.9980891669250127 0 0 0 0 -373.27980238845703 -33.546937068684201 0 -33.546937068684201 -109.89397138002096 0 0 0 0 113.46554790963637 196.17043064243626 0 196.17043064243626 -198.44136098018862 0 0 0 0 1658.7318257121578 -81.248553174150402 0 -81.248553174150402 -1116.1544101416075 0 0 0 0 65.231047385982535 -24.965061087599729 0 -24.965061087599729 -50.881313178994176 0 0 0 0 -116.88091187916848 -173.53304037965245 0 -173.53304037965245 -33.369461660076922 0 0 0 0 -0.73469787024779976 -0.2032593924611561 0 -0.2032593924611561 1.1849069163070709 0 0 0 0 -213.11539824200372 -597.58070406716433 0 -597.58070406716433 -736.51460639977813 0 0 0 0 765.69442672665537 189.30609963402094 0 189.30609963402094 -183.9794707598121 0 0 0 0 139.69490909470187 -115.38278099186573 0 -115.38278099186573 -294.01434466263163 0 0 0 0 232.79249521588008 -387.12701606479459 0 -387.12701606479459 -626.04593374919205 0 0 0 0 337.42629322242283 -313.63155165600983 0 -313.63155165600983 -574.59723709666287 0 0 0 0 97.246600362714162 -14.276689706457546 0 -14.276689706457546 -586.14172253107972 0 0 0 0 92.006259400307556 -15.385577310036751 0 -15.385577310036751 -582.01434285110736 0 0 0 0 81.234646792489002 -57.63683962453797 0 -57.63683962453797 -145.23810587330809 0 0 0 0 83.087606729914114 -105.51935851446433 0 -105.51935851446433 -52.693679267689731 0 0 0 0 -65.575796332432219 29.046186376712285 0 29.046186376712285 10.058738028228959 0 0 0 0 -146.39013490764319 247.47796302335064 0 247.47796302335064 1.3040813263287419 0 0 0 0 -57.351005579312641 41.97002766856167 0 41.97002766856167 -70.748042543833435 0 0 0 0 -38.338564033638704 90.1923063914046 0 90.1923063914046 51.327685123069386 0 0 0 0 -203.81399641046028 -468.98186772146619 0 -468.98186772146619 -542.96360261983682 0 0 0 0 284.09081903494189 170.64348474979124 0 170.64348474979124 -221.79136594796364 0 0 0 0 0.21494825970168296 -0.28171956487917527 0 -0.28171956487917527 -4.5944957366719734 0 0 0 0 -101.71724843747643 -278.87893736011756 0 -278.87893736011756 -193.8595140862526 0 0 0 0 -14.443438180105659 -308.24360107611574 0 -308.24360107611574 -448.41829831686118 0 0 0 0 258.15789921793385 -145.23348186415024 0 -145.23348186415024 -148.68398959925071 0 0 0 0 -31.391346724642972 -120.15702610637527 0 -120.15702610637527 -92.438266918068621 0 0 0 0 0.81427652533246997 -0.73109058147792538 0 -0.73109058147792538 -9.5190544710517599 0 0 0 0 -17.50469537609672 -223.83965254461691 0 -223.83965254461691 -278.30776987897843 0 0 0 0 -76.380123429906234 -230.04031504697195 0 -230.04031504697195 -264.51201157447576 0 0 0 0 -20.504891835458693 -242.78567899654809 0 -242.78567899654809 -379.34125675772157 0 0 0 0 -51.774014211575377 -265.23030387602557 0 -265.23030387602557 -256.82483431333094 0 0 0 0 -65.038480580758915 -232.41793810667696 0 -232.41793810667696 -179.57311485139144 0 0 0 0 -3.7605895520409831 -244.72514571554348 0 -244.72514571554348 -267.08683148785803 0 0 0 0 -71.697065245701197 -203.84025324677532 0 -203.84025324677532 -284.18419309983437 0 0 0 0 -58.099288422883319 -176.20515709701613 0 -176.20515709701613 -367.024653946748 0 0 0 0 -54.687307031237651 -154.85546066186362 0 -154.85546066186362 -252.47311835893197 0 0 0 0 -14.249329558375393 -120.57041041114644 0 -120.57041041114644 -223.55773328364921 0 0 0 0 5.4680653474342762 -148.25835048527006 0 -148.25835048527006 -184.74943023575906 0 0 0 0 47.00031570252213 20.906571581856042 0 20.906571581856042 -141.0552674629289 0 0 0 0 56.314090046116689 -19.564665160185541 0 -19.564665160185541 -371.19886425472032 0 0 0 0 14.598009268336682 -68.295685058707022 0 -68.295685058707022 -362.2959487693297 0 0 0 0 -2.4123551325219523 -60.923992705169439 0 -60.923992705169439 -314.07026058844349 0 0 0 0 6.213182508276077 -76.940768112341175 0 -76.940768112341175 -407.32874136401006 0 0 0 0 -18.341759373795867 -102.15367484619492 0 -102.15367484619492 -394.7375629402668 0 0 0 0 327.84232702809368 -10.46242428962978 0 -10.46242428962978 -287.57277025630901 0 0 0 0 25.821104907061454 -83.899341354983335 0 -83.899341354983335 18.269705301703652 0 0 0 0 242.69655411755866 -18.961385687136499 0 -18.961385687136499 -507.55798992241034 0 0 0 0 413.79119547656592 216.04505671750849 0 216.04505671750849 -211.71982388370634 0 0 0 0 229.6495230305336 75.558081013994524 0 75.558081013994524 -395.46063984329521 0 0 0 0 -177.51738220629159 -428.31684340952415 0 -428.31684340952415 -464.28783345403644 0 0 0 0 0.40877146211833937 -0.50825941522588636 0 -0.50825941522588636 -4.9369556694400387 0 0 0 0 205.22571150863587 -220.5611061894233 0 -220.5611061894233 -636.01794434971453 0 0 0 0 -385.77976472417322 -195.22777745503481 0 -195.22777745503481 -234.772002300233 0 0 0 0 22.760947883012932 -10.406562600188337 0 -10.406562600188337 11.871187058650353 0 0 0 0 209.2935445909809 -7.2796740754483835 0 -7.2796740754483835 -543.48163235461107 0 0 0 0 195.09606157386224 -64.235799451394996 0 -64.235799451394996 -541.58761024934938 0 0 0 0 130.40700938451846 -2.8626937738481502 0 -2.8626937738481502 -542.40352142565825 0 0 0 0 170.96935625463448 -56.884640452830354 0 -56.884640452830354 -541.87806096420923 0 0 0 0 25.379817301072762 -50.18172314281037 0 -50.18172314281037 9.4949448778279475 0 0 0 0 156.27539797362192 -346.47069447794092 0 -346.47069447794092 290.52518981634421 0 0 0 0 8.0004373135088827 -51.522857002513774 0 -51.522857002513774 27.412733424134785 0 0 0 0 12.204509731932859 -49.658029158745094 0 -49.658029158745094 13.435015190696118 0 0 0 0 2.3742645169404568 -49.895266884544981 0 -49.895266884544981 389.82256397474703 0 0 0 0 41.236558612759836 -44.346007872754853 0 -44.346007872754853 52.194959952168574 0 0 0 0 22.794741263762432 -37.349745861494341 0 -37.349745861494341 26.629213700184039 0 0 0 0 -89.321923832743778 -2.9993316601394326 0 -2.9993316601394326 165.42807732915389 0 0 0 0 83.777974993615814 -99.287411842574926 0 -99.287411842574926 20.590173464502527 0 0 0 0 -274.31740586151864 -504.01891091931611 0 -504.01891091931611 897.10337033037467 0 0 0 0 544.3355936094249 646.59163396675831 0 646.59163396675831 10.316218580090208 0 0 0 0 -9.6878112269459962 -137.15280455350876 0 -137.15280455350876 -399.16610850492725 0 0 0 0 -22.312122403423928 -109.57118926048497 0 -109.57118926048497 -275.91256877427804 0 0 0 0 10.763075230257527 -92.211690006313802 0 -92.211690006313802 -442.19783867015212 0 0 0 0 4.8557144031938151 -155.83750550766308 0 -155.83750550766308 -486.45917448040564 0 0 0 0 36.635457089128977 -72.523696247117186 0 -72.523696247117186 -492.06383027555421 0 0 0 0 110.21803258210457 -124.64832431807736 0 -124.64832431807736 -616.32876514882082 0 0 0 0 176.1804093340852 -17.334063203881669 0 -17.334063203881669 -699.22488248751415 0 0 0 0 6.1670601809410144 -2.4506859431374721 0 -2.4506859431374721 -1.7103790292954626 0 0 0 0 148.63398884630988 -2.1023706395681074 0 -2.1023706395681074 -539.60730480220082 0 0 0 0 141.89174853543045 -19.238507918562391 0 -19.238507918562391 -474.67795759192813 0 0 0 0 5.7731309877212453 -45.173605229566277 0 -45.173605229566277 -4.3104030214220881 0 0 0 0 -28.056217500654384 -41.181090882666467 0 -41.181090882666467 49.077467573180911 0 0 0 0 -56.093680433547092 256.44494936583487 0 256.44494936583487 758.6777412893498 0 0 0 0 45.707722906682648 -42.608545360213611 0 -42.608545360213611 -1.1937443369242828 0 0 0 0 -9.0676619993659546 -36.624378806519246 0 -36.624378806519246 -15.480672927406111 0 0 0 0 61.489196792304114 254.63169947888673 0 254.63169947888673 -1462.2036287487099 0 0 0 0 -319.65627038572495 323.1537515641885 0 323.1537515641885 -634.58719601766643 0 0 0 0 215.3204979333741 15.202354192506391 0 15.202354192506391 -1726.8985771024381 0 0 0 0 56.500147184988236 242.03007820508356 0 242.03007820508356 -2654.3298204664461 0 0 0 0 -1369.1736960225771 -330.55163916362653 0 -330.55163916362653 -1742.0624114386519 0 0 0 0 66.771433851569782 112.72296590435144 0 112.72296590435144 -1329.6700576272051 0 0 0 0 -293.96757074333436 -9.5086186856206041 0 -9.5086186856206041 37.302297703769 0 0 0 0 -8.7070990554847896 -14.237542357433625 0 -14.237542357433625 0.36992958234164064 0 0 0 0 -101.53686734907387 10.610472897220461 0 10.610472897220461 -575.2210738184076 0 0 0 0 -184.75839554760023 31.280496814360959 0 31.280496814360959 28.516600265807938 0 0 0 0 70.186872607840996 -385.92571664859861 0 -385.92571664859861 -2136.3497131539625 0 0 0 0 -360.60579814072116 319.70012234259048 0 319.70012234259048 -339.73183210237403 0 0 0 0 7.5929189126803607 -36.091296321311447 0 -36.091296321311447 -8.8890023792526165 0 0 0 0 -6.4503642840161177 -1.7274740013593544 0 -1.7274740013593544 0.3756673956637826 0 0 0 0 680.13787972716091 728.40457077615429 0 728.40457077615429 -4474.2539511912109 0 0 0 0 497.08374146561982 -369.19469184165064 0 -369.19469184165064 -3961.5551155068242 0 0 0 0 128.93619356635463 392.97714764285047 0 392.97714764285047 -2193.8331374944873 0 0 0 0 408.52823300236196 329.11611479961721 0 329.11611479961721 -3371.5345484526115 0 0 0 0 676.70370970550357 831.55983959906735 0 831.55983959906735 -1759.3995334123756 0 0 0 0 678.5657182646828 487.48569387188763 0 487.48569387188763 -3301.6704784865433 0 0 0 0 673.66027571873565 1024.2865885089268 0 1024.2865885089268 -4354.6663068751623 0 0 0 0 -1735.7550074027167 -2267.5626007272804 0 -2267.5626007272804 -2023.5720507570659 0 0 0 0 626.82832383498317 -962.80554783416301 0 -962.80554783416301 -4672.2135289065955 0 0 0 0 -10.723939193547515 11.45898811997391 0 11.45898811997391 -17.351161044017402 0 0 0 0 359.43499528688335 -697.83245585530494 0 -697.83245585530494 -1666.1314550450043 0 0 0 0 1793.8294300358539 -15.902078078928753 0 -15.902078078928753 -2049.879995018382 0 0 0 0 3.1203961807623273 -844.5808919526753 0 -844.5808919526753 -1703.2947451502841 0 0 0 0 -260.36603742030275 1792.5690639277746 0 1792.5690639277746 265.13879636026104 0 0 0 0 -1724.7511892452524 -347.85128500338385 0 -347.85128500338385 -270.37189983663848 0 0 0 0 339.18663745172671 -1803.1863586098334 0 -1803.1863586098334 38.845418726706157 0 0 0 0 -807.64343573967926 -257.17856168404978 0 -257.17856168404978 186.90990460947796 0 0 0 0 39.764939700464311 -537.44638226195821 0 -537.44638226195821 29.661487758829026 0 0 0 0 434.1658603704891 -141.41121088124783 0 -141.41121088124783 -312.83173914942017 0 0 0 0 66.920627696774318 -343.975421953146 0 -343.975421953146 -866.33245112682926 0 0 0 0 -527.57326240265684 307.32612703030463 0 307.32612703030463 -619.22753223766267 0 0 0 0 422.64441130928753 360.11108026714646 0 360.11108026714646 -287.28341558075408 0 0 0 0 116.41044229791441 -140.95052359872352 0 -140.95052359872352 -530.12784190665116 0 0 0 0 83.711188777910138 122.26920879569298 0 122.26920879569298 1058.0633788919076 0 0 0 0 2.5487234077299945 -1799.5517845823342 0 -1799.5517845823342 965.85722657492079 0 0 0 0 1478.0652516188857 2698.0420126923418 0 2698.0420126923418 -1462.3643552474787 0 0 0 0 -0.64985308753669813 8.6151134354324483 0 8.6151134354324483 -16.604815413036945 0 0 0 0 1063.7217584408572 1833.8878389356414 0 1833.8878389356414 435.50150394618686 0 0 0 0 6.2814258709424422 -0.46232317391682898 0 -0.46232317391682898 -2.5201064941742004 0 0 0 0 1970.5681263591541 985.11986856035946 0 985.11986856035946 -1672.9338297878858 0 0 0 0 324.22230344802665 701.35780192552193 0 701.35780192552193 -240.07858564932394 0 0 0 0 -1848.1194994221587 -1662.6246831084827 0 -1662.6246831084827 -2461.8383488464606 0 0 0 0 0.90478006338784667 23.692402941091132 0 23.692402941091132 -36.273492614912726 0 0 0 0 -575.84251256929565 -1317.7150941710461 0 -1317.7150941710461 -2398.2853673934906 0 0 0 0 -1537.4064582968858 -1099.0899857570766 0 -1099.0899857570766 -2337.7651664264849 0 0 0 0 -619.2239583670671 -791.23715624767283 0 -791.23715624767283 -2428.9743868478618 0 0 0 0 -114.9700077502348 -593.64426581289081 0 -593.64426581289081 -1880.8956996287452 0 0 0 0 95.774991857644636 -340.67079660162563 0 -340.67079660162563 -1789.5222690138653 0 0 0 0 -198.10253541439306 -538.64690952561068 0 -538.64690952561068 -1910.0984990594879 0 0 0 0 -282.64580984569329 -915.76736385156255 0 -915.76736385156255 -2497.6362975870179 0 0 0 0 -843.38916990620783 -1115.3942692955025 0 -1115.3942692955025 -1677.3402088494913 0 0 0 0 -168.0593456398783 -795.17043383997225 0 -795.17043383997225 -2118.1294529857769 0 0 0 0 -309.69425689839409 -621.66092914946057 0 -621.66092914946057 -1570.899643582783 0 0 0 0 -195.32299601218256 -743.73077074063622 0 -743.73077074063622 25.311979513106053 0 0 0 0 -525.77871118243638 -673.4917215619098 0 -673.4917215619098 -1400.9281620534384 0 0 0 0 311.23933043671423 276.7705985417233 0 276.7705985417233 -677.3047489967721 0 0 0 0 14.741161508377559 0.20832975411684629 0 0.20832975411684629 -9.1411806094116201 0 0 0 0 35.323010862499359 1169.5009127376761 0 1169.5009127376761 -779.66258146784094 0 0 0 0 635.98411605190836 472.01559515498286 0 472.01559515498286 -23.458464951581846 0 0 0 0 587.09150822405354 -412.86731409780623 0 -412.86731409780623 124.52880857008859 0 0 0 0 273.74721794350626 -23.327328194303846 0 -23.327328194303846 -763.58870315048262 0 0 0 0 -225.39819460947547 53.463831856079196 0 53.463831856079196 12.745401253851014 0 0 0 0 1.126099016194587 -7.8695261989025198 0 -7.8695261989025198 -9.1865693648073616 0 0 0 0 321.7827251359995 -174.56595164848841 0 -174.56595164848841 64.796940224245191 0 0 0 0 48.564472025431314 -199.98210969245702 0 -199.98210969245702 -359.59160026222526 0 0 0 0 366.50201815127002 138.4761687074606 0 138.4761687074606 -730.71154594001564 0 0 0 0 20.783354053126686 -1.4568614370369488 0 -1.4568614370369488 -34.105667244044895 0 0 0 0 0.70131882671152823 4.6448415381586443 0 4.6448415381586443 0.052715432034700527 0 0 0 0 280.0732021105141 -292.76608596087317 0 -292.76608596087317 138.07459031672624 0 0 0 0 95.589079102835967 -57.36502294361344 0 -57.36502294361344 -55.063306493673736 0 0 0 0 84.316934703438619 -105.51553529199873 0 -105.51553529199873 6.5482601271360181 0 0 0 0 63.466056049354393 -55.289743162331526 0 -55.289743162331526 15.7739372561241 0 0 0 0 68.593316479741588 -256.27167945409383 0 -256.27167945409383 -102.83934451291498 0 0 0 0 46.660724652554563 -101.16371380492637 0 -101.16371380492637 -41.149390300419327 0 0 0 0 18.419296339790122 -6.570202202011906 0 -6.570202202011906 -14.962254095499702 0 0 0 0 199.96712802698175 -47.851158359944748 0 -47.851158359944748 -93.652535366978555 0 0 0 0 263.20136606482265 -194.32475835172227 0 -194.32475835172227 29.842420123233751 0 0 0 0 1232.9612303739468 -148.53859962203933 0 -148.53859962203933 -298.48053597939725 0 0 0 0 412.06203104057795 -39.349223600492223 0 -39.349223600492223 -16.370723329848261 0 0 0 0 98.571035856934316 -74.027120044600863 0 -74.027120044600863 2.6074131157275477 0 0 0 0 0.57632784493777933 -19.194756133440961 0 -19.194756133440961 28.564063654665016 0 0 0 0 -84.475124706110364 -186.30084218779666 0 -186.30084218779666 -90.578852576771169 0 0 0 0 358.55636497143132 -498.50840924128715 0 -498.50840924128715 113.43130297426251 0 0 0 0 -329.39802226398388 -357.55798023470561 0 -357.55798023470561 188.31260738093988 0 0 0 0 7.07641868142899 22.091994859538204 0 22.091994859538204 -70.254079875302068 0 0 0 0 -269.33776051871973 -699.5377369481721 0 -699.5377369481721 -401.02864311126177 0 0 0 0 -311.06623450744519 -231.37774426470423 0 -231.37774426470423 -260.24689970599684 0 0 0 0 -9.1068802102843591 -15.953361134390818 0 -15.953361134390818 -13.629516269420236 0 0 0 0 -170.48463904143318 -276.47990681473311 0 -276.47990681473311 -482.42540599226777 0 0 0 0 -678.42644163116529 46.580049890286318 0 46.580049890286318 336.23106088317581 0 0 0 0 -173.99702885116676 -327.29032717919472 0 -327.29032717919472 -1206.1233443827223 0 0 0 0 -416.93167509672458 19.163741778040276 0 19.163741778040276 -699.07635418132395 0 0 0 0 -71.390179073789994 -78.728637740271537 0 -78.728637740271537 -41.74101889920405 0 0 0 0 -17.110438192099537 -98.835852420328592 0 -98.835852420328592 -42.702194577064802 0 0 0 0 -68.654976953360247 -0.26546604817974639 0 -0.26546604817974639 -18.35699212090401 0 0 0 0 -202.73860118049652 229.11051558973122 0 229.11051558973122 -169.39240778073145 0 0 0 0 -102.47239520973062 87.626058186880982 0 87.626058186880982 109.0256897839572 0 0 0 0 -242.54171784849132 -77.617913901922293 0 -77.617913901922293 168.88539973717343 0 0 0 0 -71.511169379747855 1.6155052117192099 0 1.6155052117192099 6.0391485259948539 0 0 0 0 -545.06815706677548 97.987693923047118 0 97.987693923047118 204.98000236306689 0 0 0 0 -378.44860471695392 -383.36570408537955 0 -383.36570408537955 -205.01615613445756 0 0 0 0 -21.351405675254682 -109.53298790776171 0 -109.53298790776171 -5.8607337777648354 0 0 0 0 -461.67728174862714 -219.71511249894684 0 -219.71511249894684 -316.23016470644507 0 0 0 0 31.571224032179998 -406.07932403539235 0 -406.07932403539235 -1088.1903756228421 0 0 0 0 -752.96597449974252 -833.34664066486584 0 -833.34664066486584 -959.55648848551209 0 0 0 0 -722.66271857540619 -215.24233304421 0 -215.24233304421 -427.82638361290446 0 0 0 0 -1870.800818987811 -1739.8084699995088 0 -1739.8084699995088 -1433.2646365002292 0 0 0 0 -203.09679107781994 -492.22909756774607 0 -492.22909756774607 -2026.154585101016 0 0 0 0 -263.68130559722954 -34.375559706646527 0 -34.375559706646527 -2750.7495288758364 0 0 0 0 -250.18517003317902 -259.7004544602969 0 -259.7004544602969 -3051.7831549080147 0 0 0 0 -270.52400145934757 -446.43951983055649 0 -446.43951983055649 -1092.4643345067452 0 0 0 0 -230.58539376209228 -247.49724336446525 0 -247.49724336446525 -1676.2074187836988 0 0 0 0 -234.57031787342748 -170.94707536927308 0 -170.94707536927308 -1550.4418786577007 0 0 0 0 -533.97763558917723 -363.66763774680294 0 -363.66763774680294 -853.34486587744323 0 0 0 0 -266.22528233765479 -549.41828433269256 0 -549.41828433269256 -950.49715349821781 0 0 0 0 -248.00430340635012 -691.29923238776973 0 -691.29923238776973 -651.84506724741368 0 0 0 0 -350.07955181889611 -705.73401196448867 0 -705.73401196448867 -471.62837710333406 0 0 0 0 46.01503946482444 -786.81554175049678 0 -786.81554175049678 -659.14984027069295 0 0 0 0 -341.86332344884431 -466.29721871375295 0 -466.29721871375295 -856.84102184527001 0 0 0 0 -353.20502129144006 -400.92879297176842 0 -400.92879297176842 610.42280153120009 0 0 0 0 -1.4570205642220202 -8.7745352292350418 0 -8.7745352292350418 -29.862531999025748 0 0 0 0 -631.25567344905994 1287.405788808941 0 1287.405788808941 -1940.8978907859855 0 0 0 0 -502.16753704580424 942.57133437351695 0 942.57133437351695 -1105.5729470550868 0 0 0 0 316.27124751101292 -1574.1706434005973 0 -1574.1706434005973 -490.83220878337306 0 0 0 0 120.36762246076069 -824.58230162239124 0 -824.58230162239124 -2522.3404146362736 0 0 0 0 -150.06217030232983 259.11366632665158 0 259.11366632665158 -400.07709748775596 0 0 0 0 -173.74786661139842 -165.1133277738445 0 -165.1133277738445 -707.11037716456849 0 0 0 0 -150.78432820141188 285.95092007164203 0 285.95092007164203 -1137.3431456299713 0 0 0 0 303.25191385433027 159.08066153955588 0 159.08066153955588 -1837.9192595154309 0 0 0 0 54.980935058521709 304.52836470640614 0 304.52836470640614 -1266.0909094695671 0 0 0 0 -8.9841009366660387 -44.872244509519433 0 -44.872244509519433 -1.2333252575348341 0 0 0 0 -60.12944882033139 -41.216978316202585 0 -41.216978316202585 44.057573511650844 0 0 0 0 -43.366765457494694 -42.24605346233875 0 -42.24605346233875 30.978455913180369 0 0 0 0 13.244298935187089 -39.936958286853041 0 -39.936958286853041 25.31922247177863 0 0 0 0 -19.089168657908584 -42.20241020555855 0 -42.20241020555855 -15.991381220088634 0 0 0 0 169.76077393408286 77.886413384538173 0 77.886413384538173 -960.44142599552288 0 0 0 0 -29.075003825123048 -47.111835805515867 0 -47.111835805515867 -17.485261817722858 0 0 0 0 -61.882873205894612 -88.577594510294148 0 -88.577594510294148 -438.16964132471912 0 0 0 0 -69.879459942385438 -132.84730821487392 0 -132.84730821487392 -611.64328173823742 0 0 0 0 -222.71574739174662 -190.91254087865218 0 -190.91254087865218 -463.20917866792297 0 0 0 0 98.687875787021767 41.115786022011889 0 41.115786022011889 -515.7098059069358 0 0 0 0 -37.656293779631596 -105.49849516055474 0 -105.49849516055474 -430.24810975613218 0 0 0 0 17.196239315734374 -111.94721854894397 0 -111.94721854894397 -445.11630545789376 0 0 0 0 0.22922515628670226 -74.824563933369063 0 -74.824563933369063 -424.46489780993215 0 0 0 0 -1692.1473741494301 -1064.1263682380522 0 -1064.1263682380522 1240.9045803111803 0 0 0 0 -1153.3201958616773 1233.5431614434347 0 1233.5431614434347 -1696.2254217229201 0 0 0 0 103.04090945462303 559.95664327385748 0 559.95664327385748 -2636.6713776140532 0 0 0 0 -232.14178781250303 -1281.6353630930389 0 -1281.6353630930389 -1155.1434448595537 0 0 0 0 -29.081817778452276 -38.313153607381977 0 -38.313153607381977 9.166926643339778 0 0 0 0 -359.35688717292487 -196.00121171541468 0 -196.00121171541468 -554.0438868991987 0 0 0 0 -169.92693049987793 -204.63671382130269 0 -204.63671382130269 -662.95729082645096 0 0 0 0 -219.6766948904733 -176.3065592896819 0 -176.3065592896819 -565.69711240147444 0 0 0 0 -518.57814570796427 -181.54072733370776 0 -181.54072733370776 -479.55410460572602 0 0 0 0 -360.64731191705869 -141.50666498760506 0 -141.50666498760506 -865.9276174439874 0 0 0 0 -69.567207472821622 -84.838809351132227 0 -84.838809351132227 -26.862558112978054 0 0 0 0 -379.60597243514349 -93.007143496404751 0 -93.007143496404751 -430.15419054131053 0 0 0 0 -314.61249996181505 -251.66012758107354 0 -251.66012758107354 -474.56306759444124 0 0 0 0 -242.29505574493123 -171.76381996609598 0 -171.76381996609598 -390.49534724452678 0 0 0 0 -230.57993169126803 -253.08832439913022 0 -253.08832439913022 -366.88623980618286 0 0 0 0 -223.29839524530598 -146.33953355294216 0 -146.33953355294216 -421.25480132806251 0 0 0 0 24.959311363452908 29.47729060484771 0 29.47729060484771 -101.72608109989521 0 0 0 0 94.604843415756932 383.75721255720055 0 383.75721255720055 -169.76164545768552 0 0 0 0 -41.157528824977362 -159.9285960795446 0 -159.9285960795446 -502.54041745507129 0 0 0 0 -19.654086279551848 -102.72804631610052 0 -102.72804631610052 -380.80216770064726 0 0 0 0 -35.492260672161137 -126.3073637638081 0 -126.3073637638081 -408.98469685143209 0 0 0 0 -137.85661594732665 -187.01948122842805 0 -187.01948122842805 -371.41661747131729 0 0 0 0 -148.45727777444063 -222.50661617629157 0 -222.50661617629157 -486.66841570980978 0 0 0 0 -135.94809655618246 -232.6996300011524 0 -232.6996300011524 -406.79439758104127 0 0 0 0 -199.02462060571952 -188.40539324038036 0 -188.40539324038036 -261.42160080941176 0 0 0 0 -113.96873451380134 -180.04536092620219 0 -180.04536092620219 -280.78309927576993 0 0 0 0 -81.514652363894129 -215.71128959923044 0 -215.71128959923044 -296.7298427683927 0 0 0 0 -166.4353108859159 -207.8423930477893 0 -207.8423930477893 -257.38705997988291 0 0 0 0 -161.58558362680355 -192.66085958749409 0 -192.66085958749409 -263.37993799662217 0 0 0 0 -93.791922694863388 -175.41641194881595 0 -175.41641194881595 -255.19575881319179 0 0 0 0 96.812748585883583 58.934376299390351 0 58.934376299390351 -108.99935987744539 0 0 0 0 262.23704606296252 100.96507494074831 0 100.96507494074831 -320.75017652566021 0 0 0 0 280.69962011802909 19.624224049555778 0 19.624224049555778 -124.21974376280559 0 0 0 0 35.372858109161754 15.101902476632475 0 15.101902476632475 -90.267292325477811 0 0 0 0 371.5797186514028 -36.516594433938735 0 -36.516594433938735 -272.47723684941957 0 0 0 0 -52.214945714993064 239.64090186508474 0 239.64090186508474 -326.47342247820234 0 0 0 0 1.2754482342174924 -125.0884972218555 0 -125.0884972218555 -378.00364656467264 0 0 0 0 -280.23165513341792 83.979711385458359 0 83.979711385458359 -476.95922863766464 0 0 0 0 -399.15385265622808 313.7556252752911 0 313.7556252752911 -200.03210238119209 0 0 0 0 -75.91355108211792 120.61526676682479 0 120.61526676682479 -590.94228621198272 0 0 0 0 -140.43892990105905 217.21830667267386 0 217.21830667267386 -77.241695110249566 0 0 0 0 -205.68052482761505 313.55140067078901 0 313.55140067078901 -217.67302534871851 0 0 0 0 -149.7698104027827 307.24179004065081 0 307.24179004065081 -104.41194167864887 0 0 0 0 3.8935470155705114 31.087464372065824 0 31.087464372065824 -120.06347584024721 0 0 0 0 -53.270735949272421 -40.842467190959724 0 -40.842467190959724 -77.283700233398122 0 0 0 0 -253.14796146326989 27.417575061313983 0 27.417575061313983 89.92724010231359 0 0 0 0 -130.75207739512553 142.64658405985028 0 142.64658405985028 -68.030130869497953 0 0 0 0 -471.28706826040434 278.53109085369215 0 278.53109085369215 -141.25086275996 0 0 0 0 -365.18950758936626 162.2518807419674 0 162.2518807419674 -34.721977363034966 0 0 0 0 -151.84266835169001 11.195259807380353 0 11.195259807380353 -73.433474984005443 0 0 0 0 -353.50826407361274 -129.5848681032403 0 -129.5848681032403 -111.56655521185894 0 0 0 0 -49.722328581936381 -213.03061377452832 0 -213.03061377452832 -912.11311957040743 0 0 0 0 -858.18699224566262 41.046592867474828 0 41.046592867474828 -136.60195824125367 0 0 0 0 -378.57024951862513 162.27940176226457 0 162.27940176226457 -322.5419569779915 0 0 0 0 -639.49508293061808 501.92859205006243 0 501.92859205006243 -703.5028919487595 0 0 0 0 -496.14789249833302 -70.325155735001317 0 -70.325155735001317 -990.36714339422178 0 0 0 0 -271.7925647818447 113.15700894682959 0 113.15700894682959 -968.48913177622308 0 0 0 0 -931.95547990679552 75.976915874445694 0 75.976915874445694 -866.39278186669981 0 0 0 0 -484.14842880046126 55.524551225556934 0 55.524551225556934 -982.80272761525703 0 0 0 0 -7.0296550274703051 3.7854303959483104 0 3.7854303959483104 -1.6541892432668845 0 0 0 0 -899.66609832718495 229.06015539287182 0 229.06015539287182 -762.73870408676885 0 0 0 0 -713.6777243790666 173.112263606331 0 173.112263606331 -1087.137759758436 0 0 0 0 -592.98607991364042 89.570214910592767 0 89.570214910592767 -1043.8438214300913 0 0 0 0 -461.93094737275169 -33.147175279667863 0 -33.147175279667863 -1285.8938511865854 0 0 0 0 -326.03042866757733 -336.37188909979523 0 -336.37188909979523 -793.56754613050725 0 0 0 0 -324.57994365973354 -369.00809409817884 0 -369.00809409817884 -848.7958538172461 0 0 0 0 -424.10168914933456 -161.13949082102044 0 -161.13949082102044 -997.58756719933444 0 0 0 0 -404.03197938798439 -350.10751096620288 0 -350.10751096620288 -684.55122123305046 0 0 0 0 -800.43767130686547 -163.47864350599139 0 -163.47864350599139 -864.11159214949294 0 0 0 0 -503.0069724055229 -61.755157218016393 0 -61.755157218016393 -1131.2710638300632 0 0 0 0 -496.86198296321345 -171.67265026149562 0 -171.67265026149562 -715.43204818056256 0 0 0 0 -256.5698047015876 -218.23013883984822 0 -218.23013883984822 -914.23800802086771 0 0 0 0 -132.72955738793826 -147.24462402387871 0 -147.24462402387871 -769.05986642036441 0 0 0 0 -254.88596580237845 -245.99207622884569 0 -245.99207622884569 -506.73811096359714 0 0 0 0 -96.274002235891217 -27.858527959297135 0 -27.858527959297135 -440.45296380120271 0 0 0 0 -181.62818871077707 -387.09033985273709 0 -387.09033985273709 -436.77374534243972 0 0 0 0 -60.853444901906414 -269.60558409742953 0 -269.60558409742953 -359.17189807226532 0 0 0 0 -293.43501357618231 -571.74358108506203 0 -571.74358108506203 -491.05090911585285 0 0 0 0 -246.71858472563963 -455.12564490182558 0 -455.12564490182558 -549.2707645072951 0 0 0 0 -181.13699765885463 -368.43948973254101 0 -368.43948973254101 -745.50715853230213 0 0 0 0 -211.07245621806396 -445.43309723903076 0 -445.43309723903076 -816.31295142621821 0 0 0 0 -187.153322565488 -585.84961003038552 0 -585.84961003038552 -663.24532627558074 0 0 0 0 -170.56320309937291 -578.28722633267171 0 -578.28722633267171 -681.9885473906179 0 0 0 0 -190.96622469209069 -607.40728812195812 0 -607.40728812195812 -525.47777557076915 0 0 0 0 -179.21606038773962 -675.50775328831514 0 -675.50775328831514 -656.55361468012416 0 0 0 0 -194.53497306742133 -809.95613706769655 0 -809.95613706769655 -650.28316967784485 0 0 0 0 -28.50123966864885 -640.2994962314333 0 -640.2994962314333 -1283.3612100171158 0 0 0 0 -64.873531057988657 -399.67578904846232 0 -399.67578904846232 -633.76024223401328 0 0 0 0 20.028597991050219 -440.51005262010221 0 -440.51005262010221 -614.64233366869303 0 0 0 0 46.451359971867163 20.84552128592739 0 20.84552128592739 -29.280636223416636 0 0 0 0 -53.058235866352334 -143.30651389927152 0 -143.30651389927152 -285.68756927395134 0 0 0 0 -335.5116652124234 -422.34088092863385 0 -422.34088092863385 -340.79924644357015 0 0 0 0 82.388232308627835 53.919829685244622 0 53.919829685244622 -47.62991170125315 0 0 0 0 39.835264953129808 32.019187052996131 0 32.019187052996131 -36.238877365220105 0 0 0 0 47.419932309910543 41.496912025205148 0 41.496912025205148 -44.472447898575979 0 0 0 0 -10.117812125605269 226.42254436823714 0 226.42254436823714 268.71325789851835 0 0 0 0 32.972241928072378 31.776946459289803 0 31.776946459289803 -31.547675042204389 0 0 0 0 5.599635062614837 0.95843234783731646 0 0.95843234783731646 -11.202185471752372 0 0 0 0 -273.54936648701823 -462.40764011619285 0 -462.40764011619285 -413.08762501903402 0 0 0 0 -329.63973510419419 -319.6962091128662 0 -319.6962091128662 -477.38907395106799 0 0 0 0 -300.48009409907536 -501.14048421281404 0 -501.14048421281404 -1003.5631454324612 0 0 0 0 -506.08286067422159 -395.40033541798402 0 -395.40033541798402 -486.4976884105854 0 0 0 0 -283.43985856572908 -551.08787847322674 0 -551.08787847322674 -712.57473445077812 0 0 0 0 -97.411773310057924 -341.46008620977773 0 -341.46008620977773 -511.48982234259893 0 0 0 0 5.33312644056533 -9.2140264600574255 0 -9.2140264600574255 -20.479684139159936 0 0 0 0 125.14783341001385 -141.547383529527 0 -141.547383529527 -319.53815978123748 0 0 0 0 -33.951162346163748 -66.430068927272401 0 -66.430068927272401 -75.264603311191081 0 0 0 0 -73.767277547391132 -82.16932888350857 0 -82.16932888350857 -131.58858857236191 0 0 0 0 -66.146802688017488 -98.278339826109004 0 -98.278339826109004 -127.22832773121627 0 0 0 0 -60.991561880851805 -87.81840295715665 0 -87.81840295715665 -151.14720699173813 0 0 0 0 -3.8100332676223303 -16.482542336896387 0 -16.482542336896387 -29.56114075678164 0 0 0 0 -68.246146101861086 -71.9789088099933 0 -71.9789088099933 -153.26637780631063 0 0 0 0 -26.237149351672997 -138.39782199646288 0 -138.39782199646288 -256.56131894414011 0 0 0 0 50.755475060307845 3.7739483826608975 0 3.7739483826608975 -74.300709937453291 0 0 0 0 10.815675477537297 -10.710551185045915 0 -10.710551185045915 -124.39327371215265 0 0 0 0 5.025775646112379 -71.960847447662672 0 -71.960847447662672 -112.00280478312925 0 0 0 0 -86.633504955608259 -76.545008086752205 0 -76.545008086752205 -142.28783815915085 0 0 0 0 233.00981883922213 57.927554307185346 0 57.927554307185346 -317.81041123908653 0 0 0 0 318.14773663514006 -26.857418421306647 0 -26.857418421306647 -251.42156162046012 0 0 0 0 240.00058241928127 -198.08968033493511 0 -198.08968033493511 -17.067530824206187 0 0 0 0 5.419355633461663 5.3962391608702518 0 5.3962391608702518 -1.4594690725910411 0 0 0 0 -58.486310017095548 -291.73672401996009 0 -291.73672401996009 -173.37895790882715 0 0 0 0 166.51522444293641 87.489314620283039 0 87.489314620283039 -178.47971517373662 0 0 0 0 172.10543102901556 -297.69197574674035 0 -297.69197574674035 -314.04904470787005 0 0 0 0 -530.97328176936662 -622.64730849242915 0 -622.64730849242915 -316.03523413262155 0 0 0 0 -135.09338155523506 -305.93167755475224 0 -305.93167755475224 -178.35526974892127 0 0 0 0 -588.59800669204515 -802.17304429235128 0 -802.17304429235128 139.99629578600434 0 0 0 0 -433.475412310916 -1385.2130157850006 0 -1385.2130157850006 -1752.1122334423126 0 0 0 0 -17.28083953643489 -10.249048730784963 0 -10.249048730784963 -5.3007566040761134 0 0 0 0 87.190264694151779 93.073793849442154 0 93.073793849442154 -2270.4550996199578 0 0 0 0 -105.26424023270192 -131.79120612312363 0 -131.79120612312363 172.13558207402093 0 0 0 0 243.48882455443709 -13.428379849359771 0 -13.428379849359771 -227.23452209764218 0 0 0 0 250.7924141699059 -133.71211400504035 0 -133.71211400504035 -147.44795411139557 0 0 0 0 -44.944548763105601 -26.318674834580037 0 -26.318674834580037 -27.453184339581924 0 0 0 0 92.333896562784503 -163.80641359971924 0 -163.80641359971924 27.305567781324498 0 0 0 0 -82.388641772647645 -23.873295047378633 0 -23.873295047378633 -511.3758359812964 0 0 0 0 53.248238752144857 33.553501217731537 0 33.553501217731537 -1054.9616859428934 0 0 0 0 -95.918379402009833 50.87391512202521 0 50.87391512202521 -247.71123225174961 0 0 0 0 -98.570364884174666 -131.91754676293931 0 -131.91754676293931 -429.31656800398559 0 0 0 0 -121.21214275237583 -217.98617200167064 0 -217.98617200167064 -867.32195504316041 0 0 0 0 1.4164454004775116 -3.4709887827080621 0 -3.4709887827080621 -1.0181212068192949 0 0 0 0 -180.44118274500795 -232.32078589933371 0 -232.32078589933371 -870.72671861677554 0 0 0 0 -5.7129422237584038 -420.09713938819186 0 -420.09713938819186 -1180.4317893548941 0 0 0 0 -63.463454283526005 -162.17487801758034 0 -162.17487801758034 -732.18745000196941 0 0 0 0 -49.410547359004305 -299.40846163876995 0 -299.40846163876995 -930.19900416515156 0 0 0 0 29.66829054286876 -233.45580020747002 0 -233.45580020747002 -991.61934193054549 0 0 0 0 -0.024972296432309804 -342.64458109926545 0 -342.64458109926545 -1033.0905380696568 0 0 0 0 -184.48226678016294 -253.91227414765672 0 -253.91227414765672 -811.04935981094604 0 0 0 0 -165.79065513965324 -206.09723566190314 0 -206.09723566190314 -837.37501591003092 0 0 0 0 -336.62531507083827 -910.16338922243449 0 -910.16338922243449 -1058.0286312909884 0 0 0 0 -419.82605519788285 -534.83708154912165 0 -534.83708154912165 -356.28901580762931 0 0 0 0 87.687389725820822 -75.320494912011782 0 -75.320494912011782 -33.988521520790528 0 0 0 0 -149.59217445414254 -706.8117117666352 0 -706.8117117666352 -1546.3182009361117 0 0 0 0 -0.43540020150535907 -0.91639598947882916 0 -0.91639598947882916 -0.2705074975513142 0 0 0 0 -327.56477087011478 -320.73751559385528 0 -320.73751559385528 -626.08482377047767 0 0 0 0 0.44677735135801777 -2.0540347973254001 0 -2.0540347973254001 -1.2443221851012893 0 0 0 0 -239.6808682729843 69.370001996787323 0 69.370001996787323 -340.17974878323002 0 0 0 0 -375.43685197698574 -1436.7314998987786 0 -1436.7314998987786 -1610.4940846676072 0 0 0 0 -701.81238406055218 528.9680922226762 0 528.9680922226762 -2298.7509733667666 0 0 0 0 -1443.7698906534226 -560.93122687309369 0 -560.93122687309369 -463.14717833150644 0 0 0 0 -775.51780390554165 89.336989118437941 0 89.336989118437941 -258.48019069278962 0 0 0 0 -806.19180866623196 -451.50808904141013 0 -451.50808904141013 -686.61797724396456 0 0 0 0 -20.295073239959645 3.886930790689803 0 3.886930790689803 -64.864907455477805 0 0 0 0 2.389059888295531 -2.7407426802765116 0 -2.7407426802765116 -7.4094264281924822 0 0 0 0 -1.289969272202359 -0.5318611208123798 0 -0.5318611208123798 -6.9357653241256756 0 0 0 0 91.069513081711875 -100.44171496011404 0 -100.44171496011404 -226.56319995468039 0 0 0 0 -596.74271726134816 19.006074840017391 0 19.006074840017391 115.3449659802136 0 0 0 0 178.65942017409776 -297.40486688576311 0 -297.40486688576311 -2074.3917574222869 0 0 0 0 -94.35961648079882 -565.87799548149633 0 -565.87799548149633 -1465.5718055937032 0 0 0 0 902.93744527258991 422.69135703846041 0 422.69135703846041 -5501.4264291980362 0 0 0 0 431.94257664072779 741.2527707234367 0 741.2527707234367 -4319.0350117575435 0 0 0 0 275.72612314184767 -43.15787393636856 0 -43.15787393636856 -4127.977135174282 0 0 0 0 300.4510582485733 -38.270817808235734 0 -38.270817808235734 -5019.3948986071046 0 0 0 0 -0.73575628494961376 0.11417765365447963 0 0.11417765365447963 0.49728307647475845 0 0 0 0 4.3375335002119542 140.37030501994377 0 140.37030501994377 -2610.4239851628663 0 0 0 0 -309.0814434590896 12.275656549696578 0 12.275656549696578 -214.17596301639787 0 0 0 0 128.55691465712766 -884.59992554510973 0 -884.59992554510973 -3997.3249201135222 0 0 0 0 -2.0284918345000396 13.889524032408659 0 13.889524032408659 -12.632176381649188 0 0 0 0 92.095980665159075 -1063.0412257322369 0 -1063.0412257322369 -4818.2861643438664 0 0 0 0 182.93537862690391 -252.80879239030037 0 -252.80879239030037 -128.84357134516176 0 0 0 0 -0.45269803570074107 5.7038255128599076 0 5.7038255128599076 -8.8185860310017148 0 0 0 0 115.90858955816228 -859.81183217654871 0 -859.81183217654871 -5633.7435942143347 0 0 0 0 -281.32675592717032 -66.740882664555102 0 -66.740882664555102 -370.07442447743642 0 0 0 0 -385.87990329632157 615.19530576116813 0 615.19530576116813 -499.17742019503203 0 0 0 0 -250.52458475715127 -194.64962380020006 0 -194.64962380020006 -793.0623558138559 0 0 0 0 -150.98538561927853 -113.33721943449564 0 -113.33721943449564 -937.76647789175331 0 0 0 0 -87.124954239487124 -126.90342793284799 0 -126.90342793284799 -1038.9646449652664 0 0 0 0 101.15601978098812 735.43087543666479 0 735.43087543666479 -1144.152929466276 0 0 0 0 19.481671631969256 -410.19884498203464 0 -410.19884498203464 -5498.9521506603814 0 0 0 0 -408.50803830171668 -440.4715456257909 0 -440.4715456257909 -5322.7066775042695 0 0 0 0 92.182131140225181 -905.57322639828635 0 -905.57322639828635 -5124.4575236208329 0 0 0 0 -174.067582850153 -720.50546674373982 0 -720.50546674373982 -5252.2559895840095 0 0 0 0 -160.99529026915783 -621.65299375609175 0 -621.65299375609175 -5292.9823875513976 0 0 0 0 -83.91446894101 -685.49311671310716 0 -685.49311671310716 -5282.3675586409754 0 0 0 0 -171.13172423481819 -243.63200163977308 0 -243.63200163977308 -835.82999862186261 0 0 0 0 121.96808275636943 723.99768187451991 0 723.99768187451991 -2137.1049912112067 0 0 0 0 -103.26227750923124 -232.288870289849 0 -232.288870289849 -1716.196111163863 0 0 0 0 -217.92231575346827 -321.3700975282336 0 -321.3700975282336 -960.78891066659708 0 0 0 0 -220.41892146276103 -158.14562620256402 0 -158.14562620256402 -898.03230317165435 0 0 0 0 -138.27591482033711 -32.616392704832833 0 -32.616392704832833 276.17294211951958 0 0 0 0 71.870871962550382 85.169789641688112 0 85.169789641688112 186.50524160642817 0 0 0 0 -326.15170683037229 246.48383024011855 0 246.48383024011855 124.07221533106713 0 0 0 0 -99.28655142801972 419.70636592108349 0 419.70636592108349 0.91476965474430472 0 0 0 0 -312.07591295879001 44.360542687842099 0 44.360542687842099 256.93125783779033 0 0 0 0 -37.568478260333279 -119.02187119147857 0 -119.02187119147857 100.73385018727276 0 0 0 0 383.61141162223703 -116.75393257668111 0 -116.75393257668111 -203.80764826822269 0 0 0 0 -0.76151519804047552 0.32570070550417762 0 0.32570070550417762 -47.246347999307432 0 0 0 0 129.51881834474938 -29.504586109487718 0 -29.504586109487718 34.589290787378559 0 0 0 0 119.87113280991166 17.1105911397417 0 17.1105911397417 135.05372504284605 0 0 0 0 19.326098172430864 7.7241949287321461 0 7.7241949287321461 -53.168259775057294 0 0 0 0 86.339152333106568 23.208598557037931 0 23.208598557037931 -170.97404551775981 0 0 0 0 128.64408258233226 -16.716704558813944 0 -16.716704558813944 16.258725669584237 0 0 0 0 179.7385670643676 117.41445301439671 0 117.41445301439671 111.20200692372055 0 0 0 0 205.35835776767635 81.003793212905293 0 81.003793212905293 51.333504416703363 0 0 0 0 19.861128943986387 -128.11176783486735 0 -128.11176783486735 -214.33092421940455 0 0 0 0 0.82443242423687346 0.36650009866241362 0 0.36650009866241362 2.2849759274250516 0 0 0 0 -26.76303572592127 92.651683840253099 0 92.651683840253099 361.9305481963238 0 0 0 0 -48.696638262350461 -13.17510634187056 0 -13.17510634187056 -403.69046987284855 0 0 0 0 2.7314006616936792 -2.4672308426483625 0 -2.4672308426483625 -21.588519007559583 0 0 0 0 10.10889513499253 15.636596042150359 0 15.636596042150359 -251.77477858289785 0 0 0 0 17.124709885919096 29.841390239345486 0 29.841390239345486 -38.879690177640555 0 0 0 0 47.818062278827711 -73.306903723565483 0 -73.306903723565483 -713.5944380456931 0 0 0 0 19.472967036069804 -453.93529160200706 0 -453.93529160200706 -962.5142977455107 0 0 0 0 137.43716258191625 77.896169947242015 0 77.896169947242015 -918.24455061427216 0 0 0 0 2.6953900137557669 13.77996029725184 0 13.77996029725184 -9.7908448668500796 0 0 0 0 105.1226241801487 -181.99144440818054 0 -181.99144440818054 -187.92023818201778 0 0 0 0 490.50361547497528 -217.61167998670498 0 -217.61167998670498 -431.44386426612618 0 0 0 0 254.80099267653486 187.68063187718508 0 187.68063187718508 -975.51376991472307 0 0 0 0 -242.30890236282613 396.80989210178814 0 396.80989210178814 -601.73080977288191 0 0 0 0 0.9122696037532112 11.58804546238774 0 11.58804546238774 -29.483718191648435 0 0 0 0 -61.728404714758881 -59.85110874408565 0 -59.85110874408565 -182.66627159804921 0 0 0 0 446.08579001676571 180.12180952234485 0 180.12180952234485 139.37100683894823 0 0 0 0 16.162692418707373 -12.583428351496472 0 -12.583428351496472 -89.446816325722352 0 0 0 0 8.6803862109107559 3.3218020243992754 0 3.3218020243992754 -71.900828837724347 0 0 0 0 6.1647383038771295 5.1598410058795707 0 5.1598410058795707 -121.53897704019982 0 0 0 0 550.32959026536378 82.840148720883008 0 82.840148720883008 -102.4358264527109 0 0 0 0 67.073313684603136 163.36673371083452 0 163.36673371083452 -59.775993904680945 0 0 0 0 43.283244845305703 197.11965210859125 0 197.11965210859125 -88.49170056602452 0 0 0 0 196.43209057092653 299.8716499159782 0 299.8716499159782 -19.709431147581199 0 0 0 0 1.7001800019420159 -2.0138852292867853 0 -2.0138852292867853 -22.951680309518807 0 0 0 0 6.7520539733132665 -51.587870700815984 0 -51.587870700815984 -55.402528161605005 0 0 0 0 203.57980147280745 123.46372896710091 0 123.46372896710091 1.5473357703885995 0 0 0 0 1.266252261951561 -5.2081698544224224 0 -5.2081698544224224 -50.787658161580936 0 0 0 0 352.30653137657498 380.31251853312824 0 380.31251853312824 -70.005767685288447 0 0 0 0 -157.27706874514607 555.76902114705445 0 555.76902114705445 -1851.4552149031806 0 0 0 0 276.8796531187262 610.8462168669721 0 610.8462168669721 -2543.5684872251331 0 0 0 0 263.76200541885208 576.20059656696685 0 576.20059656696685 -1904.9574512487015 0 0 0 0 -803.05229298214465 2876.2550786279571 0 2876.2550786279571 -5489.4150162542282 0 0 0 0 -0.35693640073131666 -2.0449855887361892 0 -2.0449855887361892 -22.671863745720685 0 0 0 0 148.99382708739631 -1458.6538816661487 0 -1458.6538816661487 -1403.9063277712703 0 0 0 0 783.00244840773689 -830.47064235508878 0 -830.47064235508878 -5488.2754682744007 0 0 0 0 687.47383672322599 111.64981085833642 0 111.64981085833642 -1934.0780262719345 0 0 0 0 -176.25795226813437 -62.679597859849309 0 -62.679597859849309 -1955.4914791075425 0 0 0 0 -291.19710481479962 417.18590218271129 0 417.18590218271129 91.820254066431517 0 0 0 0 -520.36842055199168 370.25189115609464 0 370.25189115609464 -91.675894414338472 0 0 0 0 -308.77103444968958 -376.77951634206693 0 -376.77951634206693 653.08955042435264 0 0 0 0 -701.65787168565657 1418.5392706898626 0 1418.5392706898626 -2279.183723392809 0 0 0 0 615.73043105053807 1043.0136760326714 0 1043.0136760326714 -5490.3333381182974 0 0 0 0 -1.005448578792276 0.25409768977531755 0 0.25409768977531755 -21.711857010827373 0 0 0 0 968.38824957634642 -960.8648846027645 0 -960.8648846027645 -5492.7182156420167 0 0 0 0 -669.75388432665716 -1768.5801736255419 0 -1768.5801736255419 -2144.0697311469703 0 0 0 0 1179.4307398898934 670.51390933390212 0 670.51390933390212 -5488.8475369183579 0 0 0 0 1082.6183901716445 72.885683634060115 0 72.885683634060115 -2019.2558284042607 0 0 0 0 11.952567898470432 -11.312563754373926 0 -11.312563754373926 -3.5488552969728744 0 0 0 0 -50.911670631297852 123.61724013783532 0 123.61724013783532 -116.38029362155066 0 0 0 0 -40.088524359988355 -430.14666037051938 0 -430.14666037051938 -1603.0432032873396 0 0 0 0 -306.38003992501308 71.084047680189542 0 71.084047680189542 245.06111652923573 0 0 0 0 666.52424057605674 179.50591730114957 0 179.50591730114957 -275.70555560302455 0 0 0 0 -31.677536938347657 126.62026847328525 0 126.62026847328525 59.919638183746429 0 0 0 0 1.6584109132284368 11.640440804049831 0 11.640440804049831 -45.712046393658966 0 0 0 0 106.10543155643886 51.203402550577991 0 51.203402550577991 3.0141507370789213 0 0 0 0 220.01032159372417 173.79481142610166 0 173.79481142610166 -39.825822083079402 0 0 0 0 84.399330998459988 61.723388850156738 0 61.723388850156738 20.067055177734716 0 0 0 0 -189.80568303057771 -142.1916702495655 0 -142.1916702495655 -301.57601397232065 0 0 0 0 -181.90298231587758 -284.68758355116006 0 -284.68758355116006 -430.35886941358331 0 0 0 0 -126.27501365828266 -172.35953746334053 0 -172.35953746334053 -289.36084327482968 0 0 0 0 71.197239264495579 -34.180331175277033 0 -34.180331175277033 -161.1833074520456 0 0 0 0 252.99543324814658 143.19158801179583 0 143.19158801179583 -123.77523056876817 0 0 0 0 -5.6800214713519797 -64.527805341798313 0 -64.527805341798313 -91.438120105889908 0 0 0 0 -262.12537876347596 -306.47536857800151 0 -306.47536857800151 -266.42882712055871 0 0 0 0 -294.51008138761063 -261.24557152786292 0 -261.24557152786292 -313.76666468419717 0 0 0 0 -14.624411632455038 -21.117554181027714 0 -21.117554181027714 31.132467141616871 0 0 0 0 -273.9856042968504 -338.49154545178681 0 -338.49154545178681 -322.3103488846391 0 0 0 0 -10.754853914934774 2.5541729321085427 0 2.5541729321085427 -0.94302409865181858 0 0 0 0 -269.14245822966632 -355.92812629238688 0 -355.92812629238688 -404.80548374162026 0 0 0 0 -1183.4780768028641 742.23564472359431 0 742.23564472359431 -778.00107818196011 0 0 0 0 -130.63137709212288 -1513.7417005816387 0 -1513.7417005816387 -5491.5327638149038 0 0 0 0 -9.3625454327526931 3.7445181896093658 0 3.7445181896093658 -32.12098210287391 0 0 0 0 -1338.4935594873652 -2341.7788239816509 0 -2341.7788239816509 -4179.1216487143975 0 0 0 0 -133.77157209359746 -849.25279820195578 0 -849.25279820195578 -3132.4314843790635 0 0 0 0 911.37724269431851 -591.8276048251937 0 -591.8276048251937 -5502.3161076676988 0 0 0 0 -459.1201278414938 -315.91870301264134 0 -315.91870301264134 -561.6271392554263 0 0 0 0 113.46800387782696 573.07670008960122 0 573.07670008960122 -209.77140352251081 0 0 0 0 -343.78312599645199 -1797.9635631397541 0 -1797.9635631397541 -2546.6231687479012 0 0 0 0 96.349009175399701 -314.67783070007135 0 -314.67783070007135 -1628.2827127257915 0 0 0 0 -718.42894546842172 -1054.6070753267413 0 -1054.6070753267413 140.68516928932513 0 0 0 0 -582.85496735113611 1536.633310123776 0 1536.633310123776 -3656.9104898103542 0 0 0 0 877.78577387163659 -69.704353415996593 0 -69.704353415996593 -3606.2325566070431 0 0 0 0 824.75907247896828 930.29501390218502 0 930.29501390218502 -5489.1504243772069 0 0 0 0 531.67149945070037 555.6678705884915 0 555.6678705884915 -3138.034010621981 0 0 0 0 -234.06564248996551 326.90150016550979 0 326.90150016550979 -1904.3693070226 0 0 0 0 -29.190710849530102 -25.874596238512112 0 -25.874596238512112 -15.559082653480061 0 0 0 0 8.3927945844475289 -661.71997980915648 0 -661.71997980915648 641.75718817554298 0 0 0 0 -102.50168950023726 -86.197065484600898 0 -86.197065484600898 57.738209136245132 0 0 0 0 -545.80422767396431 -664.52277787900675 0 -664.52277787900675 -287.75594956040732 0 0 0 0 -149.23057556105823 253.94115545800196 0 253.94115545800196 -1184.8668940456992 0 0 0 0 -36.655267220338303 -33.657118308892592 0 -33.657118308892592 -9.8894088649225864 0 0 0 0 325.58964647206994 -390.24044932093238 0 -390.24044932093238 205.76919753426046 0 0 0 0 201.96625765744375 -589.42135285765107 0 -589.42135285765107 -110.36191499725101 0 0 0 0 78.326975973635854 -425.12467992235906 0 -425.12467992235906 -508.10034342804283 0 0 0 0 553.67836929547047 -328.84606809604156 0 -328.84606809604156 -492.75656746543245 0 0 0 0 655.11456943402482 -97.193173713691067 0 -97.193173713691067 -18.448607893878943 0 0 0 0 -21.36733452095541 -398.28822262078756 0 -398.28822262078756 -668.05726147257519 0 0 0 0 -3.0333031548644058 -6.3889021679587898 0 -6.3889021679587898 -4.5284162547759479 0 0 0 0 -521.89884812393848 -618.87502851246245 0 -618.87502851246245 -533.47875542045222 0 0 0 0 323.55561735028641 -240.54529605589778 0 -240.54529605589778 -624.38843926641857 0 0 0 0 358.35135642777323 -62.573783284052297 0 -62.573783284052297 -1377.5928405911254 0 0 0 0 -128.03385287372839 305.8574664958287 0 305.8574664958287 -663.86788073039497 0 0 0 0 191.60428731369166 199.75259434327381 0 199.75259434327381 -609.44213364052121 0 0 0 0 62.086941641497106 -93.379699411641923 0 -93.379699411641923 -647.20008554073866 0 0 0 0 158.53667689669874 -381.03873262153502 0 -381.03873262153502 -1974.1544239501382 0 0 0 0 -2.202331498068137 -5.8978972677691957 0 -5.8978972677691957 -13.455553067467292 0 0 0 0 -435.38513237332609 1009.224527827464 0 1009.224527827464 -2028.5943232017225 0 0 0 0 271.20206018273325 -1128.0457538909159 0 -1128.0457538909159 -816.62135760448291 0 0 0 0 247.33263688733769 -1075.9192032504725 0 -1075.9192032504725 -148.46470689721173 0 0 0 0 679.57301294573517 106.55200835069991 0 106.55200835069991 -521.17231134565372 0 0 0 0 374.95050986004617 -346.77136336855619 0 -346.77136336855619 -668.36112156492891 0 0 0 0 674.98615740191235 -276.64022950078652 0 -276.64022950078652 -300.75323335520807 0 0 0 0 -12.484516799771125 -17.696394026995847 0 -17.696394026995847 -28.461201198358879 0 0 0 0 521.02518650840466 60.122673412013683 0 60.122673412013683 213.81148649892202 0 0 0 0 556.48022467609553 346.75182060512816 0 346.75182060512816 -838.99198478413746 0 0 0 0 208.33686879857942 92.306331664920435 0 92.306331664920435 -128.47492493552272 0 0 0 0 789.69956929889668 313.37805312182172 0 313.37805312182172 -866.96854218063527 0 0 0 0 -47.281565175476317 235.90556946996367 0 235.90556946996367 -623.23376607779937 0 0 0 0 -6.6294549384538186 121.11509824344466 0 121.11509824344466 -299.75728376593906 0 0 0 0 -13.049841538773762 467.08791065905825 0 467.08791065905825 -685.45845104707405 0 0 0 0 21.8995773312766 -19.383801548110853 0 -19.383801548110853 -66.581441944429969 0 0 0 0 -22.001345189239146 285.67370269782259 0 285.67370269782259 -1051.4539294466958 0 0 0 0 1242.9236911013777 -0.8796421686965914 0 -0.8796421686965914 -791.56872978710453 0 0 0 0 64.225738100941768 -55.136603973036316 0 -55.136603973036316 -159.15201903154974 0 0 0 0 163.43727830921307 69.895414861064637 0 69.895414861064637 -288.47092619144678 0 0 0 0 -21.789249844296137 -227.418169754259 0 -227.418169754259 -502.17900871748861 0 0 0 0 682.90947813895764 -481.05143866685103 0 -481.05143866685103 -825.88387264672201 0 0 0 0 -302.35052051616367 -115.12336056459026 0 -115.12336056459026 -732.74539603546873 0 0 0 0 -78.879194423892841 -57.083954295989315 0 -57.083954295989315 -770.0932520989154 0 0 0 0 -275.30704854051874 -107.82786953767936 0 -107.82786953767936 -662.34378057716822 0 0 0 0 860.1708189089677 -804.79430756680267 0 -804.79430756680267 -201.77617801340239 0 0 0 0 783.78764405277616 1688.6949579208813 0 1688.6949579208813 -1867.3779267606733 0 0 0 0 166.83826202899945 -235.30778534175624 0 -235.30778534175624 -2628.2130140971676 0 0 0 0 -4.5048017753289287 9.0002139346958359 0 9.0002139346958359 -8.5089710847344122 0 0 0 0 66.272261999230324 -33.635616460605675 0 -33.635616460605675 -163.0441818809588 0 0 0 0 -693.90375024139939 1012.0760811631189 0 1012.0760811631189 1375.1647943491407 0 0 0 0 -327.34758314355713 272.98905752978317 0 272.98905752978317 -618.00531779915036 0 0 0 0 -130.00877208128804 921.3506302529313 0 921.3506302529313 -2074.7545033802162 0 0 0 0 -120.99620967474766 -278.06541251135786 0 -278.06541251135786 -1398.0352446814395 0 0 0 0 -116.36711304359051 248.15171964219189 0 248.15171964219189 -1591.1975602249331 0 0 0 0 21.152758453383285 -31.732191942064674 0 -31.732191942064674 -1100.8112057117542 0 0 0 0 -167.0289144432827 -44.677073812214076 0 -44.677073812214076 -1099.5890695103153 0 0 0 0 -319.84643324367062 -208.7562051501809 0 -208.7562051501809 -867.8408496912416 0 0 0 0 -323.96904217215706 -15.367106144185527 0 -15.367106144185527 -835.3332337144966 0 0 0 0 3.3058728096802952 -265.54987412161427 0 -265.54987412161427 -1025.6678820435627 0 0 0 0 -79.631145420535177 -153.17308985038835 0 -153.17308985038835 -1088.431020707998 0 0 0 0 56.14155337673219 -171.86163072041381 0 -171.86163072041381 -1156.3197469089209 0 0 0 0 -2.1862167606121758 6.1417555924008695 0 6.1417555924008695 -3.5647854270373713 0 0 0 0 -287.34139528077503 94.748794074293983 0 94.748794074293983 -1274.6929345887547 0 0 0 0 29.005050305000623 -98.772460325970314 0 -98.772460325970314 -1259.9150969745642 0 0 0 0 114.04128737642895 -210.67713986639865 0 -210.67713986639865 -1210.9857748786962 0 0 0 0 -426.34654790299282 -177.28515305784094 0 -177.28515305784094 -1179.9746257312217 0 0 0 0 121.4259030117355 -170.62711074105027 0 -170.62711074105027 -1262.1176354978525 0 0 0 0 142.89319455046279 52.095612376990175 0 52.095612376990175 -1163.6497875913956 0 0 0 0 -1.2236580073476944 -93.292028970787214 0 -93.292028970787214 -1231.055630575167 0 0 0 0 -22.445979395657233 20.651655111510223 0 20.651655111510223 -15.323891070618203 0 0 0 0 185.07953994263517 234.85132079359028 0 234.85132079359028 208.66002061226754 0 0 0 0 -65.021791701514303 24.185672327093926 0 24.185672327093926 -602.29026022872131 0 0 0 0 -244.60479897971527 252.06557315714235 0 252.06557315714235 -211.06989966607216 0 0 0 0 -0.16243320746371204 1.5413271993937556 0 1.5413271993937556 -7.5440092842764841 0 0 0 0 46.616256346555019 194.09455168730346 0 194.09455168730346 -50.72841946958215 0 0 0 0 -32.454966551672911 36.607460052763344 0 36.607460052763344 -23.725986110252222 0 0 0 0 20.559761339631223 139.80992644022626 0 139.80992644022626 24.046653152399813 0 0 0 0 -29.471275455682189 61.740934538160218 0 61.740934538160218 -7.8310511774179759 0 0 0 0 51.792410097939602 61.057842801821309 0 61.057842801821309 -28.094937876941572 0 0 0 0 39.707848841720988 102.18173138487691 0 102.18173138487691 97.786272622775869 0 0 0 0 42.311505835602475 197.52416071082916 0 197.52416071082916 48.184202969438047 0 0 0 0 477.91455081722961 368.80472593003287 0 368.80472593003287 103.12796159627032 0 0 0 0 214.19668614078546 130.49457973182871 0 130.49457973182871 -111.33792506706232 0 0 0 0 57.820010809209634 -10.954937472117308 0 -10.954937472117308 -428.10984400899906 0 0 0 0 61.439318110251833 -33.11092447498639 0 -33.11092447498639 -161.61565615225618 0 0 0 0 1129.8835719123927 676.2420946629245 0 676.2420946629245 511.92148993098817 0 0 0 0 172.50503986806143 227.51227840775391 0 227.51227840775391 308.63585109860287 0 0 0 0 -372.12735766495337 57.47658292727283 0 57.47658292727283 224.6805656983197 0 0 0 0 0.9821601018021785 -1.1538337777445804 0 -1.1538337777445804 1.4760751417622089 0 0 0 0 -109.2088581174134 -71.081005079104216 0 -71.081005079104216 153.79830075519567 0 0 0 0 70.162647299857326 -98.826643436972518 0 -98.826643436972518 155.68370200543723 0 0 0 0 -60.487669444749827 -116.95909618891892 0 -116.95909618891892 172.39785931834194 0 0 0 0 12.541033200427137 188.5804821345082 0 188.5804821345082 143.63763688507606 0 0 0 0 4.4942727841514616 -5.9730199949529208 0 -5.9730199949529208 -8.9537352053787345 0 0 0 0 99.614212141822691 369.03207083180314 0 369.03207083180314 209.02567761822138 0 0 0 0 -221.62265110859533 328.11801306606503 0 328.11801306606503 282.86019115248928 0 0 0 0 -115.68816069399554 42.067329460100154 0 42.067329460100154 373.62022624385281 0 0 0 0 7.8541949249955048 9.2134615060350313 0 9.2134615060350313 -5.5344248608635098 0 0 0 0 534.24197630803155 222.79723373387242 0 222.79723373387242 111.11410563855316 0 0 0 0 -1.3519778210771916 -278.99664807597219 0 -278.99664807597219 -1541.6566306148015 0 0 0 0 350.79182580454165 -1240.3548410638105 0 -1240.3548410638105 -5480.01572849683 0 0 0 0 -1169.339874749779 -1059.9294458195473 0 -1059.9294458195473 106.53601118098595 0 0 0 0 -759.35052904393308 -1912.7711195054871 0 -1912.7711195054871 -2260.4116323376074 0 0 0 0 284.34549625640818 703.01289870814071 0 703.01289870814071 -1041.8636118746654 0 0 0 0 -170.4312718447519 372.30644748171107 0 372.30644748171107 -827.80625466848142 0 0 0 0 6.7700618791284874 -9.2660359782149726 0 -9.2660359782149726 -63.847713067498375 0 0 0 0 40.981777530209797 259.35433358453884 0 259.35433358453884 -1683.7112301231532 0 0 0 0 -502.12544658513059 2659.6531373832513 0 2659.6531373832513 -5488.1680750434316 0 0 0 0 -4.3831259579600665 -7.0075733563307523 0 -7.0075733563307523 -24.67301484248344 0 0 0 0 319.91709509518353 730.94678130603825 0 730.94678130603825 -3221.5562318262819 0 0 0 0 362.05192304600956 428.5799406993101 0 428.5799406993101 -1680.6768031111278 0 0 0 0 -96.492146623115332 117.28214260606183 0 117.28214260606183 -636.76199795509456 0 0 0 0 30.359736529611755 11.429941301512685 0 11.429941301512685 -36.894419618458727 0 0 0 0 -11.151331691503401 7.1329778916260693 0 7.1329778916260693 -81.331791348064144 0 0 0 0 554.01757643970814 183.37593322314206 0 183.37593322314206 -49.842795417178422 0 0 0 0 15.224368541437343 61.034446308563929 0 61.034446308563929 -75.164562679819937 0 0 0 0 26.761149415803843 10.166170459704318 0 10.166170459704318 -55.343245655182415 0 0 0 0 167.20613389754271 -18.080686477464042 0 -18.080686477464042 -112.6618295674416 0 0 0 0 131.25640303731564 -198.05612872092388 0 -198.05612872092388 111.30291160644265 0 0 0 0 134.59322702486861 90.409381204750389 0 90.409381204750389 -137.24974849745922 0 0 0 0 13.826913656600937 -21.484026448370059 0 -21.484026448370059 -42.347267984645441 0 0 0 0 -0.91785025548146004 -18.295789388170206 0 -18.295789388170206 -60.076831118766734 0 0 0 0 -14.99480837328997 77.175638643515413 0 77.175638643515413 -54.837664287537336 0 0 0 0 114.55772938365044 12.372205379331717 0 12.372205379331717 -106.6217781380401 0 0 0 0 -69.793898113624891 -0.16705422900849953 0 -0.16705422900849953 20.987660853221314 0 0 0 0 2.4823221836044365 -12.547490140160292 0 -12.547490140160292 -47.263466252426326 0 0 0 0 -68.014642574856225 -43.302423175206059 0 -43.302423175206059 -201.33527151169255 0 0 0 0 -149.20453686637939 -34.548497479903745 0 -34.548497479903745 -69.789055295623257 0 0 0 0 -55.420292286991298 -149.12282804098504 0 -149.12282804098504 -360.15071722665743 0 0 0 0 -90.272304031217345 -12.590574102971004 0 -12.590574102971004 -57.712254109195783 0 0 0 0 -0.85162855183239117 -143.72886417221162 0 -143.72886417221162 27.45243011644925 0 0 0 0 -11.756208102593519 -10.213293453663937 0 -10.213293453663937 -107.70574704324099 0 0 0 0 840.92057074051786 -268.56292753107846 0 -268.56292753107846 -5499.9626725168491 0 0 0 0 -228.44816828769262 -45.949236015421775 0 -45.949236015421775 -2572.9980584295408 0 0 0 0 188.27957467185433 -622.26286819526285 0 -622.26286819526285 -2185.9986730384699 0 0 0 0 14.595950884388429 21.805459076365253 0 21.805459076365253 -25.787983116003261 0 0 0 0 -190.38727637860842 -1499.8944191633345 0 -1499.8944191633345 -3802.4417060897831 0 0 0 0 58.085473241105774 -97.222057652965304 0 -97.222057652965304 -78.185025165108527 0 0 0 0 39.370414308588167 -224.70336152241362 0 -224.70336152241362 35.114869395300047 0 0 0 0 196.32868204325951 -457.18488940373936 0 -457.18488940373936 -204.40525104798144 0 0 0 0 18.923848378813545 -212.53225331037538 0 -212.53225331037538 29.199617428646889 0 0 0 0 -31.122124350757986 -242.54581299325218 0 -242.54581299325218 177.68243155201708 0 0 0 0 147.09960472952207 -528.39533732834389 0 -528.39533732834389 632.84160665061063 0 0 0 0 325.02598595006452 -833.81755866986532 0 -833.81755866986532 473.66685291856993 0 0 0 0 343.9767146508766 -723.70942404089146 0 -723.70942404089146 249.31937306601503 0 0 0 0 0.19715166482254887 20.171104011267488 0 20.171104011267488 -25.561970698705579 0 0 0 0 -224.89765464508059 -1350.7627959840393 0 -1350.7627959840393 -4222.7137388438568 0 0 0 0 -1486.6102128465318 931.57588774105534 0 931.57588774105534 -904.5228296899586 0 0 0 0 -824.8447920593137 -2269.2848013850016 0 -2269.2848013850016 -5498.3713707276356 0 0 0 0 -644.77121862368767 1079.0437564109111 0 1079.0437564109111 -1212.2583133284643 0 0 0 0 -4.7320529476145019 7.0277865728159554 0 7.0277865728159554 -13.659699473397637 0 0 0 0 -231.40659918675738 -773.25671476116986 0 -773.25671476116986 1322.0902287329809 0 0 0 0 2288.706381420785 -528.27413964970037 0 -528.27413964970037 -4041.6335302320658 0 0 0 0 -11.48022524241707 -9.0332859782248249 0 -9.0332859782248249 -5.7486580564660983 0 0 0 0 144.61383177602238 -204.45035492204261 0 -204.45035492204261 -192.55963408618118 0 0 0 0 -68.332547916731073 66.209163630292096 0 66.209163630292096 918.6078118821315 0 0 0 0 79.765354510217549 -37.998238615495211 0 -37.998238615495211 -159.62527439507539 0 0 0 0 -29.189895133410573 -104.21049437020702 0 -104.21049437020702 308.73378366245015 0 0 0 0 -124.28663603185763 -156.07256624110596 0 -156.07256624110596 -189.00966399717072 0 0 0 0 88.64536434956662 -128.30965070857928 0 -128.30965070857928 -764.3356034928147 0 0 0 0 -39.578950420091587 -192.71885420995386 0 -192.71885420995386 -193.04459260077238 0 0 0 0 318.007686067554 -647.96277893886872 0 -647.96277893886872 -1592.796773210579 0 0 0 0 -21.77326817989308 -583.62056872817629 0 -583.62056872817629 -880.05174759272995 0 0 0 0 298.40805799712371 -701.49320571400312 0 -701.49320571400312 -903.65073686301184 0 0 0 0 -48.592770069814947 -747.69865609248518 0 -747.69865609248518 -906.6190664914684 0 0 0 0 379.21802188130096 -351.27053176326444 0 -351.27053176326444 -665.53725939705146 0 0 0 0 226.30644980334591 -560.12613130444515 0 -560.12613130444515 -907.25586557417409 0 0 0 0 454.11273700634217 -206.11547101840551 0 -206.11547101840551 -941.53624856425449 0 0 0 0 475.75182872205869 -175.41328589334444 0 -175.41328589334444 -1048.6586686804367 0 0 0 0 907.10224016565098 -11.099584416777361 0 -11.099584416777361 -1011.2773690439171 0 0 0 0 406.24683331591518 -494.56304787417685 0 -494.56304787417685 -1261.7970635376696 0 0 0 0 332.15722129622054 -10.192932322213892 0 -10.192932322213892 -1293.1738935046724 0 0 0 0 136.05309500464864 -261.16964964670478 0 -261.16964964670478 -1461.8860772285934 0 0 0 0 303.08050923695862 -615.2778975522815 0 -615.2778975522815 -1136.8061066382506 0 0 0 0 74.025909701456158 -845.80545685160178 0 -845.80545685160178 -1364.7214824206312 0 0 0 0 -233.47413963384065 -821.18688227450912 0 -821.18688227450912 -1048.4134040012868 0 0 0 0 -73.110122577870015 -500.34533221894526 0 -500.34533221894526 -1276.3844321973156 0 0 0 0 -835.32474053208534 -492.37396557879401 0 -492.37396557879401 -1832.0400349764241 0 0 0 0 -167.86604091470372 -125.29448358422087 0 -125.29448358422087 -2392.1946763932647 0 0 0 0 -970.92767686096033 -1083.5450581098012 0 -1083.5450581098012 -3037.6483820741705 0 0 0 0 -4.526456386180703 -6.3063397985190903 0 -6.3063397985190903 -7.4180449989819408 0 0 0 0 -358.71859159262067 -1186.3794944225083 0 -1186.3794944225083 -2059.5797546578615 0 0 0 0 -516.49082707081971 -163.85253686302894 0 -163.85253686302894 28.024818244448397 0 0 0 0 -1669.6250482452006 -910.2773538899055 0 -910.2773538899055 -329.13079023924365 0 0 0 0 -45.194136511270472 -740.79181659480309 0 -740.79181659480309 -1014.5427421740605 0 0 0 0 -443.68577067406704 -891.69736376455694 0 -891.69736376455694 -814.41254883218789 0 0 0 0 -814.01017342210844 -591.02566285977082 0 -591.02566285977082 -175.34703907853691 0 0 0 0 -20.834887451108482 -516.35828296647912 0 -516.35828296647912 -503.1657071399386 0 0 0 0 -347.94884068497231 -426.48211355364037 0 -426.48211355364037 -374.69237217040791 0 0 0 0 -22.850330078024854 -47.712391676199331 0 -47.712391676199331 -195.8494943237165 0 0 0 0 -310.8842009478858 -176.3107419625594 0 -176.3107419625594 -107.2669959935738 0 0 0 0 -220.71289403749324 -298.44758707021538 0 -298.44758707021538 -276.66223282873398 0 0 0 0 -7.430450037915401 -13.85743954933676 0 -13.85743954933676 -24.54812642395791 0 0 0 0 -174.13702040677708 53.470839342429827 0 53.470839342429827 42.817754443822196 0 0 0 0 75.092221294766205 -181.66965482995147 0 -181.66965482995147 -153.70932427566731 0 0 0 0 154.95083231996074 -32.062082546624879 0 -32.062082546624879 109.42227822638233 0 0 0 0 -4.9825776954899537 -16.610847108082694 0 -16.610847108082694 -50.230262259395261 0 0 0 0 580.99874156527744 -482.26583977355767 0 -482.26583977355767 -212.07611567550339 0 0 0 0 -102.73253855094822 -336.25587814670871 0 -336.25587814670871 276.42115525333793 0 0 0 0 415.4105129469317 40.333779664833855 0 40.333779664833855 -259.10594420848065 0 0 0 0 -5.0780977540052845 898.7909147726823 0 898.7909147726823 -2472.3904022297938 0 0 0 0 -489.75607056846093 168.50405040438636 0 168.50405040438636 162.37225915089948 0 0 0 0 -882.61113923113953 -1654.6405387377599 0 -1654.6405387377599 -1944.1369730313163 0 0 0 0 -1.9351437821264268 -6.247441017364082 0 -6.247441017364082 -22.991780420013868 0 0 0 0 240.4942836935279 -373.37041081576899 0 -373.37041081576899 -4234.9217623875011 0 0 0 0 -1098.0387319939682 535.14318499107321 0 535.14318499107321 -2824.5349035294657 0 0 0 0 342.48662464199924 131.49113915173803 0 131.49113915173803 -2564.3447021423781 0 0 0 0 490.85651823633498 59.614231682950049 0 59.614231682950049 -2755.4664323343022 0 0 0 0 255.2772191225099 131.81709831702756 0 131.81709831702756 -2537.4738483374822 0 0 0 0 -181.65068682850517 902.36865086317994 0 902.36865086317994 -611.35063625653856 0 0 0 0 -291.86155946610756 210.99048760939331 0 210.99048760939331 -791.15411460277392 0 0 0 0 196.69356721393424 370.14261645740589 0 370.14261645740589 -1627.9417183372134 0 0 0 0 -74.12260444607216 -62.931944165393361 0 -62.931944165393361 -1151.0483243501367 0 0 0 0 -274.69306660651006 -416.65072530522593 0 -416.65072530522593 -2476.1856834790815 0 0 0 0 484.036913853035 -77.195459733571624 0 -77.195459733571624 -3150.749045016084 0 0 0 0 -524.41552932917068 382.9980451705851 0 382.9980451705851 -1776.6021748640633 0 0 0 0 1.9871794510684144 173.11105872351618 0 173.11105872351618 -2860.5261728888581 0 0 0 0 68.80359767383689 163.34170951636042 0 163.34170951636042 -1745.4576624573019 0 0 0 0 -0.96480051211790196 -97.888454198073305 0 -97.888454198073305 -1015.4267215470318 0 0 0 0 -116.12362259558761 -186.1840486410365 0 -186.1840486410365 -484.97892931372917 0 0 0 0 -103.71314589166258 117.19609917080379 0 117.19609917080379 -550.10701228139806 0 0 0 0 -168.36406395752283 -281.24716829684621 0 -281.24716829684621 -18.984874619331094 0 0 0 0 -144.35516295535606 32.675766638089954 0 32.675766638089954 -8.8107231815520208 0 0 0 0 -145.51378784571665 218.67564469106492 0 218.67564469106492 -473.17082945094444 0 0 0 0 -67.832621798581982 -145.87687457319407 0 -145.87687457319407 79.992239542450989 0 0 0 0 29.55894354601196 -220.82852233915764 0 -220.82852233915764 137.24914952146355 0 0 0 0 -164.52893576591904 -34.507621904296684 0 -34.507621904296684 576.53630092933599 0 0 0 0 0.23174025511523447 -192.75952593309847 0 -192.75952593309847 -48.696737365622539 0 0 0 0 -0.063487570757981934 -2.4829303349906695 0 -2.4829303349906695 -27.145750151452376 0 0 0 0 -43.016482707934301 3.8079336730588693 0 3.8079336730588693 16.453475977992639 0 0 0 0 2.4025694910474948 1.2990409131475928 0 1.2990409131475928 -6.4368189971679612 0 0 0 0 35.549905025192587 44.263926720443806 0 44.263926720443806 -27.960512819612632 0 0 0 0 0.77508252953401158 -2.3853385734163197 0 -2.3853385734163197 -27.220910538938597 0 0 0 0 -0.50247520663279666 -2.0180267481773626 0 -2.0180267481773626 -25.584565672237659 0 0 0 0 0.021978657799358703 -3.0166575415350962 0 -3.0166575415350962 -24.364527413796168 0 0 0 0 1.0413645082996974 2.4990251197725684 0 2.4990251197725684 -4.1826057727299144 0 0 0 0 1.1233199629147754 0.76047323248758669 0 0.76047323248758669 -14.295890236558307 0 0 0 0 -234.21764223316478 -719.55371341765726 0 -719.55371341765726 -2214.3636523733148 0 0 0 0 224.02387727276587 905.17006941215868 0 905.17006941215868 -1199.8395668842713 0 0 0 0 437.26789690180976 356.35900821206451 0 356.35900821206451 -2949.0771835848573 0 0 0 0 147.31712145268125 -740.25087386129599 0 -740.25087386129599 86.839966476032714 0 0 0 0 -448.77962757148816 119.03420430231199 0 119.03420430231199 301.60895410862577 0 0 0 0 92.480486540760467 98.173058438696899 0 98.173058438696899 -275.11564196184918 0 0 0 0 -801.04259100073841 51.388559504594014 0 51.388559504594014 -264.57657072745496 0 0 0 0 11.152351328573786 13.526378626193036 0 13.526378626193036 -1119.6447465269302 0 0 0 0 -29.469079451311245 336.23285136750201 0 336.23285136750201 -1045.1055061184488 0 0 0 0 -395.64395120877157 -470.25295587252913 0 -470.25295587252913 -2469.1454015988566 0 0 0 0 -2111.7665335540974 -859.23004715284333 0 -859.23004715284333 -1933.2894744412042 0 0 0 0 -744.72492271960425 165.0395785195833 0 165.0395785195833 -1213.2043114963162 0 0 0 0 -1163.3993107695892 16.409202477007057 0 16.409202477007057 -221.28408166192821 0 0 0 0 -655.08089005011016 -129.49714645778295 0 -129.49714645778295 -1043.1760419094135 0 0 0 0 -705.38489842745423 138.53763217536834 0 138.53763217536834 -198.68008370391908 0 0 0 0 -757.14992328592302 129.04386120712661 0 129.04386120712661 312.13943594854209 0 0 0 0 -610.04722439127181 -198.80450580658362 0 -198.80450580658362 308.21333140811419 0 0 0 0 -1.8115508069593602 -1.6131069681839563 0 -1.6131069681839563 -0.14283731396153598 0 0 0 0 -34.608378451853696 -19.558480926352786 0 -19.558480926352786 -157.53699741895252 0 0 0 0 -683.60693115640311 7.2115977658268093 0 7.2115977658268093 42.415129621920642 0 0 0 0 -539.21204851989489 68.245824332603661 0 68.245824332603661 -68.871257791033713 0 0 0 0 -513.80393536060978 164.14609577984447 0 164.14609577984447 13.858389773464296 0 0 0 0 -418.59923593215183 248.03127801360097 0 248.03127801360097 53.32575756112783 0 0 0 0 -223.39794230916891 335.37108294831705 0 335.37108294831705 -80.412920790629869 0 0 0 0 -691.02457896770943 316.39259946499078 0 316.39259946499078 -16.719549007510068 0 0 0 0 -814.13919641520783 52.887918112886837 0 52.887918112886837 121.99029545183294 0 0 0 0 -526.56732764546166 122.64920313720359 0 122.64920313720359 -337.89762701481231 0 0 0 0 -865.23613548101275 490.54209695306417 0 490.54209695306417 -688.17527053103549 0 0 0 0 -549.31383350457725 -92.557960997648479 0 -92.557960997648479 -1131.0470796816808 0 0 0 0 -1087.416978088504 218.35239829801139 0 218.35239829801139 -1310.6176816077932 0 0 0 0 -231.89661652441055 259.53283820980869 0 259.53283820980869 -1601.4061152606737 0 0 0 0 -133.66973166362214 -34.720111424270726 0 -34.720111424270726 -722.77268188615562 0 0 0 0 -536.9715980568659 120.04565319467656 0 120.04565319467656 -24.245712962612743 0 0 0 0 -174.78471163467077 346.91621630408918 0 346.91621630408918 -269.39468996905634 0 0 0 0 170.09015628839563 -214.90139930981968 0 -214.90139930981968 -616.32771360248444 0 0 0 0 422.39697097997941 -273.0776845276705 0 -273.0776845276705 -800.64861664469936 0 0 0 0 488.71266502655749 63.089059074998659 0 63.089059074998659 -762.96795184031362 0 0 0 0 1273.3813841978485 41.699957805554732 0 41.699957805554732 -904.180768852646 0 0 0 0 1353.3900668656183 -462.51323769774172 0 -462.51323769774172 -194.44973751942598 0 0 0 0 689.88827287301729 -258.40841806380195 0 -258.40841806380195 -255.79518018543604 0 0 0 0 310.87986367896264 160.29573086277924 0 160.29573086277924 800.57179871728295 0 0 0 0 1631.6855775715881 432.04125070318696 0 432.04125070318696 15.888546420130297 0 0 0 0 -219.63292310384776 293.75597880584246 0 293.75597880584246 273.15787293635367 0 0 0 0 303.44205822911579 59.508420718821071 0 59.508420718821071 -132.40569916178356 0 0 0 0 445.78256900301665 374.12785661604721 0 374.12785661604721 -135.85341747115308 0 0 0 0 357.12534868439917 194.40962155039597 0 194.40962155039597 -12.580343320529209 0 0 0 0 188.46670125354831 364.61355045990058 0 364.61355045990058 -301.68016091859317 0 0 0 0 -77.982570569295262 241.31005409601494 0 241.31005409601494 -154.92916782698012 0 0 0 0 71.670347456592793 214.64905332271155 0 214.64905332271155 -494.0773253491061 0 0 0 0 322.81630998598041 27.482001058808237 0 27.482001058808237 -394.53034017796745 0 0 0 0 128.64494927974033 63.138705144217965 0 63.138705144217965 -710.06921543728095 0 0 0 0 38.338429767662944 2.6225510548392776 0 2.6225510548392776 -943.03022238305493 0 0 0 0 185.85033059191389 215.47653433249434 0 215.47653433249434 -851.38384052232141 0 0 0 0 -84.475196862252005 127.58048183425126 0 127.58048183425126 -516.70479618868558 0 0 0 0 -76.06368905950319 131.76868199775345 0 131.76868199775345 -649.03089403106424 0 0 0 0 68.027484880820111 63.855677836028917 0 63.855677836028917 -1114.1616960123647 0 0 0 0 -90.444463195936294 -65.770545514045807 0 -65.770545514045807 -767.24298722767708 0 0 0 0 -90.215022371392536 -60.737943843698304 0 -60.737943843698304 -697.50720714141789 0 0 0 0 -306.24817137128014 31.727203438118522 0 31.727203438118522 -346.75867907931388 0 0 0 0 -284.18944964301602 138.78941950478475 0 138.78941950478475 -296.62022410702775 0 0 0 0 -48.01092357945091 276.50371674831331 0 276.50371674831331 -179.90877211955376 0 0 0 0 -241.47020328401766 206.5071844914637 0 206.5071844914637 -203.15155301174673 0 0 0 0 -406.20510258876374 87.386667945043882 0 87.386667945043882 -66.621204716648208 0 0 0 0 -491.43477868042226 -20.366328939067898 0 -20.366328939067898 -202.8427442615066 0 0 0 0 -403.32207375817012 -197.13258977661826 0 -197.13258977661826 -58.081367277482059 0 0 0 0 -319.15782009394479 -211.40431936221285 0 -211.40431936221285 -168.72246676534996 0 0 0 0 -159.39385035740952 -24.65762296126195 0 -24.65762296126195 -155.99306198149316 0 0 0 0 -312.91293073418336 17.314382964199467 0 17.314382964199467 -254.25074095939635 0 0 0 0 -359.81787048394585 -253.88567286798207 0 -253.88567286798207 -484.87907563999761 0 0 0 0 -131.11396680903755 -289.52409921718845 0 -289.52409921718845 -1113.2817146417074 0 0 0 0 -112.35567683294164 -643.21546985748864 0 -643.21546985748864 -1315.8972767838713 0 0 0 0 -147.26483945952216 -229.15228159589242 0 -229.15228159589242 -912.68252038455103 0 0 0 0 -374.22031460817954 -458.21571800098172 0 -458.21571800098172 -566.37567526302882 0 0 0 0 -300.80538263232017 -152.44320648173743 0 -152.44320648173743 -348.00000647126581 0 0 0 0 -345.7351833501869 -185.30286872813258 0 -185.30286872813258 -164.54371106268081 0 0 0 0 -61.544661294454045 -10.694865925543127 0 -10.694865925543127 -220.6512053957922 0 0 0 0 -657.46076133657084 -1022.5371558275688 0 -1022.5371558275688 -1588.4998383237689 0 0 0 0 -447.64651921535273 -563.6687791311997 0 -563.6687791311997 -598.16019153699744 0 0 0 0 465.55459992645251 134.14682103520317 0 134.14682103520317 -979.77625958269346 0 0 0 0 -0.042174170592155516 -2.1020586329377586 0 -2.1020586329377586 -10.265962724750921 0 0 0 0 -0.29729704333953877 -140.79641530905064 0 -140.79641530905064 226.16651679882489 0 0 0 0 136.20771199903993 -132.22675373309175 0 -132.22675373309175 97.627516771855881 0 0 0 0 0.32940688569624577 -3.34024747458826 0 -3.34024747458826 -23.004801617386079 0 0 0 0 89.174241438138779 -104.72528521325876 0 -104.72528521325876 -227.34216295079386 0 0 0 0 -157.53965385486742 -55.22345630838754 0 -55.22345630838754 109.77031458908459 0 0 0 0 148.79732196149769 48.039902662574605 0 48.039902662574605 -135.17833325287211 0 0 0 0 0.23854260538554148 -3.5143292936312451 0 -3.5143292936312451 -23.91923893787316 0 0 0 0 0.20710245497063512 -2.714454329874247 0 -2.714454329874247 -26.295883649329539 0 0 0 0 0.78675862425522425 -3.8856252694531577 0 -3.8856252694531577 -25.343380682868883 0 0 0 0 -42.028239601087307 -37.118235633362929 0 -37.118235633362929 -79.383785198049736 0 0 0 0 -29.248075300180972 -34.290312387187441 0 -34.290312387187441 -85.323574157329858 0 0 0 0 -39.585588548392479 -34.246586032066261 0 -34.246586032066261 -55.993711377734144 0 0 0 0 -45.725157374630726 -34.692137908561563 0 -34.692137908561563 -96.500106363255327 0 0 0 0 -26.280749179520171 -34.615230127641553 0 -34.615230127641553 -97.018474675016478 0 0 0 0 -31.733105758812599 -38.311611656259629 0 -38.311611656259629 -94.983076886557683 0 0 0 0 -36.545523447111918 -39.900946475259843 0 -39.900946475259843 -85.063394343827895 0 0 0 0 -32.891105880220493 -36.23834447862464 0 -36.23834447862464 -94.21982991223922 0 0 0 0 -50.640452914075013 -27.008720952540898 0 -27.008720952540898 -85.289514670481367 0 0 0 0 2.2610686302424021 -4.6613101899676224 0 -4.6613101899676224 -11.593111670694157 0 0 0 0 -34.720056053450207 -29.292137910844758 0 -29.292137910844758 -93.266629478093819 0 0 0 0 -68.562938380405043 -0.28156785888481295 0 -0.28156785888481295 -10.407560873726979 0 0 0 0 -87.597120025197 -73.114576567997574 0 -73.114576567997574 24.656869014503172 0 0 0 0 -81.382399470368 -90.905519272788297 0 -90.905519272788297 -108.70121517471853 0 0 0 0 -21.437290083447806 -43.567613545263157 0 -43.567613545263157 -75.226881539863825 0 0 0 0 -5.9241176411830256 -27.987295710446013 0 -27.987295710446013 -62.802644647365184 0 0 0 0 -49.400173906538612 -32.412185827211943 0 -32.412185827211943 -81.909677238814766 0 0 0 0 66.039099999839891 -104.9077704566771 0 -104.9077704566771 -673.59260659179563 0 0 0 0 48.108033692430922 -81.207385747952912 0 -81.207385747952912 -642.25212871802796 0 0 0 0 -8.6397458404426786 -15.123653630867061 0 -15.123653630867061 -0.89327211291873709 0 0 0 0 -145.77082302317285 -128.14040641947213 0 -128.14040641947213 -425.5495466168868 0 0 0 0 2.0852969159788302 -3.9358519367356166 0 -3.9358519367356166 -13.643973931931946 0 0 0 0 -57.788358971265552 76.333520178930485 0 76.333520178930485 -277.85094038861644 0 0 0 0 -565.28788550477475 3.9083055353476084 0 3.9083055353476084 -611.44312083401019 0 0 0 0 -53.00528024945379 -257.46163553756924 0 -257.46163553756924 -756.4099128241287 0 0 0 0 -23.33539823271196 4.5051804705639142 0 4.5051804705639142 -2.5410492401450586 0 0 0 0 396.98419897152417 -88.09387642458023 0 -88.09387642458023 -1244.9616615918567 0 0 0 0 -3.4393587678099209 7.8244844406167147 0 7.8244844406167147 -4.9286178502426168 0 0 0 0 -338.73173395022604 45.343635400218773 0 45.343635400218773 -1096.0049922098115 0 0 0 0 -43.93623966860288 11.588060923783445 0 11.588060923783445 0.11142413207855384 0 0 0 0 344.42514791894791 -407.68933708975965 0 -407.68933708975965 -1716.6456804216359 0 0 0 0 -192.63139552003122 -227.32988188514719 0 -227.32988188514719 -971.00755739289525 0 0 0 0 9.6099516614576714 -36.41199621861233 0 -36.41199621861233 -522.45917582487891 0 0 0 0 -41.153669092097225 -28.546821297121369 0 -28.546821297121369 0.88612872530087117 0 0 0 0 -113.67676006283727 -42.47489786913502 0 -42.47489786913502 -337.45247599965296 0 0 0 0 -68.720562598940887 -73.739444991424534 0 -73.739444991424534 -347.80114250915358 0 0 0 0 139.28189200820634 -103.03883176542877 0 -103.03883176542877 -1078.2767327733163 0 0 0 0 628.39642461990297 -420.43209104027483 0 -420.43209104027483 -1339.7866512951878 0 0 0 0 0.49834459931162201 6.5401132337328818 0 6.5401132337328818 -4.9782006439424862 0 0 0 0 -136.59129791921441 -2.4517367086154991 0 -2.4517367086154991 -2032.4733574510901 0 0 0 0 -69.867227654343083 -4.3185248008302608 0 -4.3185248008302608 -33.867425526383201 0 0 0 0 -67.947793665327481 -915.67802351182036 0 -915.67802351182036 -70.080162051977823 0 0 0 0 134.13395517825847 -265.7485358803533 0 -265.7485358803533 -1363.2236055094691 0 0 0 0 -100.32260698883329 23.511682706535794 0 23.511682706535794 -2027.1928752979729 0 0 0 0 767.30066286899182 29.928927755842778 0 29.928927755842778 -529.46468332971563 0 0 0 0 -316.26299719512826 976.61216196091846 0 976.61216196091846 -2852.5802094957035 0 0 0 0 92.388771286932297 -36.674364980841489 0 -36.674364980841489 -170.94523612432818 0 0 0 0 -336.82678691350156 873.2944137025188 0 873.2944137025188 -3355.2149225429166 0 0 0 0 93.278326015199482 22.81227819496398 0 22.81227819496398 -81.169686742340787 0 0 0 0 49.917761174474791 9.2368909935427439 0 9.2368909935427439 -72.74079830321439 0 0 0 0 -250.84464788392506 351.78909785486758 0 351.78909785486758 -1028.2895542350125 0 0 0 0 39.028340349676 342.75227616194752 0 342.75227616194752 -1551.5924091899651 0 0 0 0 -51.378529411396812 286.70573909110681 0 286.70573909110681 -1107.8255585090374 0 0 0 0 -1.029811312120728 361.69623898640566 0 361.69623898640566 -1526.464844195958 0 0 0 0 8.3660937046161052 -52.635978460733895 0 -52.635978460733895 -130.84485776398651 0 0 0 0 22.191084067678275 -31.517891568684718 0 -31.517891568684718 -100.06798957008868 0 0 0 0 18.277469865808072 -12.201909381526391 0 -12.201909381526391 -134.39147465146169 0 0 0 0 -22.667060368790743 43.435722706780894 0 43.435722706780894 -369.17067026629229 0 0 0 0 -24.196110711669178 -127.9774008754373 0 -127.9774008754373 -364.80485794646665 0 0 0 0 -190.36990550061637 -167.31751726434959 0 -167.31751726434959 29.262473510432756 0 0 0 0 -28.04683920117688 -29.666531339508577 0 -29.666531339508577 29.253951762587889 0 0 0 0 -22.204492496610328 -58.167825353084481 0 -58.167825353084481 -390.72933007500978 0 0 0 0 -26.978968195333437 -25.218832169790403 0 -25.218832169790403 -614.01709684013622 0 0 0 0 -41.771450478012412 -64.805076360775274 0 -64.805076360775274 -345.80629630431213 0 0 0 0 -47.285380982029892 -99.981539279513527 0 -99.981539279513527 -324.53066964708705 0 0 0 0 -37.552535217328114 -140.24942836337141 0 -140.24942836337141 -367.53636894901865 0 0 0 0 962.64996927578704 -86.205169175605988 0 -86.205169175605988 -914.73448108896264 0 0 0 0 932.55825079005922 339.57339501067509 0 339.57339501067509 -1059.0548822511337 0 0 0 0 1064.7334628891049 49.53216661742772 0 49.53216661742772 -376.87105132508441 0 0 0 0 963.14102896512486 293.22626312982175 0 293.22626312982175 -1002.2197906938673 0 0 0 0 1584.4729255683415 -16.815328157594195 0 -16.815328157594195 -1092.0702537644174 0 0 0 0 588.7007644309997 471.14201396304998 0 471.14201396304998 -340.40631115430733 0 0 0 0 85.781231405409926 -398.65364459485863 0 -398.65364459485863 -1238.8806601097895 0 0 0 0 252.80002970490023 844.71132599402335 0 844.71132599402335 -1076.6763253418612 0 0 0 0 361.71754444290855 535.97614581458038 0 535.97614581458038 -979.92866729825619 0 0 0 0 1093.413345575007 386.49423428284354 0 386.49423428284354 -1162.0890296640573 0 0 0 0 60.37828967923997 158.64473778489628 0 158.64473778489628 -1058.2060915092879 0 0 0 0 338.70582658415333 573.97132878279081 0 573.97132878279081 -1033.3782554181525 0 0 0 0 -384.35211236873147 274.40246805097559 0 274.40246805097559 -1023.4076686458757 0 0 0 0 8.0541330335145176 77.362186500540702 0 77.362186500540702 -1677.8561980027589 0 0 0 0 3.7931103941547217 8.9719150205177556 0 8.9719150205177556 -8.4434920693416302 0 0 0 0 -100.61501452755329 517.49986033074674 0 517.49986033074674 -1766.1824027511175 0 0 0 0 534.58982252251008 359.49708666210063 0 359.49708666210063 191.98740217655723 0 0 0 0 -237.03717442467041 116.81732571090106 0 116.81732571090106 194.01307804154931 0 0 0 0 8.5569750316020556 -29.280072266973747 0 -29.280072266973747 -91.347671001526294 0 0 0 0 3.7354930423153085 4.4674062054409376 0 4.4674062054409376 -14.802680194022209 0 0 0 0 668.70242911219339 -179.01832616768661 0 -179.01832616768661 -424.44279399211518 0 0 0 0 1339.7233087232278 430.81831811385928 0 430.81831811385928 -209.86220599224907 0 0 0 0 1704.3525851937452 166.95238859996607 0 166.95238859996607 -478.75216756662849 0 0 0 0 1244.4842311385537 -669.87328682270891 0 -669.87328682270891 183.30069297652517 0 0 0 0 346.21039666350623 -455.24908430360665 0 -455.24908430360665 590.66947589046322 0 0 0 0 18.766048665388134 -5.5715453711015925 0 -5.5715453711015925 -26.894460957612637 0 0 0 0 483.93901292001715 -567.3530719561968 0 -567.3530719561968 255.63521576157655 0 0 0 0 -0.61850308113591268 -91.092959867994068 0 -91.092959867994068 259.68593776859052 0 0 0 0 163.12337797015357 -455.34751677693566 0 -455.34751677693566 417.93322530592559 0 0 0 0 28.044715991040903 -299.58517582400236 0 -299.58517582400236 285.10645887791179 0 0 0 0 148.29870284629089 -420.64247347810306 0 -420.64247347810306 337.7680622326443 0 0 0 0 254.86351750526964 -367.81898797732356 0 -367.81898797732356 137.57272646523779 0 0 0 0 301.41737186873411 -409.81518401150242 0 -409.81518401150242 157.44843762042001 0 0 0 0 261.58080216792303 -337.9492354219401 0 -337.9492354219401 157.5434153068345 0 0 0 0 381.56773668004678 -387.24481444869889 0 -387.24481444869889 103.15336475346703 0 0 0 0 294.01591003139777 -307.36829230260628 0 -307.36829230260628 32.795873944589403 0 0 0 0 471.51595458172528 -303.97509450470534 0 -303.97509450470534 -30.00233255274361 0 0 0 0 586.77099537623553 -349.24255131039172 0 -349.24255131039172 34.606241988978582 0 0 0 0 984.6598653351823 -63.084792210967862 0 -63.084792210967862 -242.95701603265479 0 0 0 0 504.32310245033966 -350.16646243924333 0 -350.16646243924333 34.998859101964626 0 0 0 0 -29.707350529028766 -29.311802839877231 0 -29.311802839877231 -10.365282989272856 0 0 0 0 -32.025837243145361 -48.772427162788517 0 -48.772427162788517 -74.685586583385884 0 0 0 0 58.17861786016374 -238.72375328851194 0 -238.72375328851194 3.3024870811204892 0 0 0 0 -15.613029758253491 -39.194582810732555 0 -39.194582810732555 -77.197107128301354 0 0 0 0 -24.843538916364196 -78.690202581638005 0 -78.690202581638005 -19.341620510222128 0 0 0 0 -39.313299510402693 -83.483380846582776 0 -83.483380846582776 -41.959085619701135 0 0 0 0 27.19566788076736 -58.41148342670931 0 -58.41148342670931 -83.637000437855022 0 0 0 0 -7.9623562372071319 -48.767585241759662 0 -48.767585241759662 -53.439572183648124 0 0 0 0 25.112526760924084 -52.041152264951961 0 -52.041152264951961 -64.48859680233727 0 0 0 0 19.954049559268732 -50.946167975330923 0 -50.946167975330923 -156.58582424838369 0 0 0 0 22.639131332136458 -78.222746488347184 0 -78.222746488347184 -120.37951396068092 0 0 0 0 -15.338726954735488 -65.992219704733941 0 -65.992219704733941 -43.055244733903862 0 0 0 0 -15.12328983630141 -11.012426191940904 0 -11.012426191940904 -156.41715990676312 0 0 0 0 -309.77008349381833 350.09254085450084 0 350.09254085450084 -325.33860639529303 0 0 0 0 24.750975742858682 -39.205268862717553 0 -39.205268862717553 -80.367040371739108 0 0 0 0 123.47902599501026 -301.39246628779802 0 -301.39246628779802 192.09395335230511 0 0 0 0 -61.304994564474327 21.023332408367423 0 21.023332408367423 -116.02591601124732 0 0 0 0 108.62304395778204 -238.72015874061617 0 -238.72015874061617 31.869710561411921 0 0 0 0 -40.457496828045805 -111.3899622960962 0 -111.3899622960962 -4.3572253349702805 0 0 0 0 -75.656204715131025 -4.5668967814126518 0 -4.5668967814126518 -93.971559948178765 0 0 0 0 -9.0250324177732182 -58.944331757196778 0 -58.944331757196778 -76.563223338103853 0 0 0 0 170.98864040338748 -219.57724157850225 0 -219.57724157850225 138.8386641786783 0 0 0 0 -228.70032011237709 -96.024821402927046 0 -96.024821402927046 50.04455995180615 0 0 0 0 -208.28955601893176 -27.125434374916949 0 -27.125434374916949 25.186702510487521 0 0 0 0 127.75527999864006 -255.45711818839391 0 -255.45711818839391 183.25398487498751 0 0 0 0 -202.68046386066726 -160.92807390673261 0 -160.92807390673261 -89.173978783888742 0 0 0 0 -12.010775948333491 -32.510218773822103 0 -32.510218773822103 -57.521857663552623 0 0 0 0 165.9432606512089 -310.59072450312669 0 -310.59072450312669 189.23479538969696 0 0 0 0 104.33834354615456 -302.50753535314288 0 -302.50753535314288 202.21329075365793 0 0 0 0 189.95623201334035 -341.09990071156062 0 -341.09990071156062 218.55767827216187 0 0 0 0 217.08570574059985 -291.5264000982861 0 -291.5264000982861 113.49332564632641 0 0 0 0 254.29841219876187 -203.63790864062321 0 -203.63790864062321 73.050508847110905 0 0 0 0 291.64091980228727 -292.16016754024895 0 -292.16016754024895 107.0111795306002 0 0 0 0 -227.48335531340626 -194.30756758481948 0 -194.30756758481948 120.09917088280781 0 0 0 0 220.34668930313819 46.629137134892517 0 46.629137134892517 -446.36903250261093 0 0 0 0 259.90435071693628 -393.5532452385014 0 -393.5532452385014 -98.117356202812516 0 0 0 0 -525.15534618897232 -97.629240107951773 0 -97.629240107951773 353.52819788744091 0 0 0 0 -8.8446212241021236 -33.922268798326826 0 -33.922268798326826 -87.595066992110333 0 0 0 0 2.2691475334125428 3.352765603532788 0 3.352765603532788 -12.518328481181982 0 0 0 0 341.43065887602535 -268.01712796176071 0 -268.01712796176071 -17.204785592912231 0 0 0 0 381.96709583411507 -164.49298220928176 0 -164.49298220928176 85.052663855487481 0 0 0 0 503.68302538048772 -117.57722253688553 0 -117.57722253688553 -10.826304975242238 0 0 0 0 462.65611414706473 -191.8116791151333 0 -191.8116791151333 -50.294703251332976 0 0 0 0 676.18578732274113 -371.48620149299313 0 -371.48620149299313 -110.95939931317116 0 0 0 0 292.60991449426751 -7.7149510721064871 0 -7.7149510721064871 -303.61867341223115 0 0 0 0 314.50515274423969 -359.96166157873813 0 -359.96166157873813 212.1111710256082 0 0 0 0 -7.1520149576461147 -16.509170653621197 0 -16.509170653621197 -35.022719175133716 0 0 0 0 368.93831557213946 115.73189174714207 0 115.73189174714207 -288.56783454548349 0 0 0 0 556.12978793700677 -233.34747110724129 0 -233.34747110724129 -156.6636703540571 0 0 0 0 361.76488833809697 -231.80664279068878 0 -231.80664279068878 -51.250961118428677 0 0 0 0 348.17566779828019 -294.09403325503808 0 -294.09403325503808 35.965929432873963 0 0 0 0 327.05462992874288 4.6579050081836613 0 4.6579050081836613 -329.03169117675861 0 0 0 0 349.90462726629698 -239.07092056295369 0 -239.07092056295369 -61.833779721811879 0 0 0 0 262.2956459212607 -41.09785617479065 0 -41.09785617479065 -357.69594801001949 0 0 0 0 279.87784948155399 240.60909629558591 0 240.60909629558591 -591.58429134653124 0 0 0 0 196.01275791217807 39.989108786467114 0 39.989108786467114 -859.5425141440719 0 0 0 0 277.99967868984209 212.61208154628548 0 212.61208154628548 -749.0167358819599 0 0 0 0 199.90240601842919 29.131089514597988 0 29.131089514597988 -224.37504841227201 0 0 0 0 363.13073069059419 252.61622979641834 0 252.61622979641834 -1419.9721456714469 0 0 0 0 295.22248516320008 224.65383348158502 0 224.65383348158502 -1068.3140911950904 0 0 0 0 107.14391478137932 -46.676587449554063 0 -46.676587449554063 -1192.3441771862636 0 0 0 0 -2.5842192655230285 -4.6573901848902182 0 -4.6573901848902182 -11.910173106832815 0 0 0 0 -1329.1914107891612 -64.977158882629737 0 -64.977158882629737 291.98179201580933 0 0 0 0 290.09336126851554 345.04411295949467 0 345.04411295949467 -1190.728211783804 0 0 0 0 360.64625909728261 270.24310680304188 0 270.24310680304188 -1010.1599291907405 0 0 0 0 144.67418976106535 319.47065459204168 0 319.47065459204168 -41.498617091536289 0 0 0 0 124.34122949177527 83.297054741851753 0 83.297054741851753 -1074.4209282327283 0 0 0 0 453.06310581194634 -52.957342744488415 0 -52.957342744488415 -1790.8323695666186 0 0 0 0 88.717598206243565 157.09418277741497 0 157.09418277741497 316.180527902412 0 0 0 0 185.63288104568164 429.02234333584784 0 429.02234333584784 -2683.4199373892334 0 0 0 0 -759.78453187148716 132.33018662871473 0 132.33018662871473 370.92615526737063 0 0 0 0 901.09503605217469 -365.47999343571428 0 -365.47999343571428 -1246.0072899293882 0 0 0 0 -0.40072239026616074 -3.8663101864817406 0 -3.8663101864817406 -14.989980474300182 0 0 0 0 1.4900779547291449 -69.545405942081743 0 -69.545405942081743 408.1283548950305 0 0 0 0 -17.074604447892852 22.265583921936923 0 22.265583921936923 -5.4155960562638938 0 0 0 0 1004.3778593782281 -957.13411556594656 0 -957.13411556594656 -1137.3250235254091 0 0 0 0 -2.1843641766398258 -10.448655137810434 0 -10.448655137810434 -31.107037224613805 0 0 0 0 36.098155765044794 516.41463159221166 0 516.41463159221166 199.06177362549352 0 0 0 0 -8.6956390925039262 -19.513727978240041 0 -19.513727978240041 -21.889004098785222 0 0 0 0 -2.5545130505058431 -25.460256873493904 0 -25.460256873493904 -55.007414022717001 0 0 0 0 0.058793861166122952 -65.741367269794864 0 -65.741367269794864 15.238207025040538 0 0 0 0 524.93440341583027 -539.94921098202758 0 -539.94921098202758 -134.95430115997078 0 0 0 0 -19.358375091865128 -8.4641736725934607 0 -8.4641736725934607 -119.60818458217545 0 0 0 0 -27.351779071541387 -39.603948733412835 0 -39.603948733412835 -110.06672633555718 0 0 0 0 -24.784753958779675 -33.928922692310152 0 -33.928922692310152 -105.07903243298642 0 0 0 0 -33.116394748006314 -42.136298039818939 0 -42.136298039818939 -104.83854722368415 0 0 0 0 -64.88949484944078 71.903831849471317 0 71.903831849471317 48.269406083287322 0 0 0 0 88.873573088407511 175.42159804322364 0 175.42159804322364 46.078393672782113 0 0 0 0 -7.6698887121726189 5.4746175132063346 0 5.4746175132063346 -70.473152432607833 0 0 0 0 -17.464563143005762 -19.333505226873967 0 -19.333505226873967 -93.513881751212466 0 0 0 0 -21.172558158365064 -23.824957304037525 0 -23.824957304037525 -94.04455358816449 0 0 0 0 -49.38514448031674 -21.87755665644363 0 -21.87755665644363 -67.985818227833079 0 0 0 0 -24.206058877978762 -8.1667549995217996 0 -8.1667549995217996 -64.18443124445912 0 0 0 0 -205.6312094619534 40.135204360056377 0 40.135204360056377 89.512291509785427 0 0 0 0 -208.0020690111096 208.95503575045586 0 208.95503575045586 98.89103325263568 0 0 0 0 -508.88831625930106 943.93666757619212 0 943.93666757619212 598.33683688586461 0 0 0 0 991.97934424232858 408.04629201334683 0 408.04629201334683 -146.75050340463349 0 0 0 0 -609.19697901081599 -375.09880476054968 0 -375.09880476054968 -260.03481171835301 0 0 0 0 2.4241578631446083 -1.5970376788902492 0 -1.5970376788902492 -67.053502542686829 0 0 0 0 -0.93869062753060462 2.0363440676446771 0 2.0363440676446771 -75.723910573386092 0 0 0 0 -0.54081839621855998 -16.244897577660254 0 -16.244897577660254 -54.806062625147547 0 0 0 0 -722.15134039066697 -162.03552608726022 0 -162.03552608726022 -149.57902591767197 0 0 0 0 16.020735672367589 13.968823324108243 0 13.968823324108243 -26.454811047687315 0 0 0 0 -1254.4944751085368 -109.50331515805738 0 -109.50331515805738 552.73550847981824 0 0 0 0 6631.9408512145692 3916.1028731634142 0 3916.1028731634142 2847.4475285820081 0 0 0 0 -1516.4867008189522 -139.70930261717876 0 -139.70930261717876 925.5089252364196 0 0 0 0 -4946.325845066438 -2515.0565219014534 0 -2515.0565219014534 2610.8484241696151 0 0 0 0 -277.41646821748873 -315.14561438317469 0 -315.14561438317469 -8002.2798080838547 0 0 0 0 -5097.4761143489377 -5060.482270666128 0 -5060.482270666128 -3045.3159987994295 0 0 0 0 346.66276828553782 -4184.7103753200172 0 -4184.7103753200172 -1193.430385429092 0 0 0 0 -1458.8015509602246 1944.9132812674652 0 1944.9132812674652 -3792.8894982018537 0 0 0 0 -3.6117403455775179 -13.866135088686377 0 -13.866135088686377 -36.90690537403799 0 0 0 0 -1488.1567208271717 1253.8981966416577 0 1253.8981966416577 -1051.1027660179825 0 0 0 0 3.9928867974887035 -9.1815046309186314 0 -9.1815046309186314 -71.739522920622335 0 0 0 0 316.29033040975992 1211.7218882272791 0 1211.7218882272791 -5264.4260534046625 0 0 0 0 610.13588367609123 -3180.5576167851832 0 -3180.5576167851832 -5527.094801730098 0 0 0 0 -886.7860560072304 1034.4581164231131 0 1034.4581164231131 -1672.5910218164354 0 0 0 0 1690.6456823158933 1647.0489421849852 0 1647.0489421849852 -5178.5115286393702 0 0 0 0 -4566.6033266359209 751.63717604652629 0 751.63717604652629 668.02287282705947 0 0 0 0 -4.8025904457535944 38.395443661560421 0 38.395443661560421 -1789.1658635952481 0 0 0 0 4.7932446877315176 5.307293631491234 0 5.307293631491234 -24.324794983406807 0 0 0 0 4435.1520445945262 134.92302628177276 0 134.92302628177276 -3859.0102152295949 0 0 0 0 -160.04010551314605 -116.57546699679915 0 -116.57546699679915 -1014.5801665999315 0 0 0 0 3.6025733631938586 -20.26912490939803 0 -20.26912490939803 -96.096025063729996 0 0 0 0 -282.33336172471149 -53.22259272129304 0 -53.22259272129304 -1570.3942830686283 0 0 0 0 10.569829202619653 7.3228050104333846 0 7.3228050104333846 -108.57451723049951 0 0 0 0 -212.13883816806288 -157.88277918341919 0 -157.88277918341919 -1539.0172469354293 0 0 0 0 -111.61908638600062 -161.11477470808313 0 -161.11477470808313 -1632.3614909197349 0 0 0 0 -83.949813562880877 -116.49057878982057 0 -116.49057878982057 -1236.5936789707048 0 0 0 0 -45.277352043835208 -89.966618374950485 0 -89.966618374950485 -1574.702751046294 0 0 0 0 -141.66042716525988 -58.047541262465529 0 -58.047541262465529 -1397.6771748582833 0 0 0 0 -130.37229628088403 -320.50002545269672 0 -320.50002545269672 -1339.6874239144672 0 0 0 0 -144.6232025311233 -257.57344628740248 0 -257.57344628740248 -1556.3508162543294 0 0 0 0 -402.51261751066164 -404.76825980292779 0 -404.76825980292779 -1177.2460098865558 0 0 0 0 147.25761581997585 -204.37668580870377 0 -204.37668580870377 -1172.9531340408066 0 0 0 0 -8.3281344780901776 -177.23160019019315 0 -177.23160019019315 -989.44369627727428 0 0 0 0 -3.9491457748774792 -144.69754191290122 0 -144.69754191290122 -1312.6161185545643 0 0 0 0 -36.682842580004944 28.119310243419022 0 28.119310243419022 -1497.1620168125373 0 0 0 0 12.802678098261595 -82.810990911151748 0 -82.810990911151748 -1292.2244456850967 0 0 0 0 3.3686103843360797 -27.09219555092568 0 -27.09219555092568 -1231.9307853778955 0 0 0 0 -15.156274574038747 -7.8413105200515076 0 -7.8413105200515076 -0.70840106499426625 0 0 0 0 98.495710139577909 1.9048424058564706 0 1.9048424058564706 -1413.242087343242 0 0 0 0 649.46103908144869 -1280.2988889103435 0 -1280.2988889103435 -1830.5628048343788 0 0 0 0 367.72536661444792 1083.5862787956466 0 1083.5862787956466 -2902.2039279125747 0 0 0 0 472.32867472960152 217.53093102677667 0 217.53093102677667 -3447.9031342375965 0 0 0 0 307.61867156091034 175.13238632982029 0 175.13238632982029 -2219.2048210088105 0 0 0 0 -203.35598955337719 -101.41667480320029 0 -101.41667480320029 -1732.049211579666 0 0 0 0 -506.78481489697197 353.44829265277804 0 353.44829265277804 -2257.1176989826927 0 0 0 0 194.47649686817851 -407.47711171251285 0 -407.47711171251285 -2240.5958621693717 0 0 0 0 172.18923882066008 -83.800641657620872 0 -83.800641657620872 -2696.7700358333968 0 0 0 0 102.4238490521825 -221.38549300517479 0 -221.38549300517479 -849.52945865223774 0 0 0 0 -4.3607929368613378 -3.7525985773864363 0 -3.7525985773864363 -3.8651709144417694 0 0 0 0 373.14259443153281 12.721210068186338 0 12.721210068186338 -1625.83433267691 0 0 0 0 90.303872408906216 -15.113647006861356 0 -15.113647006861356 -1622.4967927181278 0 0 0 0 272.12452166357207 -111.3973253491713 0 -111.3973253491713 -1577.2687489890886 0 0 0 0 341.55833942959111 -74.442445591412252 0 -74.442445591412252 -1902.0157791197707 0 0 0 0 131.7234137848825 -542.41196264843165 0 -542.41196264843165 -1517.3068209613848 0 0 0 0 352.23291245289437 -132.35349393904289 0 -132.35349393904289 -1609.3538939087011 0 0 0 0 2.3758622753619241 0.17851856084288897 0 0.17851856084288897 -2.6248770384600135 0 0 0 0 177.87158747468317 -358.06302726895228 0 -358.06302726895228 -1858.3653336848365 0 0 0 0 236.66926053385606 -54.743141724175075 0 -54.743141724175075 -1208.1715600106108 0 0 0 0 43.443444189562342 -51.577364208715153 0 -51.577364208715153 -1059.5655142018149 0 0 0 0 265.32547939178539 -292.9746910606118 0 -292.9746910606118 -1300.9172059644188 0 0 0 0 327.40161137701034 -198.21120605533724 0 -198.21120605533724 -1213.2360756866983 0 0 0 0 166.90191498769587 -221.07185411740465 0 -221.07185411740465 -1058.135813588422 0 0 0 0 99.392091949828227 -100.67463839708944 0 -100.67463839708944 -1102.7045102942793 0 0 0 0 62.822565194775052 -71.565085732523585 0 -71.565085732523585 -1121.5997321336763 0 0 0 0 166.20946942172992 -178.37722825298579 0 -178.37722825298579 -1192.1952334894449 0 0 0 0 118.01866315856546 -46.448319490329595 0 -46.448319490329595 -1223.9156941993278 0 0 0 0 42.719988185598822 -44.98530518739426 0 -44.98530518739426 -1185.3907294616511 0 0 0 0 193.09599681157852 -178.4599736297605 0 -178.4599736297605 -1144.7493776401679 0 0 0 0 -35.121168487605246 1.8441744267183822 0 1.8441744267183822 -1140.6386426504323 0 0 0 0 101.44079989262514 -354.16405886299617 0 -354.16405886299617 -1110.697692270769 0 0 0 0 169.24185479443031 -208.62470706801105 0 -208.62470706801105 -1095.625922446372 0 0 0 0 126.56315774568566 -315.27373724810604 0 -315.27373724810604 -1124.0503980788344 0 0 0 0 174.18513654416529 -266.92948733167577 0 -266.92948733167577 -989.61571618520247 0 0 0 0 192.5474922616354 -212.36170211415447 0 -212.36170211415447 -1018.2168986728648 0 0 0 0 235.50632201994381 -250.92835548336006 0 -250.92835548336006 -1073.6251508330461 0 0 0 0 239.41474984507477 -138.98058620508527 0 -138.98058620508527 -1111.1010517955001 0 0 0 0 100.40463584027952 -198.13651825852867 0 -198.13651825852867 -995.84961712242512 0 0 0 0 260.3399420703048 -363.06726371239347 0 -363.06726371239347 -805.86234855276416 0 0 0 0 363.71714327580565 -144.08471143011593 0 -144.08471143011593 -989.51652061541972 0 0 0 0 43.823215907856365 -242.71370586725243 0 -242.71370586725243 -588.09226618841058 0 0 0 0 110.32399586636166 24.054321892006556 0 24.054321892006556 -1168.0350275438686 0 0 0 0 3.3540279311993473 -0.60525574885744504 0 -0.60525574885744504 -1.5951714875354241 0 0 0 0 -5.8122778847814516 39.339118989693816 0 39.339118989693816 -862.7884019267949 0 0 0 0 122.81962614666782 -44.019000725995284 0 -44.019000725995284 -1103.2780394137226 0 0 0 0 214.05864515355336 -232.51823961914306 0 -232.51823961914306 -785.07804485618544 0 0 0 0 31.315158284646259 -6.9585982872958994 0 -6.9585982872958994 -1182.4624702356232 0 0 0 0 -115.57446088727215 197.62796198028809 0 197.62796198028809 -1437.6785575613467 0 0 0 0 10.118573545222004 -1.2998050186249941 0 -1.2998050186249941 -2.7814853900309799 0 0 0 0 82.249340084208825 17.71320092008682 0 17.71320092008682 -1214.3321395302628 0 0 0 0 6.2176814379404277 70.802482645667624 0 70.802482645667624 -1066.9911074794509 0 0 0 0 -3.405453089724233 45.871034358395264 0 45.871034358395264 -931.73030644855316 0 0 0 0 56.446613503289882 -135.36221940431278 0 -135.36221940431278 -810.8267563743284 0 0 0 0 25.904607167698487 -14.928483812516788 0 -14.928483812516788 -805.6140387453961 0 0 0 0 81.370665311834955 -130.32507239337428 0 -130.32507239337428 -949.65986264916137 0 0 0 0 -21.42890807238382 135.95412464311812 0 135.95412464311812 -1084.7443300455925 0 0 0 0 -61.673651136428361 126.89173059165478 0 126.89173059165478 -749.59550681521068 0 0 0 0 5.5091075146665389 -11.105071637808578 0 -11.105071637808578 -1149.335023573658 0 0 0 0 -84.715687078931751 42.480299984876183 0 42.480299984876183 -528.40424958404037 0 0 0 0 22.01615355773265 8.9917562413029373 0 8.9917562413029373 -1573.102729750768 0 0 0 0 -1.0222989343853346 1.9860166092710756 0 1.9860166092710756 -2.0881134915361486 0 0 0 0 -9.1893227081418445 -16.7901916182891 0 -16.7901916182891 -791.51079781720182 0 0 0 0 -39.132904889833526 40.369200320234086 0 40.369200320234086 -768.95178209850565 0 0 0 0 -39.84952477117622 1.2230078379070619 0 1.2230078379070619 -801.69895523175364 0 0 0 0 57.597907682327786 148.43392881134059 0 148.43392881134059 -776.21642197982874 0 0 0 0 -29.963249462997478 1.5574901620923924 0 1.5574901620923924 -1.4188729128847903 0 0 0 0 102.67698783255764 77.501663134549744 0 77.501663134549744 -693.95890348624516 0 0 0 0 99.668796064303478 -23.787628194018907 0 -23.787628194018907 -1024.5031267525046 0 0 0 0 30.692345143022408 -95.114679085741955 0 -95.114679085741955 -855.69226054870524 0 0 0 0 -9.2352382774874968 28.110674550014664 0 28.110674550014664 -860.08935577356533 0 0 0 0 49.500938940530204 -49.357359230561997 0 -49.357359230561997 -759.19551222401788 0 0 0 0 -23.330515062641535 0.67271992757389398 0 0.67271992757389398 -1.0207177943604862 0 0 0 0 -147.05367097095041 28.245530941792822 0 28.245530941792822 -464.3162306738086 0 0 0 0 56.602640900030565 146.26342223089887 0 146.26342223089887 -654.58147545749671 0 0 0 0 46.684961670890516 76.271717078583606 0 76.271717078583606 -636.31417838545167 0 0 0 0 -215.90727596721626 134.75875061434635 0 134.75875061434635 -314.56787140882534 0 0 0 0 -30.002514238107779 -74.044187337785843 0 -74.044187337785843 -359.36823136352723 0 0 0 0 -13.790378828260646 0.20394544065760556 0 0.20394544065760556 -1.2687854745600973 0 0 0 0 0.53638835783226568 -156.52569445787958 0 -156.52569445787958 -586.40631444573228 0 0 0 0 24.874970183795085 -123.2812322774007 0 -123.2812322774007 -614.08292965122382 0 0 0 0 -1.1320364272942527 -2.0347857514811096 0 -2.0347857514811096 2.3395646304830642 0 0 0 0 30.020238102840494 73.560753674406442 0 73.560753674406442 -323.38478535574814 0 0 0 0 -98.194636170716763 93.830159356568402 0 93.830159356568402 -145.73825907625724 0 0 0 0 -13.862071566561951 -80.485153418856498 0 -80.485153418856498 -415.6478563711571 0 0 0 0 -121.66809898961378 -137.3605036360168 0 -137.3605036360168 -235.05064045868676 0 0 0 0 -87.986345225870764 -198.5677287042563 0 -198.5677287042563 -744.61270195429097 0 0 0 0 -226.52973489004376 -254.00220849004108 0 -254.00220849004108 -444.45848706306424 0 0 0 0 -90.465261646786018 -170.82541118642985 0 -170.82541118642985 -664.74973451992264 0 0 0 0 -402.28359081367779 -302.38570185245771 0 -302.38570185245771 -636.05059447162785 0 0 0 0 -171.42588861958586 -194.43294153570423 0 -194.43294153570423 -1019.046053992759 0 0 0 0 -100.71140513212862 -310.60009164567373 0 -310.60009164567373 -980.42312086155289 0 0 0 0 -91.87218541956031 -208.48112694983138 0 -208.48112694983138 -1164.074071347568 0 0 0 0 -178.13776254530634 -350.22516368238166 0 -350.22516368238166 -908.02269249618985 0 0 0 0 -47.988435108853309 -200.21831184335315 0 -200.21831184335315 -872.2713357327666 0 0 0 0 54.72157640520345 -264.03775656482321 0 -264.03775656482321 -989.14598407131393 0 0 0 0 53.502855490412003 -235.35636477704975 0 -235.35636477704975 -762.58862405244145 0 0 0 0 -91.340288927635484 -340.2711334188416 0 -340.2711334188416 -714.29166239105689 0 0 0 0 -0.86057987118799595 58.189782992500113 0 58.189782992500113 -1773.9494958813448 0 0 0 0 0.0032889406675820909 19.076493012085848 0 19.076493012085848 -1710.6556784862478 0 0 0 0 -31.427102524116904 90.725246351226815 0 90.725246351226815 -1681.4419790495231 0 0 0 0 -35.140169142237554 8.0771533835068112 0 8.0771533835068112 -1645.7422514333157 0 0 0 0 -32.438066236006236 37.209235807844379 0 37.209235807844379 -1586.2618074642087 0 0 0 0 2.0463633408921327 -104.29009259723898 0 -104.29009259723898 -1586.4645546273096 0 0 0 0 -36.548976195443608 17.093742425964592 0 17.093742425964592 -1700.5484530321846 0 0 0 0 -0.16424871236642438 1.8469064514574711 0 1.8469064514574711 -1694.4998006967799 0 0 0 0 3.3325792119215043 -73.870122434098448 0 -73.870122434098448 -1825.5442887255922 0 0 0 0 -697.56137705483877 -416.98879756483802 0 -416.98879756483802 -1475.7371153027198 0 0 0 0 -1.2393762093916338 -0.025333885893189745 0 -0.025333885893189745 -3.4579383176668443 0 0 0 0 1.2476504467969194 -633.43663792169059 0 -633.43663792169059 -2048.1703813933127 0 0 0 0 92.164320251897379 -106.46110146878345 0 -106.46110146878345 -1779.6999919744048 0 0 0 0 -1.1073575455421374 0.46679722705306403 0 0.46679722705306403 -2.5433708385723719 0 0 0 0 -10.952227098759217 -46.967060329305241 0 -46.967060329305241 -1418.6730498956531 0 0 0 0 98.424764023029255 -138.27257397855465 0 -138.27257397855465 -1620.352390028318 0 0 0 0 -63.821401700644159 -147.91549066902371 0 -147.91549066902371 -1590.0723936956783 0 0 0 0 -51.194111364570716 -239.36083223446894 0 -239.36083223446894 -1103.8723088045226 0 0 0 0 165.86845479601087 83.950624521530699 0 83.950624521530699 -1324.4270688257675 0 0 0 0 26.368042353762593 -85.687188298074034 0 -85.687188298074034 -1476.5175649250305 0 0 0 0 -8.383969033200259 33.605540412892879 0 33.605540412892879 -1422.7538019408821 0 0 0 0 -32.701756670930038 56.306619343566126 0 56.306619343566126 -1610.190052673177 0 0 0 0 16.198983786532949 22.775493239460047 0 22.775493239460047 -1628.90096228107 0 0 0 0 77.762620859769143 151.87168499097606 0 151.87168499097606 -1591.1653133185609 0 0 0 0 116.60560773368071 -1.2011911677618627 0 -1.2011911677618627 -1672.2560480354878 0 0 0 0 -73.068974234879761 -191.40721669145569 0 -191.40721669145569 -1566.8638388233012 0 0 0 0 29.068565606069228 -37.729277731094044 0 -37.729277731094044 -1648.838150758369 0 0 0 0 76.235218137301217 -146.76379508155514 0 -146.76379508155514 -1954.643504308915 0 0 0 0 92.38901135133213 52.641558711358812 0 52.641558711358812 -1027.3262943567934 0 0 0 0 2.0776007034915143 0.61104653898729566 0 0.61104653898729566 -2.7403660401271424 0 0 0 0 127.90317215064778 -73.823716294471524 0 -73.823716294471524 -1390.0636172188351 0 0 0 0 129.19562358391485 -27.376396796589688 0 -27.376396796589688 -1122.3325228472531 0 0 0 0 129.94764000099701 63.165552819016739 0 63.165552819016739 -1302.263162745337 0 0 0 0 -7.225917402556405 -120.06390263612411 0 -120.06390263612411 -1304.3527981985244 0 0 0 0 51.143115640130844 -101.51004331679724 0 -101.51004331679724 -1344.417971684059 0 0 0 0 198.67095812722138 132.8991914088183 0 132.8991914088183 -1201.8318262530011 0 0 0 0 -44.97948175234049 -37.411726605030708 0 -37.411726605030708 -1382.635361781191 0 0 0 0 -30.917193948013846 -190.44540734458133 0 -190.44540734458133 -1286.29654753863 0 0 0 0 101.76355892595092 -118.33068156783702 0 -118.33068156783702 -1574.0467384599469 0 0 0 0 4.5578048690832569 1.2028639432381851 0 1.2028639432381851 -3.8955485932646496 0 0 0 0 -9.173224375845848 -137.95289889292326 0 -137.95289889292326 -1469.4198564821672 0 0 0 0 -74.342765358387254 -133.61593279802196 0 -133.61593279802196 -1410.1556111998216 0 0 0 0 29.180199556963544 20.846457888823352 0 20.846457888823352 -1492.3950401570037 0 0 0 0 -26.859373577329336 -0.1942786783183692 0 -0.1942786783183692 -1329.9486022090132 0 0 0 0 1.5425184658073476 -0.47433488857495831 0 -0.47433488857495831 -1362.1676049478265 0 0 0 0 38.995092871110955 -63.387885061703855 0 -63.387885061703855 -1263.2323348318605 0 0 0 0 -9.5047684007342923 57.185624411416939 0 57.185624411416939 -1277.7280590082646 0 0 0 0 15.496665519380022 -1.4219031784583649 0 -1.4219031784583649 -2.8411564420353983 0 0 0 0 -6.6065500408744242 32.953248733188957 0 32.953248733188957 -1364.859034846173 0 0 0 0 124.42628464250356 66.481890020746505 0 66.481890020746505 -1282.8349852193205 0 0 0 0 32.92100489715267 19.844139382999856 0 19.844139382999856 -905.81157280567277 0 0 0 0 -68.221133318393186 88.311812736457796 0 88.311812736457796 -851.48686929301766 0 0 0 0 75.415327809121663 235.29115965134406 0 235.29115965134406 -1100.5368005112105 0 0 0 0 -2.0804374046257408 3.2328625493654783 0 3.2328625493654783 -2.6690071873345005 0 0 0 0 19.474447641894812 -3.2813771382789128 0 -3.2813771382789128 -846.6854471967672 0 0 0 0 -15.877430053775242 -125.09239335471648 0 -125.09239335471648 -998.4046610553487 0 0 0 0 25.389228330053811 -47.988773967153975 0 -47.988773967153975 -717.11936014525418 0 0 0 0 -0.87719940686110931 56.921707680696272 0 56.921707680696272 -802.78837169759208 0 0 0 0 3.4946878715136336 51.746940294935484 0 51.746940294935484 -797.66741769560031 0 0 0 0 -599.48078014883095 341.39576530936756 0 341.39576530936756 -1036.2006811591273 0 0 0 0 -34.092516546238244 1.6853265344996657 0 1.6853265344996657 -1.7521151010079805 0 0 0 0 418.43058232748808 -71.190294594351144 0 -71.190294594351144 -2511.6274930793152 0 0 0 0 -76.822092704576789 -82.81370212564434 0 -82.81370212564434 -956.57836957153631 0 0 0 0 7.4624404900137051 56.467555886403716 0 56.467555886403716 -854.35599638050189 0 0 0 0 -124.89236924280522 185.26163640571758 0 185.26163640571758 -571.11369657528121 0 0 0 0 -31.1911207724641 0.85461007639304398 0 0.85461007639304398 -2.0450334239839574 0 0 0 0 -146.84682668552341 22.034780271089403 0 22.034780271089403 -1493.2994716810931 0 0 0 0 -87.087999670761292 74.407608200510367 0 74.407608200510367 -1453.4075793696975 0 0 0 0 90.640754255555578 116.38587492187071 0 116.38587492187071 -1696.4547231567994 0 0 0 0 -72.939681620696319 19.677307228557765 0 19.677307228557765 -1436.9434025049268 0 0 0 0 65.922629724655962 255.3606227588898 0 255.3606227588898 -1208.8330202509533 0 0 0 0 -163.50734015292471 49.912220752514258 0 49.912220752514258 -409.59194202325307 0 0 0 0 -173.34155654129154 -23.045488110481529 0 -23.045488110481529 -445.18968758086339 0 0 0 0 -1.0452335837161932 1.2229121758295491 0 1.2229121758295491 -1.7557284316800974 0 0 0 0 188.6464353916399 41.567408556984446 0 41.567408556984446 -1448.859799603626 0 0 0 0 88.315092715998617 205.08062459064968 0 205.08062459064968 -1156.8913546981785 0 0 0 0 17.060444602520651 -1.2326698997003405 0 -1.2326698997003405 -2.9477701038136175 0 0 0 0 -13.680963262825259 -18.262750543188304 0 -18.262750543188304 -1583.9052768225956 0 0 0 0 138.40614868628722 130.03127446044527 0 130.03127446044527 -1488.2204126106953 0 0 0 0 13.539648073673332 -0.67446451563779419 0 -0.67446451563779419 -3.3204390976629519 0 0 0 0 79.491882077054868 80.301206896023359 0 80.301206896023359 -1738.4289479091094 0 0 0 0 10.451196195020202 322.69751754112804 0 322.69751754112804 -980.59911353531788 0 0 0 0 -84.931984039244526 69.889453779498581 0 69.889453779498581 -930.92007064490463 0 0 0 0 71.670594609410273 196.00943395579088 0 196.00943395579088 -880.17080203993464 0 0 0 0 -20.625896150653261 -2.4702091620786746 0 -2.4702091620786746 -1.9217119612818774 0 0 0 0 -220.79957090493107 53.413699904442183 0 53.413699904442183 -1074.2395558093558 0 0 0 0 -89.81275878737884 246.09654180401412 0 246.09654180401412 -1408.0961441084219 0 0 0 0 230.32442555853504 -7.6994981047173496 0 -7.6994981047173496 -1790.4511902387021 0 0 0 0 216.11992863665137 185.01206559341517 0 185.01206559341517 -1932.7266460044475 0 0 0 0 102.16750886855243 216.0211906786426 0 216.0211906786426 -1148.8469941425719 0 0 0 0 56.316036702112797 39.350752893136814 0 39.350752893136814 -999.46067779324949 0 0 0 0 3.9071771865044411 -145.13594273847411 0 -145.13594273847411 -1403.925085524912 0 0 0 0 43.773647032739319 -36.608922591381997 0 -36.608922591381997 -803.97349818755174 0 0 0 0 -9.007810789251872 -7.3164165886957448 0 -7.3164165886957448 -4.7272207507828661 0 0 0 0 -183.37280096251015 147.35316956169845 0 147.35316956169845 -185.99993806671091 0 0 0 0 11.577703135816819 -26.54015067601722 0 -26.54015067601722 -485.2066393631394 0 0 0 0 -0.89071026118417584 -7.2303590748429087 0 -7.2303590748429087 -18.865446474704186 0 0 0 0 -245.41088239930173 71.102335142291849 0 71.102335142291849 -1568.0302459513186 0 0 0 0 -164.76998210955159 -153.75424784693678 0 -153.75424784693678 -1734.4782706488622 0 0 0 0 -4.4302415901179302 279.5486137275002 0 279.5486137275002 -1481.6499430096301 0 0 0 0 35.335050119514406 -5.1718611704291106 0 -5.1718611704291106 -1836.1875535572181 0 0 0 0 118.76230118984404 131.22786040563369 0 131.22786040563369 -1182.9916275873838 0 0 0 0 -58.542463167464803 181.94062686059624 0 181.94062686059624 -1192.167658715276 0 0 0 0 66.531798032088318 72.532715323555749 0 72.532715323555749 -1258.4302478675963 0 0 0 0 -0.61020063231308086 231.18950831890106 0 231.18950831890106 -1216.9311880017485 0 0 0 0 49.79682883090679 -102.81812274942058 0 -102.81812274942058 -2043.0128788102593 0 0 0 0 -0.14630535738467187 -1.3556574283676355 0 -1.3556574283676355 -5.2542215295921437 0 0 0 0 -83.504283414296424 527.80371134293091 0 527.80371134293091 -2087.1516820062407 0 0 0 0 -79.964559352384072 460.94286523542542 0 460.94286523542542 -1121.8539081698982 0 0 0 0 211.41322941969378 -21.76477321278071 0 -21.76477321278071 -2040.2090544851308 0 0 0 0 -0.86378901123445817 -135.73212222191796 0 -135.73212222191796 -755.26411672780523 0 0 0 0 66.430627857739353 -2.8454461059009191 0 -2.8454461059009191 -37.950628098333254 0 0 0 0 1.1850002311040992 0.035757010700478986 0 0.035757010700478986 -5.4024747554943566 0 0 0 0 42.230606857343872 11.881965036329348 0 11.881965036329348 -9.2927195743550328 0 0 0 0 29.451049173460525 32.836771767033497 0 32.836771767033497 -43.647605566191487 0 0 0 0 62.523861255110859 12.8632469062577 0 12.8632469062577 -79.191864403052023 0 0 0 0 -364.61469754735168 926.62320518011984 0 926.62320518011984 -2149.02485048995 0 0 0 0 0.20242037166189086 -1.1618741375222612 0 -1.1618741375222612 -9.8069684112874143 0 0 0 0 0.366185405631623 -73.545243967339047 0 -73.545243967339047 1.2095189809551812 0 0 0 0 -275.72768263036846 532.7160733268538 0 532.7160733268538 -550.36245535920352 0 0 0 0 10.706115650995343 119.78991845136625 0 119.78991845136625 -1679.9232178818493 0 0 0 0 5.2637107784325385 -0.67923387848327366 0 -0.67923387848327366 -3.5122754367261741 0 0 0 0 -41.644284936227301 113.17240092378051 0 113.17240092378051 -1656.300410132244 0 0 0 0 -2.0462012434756023 -822.04457896586973 0 -822.04457896586973 -2764.5478896356362 0 0 0 0 13.774439107134539 26.190822107550048 0 26.190822107550048 -107.90678322181338 0 0 0 0 -0.070383795858187326 36.570051951581263 0 36.570051951581263 -33.495933444122784 0 0 0 0 4.4675224764393562 25.394943153267377 0 25.394943153267377 -15.705290230238461 0 0 0 0 12.049953934292773 36.733878732426092 0 36.733878732426092 -19.79864229694067 0 0 0 0 36.116888029513149 -0.17575493082404137 0 -0.17575493082404137 -81.292535241052974 0 0 0 0 43.8863127231335 18.744756220017734 0 18.744756220017734 -64.591435075446498 0 0 0 0 6.1175159274768731 -3.0621968100167578 0 -3.0621968100167578 -53.027320150664309 0 0 0 0 -7.3395939276605304 -53.848068517734646 0 -53.848068517734646 -147.4576424918705 0 0 0 0 -0.036831382298247048 31.632557878989374 0 31.632557878989374 -13.042311468714615 0 0 0 0 -0.45086967831377178 -0.029385392792988796 0 -0.029385392792988796 0.042478820855933463 0 0 0 0 -0.08001986289869939 -0.072321112674046617 0 -0.072321112674046617 -4.3595512548841242 0 0 0 0 19.528227998207669 -11.906630448167562 0 -11.906630448167562 -56.3002891385986 0 0 0 0 -0.47214180207172296 1.8013750694226474 0 1.8013750694226474 -25.689114710054127 0 0 0 0 0.0072549812495535174 -2.0783699187983005 0 -2.0783699187983005 -15.568188384786481 0 0 0 0 -0.015040795784359235 -2.0752860924227745 0 -2.0752860924227745 -15.568501640023896 0 0 0 0 30.586204441535301 121.00427884233068 0 121.00427884233068 -717.52131240675226 0 0 0 0 -30.094929830013598 155.33965639963571 0 155.33965639963571 -549.377072691801 0 0 0 0 -1.7107405116460086 62.793112072533404 0 62.793112072533404 -757.18639048724435 0 0 0 0 17.487098881167412 147.35117252083 0 147.35117252083 -890.02282739582006 0 0 0 0 -33.20297966731323 226.56695149670122 0 226.56695149670122 -878.79833426966798 0 0 0 0 -281.24888020376238 307.66688036173582 0 307.66688036173582 -478.0076581153553 0 0 0 0 -221.7949878281629 -24.148312406032346 0 -24.148312406032346 -294.19086674903519 0 0 0 0 -2.5362173822473535 -2.7262534964881979 0 -2.7262534964881979 -10.5109667423377 0 0 0 0 -38.87882770761712 -12.475052138965111 0 -12.475052138965111 -297.86245892501029 0 0 0 0 -101.23020976406957 141.47227156034933 0 141.47227156034933 27.981253396894317 0 0 0 0 7.8589246421433927 5.174915842799237 0 5.174915842799237 -26.502735008194577 0 0 0 0 -0.057641157723992364 49.488747758208774 0 49.488747758208774 110.33224930093274 0 0 0 0 10.595422669286592 -16.134192099867505 0 -16.134192099867505 -67.975528006834793 0 0 0 0 -4.501676941946898 11.066780636319095 0 11.066780636319095 -25.752785961939836 0 0 0 0 6.9670257504166671 -6.8283930828329176 0 -6.8283930828329176 -27.932759470626479 0 0 0 0 4.3624037406230762 14.879488516423066 0 14.879488516423066 -32.76948628234527 0 0 0 0 -3.5009470547967636 4.025520115132025 0 4.025520115132025 -23.281601386178409 0 0 0 0 -13.029601564303221 -6.6467533385730349 0 -6.6467533385730349 -36.478742730803788 0 0 0 0 1.4329523569616227 -1.2724286340486799 0 -1.2724286340486799 -8.2064400369281998 0 0 0 0 5.3478979740905448 -2.5716187688943819 0 -2.5716187688943819 -34.372834052091832 0 0 0 0 14.467328787712177 217.39495176621131 0 217.39495176621131 89.102857278419833 0 0 0 0 72.585149542544968 -49.546972917989478 0 -49.546972917989478 31.44151448973571 0 0 0 0 4.9476153456818048 -7.0864591438239515 0 -7.0864591438239515 -4.6647576199673608 0 0 0 0 151.85679640090166 15.738156974097365 0 15.738156974097365 -54.391143965418451 0 0 0 0 153.63276652894638 52.867255956516601 0 52.867255956516601 -17.617021008336451 0 0 0 0 23.010646142922269 -7.2038199134985916 0 -7.2038199134985916 41.069796749041416 0 0 0 0 57.234137105187983 -17.424520948232384 0 -17.424520948232384 -42.238730905868579 0 0 0 0 10.64425217744747 -57.262497400959546 0 -57.262497400959546 -0.5368104976369068 0 0 0 0 33.236644118511322 -22.694960237888154 0 -22.694960237888154 -100.7748698151554 0 0 0 0 -25.306259308288837 18.292650123563931 0 18.292650123563931 -11.895286884725067 0 0 0 0 -8.1453948808668883 83.677669458527816 0 83.677669458527816 -22.17084147897549 0 0 0 0 2.7747208336213163 3.6150870516596854 0 3.6150870516596854 -8.7105839209774842 0 0 0 0 2.4901195246047836 5.5130321729286038 0 5.5130321729286038 -5.4651659886867776 0 0 0 0 -84.841834625390902 130.33885688430746 0 130.33885688430746 63.357516123738606 0 0 0 0 12.140938377804105 -34.916599189222325 0 -34.916599189222325 -369.42422440987139 0 0 0 0 110.83952187527711 104.6670652142202 0 104.6670652142202 -320.28214979736367 0 0 0 0 19.746098566854926 -29.631773126864573 0 -29.631773126864573 -232.24101965979207 0 0 0 0 19.867162461555381 83.105215321207652 0 83.105215321207652 -498.63045078475261 0 0 0 0 -6.1652573637445611 -2.0660824731514253 0 -2.0660824731514253 7.5144124344420788 0 0 0 0 51.44310227572538 -54.112490967221675 0 -54.112490967221675 -621.20540103228996 0 0 0 0 96.303770994080992 115.50276817992562 0 115.50276817992562 -1075.7271537091183 0 0 0 0 127.37275746670412 29.567872198676923 0 29.567872198676923 -1032.7608933949959 0 0 0 0 99.893808982984865 59.863522877567448 0 59.863522877567448 -914.15081710804952 0 0 0 0 -1.873726260115518 108.95819335775741 0 108.95819335775741 -917.22725009522401 0 0 0 0 27.844362057720446 12.048280509596225 0 12.048280509596225 -658.24975283560343 0 0 0 0 73.191174739336475 114.64241160271195 0 114.64241160271195 -599.51469455496408 0 0 0 0 41.883690412912301 28.736735532031162 0 28.736735532031162 -622.07204205240123 0 0 0 0 -21.995692340576678 17.190715135506309 0 17.190715135506309 -8.4416225873122812 0 0 0 0 -196.80807799557442 45.83754363382468 0 45.83754363382468 -102.65757626469531 0 0 0 0 -30.231910304443772 0.32718847710930277 0 0.32718847710930277 -659.73400564026088 0 0 0 0 -195.67240473806692 30.547686293677543 0 30.547686293677543 -661.74722273126827 0 0 0 0 21.044138231384068 -162.44728676426166 0 -162.44728676426166 -1053.1879441571509 0 0 0 0 -2.6256024275010788 -3.0188200346299539 0 -3.0188200346299539 -4.6994646291626623 0 0 0 0 85.09486530762706 -68.49824906566937 0 -68.49824906566937 -26.772770174138714 0 0 0 0 -20.111526373706397 -467.43369789735698 0 -467.43369789735698 -23.204676750145154 0 0 0 0 159.25545074709589 26.808812520786887 0 26.808812520786887 -344.7972830243134 0 0 0 0 46.341017130482214 513.33213115483522 0 513.33213115483522 -336.12034682254307 0 0 0 0 94.999714603978646 -98.868257282563718 0 -98.868257282563718 -139.07082491260371 0 0 0 0 -2.2302925765146213 2.5355665867662083 0 2.5355665867662083 -1.6974883778131584 0 0 0 0 104.34046546433365 -98.029171499088989 0 -98.029171499088989 9.1612333986486192 0 0 0 0 135.7512765551096 -38.622711881303985 0 -38.622711881303985 -9.5928829904296435 0 0 0 0 -1.036883109950792 9.1063257555615422 0 9.1063257555615422 -33.077963188602553 0 0 0 0 3.7500075537568591 37.54868239649295 0 37.54868239649295 -50.791099706693785 0 0 0 0 -6.9586142332541385 21.729381660901709 0 21.729381660901709 -35.930080554215237 0 0 0 0 9.3212430693856732 7.6235117574833566 0 7.6235117574833566 -25.699077614335692 0 0 0 0 77.875054081298003 -6.8862991901405621 0 -6.8862991901405621 -35.96123026413261 0 0 0 0 28.24366562432715 25.766115314952913 0 25.766115314952913 -54.238414032675792 0 0 0 0 42.853335977122697 -14.885806336627866 0 -14.885806336627866 -15.587533804646228 0 0 0 0 42.569532284497654 -16.99944275971211 0 -16.99944275971211 27.822302286105696 0 0 0 0 -2.4661523563494647 -9.7827380635958434 0 -9.7827380635958434 -15.236024277924628 0 0 0 0 -214.93434945906642 -119.71171803640937 0 -119.71171803640937 -37.153658625567914 0 0 0 0 -0.2224785055764702 -0.86424200467054391 0 -0.86424200467054391 -5.1960999400935748 0 0 0 0 -1.1197585510253703 -36.355078681110172 0 -36.355078681110172 -225.79371075193012 0 0 0 0 -0.79005565528859734 -21.968123988306616 0 -21.968123988306616 -92.843213376734639 0 0 0 0 -41.173237085478831 88.270378073240863 0 88.270378073240863 -189.53525170193461 0 0 0 0 -97.100769441130069 251.96368277248985 0 251.96368277248985 -191.8758912718622 0 0 0 0 90.654829558319761 160.46535766508896 0 160.46535766508896 -278.90737613983219 0 0 0 0 -11.101235457512757 56.222496145317564 0 56.222496145317564 -17.962539159489097 0 0 0 0 341.79994393663947 -134.79360488825478 0 -134.79360488825478 -55.10822773622931 0 0 0 0 -13.750405506551528 12.329283684548301 0 12.329283684548301 -5.2399715702275813 0 0 0 0 -2.7787865134960335 1.3577148156734893 0 1.3577148156734893 0.55103775931031862 0 0 0 0 -113.89824538919856 104.10417681149556 0 104.10417681149556 319.04369348157343 0 0 0 0 -31.655235328244999 45.552608762758609 0 45.552608762758609 -1476.7778252127173 0 0 0 0 170.70713104651441 153.18219427322038 0 153.18219427322038 19.00461199801066 0 0 0 0 54.3684814477283 -7.25347486861574 0 -7.25347486861574 -1460.6849116897283 0 0 0 0 783.50637588765676 -428.99174903891981 0 -428.99174903891981 230.51323034460074 0 0 0 0 -186.0552965491197 89.888109547136992 0 89.888109547136992 316.57003549473302 0 0 0 0 -472.43424946704181 225.85217726230621 0 225.85217726230621 -78.31213020728319 0 0 0 0 -1.4142993045407408 0.23401586595201707 0 0.23401586595201707 0.19843000515778897 0 0 0 0 124.24385284511436 -18.765215711935525 0 -18.765215711935525 -24.381256818916881 0 0 0 0 -86.199491284871328 138.77182986774278 0 138.77182986774278 -166.31878673523897 0 0 0 0 11.398032421064727 22.050220506458572 0 22.050220506458572 -28.732895331660984 0 0 0 0 31.253743352723177 148.45358383632265 0 148.45358383632265 -140.89318426998216 0 0 0 0 -44.655169947054674 137.35938771622023 0 137.35938771622023 -32.319898987268971 0 0 0 0 -136.88046567120728 -66.317243744633743 0 -66.317243744633743 -202.21857282481506 0 0 0 0 -4.1496086544395823 4.6375415741090364 0 4.6375415741090364 -3.2794252434741651 0 0 0 0 -228.52642336906229 239.58222602021124 0 239.58222602021124 -82.373133054265054 0 0 0 0 -822.61062020818645 620.18876124080271 0 620.18876124080271 107.8859354313463 0 0 0 0 -14.562178692049656 419.84792726357773 0 419.84792726357773 -266.61772573049529 0 0 0 0 -102.054892946986 418.03827775153331 0 418.03827775153331 164.59162488934817 0 0 0 0 -41.094254268155396 115.67629694811512 0 115.67629694811512 -421.07389002043055 0 0 0 0 6.9640761416592056 80.34128046176221 0 80.34128046176221 -204.17744039725221 0 0 0 0 6.0985786969029121 18.658181552178576 0 18.658181552178576 -330.45026686813799 0 0 0 0 -85.128821297827926 139.30544731515693 0 139.30544731515693 -178.54016906453762 0 0 0 0 9.1682705138537131 25.140734181157313 0 25.140734181157313 -73.720729411390494 0 0 0 0 87.95834936018548 -128.82638905448675 0 -128.82638905448675 -91.991289197321748 0 0 0 0 15.801634527746501 177.74308185589325 0 177.74308185589325 105.26534105741302 0 0 0 0 -33.933818957877293 99.688559459955286 0 99.688559459955286 48.782773499580799 0 0 0 0 3.9059311712003364 41.633414705953328 0 41.633414705953328 -175.81280162940675 0 0 0 0 -12.798673757291454 31.20592029808904 0 31.20592029808904 69.865410716476617 0 0 0 0 4.9575524329454908 5.7470328794348688 0 5.7470328794348688 -8.2518723405767673 0 0 0 0 -3.476137972568722 30.658091420671553 0 30.658091420671553 55.166529492575137 0 0 0 0 -40.747109384132273 -9.6242555294411432 0 -9.6242555294411432 306.28074351794203 0 0 0 0 2.584050876297372 0.31990990405117259 0 0.31990990405117259 -0.39269156002896466 0 0 0 0 -16.603143515011652 17.171872857434209 0 17.171872857434209 -17.323272506691865 0 0 0 0 -16.415619459537197 -17.872234776390542 0 -17.872234776390542 -140.12114343239227 0 0 0 0 -32.60474911270876 78.550700658801361 0 78.550700658801361 -81.460712141051772 0 0 0 0 0.95170738116030407 -6.2017323828040389 0 -6.2017323828040389 -41.620323861803627 0 0 0 0 4.650952666189152 -1.626515266419915 0 -1.626515266419915 -4.2933676131312382 0 0 0 0 31.278498937254881 58.132114085565263 0 58.132114085565263 -29.901172197540291 0 0 0 0 66.864355021671145 69.533500897377962 0 69.533500897377962 -182.93179844167025 0 0 0 0 11.948989066632294 -40.403235047841008 0 -40.403235047841008 -515.19253171532182 0 0 0 0 123.88581035159268 0.48251873976550996 0 0.48251873976550996 -92.773547302611405 0 0 0 0 7.366165356935733 -18.95594558099566 0 -18.95594558099566 -56.763217286739462 0 0 0 0 25.426362791335464 -173.45660768572361 0 -173.45660768572361 -106.75763494483544 0 0 0 0 -148.42729193453988 -178.31907268617942 0 -178.31907268617942 512.95084526479332 0 0 0 0 238.72947226097767 -158.08075635823843 0 -158.08075635823843 -13.994324259081623 0 0 0 0 65.704587987035666 45.298771484965982 0 45.298771484965982 -146.58581039815908 0 0 0 0 119.88545140441511 -88.399131219957781 0 -88.399131219957781 -20.373901650251355 0 0 0 0 41.196512757883738 -111.64464979298646 0 -111.64464979298646 -24.732488174311584 0 0 0 0 6.576135232945413 -9.1001508078432778 0 -9.1001508078432778 -50.841152474132514 0 0 0 0 42.056749091391339 -95.897828814901004 0 -95.897828814901004 57.377800309011946 0 0 0 0 -75.372682420935234 -36.167811913866899 0 -36.167811913866899 34.206434573192382 0 0 0 0 -178.73521827532477 -33.004298158964957 0 -33.004298158964957 124.18840031858417 0 0 0 0 -240.95919817163428 120.56462409784581 0 120.56462409784581 -68.604210873309057 0 0 0 0 -75.606653937612464 56.686383777137962 0 56.686383777137962 -127.70969993005929 0 0 0 0 -71.906253564414556 11.188596379790397 0 11.188596379790397 44.94834238034673 0 0 0 0 -31.682308605220442 69.573063855641522 0 69.573063855641522 -6.6166506267618388 0 0 0 0 2.0724615686877392 -2.0715553459776288 0 -2.0715553459776288 -0.20793295315633031 0 0 0 0 -10.042980459521004 -20.128650281752925 0 -20.128650281752925 59.26160647359211 0 0 0 0 -68.152155106174746 9.3494015795895393 0 9.3494015795895393 -6.8736878933268599 0 0 0 0 -37.778547479250392 -56.913601948239375 0 -56.913601948239375 30.999996273410943 0 0 0 0 12.246944126383312 -8.4298324505875257 0 -8.4298324505875257 -0.62398205783750882 0 0 0 0 -28.644806393283545 -19.032000110817535 0 -19.032000110817535 7.4950189194642007 0 0 0 0 27.1781739397411 3.842432489283965 0 3.842432489283965 -8.8701269753655652 0 0 0 0 21.141690047463953 -37.728411766634963 0 -37.728411766634963 3.219413474376779 0 0 0 0 40.517168492891415 -63.356469209560601 0 -63.356469209560601 -6.0585623570295866 0 0 0 0 11.269147301473703 -5.0365980938863686 0 -5.0365980938863686 -39.387707958199996 0 0 0 0 -87.042356938248986 230.02343613632365 0 230.02343613632365 60.047452756960411 0 0 0 0 27.461314141822186 -28.535310209925228 0 -28.535310209925228 -14.563276558066718 0 0 0 0 13.743801393032118 -17.568026471327698 0 -17.568026471327698 0.066382591335866437 0 0 0 0 42.700916340072581 -7.9657658033356711 0 -7.9657658033356711 -21.69553790660575 0 0 0 0 29.699350412682179 3.5536152580025373 0 3.5536152580025373 -31.159286883957975 0 0 0 0 13.661894791981467 11.862484941506409 0 11.862484941506409 -23.719036236296233 0 0 0 0 26.274895830729292 2.4544973504016525 0 2.4544973504016525 -18.779456465155818 0 0 0 0 5.8876286239903948 14.537686767689593 0 14.537686767689593 6.3215784036001423 0 0 0 0 13.40855401670342 9.153692993990262 0 9.153692993990262 -18.866501967523618 0 0 0 0 13.632183908882439 9.2278293534727709 0 9.2278293534727709 -22.026402992516523 0 0 0 0 6.6908775543230954 5.403072618033093 0 5.403072618033093 -1.3758090717741425 0 0 0 0 23.508184975251424 1.5838801977952244 0 1.5838801977952244 -7.1496290027134819 0 0 0 0 25.754540746002021 1.1014002736046677 0 1.1014002736046677 -10.945514874802029 0 0 0 0 21.825940381398141 -1.1547851968280156 0 -1.1547851968280156 -9.1547238374478184 0 0 0 0 39.471206306990098 3.6476591110986192 0 3.6476591110986192 -7.2063427736284211 0 0 0 0 13.812582560597312 5.6735606060098007 0 5.6735606060098007 2.356271907573813 0 0 0 0 -1.508276388500235 -9.8789206695073517 0 -9.8789206695073517 6.444349065379356 0 0 0 0 4.0845718095290753 0.31152169858684431 0 0.31152169858684431 -0.17138750594864405 0 0 0 0 34.346559306692143 39.026964009797666 0 39.026964009797666 5.1324416069255676 0 0 0 0 27.593800272658278 55.22819455072522 0 55.22819455072522 -131.82515445584431 0 0 0 0 31.398193657444608 -42.86138569736795 0 -42.86138569736795 -160.58549038681667 0 0 0 0 -19.746016396783943 -19.374239706754452 0 -19.374239706754452 -14.134789693984203 0 0 0 0 -6.7877416488604467 -24.575912724103546 0 -24.575912724103546 -118.48175029356207 0 0 0 0 -28.31170020169202 20.849881066329544 0 20.849881066329544 -36.918064997968031 0 0 0 0 -24.183879051539179 -7.6078617710300023 0 -7.6078617710300023 0.15622218434873503 0 0 0 0 4.3777133729381603 11.311266157839782 0 11.311266157839782 11.900892077217577 0 0 0 0 21.560903848086127 33.120972349694057 0 33.120972349694057 10.25263763962721 0 0 0 0 -11.578264398667059 24.651212012588076 0 24.651212012588076 20.461764357925858 0 0 0 0 46.841156867519544 -10.275383553962456 0 -10.275383553962456 -29.655032615330128 0 0 0 0 -19.121684684469301 -39.384509033610811 0 -39.384509033610811 -109.19016815093346 0 0 0 0 -47.782544175551152 10.232907506571792 0 10.232907506571792 -32.421806728700176 0 0 0 0 13.119421684069643 -5.5753151271346724 0 -5.5753151271346724 -15.197898938393337 0 0 0 0 -0.061836061897707933 1.5665856798280942 0 1.5665856798280942 -10.235597395775926 0 0 0 0 103.40655418911155 85.811607688679942 0 85.811607688679942 -51.732142726104939 0 0 0 0 -0.057283110163111141 1.9474196419105283 0 1.9474196419105283 -9.816890990070533 0 0 0 0 3.2197427185722582 2.298184339349973 0 2.298184339349973 -10.235728957151878 0 0 0 0 5.3241960877169507 3.8034121654272894 0 3.8034121654272894 -17.481177710942575 0 0 0 0 0.057934937958428301 19.836967194717207 0 19.836967194717207 13.591414332855493 0 0 0 0 5.1700062084114631 4.1434949706526822 0 4.1434949706526822 -14.740541473904159 0 0 0 0 3.2536473359429858 1.779597159144032 0 1.779597159144032 -13.92361111738137 0 0 0 0 0.28965676907046412 2.9921287348729493 0 2.9921287348729493 -13.87137396391563 0 0 0 0 8.7435918684068383 7.8406937294967065 0 7.8406937294967065 -18.452745068236254 0 0 0 0 14.720146114400777 28.721074169057829 0 28.721074169057829 -7.7135002765571699 0 0 0 0 -2.036575573118085 7.7567869398110076 0 7.7567869398110076 -21.236354930762616 0 0 0 0 4.5377337686828572 19.538323325534293 0 19.538323325534293 14.667529722937616 0 0 0 0 -4.6682479157837875 32.397504080741783 0 32.397504080741783 5.5131502390722744 0 0 0 0 -0.58146559569005207 1.8042507601502962 0 1.8042507601502962 -3.914790770875527 0 0 0 0 17.9817674682639 15.969509394402849 0 15.969509394402849 -10.896665294130798 0 0 0 0 -49.49509693768232 -15.388802286763166 0 -15.388802286763166 -232.7333303141495 0 0 0 0 -22.279752086718872 38.279081430671795 0 38.279081430671795 -659.23402666457696 0 0 0 0 -481.05897000380719 213.60865854744043 0 213.60865854744043 -90.732681379762653 0 0 0 0 41.211817853325101 -88.129120003577555 0 -88.129120003577555 -496.61001574389184 0 0 0 0 -165.3953841143109 482.95908537174546 0 482.95908537174546 -470.63787154263991 0 0 0 0 -411.84753409676591 499.98552474004828 0 499.98552474004828 -527.94815484138417 0 0 0 0 33.962623471206825 212.01775076412014 0 212.01775076412014 -517.55793247086694 0 0 0 0 32.421771668603924 97.144530869933078 0 97.144530869933078 -100.28344040340744 0 0 0 0 30.280089944895018 25.044678037199162 0 25.044678037199162 -14.137545719426583 0 0 0 0 38.244884721604649 192.15139316764544 0 192.15139316764544 -431.23677189673617 0 0 0 0 -10.110895746382994 35.950156588347454 0 35.950156588347454 -79.296287084900541 0 0 0 0 -8.9174768250044281 78.961363530102062 0 78.961363530102062 -187.97084346381598 0 0 0 0 21.932949175344614 8.0938927167719612 0 8.0938927167719612 4.0034895376988118 0 0 0 0 -12.691474269338869 41.003442550689215 0 41.003442550689215 -231.21387587301433 0 0 0 0 32.139511754957311 -123.50850574095966 0 -123.50850574095966 -346.84890273950441 0 0 0 0 -157.31579515430985 -71.355702405075135 0 -71.355702405075135 -330.09487236020504 0 0 0 0 91.252194342074972 28.392892720468808 0 28.392892720468808 -548.49653220118489 0 0 0 0 38.102896504180478 124.75042318120541 0 124.75042318120541 -482.49524071035557 0 0 0 0 90.18335882120212 28.094203335152088 0 28.094203335152088 -446.14886290655704 0 0 0 0 44.18233478341142 25.785824118400342 0 25.785824118400342 -435.65784851330682 0 0 0 0 -3.7257985019743955 114.31360160109352 0 114.31360160109352 -443.28198785346467 0 0 0 0 -3.8938423091769891 115.1582822319906 0 115.1582822319906 -330.10796726851549 0 0 0 0 11.575864315143782 3.2659208817860019 0 3.2659208817860019 -1.4140918223770598 0 0 0 0 -58.762747635210417 111.148389871174 0 111.148389871174 -65.937505313297152 0 0 0 0 -67.876308627284743 149.71269908680551 0 149.71269908680551 -462.81518959189998 0 0 0 0 43.632370376935313 33.803197914593511 0 33.803197914593511 -551.30719632696128 0 0 0 0 -1893.6148549271384 -629.43677368399221 0 -629.43677368399221 -1110.6519893730292 0 0 0 0 -22.550558886686304 239.84549438456816 0 239.84549438456816 -986.14515849776217 0 0 0 0 -177.90247365939467 -82.73004779042094 0 -82.73004779042094 -744.24811220962147 0 0 0 0 -412.32108076453278 151.52983877138468 0 151.52983877138468 -499.6146759432886 0 0 0 0 1303.4211218776809 459.05900565200136 0 459.05900565200136 -1585.4923257224 0 0 0 0 -162.97937011695649 285.06139640152833 0 285.06139640152833 -738.86064784994232 0 0 0 0 62.616520584610043 240.76048239301599 0 240.76048239301599 -793.69956010334135 0 0 0 0 -5.8471729454417982 -449.85863404677366 0 -449.85863404677366 -1216.6187702872194 0 0 0 0 -5.5657370506767734 6.3721508995135139 0 6.3721508995135139 -8.3521897143010619 0 0 0 0 -512.71765009631406 364.7458976954149 0 364.7458976954149 59.865838591547799 0 0 0 0 -410.9922905139083 741.92271954521129 0 741.92271954521129 -118.58003188225848 0 0 0 0 -0.6917961498479599 552.9758022076212 0 552.9758022076212 -107.25702492365963 0 0 0 0 4.0093225680794191 0.45372327102509757 0 0.45372327102509757 -2.396475109971874 0 0 0 0 93.462326836551256 214.36704172656755 0 214.36704172656755 -604.0366818861803 0 0 0 0 105.18932207030048 302.75960528713767 0 302.75960528713767 -955.2971390120656 0 0 0 0 106.72061505637384 197.51247612979932 0 197.51247612979932 -754.15749576227972 0 0 0 0 26.731722097111742 194.78592773912533 0 194.78592773912533 -700.09117608171073 0 0 0 0 39.580220291614296 -157.98203994597861 0 -157.98203994597861 -422.95060408725112 0 0 0 0 107.87660008078092 79.2644911686657 0 79.2644911686657 -780.03011593339033 0 0 0 0 -6.612311462548405 8.0053038440382807 0 8.0053038440382807 -284.27141544224287 0 0 0 0 91.824953164969315 37.691842302909208 0 37.691842302909208 -515.90541385099641 0 0 0 0 33.910843933136675 100.68486033179943 0 100.68486033179943 -420.90113316281349 0 0 0 0 81.656856557104902 100.07686881340851 0 100.07686881340851 -141.85736183372501 0 0 0 0 -79.333953221981119 16.797034868977789 0 16.797034868977789 -124.27074010841898 0 0 0 0 -12.31894889700558 16.790139428999467 0 16.790139428999467 -23.257620458627457 0 0 0 0 -37.573322853006175 42.21634333469774 0 42.21634333469774 28.966548352022073 0 0 0 0 254.8057658425912 145.22847338366046 0 145.22847338366046 -143.90014237450669 0 0 0 0 47.129956510886586 -20.949174346438667 0 -20.949174346438667 -59.592568715641391 0 0 0 0 -140.31066953771915 132.77154757781682 0 132.77154757781682 152.19664703026865 0 0 0 0 -175.1127327354211 364.95495009494334 0 364.95495009494334 -232.24690364315029 0 0 0 0 37.864689839668699 6.6348306533545838 0 6.6348306533545838 -137.89633275938104 0 0 0 0 -40.290179370974784 -69.637561616080347 0 -69.637561616080347 -66.824997600022471 0 0 0 0 26.437812506020236 -35.854043459738023 0 -35.854043459738023 -56.269891636991815 0 0 0 0 31.297104787973808 -19.628542628230207 0 -19.628542628230207 -33.60423774184892 0 0 0 0 119.05361752660883 48.125067240119279 0 48.125067240119279 -76.289426775430911 0 0 0 0 -12.090887889058381 24.428346691144952 0 24.428346691144952 -36.06259363358663 0 0 0 0 14.726947583622859 90.993117759338929 0 90.993117759338929 22.770229127994753 0 0 0 0 106.62323586330422 -9.7808252298855223 0 -9.7808252298855223 -81.194234479786246 0 0 0 0 42.485707405425273 -28.502390552515863 0 -28.502390552515863 -81.443231455309046 0 0 0 0 69.860293936029848 37.016245692140728 0 37.016245692140728 -67.598138023124193 0 0 0 0 -9.7554348882058548 -126.03206321649486 0 -126.03206321649486 -34.037684729590183 0 0 0 0 33.044058432877065 -12.331430157670979 0 -12.331430157670979 -26.821443360094264 0 0 0 0 89.314852223418711 139.82470043093781 0 139.82470043093781 -62.074944498803234 0 0 0 0 -168.76921228365973 -128.96286086925829 0 -128.96286086925829 -33.556464859397238 0 0 0 0 -194.73344233257285 162.82955373021832 0 162.82955373021832 -61.02555454162939 0 0 0 0 81.453606901036267 50.242969087135862 0 50.242969087135862 -335.9390465633187 0 0 0 0 90.193071800213602 15.340081931783061 0 15.340081931783061 -197.98387805841048 0 0 0 0 34.362078684588937 64.049015211403457 0 64.049015211403457 -171.28342477147817 0 0 0 0 2.5774228060522546 33.989127686691063 0 33.989127686691063 -37.655559339356842 0 0 0 0 -78.431974227353749 155.82560579940036 0 155.82560579940036 -172.14082158000383 0 0 0 0 0.93518016038269858 2.7370676150989866 0 2.7370676150989866 -3.7231666028653763 0 0 0 0 -153.51074623787235 -114.0088143982357 0 -114.0088143982357 -38.378172096621711 0 0 0 0 44.54134901902097 -20.579712372502399 0 -20.579712372502399 -18.610280484426767 0 0 0 0 31.684636482988857 -16.754243610275353 0 -16.754243610275353 -22.47869367079673 0 0 0 0 6.3095707421884981 -17.501785982458387 0 -17.501785982458387 -22.50118904250121 0 0 0 0 69.071836592055661 -3.3432939352860558 0 -3.3432939352860558 -178.2502237627923 0 0 0 0 33.61373624283064 -16.325156379332043 0 -16.325156379332043 -23.91078204293342 0 0 0 0 35.283827092246611 5.8415973087612656 0 5.8415973087612656 -150.13332064107817 0 0 0 0 30.294115454104485 29.579561326136172 0 29.579561326136172 -102.33086562599055 0 0 0 0 38.443219417017644 -10.844623067961948 0 -10.844623067961948 -134.14188805366575 0 0 0 0 41.210048069049833 69.213550545905946 0 69.213550545905946 -240.25190041906899 0 0 0 0 26.662794442221738 -10.443170427101194 0 -10.443170427101194 -39.547236129399437 0 0 0 0 1.2296637031137885 -1.0242081977769928 0 -1.0242081977769928 -30.971984341148811 0 0 0 0 -21.617936193226342 10.011210503456823 0 10.011210503456823 -65.879581251596392 0 0 0 0 24.582580140775008 6.2573195961595047 0 6.2573195961595047 -36.789778437028872 0 0 0 0 -45.64245976090524 32.726033998660569 0 32.726033998660569 -30.749708311544964 0 0 0 0 -60.149715652309169 87.151106944198546 0 87.151106944198546 -230.74083003928536 0 0 0 0 -5.6542324657965217 17.237191578740749 0 17.237191578740749 -45.439049345168939 0 0 0 0 -52.595148563854309 21.96253805347078 0 21.96253805347078 -45.302514080656692 0 0 0 0 12.249925513662902 2.1170286912165466 0 2.1170286912165466 -22.024549080277211 0 0 0 0 46.175028603185183 4.5890284467313904 0 4.5890284467313904 -28.823665616218932 0 0 0 0 -145.4958844229493 105.72289111562895 0 105.72289111562895 -119.13455722838989 0 0 0 0 1.591849239857301 2.3458587899123984 0 2.3458587899123984 -21.107174812848712 0 0 0 0 -53.281517786017503 97.42082596666296 0 97.42082596666296 -179.83538345159468 0 0 0 0 -219.5768508173378 244.40573568092441 0 244.40573568092441 -276.52838062714727 0 0 0 0 1.2141351979405717 3.1903314547914476 0 3.1903314547914476 -8.5185709690811677 0 0 0 0 -26.808189753006971 21.89319761650313 0 21.89319761650313 -3.7867400390678085 0 0 0 0 -83.577214664273356 -130.13600136692548 0 -130.13600136692548 -116.81328919008956 0 0 0 0 -33.144395736483148 264.22922447451856 0 264.22922447451856 -357.34520268364577 0 0 0 0 42.446658427223156 154.05905204444571 0 154.05905204444571 -403.33363918188843 0 0 0 0 -6.6488306307747091 40.212531667093387 0 40.212531667093387 -82.781475725535927 0 0 0 0 -83.167285675935091 168.2169974269691 0 168.2169974269691 -231.47276978037553 0 0 0 0 47.465775383085202 76.162750609219074 0 76.162750609219074 -175.02641581482749 0 0 0 0 -16.115235837238142 34.786281728027845 0 34.786281728027845 -81.475313190639497 0 0 0 0 66.827567608051709 132.57402857487978 0 132.57402857487978 -189.83936169737717 0 0 0 0 36.066375365165186 72.0484863869533 0 72.0484863869533 -306.40121010625444 0 0 0 0 -11.621188610185811 9.6662937250257528 0 9.6662937250257528 -60.631292158912402 0 0 0 0 -60.416635791045792 45.624617978786773 0 45.624617978786773 -30.005789582908619 0 0 0 0 -4.5595937483253692 51.557171396012563 0 51.557171396012563 -45.188961619889596 0 0 0 0 -10.401561267565404 31.850452764762643 0 31.850452764762643 -78.068574370356032 0 0 0 0 48.676950007666392 18.687152949027222 0 18.687152949027222 -105.0995377615036 0 0 0 0 18.885641472369571 -12.614279084526061 0 -12.614279084526061 -82.296638430445455 0 0 0 0 -6.9391238465559582 4.9234248393695452 0 4.9234248393695452 -85.604659477758105 0 0 0 0 -32.953226649275166 35.31846694246633 0 35.31846694246633 76.210294557386078 0 0 0 0 -38.323155512489393 5.2762556177913211 0 5.2762556177913211 -80.685305861505185 0 0 0 0 -15.601990184650276 -9.1697753754851874 0 -9.1697753754851874 -92.299686229729559 0 0 0 0 22.499495528136322 87.341038237740577 0 87.341038237740577 -58.631962746090721 0 0 0 0 46.907393688758475 6.4889524412938044 0 6.4889524412938044 -167.65226213348797 0 0 0 0 13.612225228458193 46.727861073532125 0 46.727861073532125 -95.151576666175615 0 0 0 0 -30.720852511367411 -39.134346525483124 0 -39.134346525483124 272.33343234677886 0 0 0 0 12.903642733744888 -7.0520572282875946 0 -7.0520572282875946 -48.975282038395392 0 0 0 0 55.625361128713848 -123.06499657929544 0 -123.06499657929544 -107.67014355107676 0 0 0 0 102.15340389936023 126.58878464568261 0 126.58878464568261 -151.81358572651516 0 0 0 0 -188.76899380927716 -17.423723255102232 0 -17.423723255102232 -167.64743201278907 0 0 0 0 98.665222973875643 8.0613942429772578 0 8.0613942429772578 -507.26038763200631 0 0 0 0 18.892558077790454 -19.908433689073718 0 -19.908433689073718 -262.22799977728573 0 0 0 0 -18.920020588851912 25.753811230548308 0 25.753811230548308 -219.8773876395644 0 0 0 0 -16.206392966570093 23.52702217553815 0 23.52702217553815 -98.26176961469173 0 0 0 0 -20.645014978626932 96.184053690511064 0 96.184053690511064 -136.51794407043781 0 0 0 0 -83.674134322958707 24.878066361790843 0 24.878066361790843 -105.36977939664939 0 0 0 0 18.5881549756417 33.01975153468323 0 33.01975153468323 -30.84670378387812 0 0 0 0 18.413491422281908 43.165448410094371 0 43.165448410094371 -80.708907902872468 0 0 0 0 -40.837549699181437 394.74532383538735 0 394.74532383538735 39.175885093805846 0 0 0 0 -133.55657435407011 -145.95313685177098 0 -145.95313685177098 -644.42584137142694 0 0 0 0 -532.20743560940173 484.46794181119185 0 484.46794181119185 -428.2488764950831 0 0 0 0 94.104778848068236 25.060026429098798 0 25.060026429098798 -103.0888459166672 0 0 0 0 -22.668052176870333 32.428114709826332 0 32.428114709826332 -195.86053392940084 0 0 0 0 144.32646001856529 391.65117256713302 0 391.65117256713302 -540.66601655499835 0 0 0 0 29.100646802611905 47.849785888358255 0 47.849785888358255 -151.50116317159922 0 0 0 0 -87.57979360787067 86.102534587713308 0 86.102534587713308 -142.49781359112603 0 0 0 0 7.0031794228134459 -37.2163313987121 0 -37.2163313987121 -64.003439866886765 0 0 0 0 102.41498576756919 -33.313782780375419 0 -33.313782780375419 -145.05606906647998 0 0 0 0 249.3427340685339 155.75968076227582 0 155.75968076227582 -469.64116558068054 0 0 0 0 -46.898603376321262 -302.6555444931073 0 -302.6555444931073 -244.47822502012423 0 0 0 0 89.925788301617203 -31.540917360963888 0 -31.540917360963888 -106.20974931363573 0 0 0 0 250.59087814204895 170.65460775586507 0 170.65460775586507 -882.49084404649329 0 0 0 0 17.794129551886176 -23.041035722879627 0 -23.041035722879627 3.6599025067910702 0 0 0 0 -491.57718186896273 535.82675768077934 0 535.82675768077934 -607.38736303464975 0 0 0 0 1.8100585972169938 -72.346889593616652 0 -72.346889593616652 -33.384906135528581 0 0 0 0 264.96104461950927 -19.705796984708286 0 -19.705796984708286 -391.62044588580466 0 0 0 0 41.139138994595754 1.7629355224841596 0 1.7629355224841596 -107.60769852975349 0 0 0 0 95.67825637077749 -18.476520361513394 0 -18.476520361513394 -470.71824666696921 0 0 0 0 -199.10597912345838 446.74350924864484 0 446.74350924864484 -504.61137315557517 0 0 0 0 -0.15551773521768553 -1.3684232853555898 0 -1.3684232853555898 -1.0097448087692271 0 0 0 0 -41.377891208814617 149.90937450182537 0 149.90937450182537 -303.08009343391677 0 0 0 0 25.741069478723148 177.08907061259379 0 177.08907061259379 -524.76485534250969 0 0 0 0 -85.68339815076979 166.1781754323456 0 166.1781754323456 -447.85291727861841 0 0 0 0 29.565990052076813 229.95220445431187 0 229.95220445431187 -1008.5340011606604 0 0 0 0 67.935750148365969 0.83131841685099062 0 0.83131841685099062 -104.54288853980688 0 0 0 0 11.139251407726988 24.28049669675238 0 24.28049669675238 -99.482330415747128 0 0 0 0 -162.64964093704521 264.63222760476856 0 264.63222760476856 -406.87622139841551 0 0 0 0 -166.29785264777456 260.15163211619074 0 260.15163211619074 -374.06868669424148 0 0 0 0 31.581950296014515 -8.6313927475530932 0 -8.6313927475530932 -51.907706633495934 0 0 0 0 27.195678323401371 -18.829168057723393 0 -18.829168057723393 -50.273414423050212 0 0 0 0 -55.017677216374068 208.86162194429198 0 208.86162194429198 -497.47980889418977 0 0 0 0 -61.549585708840823 314.79136191066937 0 314.79136191066937 -499.84545927885483 0 0 0 0 -0.71841275882682876 36.413071392720241 0 36.413071392720241 -84.978762675056373 0 0 0 0 31.951651836161425 36.788834771747062 0 36.788834771747062 -59.404324599516769 0 0 0 0 33.570316034499271 32.624527685751673 0 32.624527685751673 -87.836439505335875 0 0 0 0 36.87182879340844 57.046659569910844 0 57.046659569910844 -77.148239297457621 0 0 0 0 71.055654922926351 58.148733348600217 0 58.148733348600217 -97.406357676532934 0 0 0 0 3.9187660211085813 96.264943868074624 0 96.264943868074624 -66.196179042752192 0 0 0 0 -11.653589346413273 32.736405692978892 0 32.736405692978892 -71.061320002794332 0 0 0 0 63.4922645526471 34.26719080282237 0 34.26719080282237 -108.22217944622389 0 0 0 0 8.5405025034563664 100.81250290880416 0 100.81250290880416 -118.40647184009867 0 0 0 0 82.920550536546216 88.781462374761759 0 88.781462374761759 38.582688993803458 0 0 0 0 -24.335085057650247 41.925400770583707 0 41.925400770583707 8.6243323486662007 0 0 0 0 -58.831233909806542 112.19414719322231 0 112.19414719322231 -113.75644924188964 0 0 0 0 33.827413227535004 80.147400139338032 0 80.147400139338032 -131.18996493592266 0 0 0 0 26.671497454757628 90.2643150294316 0 90.2643150294316 -126.87792472098954 0 0 0 0 12.276219611541322 131.68674705113702 0 131.68674705113702 -136.44275390880088 0 0 0 0 37.82728069508245 55.820499634051359 0 55.820499634051359 -141.415379346983 0 0 0 0 9.7835995296550582 34.473925022452107 0 34.473925022452107 -80.466125994193618 0 0 0 0 46.487417788885523 13.822940528603795 0 13.822940528603795 -98.716176615140284 0 0 0 0 9.9157932653647016 50.563520977631214 0 50.563520977631214 -115.96340054899031 0 0 0 0 27.29202289570776 45.887639991728065 0 45.887639991728065 -115.82403934374452 0 0 0 0 50.942998164233359 241.02775421280239 0 241.02775421280239 -334.99984786689311 0 0 0 0 -186.79789590967994 1.797991479983466 0 1.797991479983466 -85.819801480472961 0 0 0 0 -5.039382375693279 17.291208502947839 0 17.291208502947839 -43.508064079734766 0 0 0 0 -195.7498480617287 249.80150086327922 0 249.80150086327922 -180.41436085474925 0 0 0 0 72.181021002652415 -58.816456382537581 0 -58.816456382537581 -99.229717220427119 0 0 0 0 2.3722549783778959 74.775445715422393 0 74.775445715422393 -126.65706695467361 0 0 0 0 26.826660636079396 74.801072770862447 0 74.801072770862447 -184.87412568328 0 0 0 0 7.4186220174015034 92.263440459033518 0 92.263440459033518 -159.4495523261503 0 0 0 0 2.9901492578392208 103.93068165851219 0 103.93068165851219 -181.3837580354666 0 0 0 0 -18.04624616723595 58.596306006660598 0 58.596306006660598 -167.5022047307348 0 0 0 0 21.533162763915243 69.861325593996298 0 69.861325593996298 -167.58760152826289 0 0 0 0 63.16340764488632 186.59276879003301 0 186.59276879003301 131.32084574566397 0 0 0 0 21.584049213767294 59.548502008366384 0 59.548502008366384 -114.13716924001106 0 0 0 0 -414.15034684736747 140.35529958065308 0 140.35529958065308 126.89914020363358 0 0 0 0 11.857076361760846 104.96342964613359 0 104.96342964613359 -156.82194090338362 0 0 0 0 7.9137404852057642 55.24483907553585 0 55.24483907553585 -107.35022495370234 0 0 0 0 74.746100656925591 228.70118939125496 0 228.70118939125496 -66.30347066395916 0 0 0 0 97.671423569821854 23.518459773524228 0 23.518459773524228 -400.04939256968646 0 0 0 0 -118.94689799364642 -205.86366215205635 0 -205.86366215205635 -345.13060765782575 0 0 0 0 89.448172867010271 219.53752931998315 0 219.53752931998315 -737.07132678758353 0 0 0 0 398.872809699762 113.55398858190529 0 113.55398858190529 -494.53856716216251 0 0 0 0 326.74353661418627 -301.62872983197303 0 -301.62872983197303 -485.79654169530841 0 0 0 0 23.71561970453746 45.422939003785444 0 45.422939003785444 -125.97604890423895 0 0 0 0 104.87169432887094 552.50700731687539 0 552.50700731687539 -838.34797840906685 0 0 0 0 -800.38206515969068 -416.12962441198761 0 -416.12962441198761 576.82576118590077 0 0 0 0 -69.392938751702786 307.03896893812635 0 307.03896893812635 -813.2377901392465 0 0 0 0 8.6636065406476064 -94.214061543556454 0 -94.214061543556454 -64.673782340512844 0 0 0 0 -116.17480514261297 301.87215984822251 0 301.87215984822251 -811.08732234186027 0 0 0 0 93.204013803315775 80.589398001597147 0 80.589398001597147 -112.86774185688409 0 0 0 0 -8.395159535556056 8.1212661514932734 0 8.1212661514932734 4.1467655084233002 0 0 0 0 -0.99780980710656131 3.4182321697402642 0 3.4182321697402642 -11.573862908857052 0 0 0 0 27.5987065500371 54.004442538672045 0 54.004442538672045 -129.94008487632414 0 0 0 0 -237.41167954587218 -516.12498785120988 0 -516.12498785120988 -179.23128311798064 0 0 0 0 280.2788411260608 -155.07477153602304 0 -155.07477153602304 -92.51475018626661 0 0 0 0 130.20800600382699 250.29936162426748 0 250.29936162426748 -343.24834701995132 0 0 0 0 -810.13882655427369 1082.4066700125695 0 1082.4066700125695 -930.36734394484665 0 0 0 0 14.066889462925246 48.007346532642259 0 48.007346532642259 -155.29149311432866 0 0 0 0 12.594356134270356 35.581430069800263 0 35.581430069800263 -255.78464579962019 0 0 0 0 11.530596524191424 -33.938322613068976 0 -33.938322613068976 -184.93130997549429 0 0 0 0 -15.25292564722389 94.679504767853359 0 94.679504767853359 -179.2004201656946 0 0 0 0 -1.7445209286752288 68.564677387501433 0 68.564677387501433 -184.47563794282178 0 0 0 0 -6.3839580739058874 63.661283442188505 0 63.661283442188505 -167.25856468298298 0 0 0 0 18.383193100171411 64.164204288499604 0 64.164204288499604 -169.63952285185223 0 0 0 0 39.271000104200283 2.2763296915132827 0 2.2763296915132827 -79.747934569089338 0 0 0 0 14.565113890884277 51.327831751990743 0 51.327831751990743 -132.66600824434136 0 0 0 0 -3.8220639141031825 80.087083186003838 0 80.087083186003838 -181.96886896057549 0 0 0 0 10.489863890776178 107.08783517798656 0 107.08783517798656 -111.10135260840616 0 0 0 0 74.547217420989909 43.520085027405003 0 43.520085027405003 -233.46921245395788 0 0 0 0 18.862577073436857 48.554708518439121 0 48.554708518439121 -128.92304973318971 0 0 0 0 10.762310619422749 80.231121158209476 0 80.231121158209476 -152.29039516089688 0 0 0 0 -75.548020232958152 64.325787804704305 0 64.325787804704305 -134.45082011398245 0 0 0 0 -19.833961722208187 88.758163272392267 0 88.758163272392267 -154.56138301031751 0 0 0 0 -10.525809607393967 84.130594475740509 0 84.130594475740509 -190.7038509677659 0 0 0 0 -71.874904665623035 59.253581703920645 0 59.253581703920645 -187.34530219588169 0 0 0 0 -18.093554971555932 112.0899323252379 0 112.0899323252379 -211.36535962053313 0 0 0 0 56.090595159141458 10.4245594595086 0 10.4245594595086 -266.66792326443829 0 0 0 0 -48.841132474017286 76.473154181541759 0 76.473154181541759 -261.26023994040588 0 0 0 0 21.85510341013142 52.953350114653738 0 52.953350114653738 -116.83656159488537 0 0 0 0 -147.79343119109376 16.659123116360206 0 16.659123116360206 -184.12633026088952 0 0 0 0 -34.110878277041365 22.781006880932182 0 22.781006880932182 -183.88716220842616 0 0 0 0 19.163934251039176 -34.476136164673932 0 -34.476136164673932 -96.444232349186066 0 0 0 0 15.454360320681758 -14.973527254014471 0 -14.973527254014471 -235.29146282661895 0 0 0 0 118.75258278125801 -91.438295421150784 0 -91.438295421150784 3001.3626499862203 0 0 0 0 83.782130588379005 471.97458470447509 0 471.97458470447509 1067.4074330201256 0 0 0 0 25.366296244806513 19.624410737200161 0 19.624410737200161 -24.967047147972377 0 0 0 0 93.857137159978265 1776.9291257767372 0 1776.9291257767372 368.55376734558695 0 0 0 0 -179.61808257468374 1593.2335827302211 0 1593.2335827302211 3129.398105818399 0 0 0 0 -19.226947242344977 414.39345704481821 0 414.39345704481821 -185.35117198726039 0 0 0 0 350.2759531816356 -93.72398546775031 0 -93.72398546775031 -1579.1000158917232 0 0 0 0 -629.3180882137658 22.460671385904789 0 22.460671385904789 -1059.0223279176498 0 0 0 0 411.88374204617605 639.44132346288109 0 639.44132346288109 -756.13695656208074 0 0 0 0 810.46830856859992 762.97132205585012 0 762.97132205585012 -578.9613925594922 0 0 0 0 332.11404992455522 396.06791664550929 0 396.06791664550929 -442.98979122062701 0 0 0 0 1224.7307788807402 431.55238256969187 0 431.55238256969187 -482.66293800065068 0 0 0 0 -3.7266220711357567 -2.3693144051618447 0 -2.3693144051618447 4.4990523344132534 0 0 0 0 296.22099453343071 -732.21579334585294 0 -732.21579334585294 -1709.1893111115132 0 0 0 0 -334.42559935229974 -842.00834423025117 0 -842.00834423025117 -647.38165146372194 0 0 0 0 332.20587830867225 -508.33171741265323 0 -508.33171741265323 -1545.29842772029 0 0 0 0 154.51142086599248 -490.88193269013209 0 -490.88193269013209 -1546.4747493883042 0 0 0 0 354.77578159161726 600.573056067999 0 600.573056067999 -2010.7181467398696 0 0 0 0 -32.943958222373112 115.69504867255819 0 115.69504867255819 -360.28151447561322 0 0 0 0 -5.7756193322275067 192.36562957443311 0 192.36562957443311 -316.55301121249067 0 0 0 0 -99.257435760633598 20.583414749711665 0 20.583414749711665 -267.39724194376413 0 0 0 0 15.500711463698023 57.708722257568027 0 57.708722257568027 -113.20847769833541 0 0 0 0 -35.78335688226025 -431.92921229201784 0 -431.92921229201784 -938.60454099395702 0 0 0 0 326.96149135070903 -43.162855234972426 0 -43.162855234972426 -568.63854435152098 0 0 0 0 49.186454046629024 91.813513859787236 0 91.813513859787236 -273.95434784684767 0 0 0 0 36.369836972320783 52.763479535942452 0 52.763479535942452 -149.50509471906497 0 0 0 0 287.98259930563609 204.6379148046999 0 204.6379148046999 -416.70504720348981 0 0 0 0 95.559176866037433 46.533133586757685 0 46.533133586757685 -381.75168828267419 0 0 0 0 51.263359956385322 -59.910110729497283 0 -59.910110729497283 -135.59052050841069 0 0 0 0 4.0999107950101461 67.508135280015267 0 67.508135280015267 -244.50973187431373 0 0 0 0 167.63895029517653 -61.844372639649009 0 -61.844372639649009 -154.63440735906988 0 0 0 0 7.5676526690387647 -272.90576275889021 0 -272.90576275889021 -655.37453108571572 0 0 0 0 15.195003726777268 -16.39422270238396 0 -16.39422270238396 -43.444050090833116 0 0 0 0 24.854600682154341 433.83867892652052 0 433.83867892652052 493.04390400924603 0 0 0 0 6.0941685642673358 -57.996663476790765 0 -57.996663476790765 -80.578416521939232 0 0 0 0 -30.754925168152482 -73.848044003342466 0 -73.848044003342466 614.16222583894705 0 0 0 0 -47.238904395222903 168.89578632537814 0 168.89578632537814 75.877747409871517 0 0 0 0 -19.913951019959093 24.764680864676514 0 24.764680864676514 -91.18973737203828 0 0 0 0 -21.083814156379844 50.459811685190289 0 50.459811685190289 29.515726796118543 0 0 0 0 -32.24896005708348 62.723502775974602 0 62.723502775974602 -45.717309104798275 0 0 0 0 576.63642154334957 -111.01124259999142 0 -111.01124259999142 -1087.4371846713038 0 0 0 0 -601.69410802122081 -226.99045131610956 0 -226.99045131610956 -57.682051523199334 0 0 0 0 -1.6062794490536412 -3.3757756054200048 0 -3.3757756054200048 -17.122305369120738 0 0 0 0 -97.751641323940362 -5.7246932762466258 0 -5.7246932762466258 -1.0708461593676475 0 0 0 0 92.445726116626247 -160.28398578400447 0 -160.28398578400447 -139.68773335404967 0 0 0 0 83.424250959760684 -195.89449003064055 0 -195.89449003064055 -160.29907864724646 0 0 0 0 -137.57709255574218 -130.894296789088 0 -130.894296789088 28.328944736709673 0 0 0 0 -859.83237900440963 -2007.3525408357236 0 -2007.3525408357236 -577.52069564575822 0 0 0 0 500.640995350921 870.24195761718875 0 870.24195761718875 -859.3798252944398 0 0 0 0 23.342706981464318 -56.447935163808218 0 -56.447935163808218 -70.781115221205582 0 0 0 0 56.632248429678612 -13.879493213559726 0 -13.879493213559726 -5.7856332688788825 0 0 0 0 -18.97073549565539 -128.59118820580807 0 -128.59118820580807 24.073256007641248 0 0 0 0 -0.33338339571924536 -21.894037578783376 0 -21.894037578783376 -33.62100250670953 0 0 0 0 106.36404401092659 -337.39836648796518 0 -337.39836648796518 326.96901924463418 0 0 0 0 529.17592890351625 -466.41450353054643 0 -466.41450353054643 9.5140065663435962 0 0 0 0 389.04173434623044 328.55858155251008 0 328.55858155251008 -219.95784845396611 0 0 0 0 154.58373174924964 -239.85770307721668 0 -239.85770307721668 -905.35252347049391 0 0 0 0 41.131903587414854 118.50861402733699 0 118.50861402733699 -558.71220148927478 0 0 0 0 -14.139686819835333 -167.91947584398258 0 -167.91947584398258 -316.61682355899211 0 0 0 0 216.40684066372614 -323.65658396761683 0 -323.65658396761683 0.12147272147922195 0 0 0 0 32.124894889999268 -28.612939057312587 0 -28.612939057312587 -88.854127809652709 0 0 0 0 -106.86953246883422 -81.482849055677434 0 -81.482849055677434 -137.25650323319769 0 0 0 0 47.460013909449117 -127.5332453841238 0 -127.5332453841238 -147.81426135188667 0 0 0 0 -131.19461387866977 21.2365182623289 0 21.2365182623289 -177.84150821924777 0 0 0 0 32.738933853335766 32.704179727526935 0 32.704179727526935 -177.26941581596111 0 0 0 0 -36.628117792010016 17.310392729756131 0 17.310392729756131 -381.01006648462862 0 0 0 0 -40.276908126015769 -76.15577366326761 0 -76.15577366326761 -606.17754993603194 0 0 0 0 -189.62911850709861 -27.881084981048843 0 -27.881084981048843 -382.16263146508425 0 0 0 0 -85.290075856109979 45.023940031967868 0 45.023940031967868 -351.99462679401222 0 0 0 0 -81.669480601621871 -210.12666080805539 0 -210.12666080805539 -1015.2278148800651 0 0 0 0 -90.810489112249059 85.838579445505047 0 85.838579445505047 -688.41597957317208 0 0 0 0 -124.66766874541645 -180.43398774934758 0 -180.43398774934758 -965.12053284453214 0 0 0 0 -272.01828497907263 -333.68908110682059 0 -333.68908110682059 -1179.4299317830128 0 0 0 0 -211.18431846558087 -89.038614810790023 0 -89.038614810790023 -1020.636905312107 0 0 0 0 -66.294344885600367 -128.42609125910167 0 -128.42609125910167 -1290.6749274159702 0 0 0 0 -161.90921375746439 -564.88441666081962 0 -564.88441666081962 -1527.422859072698 0 0 0 0 -91.040691537593375 -349.33304932876399 0 -349.33304932876399 -1496.9709212558073 0 0 0 0 455.48239346401351 -275.95266176960286 0 -275.95266176960286 -2079.1672630338489 0 0 0 0 403.76091712307789 -438.86185690130878 0 -438.86185690130878 -1614.9704030718203 0 0 0 0 301.85114040971848 -64.861579014890822 0 -64.861579014890822 -1122.694378295535 0 0 0 0 315.33057308085154 -393.20884378835399 0 -393.20884378835399 -1621.8856830977234 0 0 0 0 -25.489930736808674 -46.078217935848443 0 -46.078217935848443 -1103.0505250170772 0 0 0 0 -81.65835166195393 301.19514626998534 0 301.19514626998534 -379.16248177286809 0 0 0 0 -56.786121187076787 267.58696759641953 0 267.58696759641953 -185.61025531568521 0 0 0 0 61.134298824537836 300.55656833331341 0 300.55656833331341 -379.16628171425572 0 0 0 0 30.620029555502697 225.26548131662366 0 225.26548131662366 -345.86916928514256 0 0 0 0 -84.609430593842262 206.00837644972671 0 206.00837644972671 -145.41558570835332 0 0 0 0 -59.77040841505368 179.96914267396096 0 179.96914267396096 -522.94118963970686 0 0 0 0 -163.35718654026277 230.06757081260548 0 230.06757081260548 -344.55907744388969 0 0 0 0 -66.409869601448008 171.76314916304909 0 171.76314916304909 -360.23401826164991 0 0 0 0 -179.07289084232616 74.767314791226454 0 74.767314791226454 -399.63414526639917 0 0 0 0 -122.63963515311116 88.1379865183535 0 88.1379865183535 -162.74622189122601 0 0 0 0 -14.628918646740203 90.466099577131899 0 90.466099577131899 -287.68978909950965 0 0 0 0 -49.141474159312565 6.0551842227541783 0 6.0551842227541783 -392.24810225165493 0 0 0 0 -135.97976139428647 137.77438229602012 0 137.77438229602012 -222.59264266011814 0 0 0 0 -138.96523244641867 110.3944090964942 0 110.3944090964942 -441.9280758319037 0 0 0 0 -168.06546265875659 -47.186301253226702 0 -47.186301253226702 -617.91200123219096 0 0 0 0 -214.63225525482358 61.212539007143732 0 61.212539007143732 -692.46472759338576 0 0 0 0 -201.01154524887534 -90.423606744664539 0 -90.423606744664539 -938.78650923372697 0 0 0 0 -426.22752078326812 -147.93662448063333 0 -147.93662448063333 -917.32174787817075 0 0 0 0 -327.73504711518217 100.47728134012095 0 100.47728134012095 -692.68090928265156 0 0 0 0 -216.98275334617574 26.567397213550066 0 26.567397213550066 -871.5183812350042 0 0 0 0 -157.30220898635162 49.352064063526996 0 49.352064063526996 -677.36968649309711 0 0 0 0 -176.63307468263406 158.40028107835712 0 158.40028107835712 -524.88564754539038 0 0 0 0 -246.45377492404805 162.29247614547239 0 162.29247614547239 -515.77259004430016 0 0 0 0 -143.23750201864823 147.70816926175939 0 147.70816926175939 -679.45306744564732 0 0 0 0 -213.78120531469904 224.5290073098522 0 224.5290073098522 -776.77024700874608 0 0 0 0 -345.50205387632377 123.21629780651529 0 123.21629780651529 -668.1143485745888 0 0 0 0 -121.61935484850619 360.81945030948918 0 360.81945030948918 -529.27052028930302 0 0 0 0 -216.76885116725316 163.05009092201726 0 163.05009092201726 -643.71928731167463 0 0 0 0 -318.96414262426151 104.40696660241065 0 104.40696660241065 -674.66023204734665 0 0 0 0 -25.006781700842112 245.16065354703824 0 245.16065354703824 -523.79343410879846 0 0 0 0 -215.37326857190419 273.89213002692895 0 273.89213002692895 -522.24397059324474 0 0 0 0 -159.72179218148085 148.008023043918 0 148.008023043918 -1342.2733931619759 0 0 0 0 -151.42204682590091 202.08002163783567 0 202.08002163783567 -1306.4403285561266 0 0 0 0 -204.29790750619577 257.7654375303764 0 257.7654375303764 -1186.4103709720148 0 0 0 0 -339.67371329671732 159.43664604019796 0 159.43664604019796 -1233.3924954710674 0 0 0 0 -150.13137339839341 114.02441648824515 0 114.02441648824515 -1222.8861979406029 0 0 0 0 -290.95724710969807 31.572848438730944 0 31.572848438730944 -849.04795541688827 0 0 0 0 -259.72147304483224 172.90908472465526 0 172.90908472465526 -803.44893059412243 0 0 0 0 -314.13804230513836 -33.278799234432768 0 -33.278799234432768 -1061.5192982380759 0 0 0 0 -320.56873130825988 151.16214643552667 0 151.16214643552667 -1037.3891711267297 0 0 0 0 -426.19599080579098 -26.77119849980177 0 -26.77119849980177 -1230.1968592122321 0 0 0 0 -428.93977596124023 120.68126825132276 0 120.68126825132276 -1153.9508440261779 0 0 0 0 -312.65976027102442 31.314498100100536 0 31.314498100100536 -1085.2753814837542 0 0 0 0 -313.96670040956815 87.61508427795161 0 87.61508427795161 -1218.7293874213574 0 0 0 0 -597.04153988020698 103.80923811364119 0 103.80923811364119 -1149.6637123292694 0 0 0 0 -504.00075113519415 -68.189615996996508 0 -68.189615996996508 -1308.8438533937315 0 0 0 0 -591.96955692378833 -24.222964869513817 0 -24.222964869513817 -1204.5547627018532 0 0 0 0 -611.39678679635108 -48.199458752636929 0 -48.199458752636929 -1504.358770711382 0 0 0 0 -550.6129304907372 -144.0697159409192 0 -144.0697159409192 -1405.4322477200894 0 0 0 0 -752.27468235424021 -10.634456175050218 0 -10.634456175050218 -1358.9893146665199 0 0 0 0 -710.35189747629192 -91.736854091350324 0 -91.736854091350324 -1212.9517790416758 0 0 0 0 -457.08772189103183 -92.0126368580095 0 -92.0126368580095 -1220.6735284300285 0 0 0 0 -459.67357602230913 38.966860979177 0 38.966860979177 -858.19063114657729 0 0 0 0 -297.59584492552131 -104.09507751936553 0 -104.09507751936553 -1077.815098091196 0 0 0 0 -532.53923079799279 45.772557059481187 0 45.772557059481187 -1088.8729475059681 0 0 0 0 -628.94640848567724 -135.34931411131311 0 -135.34931411131311 -1053.5654115330199 0 0 0 0 -423.74573582852463 -283.82069651637357 0 -283.82069651637357 -1224.1382269091409 0 0 0 0 -528.00922467703276 -375.78125205294555 0 -375.78125205294555 -1190.8243395376721 0 0 0 0 -567.58702648160033 -577.78746308638256 0 -577.78746308638256 -1436.1119235202787 0 0 0 0 -936.51073440976688 -306.13994954470309 0 -306.13994954470309 -1206.7647463592446 0 0 0 0 -10.565274369582767 -495.83562463099179 0 -495.83562463099179 882.07704920483957 0 0 0 0 1338.8133331919234 921.88849635177394 0 921.88849635177394 -1599.8201637339516 0 0 0 0 -414.32869374348047 526.58200018998241 0 526.58200018998241 -343.34126867834129 0 0 0 0 -1851.6905975580958 1961.591313137651 0 1961.591313137651 -1046.1775994260461 0 0 0 0 -159.94531383518915 1047.5114497783698 0 1047.5114497783698 -1422.5897255189557 0 0 0 0 -1811.378793632146 1698.6431508824917 0 1698.6431508824917 -938.37810698342946 0 0 0 0 -2001.4501915468209 1437.2297562078838 0 1437.2297562078838 -399.40336746775711 0 0 0 0 -17.989661651796297 2.4112327548028674 0 2.4112327548028674 1.5949478266923656 0 0 0 0 -981.2671424728178 409.22473670430918 0 409.22473670430918 314.80104170931008 0 0 0 0 -70.855482450526324 240.63641186784662 0 240.63641186784662 -679.75784136734728 0 0 0 0 -2260.1454096645466 2312.9943418981093 0 2312.9943418981093 -391.74494039888668 0 0 0 0 -618.5376867411469 -303.29679201761246 0 -303.29679201761246 -1566.1114898998194 0 0 0 0 -56.4566076284639 61.812236960133546 0 61.812236960133546 -45.045724050059498 0 0 0 0 298.57171309212572 -448.13129346371716 0 -448.13129346371716 343.86567601070601 0 0 0 0 -899.93993698521081 -235.00914664196171 0 -235.00914664196171 -1187.7634953177285 0 0 0 0 -443.19671837276837 81.431493054582461 0 81.431493054582461 -1197.1154433242609 0 0 0 0 -826.29258038080297 82.71095110092574 0 82.71095110092574 -1004.1236518523965 0 0 0 0 -537.53894673019386 184.39775255086715 0 184.39775255086715 -1010.0934309936711 0 0 0 0 -271.15558629072621 -274.52272308157262 0 -274.52272308157262 16.150342092671053 0 0 0 0 141.78695291964686 -287.56094573234805 0 -287.56094573234805 -72.358724975423684 0 0 0 0 488.31699773214496 -3.5933422283178515 0 -3.5933422283178515 -165.55302017125359 0 0 0 0 -183.39127109912806 270.16265967982326 0 270.16265967982326 -182.5289992525577 0 0 0 0 -22.429235698160483 -7.1041711994475918 0 -7.1041711994475918 -68.829071607517108 0 0 0 0 -248.5483467400918 92.055242496062419 0 92.055242496062419 -1002.6147407023091 0 0 0 0 202.26227534332429 197.74680475990317 0 197.74680475990317 20.277532345724467 0 0 0 0 -38.100109072436879 19.697687141907139 0 19.697687141907139 -9.6974899195585422 0 0 0 0 -52.702832531393767 66.884345681170075 0 66.884345681170075 -41.482126861468011 0 0 0 0 -20.431341218376474 -53.482079439962035 0 -53.482079439962035 -938.1874709923286 0 0 0 0 -106.40169157386117 -17.035212069868066 0 -17.035212069868066 -896.64363087146194 0 0 0 0 -273.85460656178475 90.210722184177939 0 90.210722184177939 -1001.3575969645026 0 0 0 0 -158.16276368085528 114.82120055324549 0 114.82120055324549 -1033.5193286938083 0 0 0 0 -282.67191099669435 128.30644229869722 0 128.30644229869722 -1107.2097005273026 0 0 0 0 -301.1069369277684 142.93566357485724 0 142.93566357485724 -1116.1494143125419 0 0 0 0 -405.53732604401921 217.60679620471592 0 217.60679620471592 -1102.8081524670561 0 0 0 0 -213.44947978982236 197.87619160232862 0 197.87619160232862 -1087.9122248887543 0 0 0 0 -177.1345679754811 685.05856158335109 0 685.05856158335109 898.71425937582535 0 0 0 0 -104.87253923137905 1404.5963095853278 0 1404.5963095853278 1348.275941996804 0 0 0 0 400.7314081695331 589.24079387801248 0 589.24079387801248 908.05345068031829 0 0 0 0 843.99576999883357 944.45714541753841 0 944.45714541753841 384.34211607430188 0 0 0 0 1084.7147252345421 1306.7484103781162 0 1306.7484103781162 477.42421409017561 0 0 0 0 1115.042018400678 1077.7664529432677 0 1077.7664529432677 197.85895669895763 0 0 0 0 1470.585919129584 37.115461327954108 0 37.115461327954108 -45.269544489959117 0 0 0 0 -5.2533620852642553 -7.401439747141735 0 -7.401439747141735 -10.097619671097881 0 0 0 0 2885.219981865941 332.18530548680019 0 332.18530548680019 -70.220640978046319 0 0 0 0 1076.3661093938535 1038.2604454621778 0 1038.2604454621778 294.745279566303 0 0 0 0 1144.6181987364853 2309.8091704101153 0 2309.8091704101153 1958.179659006817 0 0 0 0 -5.9789989897729967 5.0697712735387004 0 5.0697712735387004 -3.1326712364861375 0 0 0 0 3079.4618135133715 548.64483408373349 0 548.64483408373349 2527.5064854365933 0 0 0 0 -135.30989332994614 -1009.7839872328227 0 -1009.7839872328227 -2345.7992557326284 0 0 0 0 2799.5490013872086 1680.7269436510255 0 1680.7269436510255 523.42387160653197 0 0 0 0 -259.81750039363305 -298.13748645960413 0 -298.13748645960413 -1506.8912125206371 0 0 0 0 -71.621291543197003 -294.68061123941698 0 -294.68061123941698 -1517.3733410876903 0 0 0 0 -286.43583284833949 -492.34520553407856 0 -492.34520553407856 -1409.1166938636925 0 0 0 0 -108.54645178260034 -524.01287958116109 0 -524.01287958116109 -1828.1942275719898 0 0 0 0 -197.15763221517773 -215.40383173772352 0 -215.40383173772352 -1184.1774359779938 0 0 0 0 -242.58678705833336 -440.347430018453 0 -440.347430018453 -1386.7452009076014 0 0 0 0 -137.14904744629166 661.78724248032995 0 661.78724248032995 1420.402601815802 0 0 0 0 -49.391197922260559 45.982525081478144 0 45.982525081478144 -30.827538692754871 0 0 0 0 382.82468308930038 280.17130800083032 0 280.17130800083032 614.29578757949275 0 0 0 0 -23.511467678702004 24.194905585620376 0 24.194905585620376 -17.279280630265809 0 0 0 0 14.335349927892821 468.50347911597055 0 468.50347911597055 1115.7321319937419 0 0 0 0 163.87298244920385 219.90908789065543 0 219.90908789065543 969.90218166598243 0 0 0 0 312.65139198761244 384.4845970569404 0 384.4845970569404 616.92848964079167 0 0 0 0 269.33035755278433 171.84405072600248 0 171.84405072600248 462.60823292496207 0 0 0 0 158.86804635030785 440.71813818315832 0 440.71813818315832 533.91517867844595 0 0 0 0 468.78857482458261 457.32765507122895 0 457.32765507122895 179.8218446484243 0 0 0 0 195.25769275280618 31.83693737116846 0 31.83693737116846 143.75483036656078 0 0 0 0 21.47758956556936 599.11234465934467 0 599.11234465934467 -338.62951393551339 0 0 0 0 159.35408926111268 570.55065172820832 0 570.55065172820832 -305.28593138053475 0 0 0 0 173.38814232401748 613.05310751805143 0 613.05310751805143 -802.69291945226723 0 0 0 0 -124.19984083846066 474.11939142729534 0 474.11939142729534 -334.97625708512714 0 0 0 0 -150.05497534819006 902.33377726576509 0 902.33377726576509 -1078.7529485180639 0 0 0 0 387.50179285034392 186.80653131914369 0 186.80653131914369 -200.8699330284071 0 0 0 0 171.0234143554917 351.52639401352644 0 351.52639401352644 -592.4121810656361 0 0 0 0 365.33973151860118 598.94452003869446 0 598.94452003869446 -302.93732800594898 0 0 0 0 467.53124813003888 277.24233383595129 0 277.24233383595129 -343.60299105345621 0 0 0 0 418.2891854128211 289.58011192913182 0 289.58011192913182 -169.46020874173701 0 0 0 0 484.99070861501241 431.95872589463397 0 431.95872589463397 -302.63093730746914 0 0 0 0 679.41557470509326 -136.8423993660067 0 -136.8423993660067 58.729087024054024 0 0 0 0 875.45165782306503 414.88504173252295 0 414.88504173252295 -137.2750400721543 0 0 0 0 547.26154078111358 228.63252873890087 0 228.63252873890087 153.76199230724342 0 0 0 0 1029.5023504046694 584.11628364490753 0 584.11628364490753 348.47441473834988 0 0 0 0 564.03886354567112 664.02487741541881 0 664.02487741541881 338.46913818145549 0 0 0 0 -430.36337429644118 494.03351473399744 0 494.03351473399744 -198.06248538779255 0 0 0 0 9.419562797400955 7.6820335104184503 0 7.6820335104184503 -7.5695023592898423 0 0 0 0 -58.018840099261979 3.5704175398313964 0 3.5704175398313964 -216.91285889986648 0 0 0 0 1543.7497928220978 -70.521619308728987 0 -70.521619308728987 -60.17126525513595 0 0 0 0 1092.1976698398967 831.75286291957946 0 831.75286291957946 -384.35039921014686 0 0 0 0 796.81909225424442 736.19165246486591 0 736.19165246486591 -350.3274330054237 0 0 0 0 14.965997334541049 17.816851042595196 0 17.816851042595196 -15.411701787592932 0 0 0 0 383.07055396242504 89.698656169806782 0 89.698656169806782 -68.767490958089184 0 0 0 0 357.97312826018742 142.65617811400443 0 142.65617811400443 -179.27521875867387 0 0 0 0 323.50588070504557 -14.406049783985509 0 -14.406049783985509 -38.037461781626916 0 0 0 0 342.52359933548411 142.05077464932856 0 142.05077464932856 -168.31615044811042 0 0 0 0 72.544060334641017 384.69687918020645 0 384.69687918020645 -272.11835012530355 0 0 0 0 271.6216671095608 355.98651298225741 0 355.98651298225741 -404.30259784271766 0 0 0 0 -200.41236331248047 135.48197164625526 0 135.48197164625526 -113.21883183839964 0 0 0 0 -35.170423069145272 40.495325809555652 0 40.495325809555652 -63.19190933907521 0 0 0 0 0.4512744129366375 -4.1113022064142655 0 -4.1113022064142655 -11.660795685771379 0 0 0 0 -44.664725110510062 370.52052183107298 0 370.52052183107298 -346.9252753125329 0 0 0 0 201.2577677017498 254.06271703194943 0 254.06271703194943 -292.59941927535692 0 0 0 0 -175.82339864791467 310.94586894847225 0 310.94586894847225 -385.30132585094543 0 0 0 0 -171.01624687320998 454.2044130803115 0 454.2044130803115 -460.93836637071217 0 0 0 0 58.02071855898248 330.5890769433754 0 330.5890769433754 -396.20880425578071 0 0 0 0 139.15248419177806 487.36619697292917 0 487.36619697292917 -555.37846129683749 0 0 0 0 -2.2619296071475219 509.8561372794702 0 509.8561372794702 -483.25081809583935 0 0 0 0 -46.739080017459628 593.73594732018523 0 593.73594732018523 -616.23865839351492 0 0 0 0 -19.117638917890872 555.99075135472231 0 555.99075135472231 -639.74225287335867 0 0 0 0 -257.78737911546523 542.96767044546141 0 542.96767044546141 -568.61609121030779 0 0 0 0 -38.122058633458366 438.5241135856611 0 438.5241135856611 -526.25647192040924 0 0 0 0 191.87323400683817 639.48641191709612 0 639.48641191709612 -665.8170995327564 0 0 0 0 145.78571609713072 737.61625026205184 0 737.61625026205184 -668.08629306437797 0 0 0 0 39.656792799152754 652.84397997314227 0 652.84397997314227 -665.43961439939085 0 0 0 0 286.04905645022154 542.04671218872681 0 542.04671218872681 -567.11851647226649 0 0 0 0 102.46665545032511 643.94240641015494 0 643.94240641015494 -612.3911132037756 0 0 0 0 218.54897601855555 688.1573479799772 0 688.1573479799772 -655.67896175583883 0 0 0 0 336.64673090894576 535.81222583706403 0 535.81222583706403 -564.86220353789395 0 0 0 0 412.43356310347735 369.50600352092442 0 369.50600352092442 -432.60513242771049 0 0 0 0 168.40418935236266 542.59498532142061 0 542.59498532142061 -493.18312955691363 0 0 0 0 619.78248047150555 170.891213875635 0 170.891213875635 -288.78863847721368 0 0 0 0 300.86697178250779 345.04034884790781 0 345.04034884790781 -364.29042711024522 0 0 0 0 533.97695966257015 359.23923590363484 0 359.23923590363484 -524.84872871865082 0 0 0 0 317.493381320548 556.79589596710593 0 556.79589596710593 -508.79287970774021 0 0 0 0 169.07075542206439 697.78685473464429 0 697.78685473464429 -586.59881129241478 0 0 0 0 50.17614892822894 910.63698866452614 0 910.63698866452614 -896.21483590767002 0 0 0 0 96.549759645396989 528.81362926611473 0 528.81362926611473 -951.176810562436 0 0 0 0 366.07836690683689 666.02973002850194 0 666.02973002850194 -790.49107889307197 0 0 0 0 -277.60452691359387 761.06270383747324 0 761.06270383747324 -756.50228635005988 0 0 0 0 -686.19742559893348 431.69547690978288 0 431.69547690978288 -805.56668450930738 0 0 0 0 -142.02401574039686 933.54979861203901 0 933.54979861203901 -1455.5869003398329 0 0 0 0 -1020.6457651360652 629.4202654903238 0 629.4202654903238 -75.759106192577747 0 0 0 0 -142.09342181882312 827.97226985365523 0 827.97226985365523 -660.13188196920964 0 0 0 0 39.429014957495383 763.71591138350777 0 763.71591138350777 -640.4928438952993 0 0 0 0 -254.5193540675682 806.33772127614793 0 806.33772127614793 -345.26474745133601 0 0 0 0 -131.7615338833657 161.89910447748889 0 161.89910447748889 53.856660279838252 0 0 0 0 173.21747611319006 775.27374043523741 0 775.27374043523741 -670.24749182927189 0 0 0 0 244.36411163690354 699.09906237673567 0 699.09906237673567 -654.52844903334335 0 0 0 0 172.03741002650713 762.01571936609616 0 762.01571936609616 -728.62529340987385 0 0 0 0 53.610499138594605 845.93295072537148 0 845.93295072537148 -648.53797951842716 0 0 0 0 103.96714502750547 725.20509365825274 0 725.20509365825274 -669.236993805971 0 0 0 0 113.08419592884638 760.55748193189538 0 760.55748193189538 -534.59702201998152 0 0 0 0 103.56201902506291 624.26634833902062 0 624.26634833902062 -562.65996786506548 0 0 0 0 55.600800874806737 651.61421229007101 0 651.61421229007101 -393.17242120789888 0 0 0 0 67.133891786634194 419.59398082870757 0 419.59398082870757 -636.96655790811928 0 0 0 0 103.5249237015687 644.21822131389854 0 644.21822131389854 -643.12716715029092 0 0 0 0 195.1907025742039 429.10374592537119 0 429.10374592537119 -213.34200571878318 0 0 0 0 85.420601954530866 426.24449686560183 0 426.24449686560183 -26.513268951472128 0 0 0 0 1231.6936368833049 -248.42476682629058 0 -248.42476682629058 -505.55715052540472 0 0 0 0 6.657344868965275 9.582210124849059 0 9.582210124849059 -4.5358607545029486 0 0 0 0 451.97981264750706 -73.511801322729298 0 -73.511801322729298 139.36965953285107 0 0 0 0 265.48138364581428 355.29362306818803 0 355.29362306818803 -423.76713346951874 0 0 0 0 875.48326515245208 235.68551638374629 0 235.68551638374629 -754.48085898775025 0 0 0 0 103.11467322804492 448.03582866425859 0 448.03582866425859 -623.13321338081732 0 0 0 0 151.60108513106388 330.00510139676044 0 330.00510139676044 -336.16027468476386 0 0 0 0 208.25502960589074 243.78325115046027 0 243.78325115046027 -662.48990034687449 0 0 0 0 334.76270490897878 36.058074945627595 0 36.058074945627595 -321.71803719856689 0 0 0 0 67.67859314080124 168.50321770043229 0 168.50321770043229 -600.94800580221636 0 0 0 0 114.37838410851327 246.19482422808505 0 246.19482422808505 -835.8535769666305 0 0 0 0 111.31741558385511 194.43392447465885 0 194.43392447465885 -967.30232870813052 0 0 0 0 87.653817679954955 458.9510269954917 0 458.9510269954917 -919.15504794930894 0 0 0 0 25.454027908093849 534.36613331200351 0 534.36613331200351 -1002.3339483944801 0 0 0 0 114.15818112321108 270.36705230363077 0 270.36705230363077 -1138.3640054327843 0 0 0 0 67.049625878344159 395.08859775526798 0 395.08859775526798 -1321.4802231349549 0 0 0 0 -60.247127415555042 520.78357319731003 0 520.78357319731003 -1622.0184626766131 0 0 0 0 -30.380575516404406 391.70966065992434 0 391.70966065992434 -1128.4020997527987 0 0 0 0 1.9201351277879439 461.54065595879365 0 461.54065595879365 -1208.9867794375896 0 0 0 0 -198.76685839628271 682.3917054635167 0 682.3917054635167 -932.01411314356665 0 0 0 0 -241.68812527530326 560.00201849084442 0 560.00201849084442 -883.7145294744987 0 0 0 0 -259.93695464424263 556.51852070751193 0 556.51852070751193 -618.92537404998438 0 0 0 0 -495.62545577619312 708.86539661684947 0 708.86539661684947 -683.71861302135221 0 0 0 0 -66.024206766103816 635.61699192340893 0 635.61699192340893 -762.06430097221164 0 0 0 0 -39.48419122942687 535.47193342430546 0 535.47193342430546 -798.03489777000505 0 0 0 0 84.467461997712235 634.05764718053251 0 634.05764718053251 -738.20757999377383 0 0 0 0 -54.033256372012602 613.8947679232806 0 613.8947679232806 -731.26029619458131 0 0 0 0 53.289934453474416 597.42806262322119 0 597.42806262322119 -680.44374257492018 0 0 0 0 134.65861160468194 709.25735274999897 0 709.25735274999897 -667.31395481545769 0 0 0 0 49.853479325120134 455.88375417920179 0 455.88375417920179 -844.7186000769143 0 0 0 0 72.163348156052962 621.60528411813721 0 621.60528411813721 -855.8436429315916 0 0 0 0 -96.790886659895477 228.52299864850283 0 228.52299864850283 -332.19054727055845 0 0 0 0 -39.060217741072847 159.88508339611781 0 159.88508339611781 -266.87001607063939 0 0 0 0 -5.0912233328454022 53.529816214005677 0 53.529816214005677 -227.85464833217338 0 0 0 0 15.408988936187029 13.50813101743347 0 13.50813101743347 -24.407923905399684 0 0 0 0 68.621667709347093 120.93836105905939 0 120.93836105905939 1.0529305621157619 0 0 0 0 -71.430475174842286 -71.280063148380577 0 -71.280063148380577 -51.69098880045658 0 0 0 0 100.58430673777184 -38.78907172703839 0 -38.78907172703839 -96.292865569870628 0 0 0 0 84.030022367256606 -57.212931491328504 0 -57.212931491328504 -105.81781045808748 0 0 0 0 8.48053440831427 -33.715315677221952 0 -33.715315677221952 -42.24461875014822 0 0 0 0 -98.49751963277231 218.02865186940471 0 218.02865186940471 -377.24250096421019 0 0 0 0 9.5301498761792658 -10.392353089425509 0 -10.392353089425509 -31.715153900099381 0 0 0 0 -26.909746511846606 19.020546563654534 0 19.020546563654534 -36.447323662767303 0 0 0 0 -44.362927626309101 -6.6082197963514773 0 -6.6082197963514773 -26.97387229384276 0 0 0 0 106.63296180374164 -57.280873746052748 0 -57.280873746052748 -195.00024313276663 0 0 0 0 -76.981858422448568 -71.6706880134534 0 -71.6706880134534 -35.710085076272662 0 0 0 0 -439.9881646579488 67.686032511363919 0 67.686032511363919 -67.837965435181104 0 0 0 0 -124.181284697308 36.584159530599209 0 36.584159530599209 26.033598858310143 0 0 0 0 3.1301474756619996 5.9006594376719335 0 5.9006594376719335 -12.777349188391383 0 0 0 0 -1076.3135713138254 953.34441743842399 0 953.34441743842399 -560.02392374143528 0 0 0 0 -856.3686344851285 926.50012853934777 0 926.50012853934777 -586.73846210220654 0 0 0 0 -8.1360089151659878 4.3132385767783035 0 4.3132385767783035 2.7643886851863329 0 0 0 0 8.4992468984200968 46.196676473275147 0 46.196676473275147 -16.931249693181599 0 0 0 0 5.9691371656128211 10.63154854805407 0 10.63154854805407 -31.878841242104102 0 0 0 0 -189.85981622526742 465.41892269676828 0 465.41892269676828 -1112.8926040901642 0 0 0 0 -9.0467843923614595 15.165012364947358 0 15.165012364947358 -42.700382312898881 0 0 0 0 -7.9967457147722598 14.214126276365278 0 14.214126276365278 -35.348124366160846 0 0 0 0 462.24377677794109 163.94516388550255 0 163.94516388550255 -196.4406453821648 0 0 0 0 -14.446729052438968 88.609224264051591 0 88.609224264051591 -79.435266882093856 0 0 0 0 -6.22563415462173 69.351351000141221 0 69.351351000141221 -108.61372679470514 0 0 0 0 9.2681080654438546 20.107898044908723 0 20.107898044908723 -4.5412373731081743 0 0 0 0 70.894900131774193 31.03202057742601 0 31.03202057742601 -228.48434584987262 0 0 0 0 53.153717920909912 -23.421937936478571 0 -23.421937936478571 -54.872615313724964 0 0 0 0 -578.41719051518157 683.96284133869995 0 683.96284133869995 -330.96106710203458 0 0 0 0 -627.90081254683901 741.28561411134433 0 741.28561411134433 -556.520076227971 0 0 0 0 -269.34592090387014 229.3552433859295 0 229.3552433859295 -1520.7767945509113 0 0 0 0 14.31563361488088 13.679401603459162 0 13.679401603459162 -31.288829291751796 0 0 0 0 104.62879916409292 165.14965640976152 0 165.14965640976152 -332.44509514018137 0 0 0 0 -619.18561463578305 171.6897742258908 0 171.6897742258908 274.3493755053787 0 0 0 0 82.878059523762204 1495.0887876429624 0 1495.0887876429624 -2239.0097759010969 0 0 0 0 5.702358328394638 39.81808402994929 0 39.81808402994929 -105.11485378706075 0 0 0 0 -3.5306793949723669 -6.0658871333049262 0 -6.0658871333049262 -32.167003582142087 0 0 0 0 -139.81257124453259 181.07570577328988 0 181.07570577328988 -600.55185794338468 0 0 0 0 -286.92714636977325 432.63162054677741 0 432.63162054677741 -543.97498243297741 0 0 0 0 -9.5211301296803867 -9.8432028200186323 0 -9.8432028200186323 -27.670891099871369 0 0 0 0 -0.98346636246441221 -17.366801399040593 0 -17.366801399040593 -66.702848936778196 0 0 0 0 -279.87158917248598 251.73743526135877 0 251.73743526135877 -347.51966742858349 0 0 0 0 -50.992274125572294 219.55710229654869 0 219.55710229654869 -457.60396377900543 0 0 0 0 -16.832394091739843 163.58806040736636 0 163.58806040736636 -356.19161417477517 0 0 0 0 -208.93191233343532 196.78265276101411 0 196.78265276101411 -328.47061552775995 0 0 0 0 20.205112839788768 29.893956668401344 0 29.893956668401344 -56.97904842473298 0 0 0 0 -0.15194857806029916 44.618828057793422 0 44.618828057793422 -68.304271404974031 0 0 0 0 105.41536580112006 36.866759969921986 0 36.866759969921986 -273.50947865243506 0 0 0 0 90.432401867816225 154.66413836275024 0 154.66413836275024 -388.54315328670418 0 0 0 0 126.78178884304361 98.395387664735608 0 98.395387664735608 -265.23956448474928 0 0 0 0 101.34482499319711 -38.534188144578366 0 -38.534188144578366 -9.4361638944792503 0 0 0 0 81.252097706674249 56.463547740717331 0 56.463547740717331 -286.57892085916137 0 0 0 0 80.095139191282215 73.904957678454593 0 73.904957678454593 -326.94372106411902 0 0 0 0 35.996810559276128 131.97263819701175 0 131.97263819701175 -348.57060617029492 0 0 0 0 -61.238624813839124 186.96347909983751 0 186.96347909983751 -348.82940871261962 0 0 0 0 27.862433627298742 168.81781290689833 0 168.81781290689833 -409.23634519657207 0 0 0 0 17.882124664654839 157.20154219650431 0 157.20154219650431 -351.65799532921665 0 0 0 0 17.450222124942229 149.0777630490611 0 149.0777630490611 -324.29205346271192 0 0 0 0 104.3195312408634 69.10033337570303 0 69.10033337570303 -44.583139657901484 0 0 0 0 30.487292561898357 -5.5888252951554023 0 -5.5888252951554023 -135.86454989507911 0 0 0 0 -13.823159358260455 73.201152413999807 0 73.201152413999807 -198.14032133089495 0 0 0 0 6.3215544493951086 -1.7360690465274615 0 -1.7360690465274615 -3.5535761410050668 0 0 0 0 117.31971772031102 4.4977965856269293 0 4.4977965856269293 -101.18990150938043 0 0 0 0 57.931319857125345 24.223603553029534 0 24.223603553029534 -38.297635819857533 0 0 0 0 28.827625706835292 29.990340112035881 0 29.990340112035881 -31.557292866741101 0 0 0 0 39.923802438413986 47.092540173764064 0 47.092540173764064 -7.5416507087429636 0 0 0 0 -124.03116108218092 160.22493231245244 0 160.22493231245244 482.86304109192497 0 0 0 0 7.3904244130434051 -6.0094232662089695 0 -6.0094232662089695 -21.696523373754289 0 0 0 0 28.660639418569943 9.0700257346877606 0 9.0700257346877606 -54.64478986108854 0 0 0 0 12.390976737777237 -2.46715418878739 0 -2.46715418878739 -80.699972846960009 0 0 0 0 61.25336175175471 -99.81305109238383 0 -99.81305109238383 -37.205187789928459 0 0 0 0 -64.766464225562231 -6.8232735555684485 0 -6.8232735555684485 -101.75616169843215 0 0 0 0 39.690092767894384 -33.967453193814436 0 -33.967453193814436 -106.68946714985213 0 0 0 0 -7.4183891836801195 -58.747072545767878 0 -58.747072545767878 -68.168783820023236 0 0 0 0 107.02895359616377 -45.256134488568932 0 -45.256134488568932 -68.719310679662158 0 0 0 0 2.4992121687282634 -49.641594038770563 0 -49.641594038770563 35.458736412714643 0 0 0 0 69.691282056424825 -66.768609702688991 0 -66.768609702688991 -97.379700585006503 0 0 0 0 -6.6255966935532342 -92.018886265348556 0 -92.018886265348556 62.139833366731182 0 0 0 0 -153.55237881506037 170.09619885221036 0 170.09619885221036 -298.3334211726833 0 0 0 0 74.034580362725904 -48.947382542878017 0 -48.947382542878017 -30.718943551451741 0 0 0 0 130.5443353618175 498.31795011341455 0 498.31795011341455 -1072.8733056245692 0 0 0 0 58.579670641679797 -59.074652314610688 0 -59.074652314610688 -21.721585490609726 0 0 0 0 39.282456935135997 407.27058772510281 0 407.27058772510281 -1011.9818629988004 0 0 0 0 -89.87549858319835 294.73678588290932 0 294.73678588290932 -404.32092625751466 0 0 0 0 64.720731704474019 -81.733413269761513 0 -81.733413269761513 -58.616819070219208 0 0 0 0 61.682398288829063 -108.30690322890769 0 -108.30690322890769 -37.228846852965944 0 0 0 0 61.317913331867658 -108.06882598910397 0 -108.06882598910397 -74.802870780957164 0 0 0 0 20.521357135152357 -110.11666594470444 0 -110.11666594470444 -27.464371161797317 0 0 0 0 76.236113704451782 -111.6317623022187 0 -111.6317623022187 -92.825643996722647 0 0 0 0 59.449778745074582 -90.907017706274928 0 -90.907017706274928 -88.379891025877441 0 0 0 0 58.241009652698267 -90.729140683419246 0 -90.729140683419246 -86.15254770181491 0 0 0 0 -69.932486606714519 -23.455272851962945 0 -23.455272851962945 -85.005053693632362 0 0 0 0 -491.15222101159452 -512.94904303551084 0 -512.94904303551084 -1797.1721162116883 0 0 0 0 -31.483712301296592 -31.9686447877814 0 -31.9686447877814 -18.110113791343906 0 0 0 0 1123.4206514958278 606.05165198057148 0 606.05165198057148 -3974.0558727019525 0 0 0 0 2038.5587350287387 -93.960727629135363 0 -93.960727629135363 -4244.4333332700953 0 0 0 0 2099.6093287044059 1576.5247446860012 0 1576.5247446860012 -3060.1286578610307 0 0 0 0 276.52229301288389 2707.7517032880623 0 2707.7517032880623 -5508.5739340687142 0 0 0 0 -508.36360183653596 -2738.748629880407 0 -2738.748629880407 -4706.0882113122934 0 0 0 0 -773.06981519908732 -725.11009870481212 0 -725.11009870481212 -1500.6493841520823 0 0 0 0 10.798382223791123 -72.760694427764975 0 -72.760694427764975 -145.86513669929263 0 0 0 0 -30.439184425302855 -30.456448470200399 0 -30.456448470200399 -17.130335687559409 0 0 0 0 28.272955725889915 -44.284655845767702 0 -44.284655845767702 -193.79668268284149 0 0 0 0 13.095965094733401 22.326942925952608 0 22.326942925952608 -214.75945682293241 0 0 0 0 -24.585273137854529 -40.133950201532571 0 -40.133950201532571 -99.221000707998428 0 0 0 0 -180.81200701681701 610.76186909989519 0 610.76186909989519 -429.08387432534073 0 0 0 0 368.10883637601728 -8.3477468503133423 0 -8.3477468503133423 -2844.1289258561301 0 0 0 0 -947.80366945567948 -1468.7685876262549 0 -1468.7685876262549 -3030.3939784584072 0 0 0 0 -46.560650166618871 -311.68321796953387 0 -311.68321796953387 -2147.2208166103555 0 0 0 0 -63.066357779593091 -892.70376891999331 0 -892.70376891999331 -2829.9023480290125 0 0 0 0 20.235328289549216 114.44922014900658 0 114.44922014900658 -1807.9116158163743 0 0 0 0 15.088306013509282 -121.14763729193874 0 -121.14763729193874 -1686.4329325560393 0 0 0 0 -172.50515369349159 -404.15696555372415 0 -404.15696555372415 -1940.4971762925197 0 0 0 0 38.028730139136314 2.1000397142634029 0 2.1000397142634029 -1208.0617755361891 0 0 0 0 61.486816286662361 -185.14860474208399 0 -185.14860474208399 -1618.3300193802716 0 0 0 0 -126.63767760291375 164.16634439661721 0 164.16634439661721 -629.8279386450231 0 0 0 0 19.810005839019141 306.86564324491337 0 306.86564324491337 -1163.4348782299494 0 0 0 0 -373.69197506608907 -107.12453131916845 0 -107.12453131916845 -50.799170494741702 0 0 0 0 234.14054357846908 -12.922334668875919 0 -12.922334668875919 -576.01074595817045 0 0 0 0 157.28942196162097 -6.8469572903195512 0 -6.8469572903195512 -350.85279319103574 0 0 0 0 1.0865280467338323 -20.134205808665222 0 -20.134205808665222 -9.4776732269458321 0 0 0 0 12.277045592027534 -72.960436111784858 0 -72.960436111784858 -24.826987636974856 0 0 0 0 40.460730830597186 -48.967619292956442 0 -48.967619292956442 -228.00804608209 0 0 0 0 -191.83428435300993 -188.17722259650327 0 -188.17722259650327 -122.95475252574033 0 0 0 0 236.13957309294847 -201.74104779450136 0 -201.74104779450136 -1296.1827276764566 0 0 0 0 235.37861092654288 -37.405827434118208 0 -37.405827434118208 -1974.9169982774038 0 0 0 0 -10.26033124845344 -45.978235336333455 0 -45.978235336333455 -962.87196546879591 0 0 0 0 64.345996107104611 -162.30662490486611 0 -162.30662490486611 -862.5632106023404 0 0 0 0 59.072366332582533 103.23901917086914 0 103.23901917086914 -1022.1712580641033 0 0 0 0 345.70013666555315 50.72060265095206 0 50.72060265095206 -1398.06293207829 0 0 0 0 87.73833768847544 -84.638380437638261 0 -84.638380437638261 -717.40895799522514 0 0 0 0 464.90344435100997 295.08617046795553 0 295.08617046795553 -700.75973309573601 0 0 0 0 -151.57727296764642 -189.63008981931489 0 -189.63008981931489 -863.46126804282903 0 0 0 0 68.613985497315298 -69.935704153867846 0 -69.935704153867846 -95.911827269170317 0 0 0 0 68.847866813366039 -47.856064589593188 0 -47.856064589593188 -105.15920771556557 0 0 0 0 92.533588259335374 -63.63253772931057 0 -63.63253772931057 -113.46242446884571 0 0 0 0 103.90037779451814 -93.714995646369061 0 -93.714995646369061 -89.22159643753912 0 0 0 0 56.718456032267568 -43.850857071425708 0 -43.850857071425708 -74.07081615327661 0 0 0 0 18.434026955497757 -21.174295978238661 0 -21.174295978238661 -87.408949672993913 0 0 0 0 37.972933941567213 -65.596000342072358 0 -65.596000342072358 -25.003980862250575 0 0 0 0 113.8935669783732 -7.0239836415676109 0 -7.0239836415676109 -182.97285639250185 0 0 0 0 16.883622315795947 -131.42604568389652 0 -131.42604568389652 -87.50470226201287 0 0 0 0 6.2431242633850843 -58.450314533295568 0 -58.450314533295568 -229.67566331235867 0 0 0 0 132.89405826870279 -80.83093235702836 0 -80.83093235702836 -108.50197975984338 0 0 0 0 130.63778168786666 -118.28392346130568 0 -118.28392346130568 -93.756650765579252 0 0 0 0 112.96715189622773 -87.186799016759323 0 -87.186799016759323 -103.58524340596341 0 0 0 0 -2314.3699680530844 643.31675572962195 0 643.31675572962195 -2073.2482661670438 0 0 0 0 101.48136062041158 -163.94244515567698 0 -163.94244515567698 -2.9098232916549023 0 0 0 0 219.0603720811414 -126.1109208322232 0 -126.1109208322232 -96.531529546229649 0 0 0 0 -9.5282722258427057 -16.349542307894595 0 -16.349542307894595 -11.953964426523754 0 0 0 0 -272.02782968722386 -398.64590395223786 0 -398.64590395223786 491.27303332518932 0 0 0 0 168.43097639639791 12.146759174211184 0 12.146759174211184 35.613421814399771 0 0 0 0 -319.12201451575481 -1210.4322352723088 0 -1210.4322352723088 -2170.5356056623423 0 0 0 0 -393.33196633860098 -748.10253528451722 0 -748.10253528451722 -156.07419235457201 0 0 0 0 -140.01889641882156 -396.96751951236729 0 -396.96751951236729 -757.399622731813 0 0 0 0 -324.50218372910513 -176.91051917724326 0 -176.91051917724326 -169.85512700293475 0 0 0 0 -58.736815918896355 -133.60668893842012 0 -133.60668893842012 -356.98781818740827 0 0 0 0 -7.0627338860776945 -448.50448751546719 0 -448.50448751546719 -1812.5212558587227 0 0 0 0 -200.14846605893217 -496.03488277570432 0 -496.03488277570432 -737.82064865001121 0 0 0 0 -98.382524869421559 -243.27733473531771 0 -243.27733473531771 -965.92553546800082 0 0 0 0 -74.901625471643229 -292.7987168720465 0 -292.7987168720465 -930.49262534575246 0 0 0 0 -144.26214462537132 -214.73791073389839 0 -214.73791073389839 -656.45178677327203 0 0 0 0 -5.5279711438322927 -37.416027637623017 0 -37.416027637623017 -86.080229491729369 0 0 0 0 839.77444886266221 -132.45368123556364 0 -132.45368123556364 -1910.2662593241694 0 0 0 0 -157.51926617237405 -422.03218605965958 0 -422.03218605965958 -797.79094561003149 0 0 0 0 -76.70146904463364 -446.20858102603222 0 -446.20858102603222 -869.90896007970878 0 0 0 0 -137.3061208079389 -451.6318735454588 0 -451.6318735454588 -802.08016321215109 0 0 0 0 0.66994836287565285 -4.8260794486856469 0 -4.8260794486856469 3.651094723417657 0 0 0 0 -440.11075287812946 -286.1932249265883 0 -286.1932249265883 -66.126100762117858 0 0 0 0 -8.5474279302831473 -76.004527924420714 0 -76.004527924420714 -38.073581068598941 0 0 0 0 62.344690944233662 1261.576574081475 0 1261.576574081475 -1293.8741601995862 0 0 0 0 -2207.6008892642385 -266.59995839218027 0 -266.59995839218027 -2252.7756345413218 0 0 0 0 -1545.2610158382013 1401.8355065143842 0 1401.8355065143842 -4075.3321952227707 0 0 0 0 -650.43377688220789 2547.7718561635338 0 2547.7718561635338 -4165.8627868146286 0 0 0 0 -477.37511938677017 170.25005280794721 0 170.25005280794721 -3068.6153840842017 0 0 0 0 747.8255090006669 -707.71751861996745 0 -707.71751861996745 -2466.9473228151473 0 0 0 0 -687.29354088197397 305.35799080795914 0 305.35799080795914 -1729.0543066459504 0 0 0 0 -138.4042466177707 31.053376298033982 0 31.053376298033982 -2608.2734279130382 0 0 0 0 163.8507381631789 243.57427476971498 0 243.57427476971498 -2815.2142663482227 0 0 0 0 -14.238822773336167 6.280062368156166 0 6.280062368156166 -4.738411460101517 0 0 0 0 775.56155615120588 209.33443084124156 0 209.33443084124156 -5880.4924337831144 0 0 0 0 -272.51236623166187 562.34034658101154 0 562.34034658101154 691.72621581482963 0 0 0 0 -983.34464316105095 2043.2763644006372 0 2043.2763644006372 -2652.0806469079398 0 0 0 0 168.9986295024537 -570.0874571034874 0 -570.0874571034874 -1644.1715460888736 0 0 0 0 -3.015556167605304 -15.187882007413236 0 -15.187882007413236 -16.542431110688284 0 0 0 0 -1446.4349705637251 113.35791823506588 0 113.35791823506588 1046.0318604384447 0 0 0 0 -658.31728108003699 398.03596189427481 0 398.03596189427481 -281.2749768389549 0 0 0 0 809.6027806760867 912.42111807245237 0 912.42111807245237 -2358.8286575368766 0 0 0 0 237.5044656444752 98.779779754042465 0 98.779779754042465 -2567.2146295993007 0 0 0 0 -5.1055259631209324 -2.3375316144847034 0 -2.3375316144847034 -1.3013101457274985 0 0 0 0 -308.00989427188324 -93.154010529007792 0 -93.154010529007792 -643.96425659704983 0 0 0 0 -2.2891113121846445 -21.029934689985978 0 -21.029934689985978 -75.013004456895288 0 0 0 0 1464.6464954693847 -631.86763513993355 0 -631.86763513993355 -956.12939326667401 0 0 0 0 -808.22795454358129 -42.025723708778969 0 -42.025723708778969 -980.14928121429466 0 0 0 0 -357.29458672921828 -524.99751559890137 0 -524.99751559890137 -956.74316042165447 0 0 0 0 -318.47861694395397 148.11316690492094 0 148.11316690492094 -1944.0683094493579 0 0 0 0 -495.31717710482599 302.74155228815107 0 302.74155228815107 -1771.7421396327991 0 0 0 0 -242.99702126866396 488.32442011407693 0 488.32442011407693 -3223.69640971833 0 0 0 0 -294.52151971022795 440.85990913162823 0 440.85990913162823 -2202.2666463005407 0 0 0 0 -504.30564667196631 -22.061921466323838 0 -22.061921466323838 -1413.6007765738905 0 0 0 0 -262.98718335695776 199.10853092316393 0 199.10853092316393 -1699.4212848339084 0 0 0 0 -698.41037716370465 133.01975578743441 0 133.01975578743441 -1709.4022223699722 0 0 0 0 -327.46855779527141 99.025792225445912 0 99.025792225445912 -2211.5130655023677 0 0 0 0 -690.2955674948771 284.85807344673958 0 284.85807344673958 -1156.926600582432 0 0 0 0 -5.3586729661967354 5.3015544017589775 0 5.3015544017589775 -32.882829764849589 0 0 0 0 -309.40928847582472 -509.56431910883111 0 -509.56431910883111 -2302.2643551068777 0 0 0 0 63.052383307065611 -126.48645970439975 0 -126.48645970439975 -1919.0305834232568 0 0 0 0 -501.54293486626602 312.23659698628489 0 312.23659698628489 -2044.5537133203761 0 0 0 0 -152.96759204858063 -19.970531148355803 0 -19.970531148355803 -1768.1196791573675 0 0 0 0 -205.12933403720672 -2.7643138302009902 0 -2.7643138302009902 -1732.7746777219072 0 0 0 0 36.001047164605552 -382.33899427766301 0 -382.33899427766301 -1334.8957591086073 0 0 0 0 -190.36141083523449 -490.08480515193446 0 -490.08480515193446 -1438.5599610891659 0 0 0 0 -388.22829756628016 46.527134537682286 0 46.527134537682286 -1800.5050059267378 0 0 0 0 -502.48209163425054 271.3598640041746 0 271.3598640041746 -2018.6230428082999 0 0 0 0 -231.51915816582323 306.51454717033084 0 306.51454717033084 -2117.4140906750254 0 0 0 0 3.71254855704683 -22.521445191028761 0 -22.521445191028761 -1793.4157999395611 0 0 0 0 -265.8288632633612 502.00675159850653 0 502.00675159850653 -2957.829682353622 0 0 0 0 -13.387209890501254 -49.985890319250757 0 -49.985890319250757 -1818.147826550121 0 0 0 0 -358.01834687683731 857.57602391532419 0 857.57602391532419 -2309.7194264900754 0 0 0 0 -232.05948260463629 -989.16592012862384 0 -989.16592012862384 -2183.0469116737004 0 0 0 0 -15.231958928801358 7.6366841924377624 0 7.6366841924377624 -3.584814434566681 0 0 0 0 -1173.0555577950799 379.75051156889822 0 379.75051156889822 -1810.6455973708744 0 0 0 0 -40.237604704247438 23.877523767039634 0 23.877523767039634 -16.639509915135889 0 0 0 0 -12.475769433342066 71.473906496732525 0 71.473906496732525 -57.440383600784116 0 0 0 0 -420.21343080520819 -244.27010421118757 0 -244.27010421118757 -695.69671940847184 0 0 0 0 -14.490942870867826 8.4501556707722614 0 8.4501556707722614 -14.058363923521711 0 0 0 0 -4.9281539897801849 17.507272041082615 0 17.507272041082615 -99.052410689968383 0 0 0 0 9.8612557106862369 -0.9478157481062226 0 -0.9478157481062226 -89.803243945672875 0 0 0 0 2.9904795199254295 21.351650420190708 0 21.351650420190708 -124.60220782179385 0 0 0 0 -0.59496557259949867 12.780485658289962 0 12.780485658289962 -24.082138062292017 0 0 0 0 40.991367154965701 57.21051123230427 0 57.21051123230427 -154.52648537037203 0 0 0 0 -10.851367284608347 30.596372888830501 0 30.596372888830501 -89.934255320882869 0 0 0 0 -39.261398758895666 37.837493822442411 0 37.837493822442411 -89.370292061925284 0 0 0 0 -524.13233971909131 -219.4695712790126 0 -219.4695712790126 -1079.8886651603098 0 0 0 0 5.7897090879791122 8.1753138814469324 0 8.1753138814469324 -108.71829377177471 0 0 0 0 128.13768554446688 -330.1606658233577 0 -330.1606658233577 -1372.0843085891684 0 0 0 0 -275.16599878487 -417.63392396502604 0 -417.63392396502604 -1406.7671991277603 0 0 0 0 7.8643214445470129 14.876322947189209 0 14.876322947189209 -36.52952684576745 0 0 0 0 -134.13483648816782 -210.78507910237386 0 -210.78507910237386 -988.91549399188079 0 0 0 0 -1.9070885807111324 6.1978405155018095 0 6.1978405155018095 -26.982909155324506 0 0 0 0 1.6876972434547497 0.77175223118683789 0 0.77175223118683789 -163.14926749430015 0 0 0 0 -7.828912574070273 1.4827807950641727 0 1.4827807950641727 -115.18852469226113 0 0 0 0 -7.2054317792135407 4.2464733103115577 0 4.2464733103115577 -131.89547189162113 0 0 0 0 8.892700680255075 15.106475535983918 0 15.106475535983918 -133.57082081406043 0 0 0 0 42.543999469782875 -12.16347549387865 0 -12.16347549387865 -170.88431699500507 0 0 0 0 -166.36948197855565 -216.85499128988158 0 -216.85499128988158 -257.13679521546874 0 0 0 0 -15.236352440550036 17.443696755450219 0 17.443696755450219 -137.31557181355311 0 0 0 0 9.1429681434182335 0.5078096887919159 0 0.5078096887919159 -105.50667168088938 0 0 0 0 4.1229166329979066 10.736136223096253 0 10.736136223096253 -94.515087788903372 0 0 0 0 -10.751099025357689 42.758203836878238 0 42.758203836878238 -120.22740185353905 0 0 0 0 12.555275148990404 17.279611916710564 0 17.279611916710564 -111.27212679707736 0 0 0 0 3.0090879415638483 15.628362865369127 0 15.628362865369127 -90.577565070736455 0 0 0 0 -152.59790043147586 95.764534552428813 0 95.764534552428813 -74.250056306627812 0 0 0 0 -25.823992534742992 26.572666355878283 0 26.572666355878283 -30.097626915983039 0 0 0 0 14.426927274571858 9.592758153259723 0 9.592758153259723 -23.965236594849749 0 0 0 0 9.3993079325646249 99.964597558864625 0 99.964597558864625 -177.05916883128521 0 0 0 0 -5.7651751390076242 61.999527269887039 0 61.999527269887039 -153.06314386285703 0 0 0 0 20.466812021786112 -24.113435995231384 0 -24.113435995231384 -57.89805255685593 0 0 0 0 22.854873244267907 0.80019018716828327 0 0.80019018716828327 -70.854283826564881 0 0 0 0 13.42410108918375 -8.6953534726308135 0 -8.6953534726308135 -72.105728928632743 0 0 0 0 2.8645766017159637 5.7708072246422653 0 5.7708072246422653 -71.286262091981939 0 0 0 0 13.522985947587586 19.700232115952531 0 19.700232115952531 -106.73455398893566 0 0 0 0 -452.965775617291 260.34749022512187 0 260.34749022512187 -135.38597788484185 0 0 0 0 -1.9772271227859974 6.2218545048046394 0 6.2218545048046394 -6.7039887799561484 0 0 0 0 9.5341542749331296 -13.26946242792576 0 -13.26946242792576 -27.143240637899829 0 0 0 0 -27.814269496911947 -80.00742035777148 0 -80.00742035777148 -172.12765970909095 0 0 0 0 11.890068675831571 5.076584301161347 0 5.076584301161347 -89.683159149157291 0 0 0 0 7.4006381706671647 -5.71062965909627 0 -5.71062965909627 -41.138685680208248 0 0 0 0 4.6081699838105123 -7.2762398400645907 0 -7.2762398400645907 -125.05593915091595 0 0 0 0 21.598101166942797 18.460234204416338 0 18.460234204416338 -95.180573438905412 0 0 0 0 20.60840056241981 -18.011261410195317 0 -18.011261410195317 -114.63026059582523 0 0 0 0 27.879742886912936 29.282322105973435 0 29.282322105973435 -154.23332546630991 0 0 0 0 10.89217513308904 -10.510492581510334 0 -10.510492581510334 -143.82020945288241 0 0 0 0 50.567178630408307 34.1330660044041 0 34.1330660044041 -157.44389216118725 0 0 0 0 -49.107440661748115 -60.828911832613812 0 -60.828911832613812 -177.23445983375495 0 0 0 0 -38.940706669370229 -107.64457859676804 0 -107.64457859676804 -241.29899886099156 0 0 0 0 -22.878745539514057 40.941083974088542 0 40.941083974088542 -306.73209922791284 0 0 0 0 25.068051502967137 14.538048970105592 0 14.538048970105592 -195.41582690305586 0 0 0 0 -8.8735345144814346 42.181277259216586 0 42.181277259216586 -191.5740957609105 0 0 0 0 -7.4425466201968931 49.725936677351655 0 49.725936677351655 -75.629678450198412 0 0 0 0 -1.8086616317959852 -6.8615801222331356 0 -6.8615801222331356 38.9146688324563 0 0 0 0 -5.7561136697950133 65.762458873650758 0 65.762458873650758 -138.8518450179763 0 0 0 0 2.6359512874717268 26.513830617958533 0 26.513830617958533 -14.769425674849213 0 0 0 0 2.2227159174799453 51.878093816747423 0 51.878093816747423 18.173664443573216 0 0 0 0 14.069831065575077 24.785875489476169 0 24.785875489476169 -6.2222047383824579 0 0 0 0 50.203008776945353 -14.968199226510478 0 -14.968199226510478 101.33541249091149 0 0 0 0 -10.533688484259571 59.874006932413977 0 59.874006932413977 -76.138124176337442 0 0 0 0 -322.33604293964254 247.73249067596498 0 247.73249067596498 -321.88100366429717 0 0 0 0 9.1694366935947063 -5.5014209351552665 0 -5.5014209351552665 -65.190560985140564 0 0 0 0 280.96838982337249 -58.147219708254852 0 -58.147219708254852 -226.26659199254937 0 0 0 0 335.9624666996333 57.711909782563453 0 57.711909782563453 -594.23148667311762 0 0 0 0 -311.92150317884352 296.36028618513956 0 296.36028618513956 -228.31654988935043 0 0 0 0 -32.393633509924257 44.577980298090552 0 44.577980298090552 18.642643935541855 0 0 0 0 278.39669133040843 296.53426959489298 0 296.53426959489298 -1241.2568641121907 0 0 0 0 -449.72195926394033 174.45225648396081 0 174.45225648396081 -326.38027610510471 0 0 0 0 -436.43507538468657 396.54126053649816 0 396.54126053649816 -401.94660118813044 0 0 0 0 -326.55418319013552 396.83334362873575 0 396.83334362873575 -434.18177445809124 0 0 0 0 -12.758181094675685 4.652968197589658 0 4.652968197589658 6.9556456392906227 0 0 0 0 -25.981955012040999 24.764295808236056 0 24.764295808236056 15.400557152206602 0 0 0 0 -23.465909308735718 -96.612096611192101 0 -96.612096611192101 -351.09632489136129 0 0 0 0 -66.522404397994251 120.17925906152232 0 120.17925906152232 -123.2479497489403 0 0 0 0 -47.208489113090764 39.381311335215287 0 39.381311335215287 -69.504326311580371 0 0 0 0 -65.794025073948433 -38.384578699246049 0 -38.384578699246049 -1.1099476195886382 0 0 0 0 -73.980960749617225 151.4274271762406 0 151.4274271762406 -425.78943654219256 0 0 0 0 -437.24459859747003 411.3945887083828 0 411.3945887083828 455.83309598188498 0 0 0 0 -213.52407992486405 -158.46543006922002 0 -158.46543006922002 273.22820909636357 0 0 0 0 -153.80047214032675 -87.759042573597981 0 -87.759042573597981 -28.266994705656543 0 0 0 0 -1645.4011688341579 951.6588267350744 0 951.6588267350744 -634.09113724165945 0 0 0 0 -548.2238530561699 550.88002216325549 0 550.88002216325549 -447.3808054652327 0 0 0 0 -578.41641291503583 506.51641765517707 0 506.51641765517707 -487.10313118499471 0 0 0 0 -671.82567339458683 199.39146181161959 0 199.39146181161959 -218.83865653601242 0 0 0 0 -1058.4081868919911 434.84372988452378 0 434.84372988452378 -242.31041449068289 0 0 0 0 -369.47787602104836 766.53498107436462 0 766.53498107436462 -1214.2934866884898 0 0 0 0 -890.70336099980454 835.22169672995369 0 835.22169672995369 -676.0452987163444 0 0 0 0 -407.0582073601945 659.7555949215166 0 659.7555949215166 -1117.1140729392937 0 0 0 0 -623.59697304839301 1129.6363252750598 0 1129.6363252750598 -1923.7052882231364 0 0 0 0 -519.90872419976586 1121.9059832872954 0 1121.9059832872954 -2415.5654395731035 0 0 0 0 -158.97070090305306 524.32683390418242 0 524.32683390418242 -1645.4723752789141 0 0 0 0 -204.1416835146847 470.36266231434274 0 470.36266231434274 -1469.3556710309203 0 0 0 0 98.321154976783873 -230.46376592601155 0 -230.46376592601155 -108.60415124931023 0 0 0 0 4.2117386601846398 0.85562625863190078 0 0.85562625863190078 -28.099826322958734 0 0 0 0 -1666.235546289503 1709.2589474612978 0 1709.2589474612978 -1571.9748123000027 0 0 0 0 -372.81129659574435 1226.3830515105437 0 1226.3830515105437 -3252.684871364856 0 0 0 0 -3.6742900103545253 128.92161811511687 0 128.92161811511687 -951.37477413978195 0 0 0 0 -237.41529395275393 -222.39805648537367 0 -222.39805648537367 -9.7780697997950483 0 0 0 0 -201.51099735440584 1355.6650122550636 0 1355.6650122550636 -1122.899936393922 0 0 0 0 138.5235587042589 -98.215103806236584 0 -98.215103806236584 -144.08970996778226 0 0 0 0 4.857666597381467 -158.35458459530491 0 -158.35458459530491 -34.364500233714352 0 0 0 0 79.82577797515296 -61.583541894764494 0 -61.583541894764494 -107.64484164799796 0 0 0 0 110.54022118248395 140.4678306371643 0 140.4678306371643 -20.06713948041579 0 0 0 0 233.87647466264571 40.240658635317232 0 40.240658635317232 -138.30537063124939 0 0 0 0 73.89340629144499 -6.5671463978978863 0 -6.5671463978978863 -150.67546800745185 0 0 0 0 127.58208684952479 77.919500803851406 0 77.919500803851406 -135.47002623180742 0 0 0 0 26.663390545223592 32.26754601367611 0 32.26754601367611 -154.78590918620466 0 0 0 0 40.678510570631261 -8.9788132439389301 0 -8.9788132439389301 -162.197025762056 0 0 0 0 62.523844968927733 5.0389895186090143 0 5.0389895186090143 -161.11279595439373 0 0 0 0 -46.787655538122635 -16.115582261059899 0 -16.115582261059899 -119.6354379719487 0 0 0 0 -25.938688022029964 -8.6424288448833977 0 -8.6424288448833977 -119.25611888439744 0 0 0 0 17.946053920422855 -58.823957393215096 0 -58.823957393215096 -104.42619264150562 0 0 0 0 
</DataArray>
<DataArray type="Float64" Name="cross_section_updated" format="ascii">
1 1 1 1 1 1 0.0098382697898589094 1 1 1 0.009944134169084004 1 1 1 0.0099581435661674836 1 1 1 1 1 1 0.0075680204503707979 0.011129414112685311 1 1 1 1 0.0099027098679249845 0.0079632112790479631 1 0.0093448306635154146 0.0049961498883520986 1 0.0031567347160756376 1 1 1 -3.5191849434568212e-12 1 1 0.010379509416208361 1 1 1 1 1 1 1 0.01010588820316078 1 1 1 1 1 1 1 1 0.011283960998006765 1 1 0.007010293672692524 1 0.011722154932030424 1 0.0093833828978304584 1 0.0056441510365211681 1 1 1 1 1 1 1 1 1 1 1 1 1 1 1 1 0.0058645645119110926 1 1 1 1 1 1 1 1 0.010065369865840917 1 1 0.010514122151866156 0.0095702933686444766 1 1 1 1 1 1 1 1 1 1 1 1 0.011018554725667448 1 1 1 1 1 0.0052142335757447943 1 1 0.0064289248418922199 1 1 1 1 1 1 1 1 1 1 1 1 1 1 1 1 1 1 1 0.005268020969033782 1 1 1 1 1 0.0078877485556984109 1 1 1 1 1 1 1 1 1 1 1 1 1 1 1 1 1 1 1 1 1 1 1 1 0.010138279635177815 1 2.4229037179357427e-10 1 1 1 0.0052302689903902383 1 1 1 0.0046743537462076157 1 1 1 0.0093813446112152414 1.4605674863998885e-09 1 1 0.0046935105034977588 1 1 1 1 0.0037893340463042834 1 1 1 1 1 0.0090742037102165204 1 1 1 1 0.01003375254952911 1 0.007813605422390138 1 1 0.0051440254880779565 1 1 1 0.010203689102698962 1 1 0.0063990246115775834 1 1 1 1 1 1 1 1 1 1 0.0052662934826113918 1 1 0.010029690326223351 1 1 1 1 1 1 1 0.0084680619337390121 1 1 1 1 1 1 1 1 1 1 1 1 1 1 1 1 1 1 1 1 1 0.002582606970363284 1 -2.8605577698237461e-09 1 1 1 1 1 0.009858362692902467 1 1 1 1 1 1 1 1 0.0035905707518284194 1 1 1 0.0052250864363486936 1 1 0.001896469809333336 1 1 1 1 0.007059947844747224 1 1 0.0084279108055654792 1 1 1 1 1 0.0068043232670087009 1 0.0090971794837522088 1 1 1 1 1 1 1 1 1 1 1 1 1 1 1 1 1 1 0.0089499746091063273 1 1 1 1 1 0.0044197787922205106 0.0023265080513071856 1 1 1 1 1 1 1 1 1 1 -2.3589250518207816e-09 1 1 1 1 1 1 1 1 1 0.0060012801413744099 1 1 0.0086349855802310572 0.0099724868410404344 1 1 1 0.010017741868317095 1 1 0.0094083583924990596 1 1 1 1 1 1 1 1 1 1 1 1 1 1 1 -2.2540476048160674e-09 1 1 1 1 1 1 1 1 0.0064273216111955765 1 1 0.0099031034448199412 1 1 1 1 1.6520588577706441e-09 1 1 1 1 1 1 1 1 1 1 1 1 1 1 0.0026902226352034896 -3.3920731501435597e-09 1 1 0.0092733282131894149 0.0036371096526218137 1 0.0098101656880632722 1 0.0033890936584022929 1 0.006116568771049033 1 1 0.0099710716869746661 1 1 1 1 1 1 1 1 1 0.0014617198462400088 0.010256436568916477 1 1 0.0073092621541557337 1 1 1 1 1 0.00053300895623390951 1 1 -5.3708234474397765e-09 1 1 1 1 0.00032515901817376652 1 1 1 0.006025847293937711 1 1 1 0.0038650139920148718 1 -2.9191811329321027e-09 1 1 0.010082012500135537 1 1 1 1 1 1 1 1 1 1 1 0.0095706557428540031 1 1 1 1 1 1 0.0095706851524560068 1 1 1 0.0095636727002345826 1 1 1 1 1 1 1 0.0034807465126453791 1 1 1 1 1 0.0090016749555735763 1 0.0085333904126246585 1 1 1 1 1 0.0084543923799738664 0.0059360154685904522 1 1 1 0.010005593258173122 0.0033169941195287725 1 0.0082590200900441203 1 1 1 1 1 1 1 0.0078652071218292471 1 1 1 1 1 1 1 1 1 1 1 1 1 1 0.0083578213819426386 1 1 0.0082572639426349917 1 0.0062230285037718769 1 1 1 1 1 1 1 1 1 1 1 1 1 1 0.0098080553364544368 1 1 1 1 1 1 1 1 1 1 1 1 1 1 1 1 0.010256054838526284 1 1 1 1 1 1 1 1 1 1 1 0.0094342779623856829 0.0086088248838163475 1 1 1 1 1 1 1 1 1 1 1 1 1 1 1 1 0.0040016326869736496 1 1 1 1 1 1 1 0.0061762033155545373 1 1 1 1 1 1 1 1 6.5476089342042521e-09 1 1 1 0.0095739761543802843 1 1 1 1 1 1 1 1 1 1 1 1 1 1 1 1 1 1 1 1 1 1 1 1 1 1 1 1 0.0080407115304035257 1 0.0058873833010887125 1 1 1 1 1 1 1 1 1 1 1 1 1 0.0057220692638561207 1 1 1 0.0099970250810442057 1 1 1 1 1 1 1 1 1 1 1 1 1 0.010041896570280311 0.0052675750482795783 1 1 1 1 1 1 1 0.0092189871616130889 1 1 1 1 1 1 1 1 1 1 1 0.0062014191281656791 1 1 1 1 1 1 1 0.008491169044165206 1 1 1 1 1 1 1 1 1 1 1 1 1 1 1 1 1 0.0093304660299299222 1 1 1 1 1 1 1 1 1 1 0.010216432793080918 1 1 1 1 1 0.010581581039348852 1 1 1 0.01059626286675735 1 1 1 1 0.0041378092067285016 1 1 1 1 1 1 1 0.0092724909983368381 1 0.0079723895491052282 1 1 0.002835402152283617 1 0.0012855897102806088 1 1 1 1 1 1 1 1 1 1 1 1 1 1 1 1 1 1 1 1 1 1 1 1 1 1 1 1 1 1 1 1 1 1 1 0.0099312510914452007 1 3.3687765840784145e-09 0.0095505311196811757 1 1 1 1 1 1 1 1 1 1 1 -1.5841953790451946e-09 1 1 1 1 1 1 1 -5.4718493971983584e-09 1 0.0094687685927173151 1 0.001851861035603336 1 1 1 1 1 1 0.0080140969541310607 1 0.010231114620489451 0.0052299440450362875 1 1 1 1 1 1 1 1 1 1 1 1 1 1 1 1 1 0.0080044905464446148 1 1 1 1 1 1 1 1 1 1 1 1 1 1 0.0091883302689084803 1 1 1 1 1 1 1 1 1 1 1 1 1 0.0070781373533218353 1 1 1 1 1 1 1 1 1 0.0088823053355690587 1 1 1 1 1 0.0017159679088552676 0.0096975229198634008 1 1 1 1 0.0057764700373581293 4.5646741247962197e-10 1 1 1 1 1 1 1 1 1 1 1 -3.245011308272705e-10 1 1 1 1 3.8908604086014542e-09 1 1 1 1 1 1 0.003395852422956612 1 1 -2.0417570238684402e-10 1 -7.8468148784205383e-09 1 1 1 0.0090303885984295614 1 1 1 1 1 1 1 0.0099875251055298805 1 1 1 1 -2.9146816696301592e-09 0.00087377502214531014 1 1 0.010229683081183397 1 1 1 0.0019990749867538626 0.017804811298227037 0.0063596061557812718 0.010033847640755711 1 1 0.0050740075670726512 1 1 1 1 1 1 1 1 0.00075325662925642897 0.002992059987572751 1 1 1 1 1 1 0.0053560217283340743 1 -5.7235889552170738e-09 1 1 1 0.0094411571459485644 1 1 1 1 1 1 1 1 1 1 1 1 1 1 1 1 1 1 1 1 1 1 1 1 1 1 1 1 0.0087716231758784777 1 1 1 1 1 1 1 1 1 1 1 1 1 1 1 1 1 1 1 1 1 0.010709367848949403 1 1 1 1 1 1 1 1 1 0.0082381063686271239 1 1 1 1 1 1 0.0099874950160206873 1 1 1 1 1 0.010293517699793985 1 1 1 1 1 0.011364319172846329 1 1 1 1 1 1 1 1 1 1 0.013121468321861203 1 1 1 1 0.013093247681857453 0.0068831139440095543 1 1 5.6296362710428483e-10 1 1 1 1 0.01001481056643537 1 1 0.0016416250611881664 1 1 1 1 1 0.012011473091929008 0.0098833199240090965 1 1 1 1 1 1 0.010028119744125694 1 1 1 1 1 1 1 0.0011526531586435185 -7.9066735797495014e-09 1 1 1 0.013149846471151895 1 1 1 0.011100786810215011 1 1 -3.1047685256080371e-11 1 0.00090019588912431531 1 1 1 0.0057474500244439203 1 1 0.0080900801838482087 0.0093450089999968077 1 1 1 1 1 1 -1.1212161130091935e-09 1 0.0011087965723075512 1 0.0085776991169485839 1 1 1 0.0099156472953198585 0.010034517463458063 1 0.0043323280527028246 1 1 1 1 1 1 1 1 1 1 1 1 1 1 1 1 0.010690245491189822 1 1 1 1 1 1 1 -3.0904661330044547e-09 1 1 1 1 1 0.0097961234724591017 1 1 1 0.0092698864602194821 1 1 1 1 0.0087648290519418866 1 0.009964301353707572 1 0.0088388011478582103 1 1 1 1 0.0033302657217975425 1 1 0.0048576888522784481 1 1 1 1 1 1 1 1 1 1 1 0.012094352960584351 1 1 1 1 0.013520050667161651 1 1 1 1 0.0019676127840926386 1 1 1 1 1 1 0.0091784071166773271 1 1 1 0.010736861977685227 1 0.0099950798626829984 0.010984373267518525 1 1 1 1 1 1 1 1 1 1 1 1 1 1 1 1 1 1 1 1 1 1 1 1 1 1 1 1 0.0088920522475697348 1 1 0.0095937319563088874 0.012207490607927092 1 0.010503770403782191 1 1 1 1 0.0049820971023330149 1 1 0.0082509923382994982 1 1 1 1 1 1 1 1 1 1 1 1 1 1 1 1 1 1 1 1 1 1 1 1 1 1 1 1 0.0095995821450686192 1 1 1 1 1 1 1 1 0.010137679004932653 1 1 1 1 1 1 1 0.010405923128555074 1 0.010008625372535128 1 1 1 0.0099080553015604769 1 1 1 1 1 1 1 0.010111134012579095 1 0.0098876954677107609 1 1 1 1 1 0.0099078628287125863 1 1 1 1 1 1 1 1 1 1 1 1 1 1 1 1 1 1 1 1 1 1 1 1 1 1 1 1 1 1 1 1 1 1 1 1 1 1 1 0.010873491772138429 0.0076314035580856854 1 1 0.010255261292908456 1 1 1 0.0088873986000179254 1 1 1 0.0088623507086794291 0.0099834329384218285 1 1 0.010282809341110104 1 1 1 1 1 1 1 1 1 1 1 1 1 1 1 1 1 1 1 1 1 0.015221672951114703 1 0.011785557682265409 1 1 1 1 1 1 1 1 1 1 1 1 1 1 1 1 1 1 1 1 1 1 1 1 1 1 1 1 1 1 1 1 1 1 1 1 1 1 1 1 1 1 1 1 1 0.0091131558605349813 1 0.0024717384000851081 1 0.0082343127395955798 1 1 0.0047606087301280114 1 1 1 1 1 1 1 1 1 1 1 1 1 1 1 1 1 1 1 1 1 1 1 1 1 1 1 0.010365474184247039 1 1 1 1 1 1 1 1 1 1 1 1 1 1 1 1 1 1 1 1 1 1 1 1 1 1 1 1 1 1 1 1 1 1 1 1 1 1 1 1 1 1 1 1 1 1 1 1 1 0.010006007556301452 1 1 1 1 0.010219790420149101 1 1 1 1 1 1 1 1 0.009041099738746625 1 1 1 1 1 0.008044429200176827 0.0069111767643953888 9.4073899017943496e-10 1 1 1 1 0.0077210576113791191 0.0032084788043932038 1 1 -3.6836048534355514e-09 1 1 1 1 1 1 1 1 1 1 1 1 1 1 0.0087413202458030137 0.0099703921694973951 1 0.0076963956457453356 1 1 1 1 1 1 1 1 1 1 1 1 1 1 1 1 1 1 0.011391162708054731 1 1 1 1 1 1 0.01429564138610943 1 1 1 1 1 1 1 1 1 1 1 1 1 1 1 1 1 1 0.0081703154705910341 1 1 1 1 1 1 1 1 1 0.0048201571749417749 1 1 0.0099655776818942162 1 1 1 1 1 1 1 1 1 1 1 1 1 1 1 1 0.0022544189821007516 1 0.0077805982643361507 1 1 1 1 0.010948510561166351 1 0.0058528750415770339 1 1 0.0087111427036010332 5.2894424083793634e-10 1 1 0.0073561692145043926 1 1 1 0.0093196565226657101 1 1 1 1 1 1 0.0099551223363721197 1 1 1 0.0010182247741314272 1 1 1 1 0.0042008226080444853 1 1 1 1 1 1 1 0.0079529314781567485 1 1 1 1 1 0.0036096517956447777 1 1 0.010260746998327764 1 1 1 1 1 1 1 0.0099167949974150703 1 1 1 0.0014756724217831058 0.007311312124668499 1 1 1 -4.8836894944725984e-10 1 1 1 1 1 0.0099698521110236048 0.0061192267647365442 0.0053915402017157164 1 1 1 1 1 1 1 1 1 0.011937310026548799 0.0077084810093903475 1 0.0077985892926739891 1 1 1 1 1 0.0077966836504572458 1 1 0.0059063190295265723 1 0.0072242946756846333 1 1 1 0.0085546362011827849 1 1 0.00074127159148182874 1 1 1 1 1 1 1 0.0025046540243599345 1 1 0.001713663021294061 0.0075562392192778001 1 1 0.0035504720503131172 1 -2.6603245370515616e-09 1 1 0.0050142779147388308 1 1 -1.5889267263036189e-09 1 0.0023301033578683331 1 1 1 0.0066282296357141742 1 1 -2.8502926715905097e-09 1 -8.8295233971469322e-10 1 1 -1.1416747616732614e-09 1 0.0079840890847358188 1 1 1 1 -3.2786676429363837e-09 -1.4628434037017302e-09 1 1 1 1 1 1 1 1 1 0.010274911326264121 1 1 1 1 1 1 1 1 1 1 1 1 1 1 1 1 1 1 0.0099436445928399279 0.012721798735903591 1 1 1 9.7230132365538902e-11 1 1 1 1 0.0040125030022306607 1 1 0.0050874974393309499 1 1 1 0.0030038509397043896 1 1 0.0050104192585053529 1 1 1 1 0.0099909860212782781 1 1 1 1 1 0.0083601570389475223 1 1 1 0.015786862974084118 0.0099711611945505867 1 1 0.0089293434578421264 1 1 1 1 1 0.00017279072523741171 0.0086961560963020306 1 1 1 1 0.0096655248668170452 1 1 1 1 -2.0910975212680427e-09 1 1 1 1 1 1 1 1 1 1 1 1 1 1 1 1 1 1 1 1 1 1 1 1 1 1 1 1 -2.5988812386856797e-09 1 1 1 1 1 1 1 1 1 1 1 0.010939507544335977 1 1 1 1 0.0091839289362784238 1 1 1 0.01487689486119044 1 1 0.010101937251071273 1 1 1 1 1 0.0095613676240681907 1 1 1 1 1 1 1 1 1 1 1 1 1 1 1 1 1 1 1 1 0.0076180173898068929 1 1 1 1 1 0.0058106965765664827 1 1 1 1 1 1 1 0.010573762218254422 1 1 1 1 1 1 1 1 1 1 1 1 1 0.0091805038699097914 1 1 1 1 1 0.012232205087995437 0.0074736660325449879 1 1 1 1 1.092811049985265e-10 1 0.0099044801395662251 1 1 1 0.0072145798691993952 0.00050506184290062062 1 1 -4.3626017989101262e-09 1 1 1 0.0027008704924250983 1 1 1 1 -2.2065666091183878e-09 1 1 0.0090291873146078668 0.009617477645225499 1 1 1 1 1 1 0.0099184042191579995 1 1 0.009848487774998655 1 1 1 1 0.0089827976782155573 1 1 1 1 1 1 1 1 1 1 1 1 1 1 1 1 1 1 1 0.0068851869373753316 1 0.010470386440825428 1 1 1 0.0096854381718561033 1 0.0080869532708589681 1 0.0027066292189694601 1 1 0.0040322251881958699 1 1 0.0036456619895434139 0.0095735643661158786 0.012398014971951761 1 1 1 0.0085243024676069749 1 1 1 1 1 1 0.0090737841736868996 1 1 1 1 1 1 1 0.012532790795180028 1 0.0088723452004631758 1 1 1 1 1 1 1 0.0099139366360255533 1 1 1 1 1 1 1 1 1 1 1 0.0098498119752248973 1 1 0.0095867776899621025 1 1 1 1 1 1 1 1 1 1 1 1 1 1 1 1 0.0097156117612672895 1 1 1 1 1 1 1 1 1 1 1 1 1 1 1 1 1 1 1 1 1 0.0099416307901330995 1 1 1 0.010005755450933755 1 1 1 1 1 1 1 1 1 1 0.010306959929917533 1 1 1 1 1 1 1 1 1 1 0.011205681013203784 1 1 1 1 1 1 0.0078594556586064849 1 1 1 0.005078545262989273 1 1 1 1 1 1 1 1 1 1 1 1 1 1 1 1 1 1 1 1 1 0.010100453308032321 1 1 1 1 1 0.0073847250354551822 1 1 0.0014491645746423608 1 1 1 1 1 1 0.00310502671479261 1 1 1 1 0.0070655963331057812 1 1 1 1 1 1 1 1 1 1 1 1 1 1 1 1 1 1 0.0075921877556846783 1 1 1 1 1 0.00098821447239231652 1 1 1 3.9574413537857289e-10 1 0.006658098954920524 1 1 1 1 1 1 1 0.0034260792936393961 1 1 1 0.0055135833352516405 0.0040279488423163017 1 1 1 1 1 0.0096981176299616861 1 1 1 0.0091350906541246349 1 1 1 1 1 1 1 1 1 1 1 1 1 1 1 0.010213747520445749 1 1 1 1 1 1 0.0099848907474460076 1 1 1 1 1 1 1 1 1 1 1 0.010077140854960823 1 1 1 1 1 1 1 1 1 0.0020448959730990962 1 1 1 1 3.8941740873599251e-09 0.0057898228189835737 1 1 1 1 1 1 1 1 0.0007009794105495952 0.0048256716680731421 1 0.0011353921300903567 1 1 1 1 1 0.0097445200402542023 1 1 1 1 1 1 0.0098910909239067861 1 0.009936334368745775 1 1 1 1 1 1 1 1 1 1 0.010045096769877769 1 1 1 1 1 1 0.007274574860731459 1 1 1 1 1 1 1 1 0.0051035040484755483 1 1 1 1 1 -4.2579150275057209e-10 1 1 5.9004651858929336e-11 1 1 1 1 1 1 0.0085535122262207584 1 1 1 1 1 1 1 1 0.0061068130730485195 1 1 1 1 0.0047047772245940476 1 1 1 1 1 1 1 1 1 1 0.0063370685555683842 1 1 1 1 1 1 1 1 1 0.00463252509799956 1 1 1 1 0.0055480931337213834 1 1 1 1 1 1 1 1 0.0072641449585551764 1 0.010739524701339679 1 1 1 0.0096706303431166388 1 1 1 1 1 1 1 1 0.0081308189105786816 1 1 1 0.005909834249872823 1 1 1 0.010232185784152048 1 1 0.0091679620338138527 1 1 1 1 1 1 1 1 1 1 1 1 1 1 1 1 1 1 1 1 1 1 1 1 1 1 1 1 1 1 1 1 1 1 1 1 1 1 1 1 1 1 1 1 1 1 1 1 1 1 1 1 1 0.0088032507177636058 1 1 1 0.008812806613735789 1 1 1 1 1 1 0.010446253719169088 1 0.0091363083833338691 1 1 1 1 0.008776899702308244 0.0091447803507359714 1 1 1 1 1 1 1 1 1 1 1 1 1 1 1 1 1 1 1 1 1 1 0.005263270534346335 1 1 0.0070645807117637079 1 1 1 0.0099283923949680282 1 1 1 1 1 1 1 1 1 1 1 1 1 1 0.0099614498107177749 1 0.0069069763351018235 1 0.005236986919036353 1 1 1 1 1 1 1 1 1 1 1 1 1 1 1 1 1 0.0076541158594146536 1 1 1 1 1 1 1 1 1 1 1 1 1 1 1 1 1 1 1 1 1 1 1 1 1 1 1 1 1 1 1 1 1 0.0099945221143080323 1 1 1 1 1 1 0.0068573866188037496 1 1 0.0088846274404765259 1 0.010042853539716994 1 1 0.006928793367317606 1 1 1 0.0095078623437573461 1 1 1 1 1 1 1 1 1 1 1 1 1 1 1 1 1 1 1 1 1 1 1 1 1 0.0099304433047692799 1 1 1 1 0.0099959407633605675 1 1 0.010066663870838086 1 1 1 1 1 1 1 1 1 1 1 1 1 1 1 1 1 1 1 1 1 1 1 1 1 1 1 1 1 1 0.0072695813962553504 1 1 1 0.0086822379904945707 1 1 1 1 0.0036198111845524381 1 1 1 1 1 0.002198188627174651 1 1 1 1 5.45969962113136e-05 1 1 1 1 1 1 1 1 1 1 1 1 1 1 0.007740064762374722 0.0040479591969653939 1 1.1110635624074581e-05 1 2.8567811137525378e-10 1 1 1 1 1 1 1 1 1 1 1 1 1 1 1 1 1 1 1 1 1 1 1 1 1 0.01038159187287192 -2.8054858262904769e-10 1 1 -2.1293743235686891e-09 1 1 0.0020267477578063253 1 1 1 1 1 1 1 1 1 1 1 0.0034121404199927898 1 1 0.007235175907120972 1 1 1 1 1 1 1 1 1 1 1 1 1 1 2.3233688670881714e-10 0.0096294696402870993 1 0.0077721555690992922 0.0031531763592275597 1 1 1 1 0.0098602391842220367 1 1 1 0.0079018684746134243 0.002046568221886951 1 1 1 1 1 1 1 0.0074099262048730827 1 1 1 1 1 1 1 1 1 1 1 1 1 1 1 1 0.0070052795940107613 1 1 1 1 0.0066159827966556358 1 1 1 1 1 1 1 0.0024493061933826164 1 1 1 1 1 1 1 0.0049018241843732475 1 1 0.0083826569885486688 1 1 1 1 1 1 1 1 1 1 1 1 1 1 1 0.0092961061600543154 1 1 1 1 1 1 1 1 0.0043003799988286674 1 1 1 1 1 1 1 0.0051496994901896742 1 1 1 1 1 0.0080071876933466256 1 1 1 1 0.0092951881305173671 1 1 1 1 1 1 1 1 1 1 1 1 0.0088050630466032023 1 1 1 1 1 1 1 1 1 1 1 1 1 1 0.010773100136125089 1 1 1 1 1 1 1 1 1 1 1 1 1 0.0080771924692416581 0.0067715928893974809 1 1 0.01355508539414803 1 1 1 1 0.0023024608388461862 1 1 1 1.580936569156588e-09 1 1 0.0064482859777863152 1 1 1 1 -9.5754435630590606e-10 1 1 1 1 1 1 1 1 1 1 1 1 1 1 1 1 1 1 1 1 1 1 1 1 1 1 1 1 1 1 1 1 1 1 0.0095037129958715216 1 1 1 0.0088811956555131088 1 0.009586007524995761 1 1 1 1 1 1 1 1 1 1 1 1 1 1 0.0085431675262047993 1 1 1 1 1 1 1 1 0.0068463709070007367 1 1 1 0.0092470613661504927 1 1 1 1 1 1 1 0.0048471524208837154 1 0.0054394972320431691 1 1 1 1 1 1 1 1 1 1 1 1 1 1 0.0091259261755686459 1 1 0.0097152744842524796 1 1 1 1 1 1 1 0.0048722986166671693 1 1 1 1 1 1 1 1 1 1 1 1 1 1 1 1 1 1 1 1 1 1 1 1 1 1 1 0.0090225053592840505 1 1 0.00049087598284352617 1 1 1 0.0030805941866616981 1 1 0.0069491393788713267 1 1 1 1 1 1 1 1 1 1 1 1 1 1 1 1 1 1 1 0.0089487719567598011 1 1 1 1 1 1 1 1 1 1 1 1 1 0.0095381202654436399 1 1 1 1 1 1 1 1 1 1 1 1 1 1 1 1 1 1 1 0.00854392573137637 1 1 1 1 1 1 1 1 1 1 1 1 1 1 1 1 0.0097500082160671773 1 1 0.010035064117643301 1 1 1 0.0060701390199777924 1 1 0.0072308186254016818 1 1 1 1 1 1 1 1 1 1 1 1 1 1 0.0064261536420425203 1 1 0.0055547067965298486 1 1 1 1 1 1 1 1 1 1 1 1 1 1 1 1 1 1 1 1 1 1 1 1 1 1 1 1 1 1 1 1 1 1 1 1 4.765068045003984e-10 1 1 1 1 0.0018434269574965391 1 1 1 1 1 1 1 1 1 1 1 1 1 1 1 0.0052924578949897841 1 2.8524347051028798e-09 0.0058924173203640344 1 1 0.0032249344805355927 1 0.005103450648388486 1 1 1 1 1 1 1 1 0.010031901361617999 1 1 0.0091292353450303301 1 1 1 1 0.0038877201068023151 0.00043745891205600532 1 0.00097535238389066456 1 1 1 1 1 1 1 1 1 1 1 1 1 1 1 1 1 1 1 1 1 0.007157868201985617 1 1 1 1 1 1 1 1 1 1 1 1 1 1 1 1 1 1 1 1 1 1 1 1 1 0.0083030846026359833 1 1 1 1 1 0.0086884681946623396 1 1 1 1 1 1 1 1 1 0.0052257051844941697 1 1 1 1 1 1 1 1 1 1 1 1 1 1 1 1 1 0.0074998302702755006 0.0083658705992162106 1 1 0.0060261226364012 1 1 1 0.0082887953035931869 1 1 1 1 1 1 1 1 1 1 0.0064365585489556155 1 1 0.0099062978267433974 1 0.0054763662412415995 1 1 1 1 0.008348535936304087 1 1 1 0.0097761637573617853 1 1 1 1 1 1 0.0099942085084595584 1 1 1 1 1 1 0.0099940762801428266 1 1 1 1 1 1 1 1 1 1 1 1 1 1 0.0092131355874080674 1 1 0.0077995261735970519 1 1 1 0.010534664291334131 0.010209233004806773 1 1 1 1 1 1 1 1 1 1 0.0035950609069875968 1 1 1 0.0045565871975430869 1 1 1 1 0.010131006759053839 1 1 1 1 1 1 1 1 2.1526457699705404e-10 1 1 1 1 1 0.00068087327448831253 0.0032826026439445061 1 1 1 0.021203772249123138 1 0.0031590408106004428 0.0074351371178890159 1 1 1 1 1 0.0031545678737638335 1 1 1 1 1 1 0.010350704215825516 1 1 1 1 1 1 1 0.0067272428376983478 1 1 0.00616902127338679 1 1 0.010025272929298173 1 1 1 1 1 1 1 1 1 1 1 1 1 1 0.0066280088998204997 1 1 1 0.0099411255619301312 1 1 2.3537393561978703e-10 1 1 1 1 0.0097494440725101397 1 1 1 1 1 1 1 1 0.0013965803482180947 1 1 1 1 0.019053097018667909 1 1 1 1 1 1 1 1 0.019146723624676412 1 1 1 1 1 1 1 1 1 0.0080430102539780762 1 1 1 0.0049133488375022599 1 1 0.0020705671369235382 1 1 -1.6347390507237547e-09 1 1 1 1 1 1 1 1 1 0.0051870266884589365 1 1 1 1 1 1 1 1 1 1 1 1 1 1 1 1 0.0089357005856155608 1 1 1 1 1 1 1 1 1 1 1 1 1 1 1 1 1 1 1 1 1 1 1 1 1 1 2.5296801910157374e-09 1 0.0014126441987962236 1 1 1 1 1 1 1 1 1 1 4.1431967752469934e-09 1 1 0.0084368553400940623 1 1 1 1 1 1 1 1 1 1 1 1 1 1 1 1 1 1 1 1 1 0.0083715119032841956 1 1 1 1 1 1 1 1 1 -4.7786989643139322e-10 1 0.0099262257529406407 1 1 1 1 1 1 1 0.010409574944332131 1 0.010349879503198114 1 1 1 1 1 1 1 1 1 1 1 0.015041301162596249 1 1 1 1 0.0098420231840294914 1 0.0042380439010363674 1 1 1 1 1 1 0.019233030227659723 1 1 -1.0553500226495593e-09 1 1 0.00030715620308119015 1 1 1 0.0030541720141610117 6.3442298636751104e-10 0.0042821268577371181 1 1 1 1 1 1 1 1 1 1 1 1 1 0.0084356137249605653 1 1 1 1 1 1 1 0.010292985570922024 1 0.0064655294990655365 1 0.013911912609464078 1 1 0.0098331444211930043 0.010002062535094707 1 1 1 1 1 1 0.00020814218654010425 1 1 1 1 0.0098115628409540176 1 0.011432421392657516 1 0.0095016341039958138 1 0.011407617359738546 1 1 1 1 0.0032809552076648457 1 1 1 1 1 0.0073108742070457852 1 1 1 1 1 1 1 1 1 1 1 1 1 1 0.010429504932175364 1 1 1 1 1 0.0096599052075096725 1 1 1 0.0091187324135989234 1 1 1 1 1 1 1 1 1 1 1 1 1 1 1 1 1 0.013018188360219216 1 1 1 1 0.012352846373037234 1 1 1 1 1 1 0.010140792046190505 1 1 1 1 1 1 1 1 1 1 0.0087784039152095164 1 1 0.0097978975864451076 1 0.010018200480344443 1 1 1 1 1 1 1 1 1 1 1 0.0090134342992381142 1 1 1 1 1 1 0.010288946365037015 1 0.0070987466374043962 0.010285181588006266 1 0.0095089024846643517 1 1 1 1 1 1 1 0.0089576936841283886 1 1 1 1 1 1 1 1 1 1 1 1 1 1 1 1 0.0098935171529055538 1 1 1 1 1 1 1 1 1 1 0.009036838117980471 1 1 1 1 1 1 1 1 1 1 0.0078874621214633581 1 1 1 1 0.0088494211940790789 1 1 1 1 1 0.008650868597865187 1 1 1 1 0.0090926369320825026 1 1 1 1 1 1 1 1 1 1 1 1 1 1 1 1 1 1 0.0097918617990353229 1 1 1 1 1 1 1 1 0.0076882612220136246 1 0.011651910912805492 0.0099929845493828065 1 1 1 1 1 0.010723108408511577 1 1 1 1 1 1 1 1 1 1 1 1 1 1 0.0093850838565670662 1 1 0.010512045690034433 1 0.0092525616124264146 0.0078996898038424523 1 1 1 1 1 1 0.0081948978245427601 1 1 1 1 0.0097305169624843871 1 0.0093720976917637724 1 1 0.010384968630153577 1 1 1 1 1 1 0.0099130689314919848 0.0049142836274613036 1 1 1 1 1 1 1 1 1 1 1 1 1 1 1 0.0083971625418176842 1 1 1 1 1 1 1 0.010110018379006375 1 0.010955374706040227 1 1 1 0.010333995207453589 1 0.012063396555115916 1 1 1 1 1 1 1 1 0.0096666416230400953 1 1 1 1 1 0.01173042423078419 1 0.001553746556189374 1 1 1 1 0.0039386461519131388 1 1 1 1 1 0.0076434755947351468 1 1 1 1 1 1 1 1 1 1 1 1 1 1 1 1 1 1 1 1 1 1 1 1 0.0034503740795712723 1 1 1 0.004325081813702232 1 0.0061575688958667996 1 1 1 0.0080418133766010126 1 1 1 1 1 1 1 1 1 1 1 1 1 1 1 1 1 0.0096012328135045982 0.010062621256371284 0.010009687504951247 0.0078040420129538417 1 1 1 1 1 1 0.0088286454429162345 1 1 1 0.0068560500371481065 1 1 1 1 1 1 1 1 1 1 0.011983739669943407 0.0075891119742274218 0.0099172244648630392 1 1 0.017101743149850843 0.010093781189742475 1 1 1 1 1 1 1 1 1 0.0062684501933236159 1 1 1 1 1 1 1 1 0.0028101600086455521 0.010188913448510847 1 1 1 0.0099102341794748885 1 1 1 1 1 1 1 1 1 1 1 0.0054289126951804056 1 0.0099417107441167624 1 1 1 1 1 0.010000936795432819 0.014681857687283695 1 1 0.0045486397847372337 0.0077849384939951572 1 1 1 1 1 1 1 1 1 1 1 1 1 1 1 1 1 1 1 1 1 1 1 1 1 1 1 1 1 1 1 1 1 1 1 1 1 1 1 1 1 1 0.0013265491391887818 0.0091960845892211547 1 1 1 1 1 1 1 1 1 1 1 1 1 1 1 1 1 1 1 1 0.0080999453948298224 1 1 1 1 1 1 1 1 1 1 1 1 1 1 1 1 0.010172605401366094 1 0.0086944691025124254 1 1 1 1 1 1 1 1 0.0042358756401475184 1 1 1 1 1 1 1 1 1 1 1 0.010005413515196038 1 1 0.0096440142764632926 1 1 0.0062060442112272483 1 1 1 1 0.012243082933658276 1 1 1 1 0.0099929435202784009 1 1 0.0085472742161082742 1 0.0077154430688816389 1 1 1 1 1 0.0071637835656073456 1 1 1 1 1 1 1 0.0089457170864367455 1 1 1 1 1 1 1 1 1 1 1 1 1 1 1 1 1 1 1 1 1 1 1 1 0.0070998630145904518 1 1 1 0.0097725174813385537 1 1 0.0073074903784585005 1 1 1 0.0084702120862250804 1 1 1 1 0.0085239595798423107 1 0.0081810271707132842 1 1 1 1 1 1 1 1 0.010249780541857698 1 1 1 1 1 1 1 1 1 1 1.1632521057514111e-09 1 1 0.0099486091441391214 1 1 0.0060849094501979409 1 1 0.0020857725405604641 0.010695226570167728 1 1 1 1 1 1 1 0.0096292619258580639 0.0068871012018300107 1 1 1 0.0059901249445940621 1 1 0.0069361639353380002 0.0081568314685324227 1 1 1 0.0093624746984324603 0.0087464817819270374 1 0.0036808456145996753 1 1 0.0099997618460735301 1 1 1 1 0.00738676877631185 1 0.0086058259803644954 0.0071427211961879455 1 1 1 0.0069961051711758399 1 0.010260446253516119 0.0084466262080117593 1 0.0084682906779104811 0.007066046844097465 0.010058058887336262 0.0092520042085737393 1 0.0084953865434768336 1 0.0059787678140132416 1 0.0067584391952829198 1 1 1 0.011533334326539246 1 1 0.0051751168786381557 1 0.0038295962715554147 0.010668430134138665 1 1 1 1 0.0038454851138659749 1 0.0059861996180077606 0.0074227867577105686 1 1 1 0.0086625072370781001 0.0090114193127808842 1 1 0.0094374761741809962 0.008172556394444884 1 1 1 1 0.0099635901052554723 1 1 1 1 0.0099336506483660002 1 1 1 1 0.0099352367185028476 1 0.0098846860594576664 1 0.0094769253211260188 1 0.0093519419339956819 1 0.0094806463589729127 1 0.010000193113725721 1 1 1 1 1 0.0091715793167580634 1 1 0.0098492315128929087 0.010048221486562904 0.0089034632208605594 1 1 0.009536329984177 0.0090086503219896849 1 0.0096230219827014088 1 1 0.0097667249156498312 1 1 1 1 1 1 0.0099022836788752594 1 1 0.0092309706648016285 1 0.0099629329892323287 1 1 1 1 0.0099523564198282666 1 0.0099857027542601291 1 0.010013092623957338 1 1 1 0.0094519511945888868 1 1 0.010057051810417087 1 0.0089675660475524235 1 0.009985804303286331 1 1 1 1 1 0.0093659092441565131 1 1 1 1 1 1 1 1 1 1 0.0086555335360010213 1 1 1 1 0.0097909951736505421 1 1 0.011005608288789433 1 1 1 1 1 0.0085485175550681861 1 1 0.0053063448205507013 1 1 1 0.0047679148978164096 1 0.0094034077936662047 1 1 1 0.0038517801911118546 1 1 1 1 0.0082951116418920647 1 1 1 1 0.0098300310566193441 0.0086685536850048643 1 1 1 1 1 1 0.008724047633687497 1 1 0.0070927223849533705 1 1 1 1 1 1 1 1 1 1 1 1 1 1 1 1 1 1 1 1 1 1 1 1 1 1 1 1 1 1 1 1 1 1 1 1 1 1 1 1 1 1 1 1 1 1 1 1 1 1 1 1 1 1 1 1 1 1 0.0037437754485441822 1 1 1 1 1 1 1 1 1 1 1 1 0.0014082094436869731 1 1 0.0061016985539613655 1 1 1 0.0098265607385516797 1 1 1 1 1 1 1 1 1 1 1 1 1 1 1 0.0053712521707492862 1 1 1 1 1 1 1 1 1 1 1 1 1 1 1 1 0.0065966232139411801 1 1 1 1 1 1 1 1 1 1 1 1 1 0.0030908631649373339 1 1 0.0099542448565282556 1 1 0.011468494498463995 1 0.0045861524998560936 1 1 1 1 1 1 1 0.0044482482464816356 1 1 1 1 1 1 1 1 1 1 1 1 0.0093592912648181315 1 1 1 0.010000400232437374 1 1 1 1 1 1 1 1 1 0.0080143017175985029 1 1 1 1 1 1 0.0077841221816128073 1 1 1 1 1 1 0.0048939612747755448 1 1 1 0.0078144039641097479 1 1 1 1 1 1 1 0.0038230781122478782 1 1 1 1 1 1 1 1 1 1 0.011476742850941073 1 1 1 1 1 1 1 1 1 1 1 1 1 1 1 1 0.014246246303675726 1 0.0099941995065677414 1 1 1 1 1 1 1 1 1 1 1.4338323028884048e-09 1 -2.8965836673666701e-10 1 1 1 1 1 1 1 1 1 1 1 0.013294648774955991 1 1 1 1 1 1 1 1 1 1 1 0.011334269002148817 1 1 1 1 1 1 1 0.0094936581871106554 1 1 1 1 1 1 1 0.0098141566794169646 1 1 1 1 1 1 1 1 1 1 1 0.0068695708080905565 1 1 1 1 1 1 1 1 0.015198150636591889 1 0.0019070166287863165 1 1 1 1 1 1 1 1 1 1 0.0094146371752548818 1 1 1 0.0087513846731325107 1 1 1 1 1 1 1 1 1 0.001060935229406243 1 1 1 1 1 1 1 1 1 1 1 1 1 1 1 1 0.011238941150312562 1 1 1 1 1 1 1 1 1 1 1 1 1 1 1 1 1 1 0.0083262794039395127 1 1 0.0058715860475752682 1 1 0.008281241387490472 1 1 1 1 1 0.0086006751330480503 1 1 1 1 1 1 1 1 1 1 1 1 1 1 1 1 1 1 1 1 1 1 1 1 1 1 1 1 1 1 1 1 1 1 1 1 1 1 1 1 1 1 1 1 1 1 1 1 1 1 1 1 1 1 1 1 1 1 1 0.0090173137523200594 1 1 0.0086812086795066655 1 1 1 1 1 1 1 1 1 1 1 1 1 1 1 1 1 1 1 1 1 1 1 1 0.0087228326342898063 0.0082109848033753621 1 1 1 1 1 1 1 1 1 1 1 1 1 1 1 1 0.010249152641122198 0.0035252147404281862 1 1 1 1 1 1 1 0.0073833492808249111 1 0.0097824926627073892 1 1 0.0079666835983043666 0.010049021140581108 1 1 1 1 1 1 1 1 1 1 1 0.0099765392051708486 1 0.014407808148627712 1 1 1 0.011349500488420112 1 1 1 0.0047152211323711803 1 0.003212491287520056 1 1 1 1 1 0.0047995660941344657 0.0055899833822712422 1 1 1 1 1 1 1 1 1 1 1 1 1 1 1 1 1 1 1 1 1 1 1 1 1 1 1 1 1 1 1 1 1 1 1 1 1 1 1 1 1 1 1 1 1 1 1 1 1 1 1 1 1 1 1 1 1 1 1 1 1 1 1 1 1 1 1 1 1 1 1 1 1 1 1 1 1 1 1 1 1 1 1 1 1 1 1 1 1 1 1 1 1 1 1 1 1 1 1 1 1 1 1 1 0.0072384333774975973 0.011054186169586921 1 0.0018601522234520866 1 0.0098047376190999007 1 1 0.0071223233197899747 1 1 1 1 0.0096283317752523922 1 1 1 1 1 1 1 0.00046869787550060226 0.0090247617444294114 0.0086177919147724883 1 1 1 1 1 -1.998631383656746e-09 0.0073894178428127255 1 1 1 1 1 1 1 1 1 1 1 1 1 1 1 1 1 1 1 1 1 1 1 1 1 1 1 1 1 1 1 1 1 1 0.012093001677511329 1 1 0.010784146298042901 1 1 1 1 1 1 1 1 1 1 1 0.0094103758373906259 1 1 1 1 1 1 1 0.0080160135375094387 1 1 1 1 1 1 1 1 1 1 1 1 1 1 1 1 0.00061459160613222194 1 1 0.010748765023908539 1 1 1 1 1 1 1 1 1 1 1 1 1 1 1 1 1 1 1 1 1 1 1 0.0070978098185960313 1 1 0.0088778959750652614 1 1 0.0087706872108504873 1 1 1 1 1 1 1 0.0073763249109693001 1 1 1 1 1 1 0.010436525805755732 1 1 0.011302746718500387 1 1 1 1 0.010501588684420001 1 0.010170995688470056 1 1 0.0017605675710488959 1 1 1 1 0.010865820963662159 1 9.9382441648322804e-05 1 1 -6.9844767903309846e-10 1 1 1 1 1 1 1 1 1 1 1 1 0.012767578570151435 1 1 1 -1.9153065782678835e-09 1 1 0.00035377851294310717 1 1 1 1 0.010331492858317134 1 1 1 1 1 1 1 1 1 1 0.010077448364888398 1 1 1 1 1 1 1 1 1 1 0.0075477014895000138 1 1 1 1 1 1 1 1 1 1 1 1 0.0059953582381586752 1 1 0.0064245990695985383 1 1 1 1 1 1 1 1 1 1 0.0064847680427261283 1 1 1 1 1 0.0062385553037427911 1 0.0084264640538948068 0.0052557506097939029 1 1 0.0062756832904140962 1 1 1 1 1 1 1 1 1 0.010344283830471894 0.0044180260361004267 1 1 1 1 1 1 0.010181865832536397 1 1 1 1 1 1 1 1 1 1 1 1 1 1 1 1 1 1 1 1 1 1 1 1 1 0.010143339294072332 1 1 1 1 1 1 1 1 1 1 1 1 1 1 1 1 1 1 1 1 1 1 1 1 1 1 1 1 1 1 1 1 1 1 1 1 1 1 1 1 0.0067007046603092101 1 1 1 1 1 1 1 1 1 1 0.010339724187389827 1 1 1 0.0058348713660961865 1 0.0056276944273738489 1 1 1 0.011008881256680382 1 1 1 0.010003312391677132 1 0.0038860855414397377 1 0.0068863967815446792 1 0.0063632911824916746 0.010553896076809125 1 1 0.0080057098209326688 1 1 1 0.009928801243075755 1 1 1 1 1 0.0099377351049484142 1 1 1 1 0.007925266349260324 1 1 1 0.00627000417111475 1 1 1 1 0.0062243476452683126 1 0.010058344403847931 1 1 1 1 1 1 1 1 1 1 1 1 1 1 0.010196006515258501 1 1 1 1 0.0016314732332577339 1 1 0.0032768931637920159 1 1 0.0044468121285859905 0.0099845499989307512 1 1 0.0050535478852519067 1 0.0076628674287997165 1 1 1 0.010281927307914048 0.00764688482701157 0.0069713164018455395 0.0061719576986221797 1 1 0.011018387658210217 1 1 1 1 0.0017929146700501001 1 0.012131458888395164 1 1 0.0062746237007407016 -7.8293590968087079e-10 0.010040371367352554 1 1.1267892018745895e-09 1 1 0.00643899246609601 0.0021842936346431613 -5.0973993082070734e-10 1 1 1 1 1 1 1 1 1 0.0047637630849369714 0.0083571160020069618 1 1 1 1 0.0077740135750974104 0.0069813181405199015 1 1 1 0.013970592452747451 1 0.0092013384947645226 1 1 1 1 1 1 1 1 1 1 1 0.018620424423220996 1 1 1 1 1 1 1 1 1 1 1 1 1 1 1 1 1 1 1 1 1 1 1 0.0095001543053290574 1 1 1 1 1 1 1 1 1 1 1 1 1 1 1 1 0.011401645782354173 1 1 0.0088241106867317388 1 1 1 1 1 1 1 1 1 1.8490625454392617e-09 1 1 1 0.0058126479950366527 0.00065366118158723639 1 1 0.010018599186148325 1 1 1 1 1 -8.5261769866562531e-11 1 0.0088582290516502626 1 1 1 0.0008950531219463348 1 1 1 1 1 1 1 1.8949916462396299e-09 1 1 0.009579237684447621 1 1 1 1 0.0002312021489784058 1 1 1 0.0096212149447570464 0.010007972478629829 1 1 0.0021120405673005806 1 1 1 0.0056792179787524049 1 1 1 1 1 1 1 -5.549916696351298e-09 1 1 0.012141283945370902 1 0.0020793807077916573 0.0091134988489104465 0.0045035123785140477 1 0.0025547577774292993 1 0.0094324416330930656 0.0097084342294707655 1 1 1 1 1 1 0.0091568501333112867 1 1 0.007236386120864878 1 1 1 1 1 1 1 1 1 1 1 1 1 1 1 1 1 1 1 1 1 1 1 1 1 1 1 1 1 1 1 1 1 1 1 0.0099826929597369926 0.01127527860079095 1 1 1 1 1 1 1 1 0.0035616847282689146 0.004140296102221731 0.018123523067883847 0.011230445021901649 1 1 0.00029767895096693454 1 1 1 1 1 1 1 1 -8.3903314851418997e-10 1 1 0.0092469426871390429 1 1 1 0.004512826300492173 1 1 1 1 0.0020554121398966168 1 1 1 1 1 1 1 1 1 1 1 1 1 1 0.00023091951292580036 1 1 1 1 1 0.013574470034056063 1 1 1 1 1 1 1 1 0.0085489056438121502 1 1 1 0.0023218182578744698 0.014233706748253897 1 1 0.012661524089918602 0.0019427561673597809 1 1 1 1 1 0.0092035995724356022 1 1 1 1 1 1 0.0096982350456587506 1 0.019010336602049965 1 1 1 1 1 1 1 1 0.0011060347653643852 0.0029617855107184274 1 0.017842789469478506 0.0099854389650298522 0.018385942555721908 1 0.0057249570762921281 1 1 1 1 1 1 0.0052369220578334695 1 1 1 1 1 1 1 0.0048640420346518758 1 1 1 1 1 1 1 1 1 1 1 1 1 1 1 1 1 1 1 1 1 1 1 1 1 1 1 1 1 1 1 1 1 1 1 1 1 1 1 1 1 1 1 1 1 1 1 1 1 1 1 1 1 1 1 1 1 0.0093435323715630753 1 1 1 1 1 1 1 0.0080008776790056503 1 1 0.012465386559281418 1 1 1 6.7259033151995107e-10 1 0.010012132551840063 1 1 0.010257477044192378 1 1 1 1 1 1 1 0.00058105306546475839 1 1 1 0.0087540901362307549 1 1 1 1 1 1 1 0.0016477998467478369 1 0.0089066680860508535 1 1 1 1 1 1 1 1 1 1 1 1 1 1 1 1 1 1 1 1 1 1 1 1 1 0.010029201515829596 0.0094297481222936526 1 0.010445455396824 1 1 1 1 1 1 1 0.0033001634485656907 1 0.005363186241580031 1 0.005448357270726489 0.0019813997942170801 0.015616805990775102 1 1 0.012726204414713419 1 1 0.0085015073632016061 1 1 1 0.009519111963896397 1 1 1 1 1 1 1 0.0011439649028105597 0.0076306237122293757 1 1 0.00025207820029377482 1 1 1 0.010655037014974188 1 1 1 1 0.0023077828974822738 1 0.0097746053371781088 1 1 1 1 1 1 0.0099845207034311625 1 0.010005693886191025 1 1 1 1 1 0.0099619841698682585 1 1 0.0099835369136679827 1 1 1 1 1 1 1 1 1 1 1 1 1 1 1 1 0.009907110080178666 1 1 0.0090279375930786068 0.010022767967466852 1 0.010031984269343742 1 1 1 1 1 1 1 1 0.0095997601229695848 1 1 1 1 1 1 1 1 1 1 1 1 1 1 1 1 0.011385498929566404 1 1 1 0.0099784303478667041 1 1 0.012607642056288259 1 1 1 1 1 1 0.013565060182745815 1 1 1 1 1 1 1 1 1 1 1 1 1 1 1 1 1 1 1 0.0019711484172379862 0.010046290186937368 1 1 1 1 1 1 1 4.868577554995035e-09 1 1 1 0.010057482430207154 1 1 0.0010598737877770478 1 0.0034724692398578755 1 1 0.0059371883631700699 1 -1.2178019426212217e-09 0.0093861286619875799 1 0.0064899775457733441 1 0.0087671365096688974 1 0.0073890958080269787 1 1 1 1 1 1 1 1 1 1 1 1 1 1 1 0.0087897862437053467 0.0088698173295734192 1 1 1 1 1 1 1 0.001155392141178966 1 1 1 1 1 1 1 1 1 1 1 1 1 1 1 0.0061914170082196726 1 0.0095522373016301149 1 1 1 1 1 1 0.0054044706045811297 1 1 1 0.00035476080503510365 1 1 1 0.0092622493278159621 1 1 1 1 1 1 1 1 1 1 1 1 1 1 1 1 1 1 1 1 1 0.010269191535048044 1 1 1 1 0.010203485907515724 1 1 1 1 1 0.0124024686123237 1 1 1 0.011429942315414811 1 1 1 1 1 1 1 1 1 1 1 1 0.01022777213302048 1 1 1 1 0.010463688689262916 1 1 1 1 1 1 1 1 0.010011276836524297 1 1 1 1 1 1 1 0.0085042298506620498 1 1 1 1 0.009980520294067461 1 1 1 1 1 1 1 1 0.009971145152967615 1 1 1 1 1 1 1 1 1 0.0083082777782265346 1 1 1 1 1 1 1 1 1 1 1 1 1 1 1 1 1 1 1 1 1 1 1 1 1 1 1 1 0.0090326358533511231 1 1 1 1 1 1 1 0.0072470783486365611 1 1 1 1 1 1 1 1 1 1 1 1 1 1 1 1 1 1 1 1 1 1 1 1 1 1 1 1 1 0.0097100120261858561 1 1 1 1 1 1 1 1 1 1 1 1 1 1 1 1 1 1 1 1 1 1 1 1 1 1 1 1 1 1 1 1 0.0092417089207607814 1 1 0.0096624712363131485 1 1 1 1 0.0087101218062944873 1 1 0.0086961523534577149 1 1 1 1 0.0078807535675949336 1 1 1 0.0079657156074484543 1 1 1 0.0098801081196511556 1 1 1 1 1 1 1 1 1 1 0.009644632949227145 1 1 0.00091308094756056835 1 1 1 1 1 1 0.0079398852535419624 1 1 1 1 1 0.00040792499407221045 1 1 1 1 0.00014154092782744931 1 1 1 1 1 1 1 1 1 1 6.0983994798480268e-09 1 1 1 1 1 1 1 1 1 0.0096940626154329024 1 1 1 1 1 1 1 1 1 1 1 1 1 0.007311258676544299 1 1 1 1 1 1 1 0.0093852550056571851 1 1 1 1 1 0.0098804396181328968 1 1 1 1 1 1 1 1 1 1 1 1 1 1 0.0097666746510123373 1 1 1 1 1 1 1 1 0.0093126429700777433 1 1 1 1 1 1 1 1 1 1 1 1 1 1 1 1 1 1 1 1 1 1 1 1 1 1 1 1 1 1 1 1 1 0.0077655878128802605 1 1 1 1 0.010134628124979499 0.0043716883291297012 1 1 0.010533070762128924 1 1 0.0098755224567284999 1 1 0.0082989545798283163 1 1 1 1 1 1 1 1 1 1 1 1 1 1 1 1 1 1 1 0.0072801473121094917 1 1 1 1 0.0069591164682264086 1 1 1 1 1 1 1 1 1 1 1 1 1 1 1 1 1 1 1 1 1 1 1 1 1 1 1 1 1 1 1 1 1 1 1 1 1 1 1 1 1 1 1 1 1 1 1 1 1 1 1 1 1 1 1 1 1 1 1 1 1 1 1 1 1 1 1 1 1 1 1 0.0080742249305397265 1 1 1 1 6.3078167689134546e-11 1 0.00323587677609459 1 1 0.0077305416179224533 1 1 1 1 0.0026142194784781903 1 1 0.0096273959576979665 1 1 1 1 1 1 1 1 1 1 1 1 1 1 1 1 1 1 1 1 1 1 1 1 1 1 1 1 1 1 1 1 1 1 1 1 1 1 1 1 1 1 1 1 1 1 1 1 1 1 1 1 1 1 1 1 1 1 1 1 0.0081353788068238425 1 1 1 1 1 1 1 1 1 0.0098816887942948725 1 1 1 1 1 1 1 0.0093451714057008473 1 1 1 1 1 1 1 1 1 1 1 1 1 1 1 1 1 1 1 0.0050038000132268945 0.0080790057502016926 1 1 0.010324859803687199 1 0.0051623804157588694 1 1 1 1 1 1 1 1 1 1 1 1 1 1 1 1 1 1 1 1 1 1 1 1 1 1 1 1 1 1 1 1 1 1 1 1 1 1 1 1 1 1 1 1 1 1 1 1 1 1 1 1 1 1 1 0.0075368176764528758 0.0075073226789752496 1 1 1 1 1 1 1 1 1 1 1 1 1 1 1 1 1 1 1 1 0.0027852162280036022 1 1 1 1 1 1 1 1 1 1 0.0067711558123109694 1 1 1 -2.233751968117037e-09 1 1 1 1 1 1 0.0071278983646469694 1 1 1 1 1 1 1 1 1 1 1 1 1 -7.068739864279916e-10 1 1 1 1 1 1 0.001639784102872615 0.0094628979186467503 1 0.013258671611354366 1 1 0.011273936396932274 1 1 1 0.014366101520429789 1 1 1 0.015076148839524154 1 1 1 1 1 0.010514619473680993 1 2.7565493533610042e-09 1 1 1 1 0.012404972402109691 1 1 1 1 -2.334191673281083e-09 1 0.00089921972240147169 1 1 0.010530273356945509 0.010182590326724123 1 1 1 1 1 0.0089595708686065027 1 1 1 1 1 0.0076842329387236006 0.0061389832079423307 0.0097948590016810819 1 0.010738252351133959 1 0.007324492555082808 1 1 1 1 1 0.0071956153687854716 1 1 1 1 1 1 1 1 0.009700334639303719 0.012537140996979172 1 1 0.0092276695509515422 1 1 1 1 0.013507335035442668 1 1 0.0073517563595447491 1 1 0.0033706110452750224 1 1 1 1 1 1 1 1 1 0.005838780017801283 1 1 1 1 1 1 1 1 0.0085778894785698764 1 1 1 1 1 1 1 1 1 0.010393717157245116 0.0075997480082242433 1 1 1 1 1 1 1 1 1 1 1 1 1 1 1 1 1 1 1 1 1 1 1 1 1 1 1 1 1 1 1 1 1 1 1 -1.7866341184280543e-09 1 1 1 1 0.0085783211360474995 1 1 1 1 1 1 1 1 1 1 1 1 1 1 1 1 -1.2641325139450821e-09 0.019406424046907806 1 1 1 1 1 1 1 1 1 0.01532739572799088 1 1 1 1 0.011653328559422776 1 1 0.0093156607983457471 1 1 1 1 1 1 1 1 1 1 1 1 1 0.0067451756191033926 1 1 1 1 1 1 1 1 1 1 1 1 1 1 1 1 1 1 1 1 1 1 1 1 1 0.010792771286974933 1 1 1 1 1 0.0092528063046978248 1 1 1 0.012535260212178155 1 1 1 -3.4365714718376239e-09 0.0021794429421482936 1 1 1 1 1 1 1 1 1 1 1 1 1 1 0.010196628356276575 1 1 1 0.011978767615955394 1 1 1 1 0.010769672245561041 0.01019699464578985 1 1 1 1 1 1 1 1 1 1 1 1 1 1 1 1 1 1 1 1 1 1 1 0.0077112343598301006 1 1 1 1 1 1 1 1 1 2.7714435052450526e-09 1 1 1 1 0.0091837276376998105 1 0.00070070474417562034 1 1 1 1 0.010190802231249753 1 1 1 1 1 1 1 1 1 1 1 1 1 1 1 0.0083712108189304829 1 1 0.0053758957889271947 1 1 1 1 1 1 1 1 1 1 0.0029359025433365379 0.0025420244175229758 1 1 1 1 0.0069735616075014906 1 1 1 0.0075927953433034831 1 1 1 1 0.01020680415373205 0.010030113946105354 1 0.00066895518414240331 1 -2.9354290127098226e-09 1 0.0090397934760449022 1 1 0.0074696252956325034 1 1 0.0085874321546873557 1 1 0.0025418913105843426 1 1 1 0.0017752817976024373 1 1 0.010001059595063533 1 -3.6421961609883757e-09 1 0.0059000620806305363 1 1 -7.7197498756951741e-10 1 1 1 1 1 1 1 1 1 1 1 1 1 0.0080000886567748522 1 1 1 1 1 1 1 1 1 1 1 1 1 1 1 1 -8.7212830707228406e-11 -4.3913009053694885e-09 1 1 1 1 1 0.0090541954307744622 1 1 1 1 0.0089489636535598303 1 1 9.6685427271571422e-05 1 1 1 1 0.0095902614752202148 1 1 1 1 1 1 1 1 1 1 1 1 1 1 1 1 1 1 1 1 1 1 1 1 1 1 1 1 1 1 1 1 1 1 1 1 1 1 0.0088452749929566754 1 1 1 1 1 1 1 1 1 1 1 1 1 0.0036898220213891567 1 0.0016773130674568176 1 1 1 1 0.0021699651224514199 1 1 1 1 1 1 1 1 1 1 1 1 1 1 1 1 1 1 0.0046650879507527266 1 0.0080065535035899749 1 1 0.001722049762647386 1 1 1 4.5149799871024854e-10 1 1 1 1 1 1 1 1 1 1 1 1 1 1 1 1 1 1 1 1 1 1 1 1 1 1 1 0.0097031026959603847 1 1 0.0083589996061464965 1 1 1 1 1 1 1 1 1 1 1 1 1 1 1 1 1 1 1 1 1 1 1 1 1 1 1 1 1 1 1 1 1 1 1 0.0095137246131898213 1 0.0099970672698650627 1 1 1 1 1 1 1 1 1 1 1 1 1 1 1 1 1 0.0094516302553877118 0.0084658270515687497 1 1 1 1 1 0.0086469772697168722 1 1 1 1 0.0066874770716248855 1 1 1 1 0.0093296155104920057 1 1 1 1 1 1 1 1 1 1 1 1 1 1 1 1 1 1 0.0090141967961810624 1 1 1 1 1 1 0.0098310559119291641 1 1 0.010520213186165254 1 1 1 1 1 1 1 1 1 1 1 1 0.0086468064594035152 1 1 0.0086093141095132421 1 1 1 1 1 1 1 1 0.009367107860382317 1 1 1 1 1 1 0.0080123493110518026 1 1 0.0060528491129598246 1 1 1 1 1 1 1 1 1 1 1 1 1 1 1 1 1 1 1 1 1 1 1 1 1 1 1 1 1 1 1 1 1 1 1 1 0.0082742994504802821 1 1 1 0.0070967479259195628 1 1 0.010566579275529325 1 1 1 1 1 1 0.00094379040665011973 1 1 1 1 1 0.0067280037584434814 1 1 1 1 1 1 4.2308270862406738e-09 1 1 1 1 0.016695658235461423 1 0.013836283281276094 1 1 0.011853016174042975 1 1 1 0.0088224484754392818 1 1 1 1 1 1 1 1 1 1 1 1 1 0.0029013522995836628 1 1 1 1 1 1 1 1 1 1 1 1 1 1 1 1 1 1 1 1 1 1 1 1 0.0093003512234756756 1 0.0099233982201643416 1 3.8617970930451828e-10 1 7.9991145218033521e-11 1 1 1 1 0.0073057776436255464 1 1 1 1 0.010212873543788017 1 1 1 1 1 1 1 1 1 1 1 1 1 1 0.010734947946820648 1 1 1 0.012234253681007539 1 1 1 0.0088921057536533454 1 1 0.0066727324272781788 1 1 1 0.010154937765186728 1 1 1 1 0.0032174308849498862 1 1 1 1 0.0046991210819079515 1 1 1 1 1 1 1 1 1 1 0.012990660241446374 1 1 1 1 1 0.014709469537487139 1 0.009946340616476557 1 1 1 1 1 0.0083133188811442878 0.013672070203883125 1 1 0.0067803313131204763 1 0.0099770715602165751 1 1 0.010568444952457567 1 1 1 1 1 1 1 1 1 1 1 1 1 0.0022621319443036948 1 1 1 1 1 0.011226004808075233 1 1 1 1 1 1 1 1 1 1 0.0017145570289700948 1 -3.1042107304785072e-09 1 1 0.0161107312472826 1 1 0.0086392603695755483 1 0.013144091934332705 1 1.6709991532831703e-09 1 1 1 1 1 0.00075041012117227704 0.0010195032879180849 1 1 1 1 1 1 1 1 1 1 1 0.0076685331652994477 1 1 1 1 1 0.010004797822751038 1 1 1 0.01284985320113898 1 0.010073614914560292 1 1 1 1 1 1 1 1 1 1 1 1 1 1 1 0.0095565483451015721 1 1 1 1 0.0090857919627639078 1 1 1 1 1 1 1 1 1 1 1 1 1 1 1 1 1 1 1 1 1 1 1 0.0095292436176623359 1 1 0.012196126336530612 1 1 1 1 1 1 1 0.010894752594505243 1 1 0.016057139117863807 1 0.023530120250840517 1 1 1 1 1 1 1 1 1 0.010597118575091314 1 1 0.01027982017176881 1 1 1 0.0076876367948063131 1 1 1 1 1 1 1 0.0086256316035264319 1 1 1 1 0.0093365965677434659 0.0099727346732908922 1 1 1 1 1 1 1 1 1 0.0074181029366260989 1 1 1 1 1 1 1 1 1 1 1 1 1 1 1 1 0.0085654691087940823 1 0.010305452578508296 1 1 1 0.0065552333613573752 1 1 1 1 1 1 1 1 1 1 1 1 1 0.010454196858155514 1 1 1 1 1 0.010051841728802087 1 1 1 0.0099252199440494331 0.010105041603393282 1 1 1 0.017954625814496847 1 1 0.010237060016721481 1 1 1 1 0.019285617726274185 0.0099347021224779845 1 1 1 0.00319882585692495 1 1 0.01039009578625659 1 1 1 1 1.9623462496880933e-09 1 0.0033103755848266285 1 1 1 0.0031964467054120234 1 1 1 1 1 1 1 1 1 1 1 1 1 1 1 1 1 1 1 1 1 0.0068737217164842948 1 1 1 1 1 1 1 1 1 0.0088079959887017931 1 1 1 0.0065101678566835287 1 0.0070498583298397753 1 1 1 1 1 1 1 1 1 1 1 0.0057875605940829414 1 1 1 1 1 2.7132089559008671e-09 1 1 1 1 1 0.0021034583076285397 1 1 1 1 1 1 1 1 1 1 1 1 1 1 1 1 0.0046198617438986123 1 1 1 1 1 1 1 1 1 -2.2231248647530677e-09 1 1 1 1 1 1 1 1 1 1 1 1 1 1 1 0.0092746971307065308 1 1 1 1 1 1 1 1 1 1 1 1 1 1 1 1 1 1 1 1 1 1 1 1 1 1 1 1 1 0.011561235176370342 1 1 1 1 0.015332648135791063 1 0.0095681470534140622 0.010027035711216733 1 1 1 1 1 1 0.010783992461603331 1 6.1660245027760074e-05 1 1 1 0.010029708796833074 1 1 0.0073062968127954146 1 1 1 1 1 1 0.010315597397502487 1 1 1 1 1 1 1 0.0076848145283089607 1 1 1 1 0.0036924607032953419 1 1 1 1 1 1 0.01028059318558629 1 1 1 1 1 1 1 1 1 1 1 1 0.009991116448839708 1 0.010125655420399556 1 1 1 1 1 1 1 0.010305680467686033 0.0098050445940210673 1 1 1 1 1 1 1 1 0.009940985342501471 1 1 1 0.0086864864755236658 1 1 0.0094426399000499366 1 1 1 1 1 1 1 1 1 1 1 1 1 1 1 1 1 1 1 1 1 1 1 1 1 0.0052778437353261098 1 1 0.0046421287024810617 1 1 1 1 1 0.010074052359401653 1 1 0.010277716039303856 1 0.0080407907407481494 1 1 1 0.01018149244346511 1 1 1 1 0.008863827691370986 1 1 0.0017188557908892482 0.010455828576778599 1 1 1 1 1 0.0099655239525355405 1 1 0.0053187427243940131 1 1 1 1 1 0.0079165245492546291 1 1 1 1 1 1 1 1 1 0.00782923988219969 1 1 1 1 0.010743624267623663 1 1 1 1 1 1 0.021722698330743619 1 0.022012360584301234 1 1 1 0.00027741512402873481 1 6.0257544787223338e-10 1 1 0.013530280074238468 1 0.0095367970774151711 1 1 1 0.0072247024858188118 1 1 1 1 1 1 1 1 1 1 1 1 1 0.0057113813655905211 1 1 1 1 0.0046359987356406479 1 1 1 1 1 1 0.010208260640632918 1 1 1 1 1 1 1 0.0084704090778914276 1 1 1 1 1 1 0.006016564411491801 1 1 1 1 1 1 1 0.0044309450415024668 1 1 0.0018900618416480344 1 1 1 1 1 1 1 1 1 0.0087656989504267327 1.4833889117049637e-09 1 1 1 1 1 1 1 1 1 1 1 1 0.0095750313195920415 1 1 1 1 1 1 1 0.0062681754196043851 1 1 1 0.0092367220187617033 1 0.0040438629813626149 1 1 0.0068182533225256553 1 1 1 1 1 -9.6062256760287568e-10 1 1 1 0.010198027072215737 1 1 1 1 0.01066273741559471 1 1 1 0.010166282537934147 1 1 1 1 1 1 1 0.0038197155176951172 1 1 0.0073157355317369985 1 1 1 0.010865151039974571 1 1 1 0.010322865935163504 1 1 1 1 0.0034966438272819034 1 1 1 0.005038609463356096 1 1 1 1 1 1 1 1 1 0.0089847760258769584 1 1 1 1 1 1 1 1 1 0.0079502326290031931 1 1 1 1 0.008806661070639479 1 1 0.0083827791387356531 1 1 1 1 1 1 1 1 1 1 1 1 1 1 1 1 1 1 1 1 1 1 1 1 1 1 0.0088933471132684738 1 1 1 1 1 1 1 1 1 1 1 0.0068635810854615481 1 1 1 0.0044348099755675136 1 1 1 1 1 1 0.0075408811907459322 1 1 1 1 1 1 1 1 1 1 1 1 1 1 1 1 1 1 1 1 1 1 1 1 1 1 0.0098718949610417453 1 0.0072897922605922663 1 1 0.010058210401501649 0.0085678070411959253 1 1 1 1 1 1 1 1 1 1 1 1 1 1 1 1 1 0.0097526717131848142 1 1 1 1 1 1 1 1 1 1 1 1 1 1 1 1 1 1 1 1 1 1 1 1 1 1 1 1 1 1 1 1 1 1 1 1 1 1 1 1 1 1 1 1 1 1 1 1 1 1 1 1 1 1 1 1 1 1 1 1 1 0.0089831727872705797 1 1 0.0077153881397365939 1 1 1 1 0.0073836739350471234 1 1 1 1 1 1 1 1 1 1 0.0099990263732350933 1 0.0033480110039275325 1 1 1 0.0038781871510417849 1 1 1 0.0099933759828935119 1 0.010238707750709491 1 1 1 0.007641185583218555 1 0.0093939282925794062 1 0.0055405068313596128 1 1 1 0.00613089663750964 1 1 1 1 0.0098188969729873406 1 0.003042593842134296 1 1 1 1 1 2.0762315408595633e-09 1 0.0097649088068282319 0.014924916470831693 1 1 1 1 1 1 2.9221141270574513e-09 1 1 1 0.0099399484250205072 1 1 1 1 1 1 1 1 1 1 1 1 1 1 1 1 1 1 1 0.0097977061164081503 1 1 1 9.708567737692908e-05 0.010344923720870607 1 1 1 1 1 0.011915221626317316 1 1 1 1 1 1 1 1 1 1 1 1 1 1 0.0072779493764246975 1 1 0.00040403804524482417 1 0.0067668263294010118 1 1 1 0.012390779741278954 1 0.011062797165839557 1 1 0.00066283192014441467 1 1 1 1 1 1 1 1 1 1 1 0.0027740709402092056 1 1 1 1 1 1 1 1 1 1 3.1575059927790861e-10 0.0098815528280124694 1 1 1 1 1 1 1 0.0057945119727345062 1 1 1 1 1 1 1 1 1 1 1 1 1 1 0.0086244877808584891 1 1 1 1 1 1 1 1 1 1 0.0084441767621223074 1 1 1 0.006577491027215783 1 0.0066138550040568955 0.0047964704799292879 1 1 1 1 1 1 1 1 0.0029272999930625501 1 1 1 1 1 1 1 1 1 0.0033087174409323628 1 0.0058330694717064896 1 0.011042466937743666 1 1 1 1 1 1 1 1 0.0058810591690469441 1 0.0028823602436015769 1 1 1 1 1 1 0.010536947337195094 1 1 -2.054167322351752e-10 1 1.5266536992908364e-09 1 1 1 1 1 1 1 1 1 1 1 1 1 1 0.0083865622101387226 1 1 1 1 1 1 1 1 1 1 0.0095142645188925623 1 1 1 1 1 1 0.010213344164740561 1 1 1 1 1 1 1 1 1 1 1 1 1 1 1 1 1 1 1 1 1 1 1 1 1 0.010328397865160762 1 1 1 1 1 0.01099628278932235 1 1 1 1 1 1 1 1 1 1 1 0.0098463774826235573 1 1 1 1 0.007011409392897414 1 1 1 1 1 0.0076707230511926169 1 1 1 1 1 0.0086223567544527011 1 1 0.0098784639461215323 1 1 1 1 1 1 1 1 1 1 1 1 1 1 1 1 1 1 1 1 1 1 1 1 1 1 0.0098717336102549028 1 1 0.0098719973835794863 1 1 1 1 1 1 1 1 1 1 1 1 1 1 1 0.010168199440880221 1 1 1 1 1 1 1 1 1 0.010381543605620741 1 1 1 1 1 1 1 0.011531640583412345 1 1 1 1 1 0.0097101223046142972 1 1 1 1 1 1 0.0065991806804923522 1 1 1 1 0.0068857180055742805 1 1 1 1 1 1 1 0.0098637448219907452 1 1 0.011689455997297291 1 1 0.011343505474410286 1 1 1 1 0.0079279248404983457 1 1 1 1 1 1 1 1 0.0090689017507148435 1 1 0.0079563118546780026 1 1 1 1 1 1 1 1 1 0.0095929175634970748 1 1 1 1 1 0.010118362718988862 1 1 1 1 0.0091860015330717873 1 1 1 0.010517756418048245 1 1 1 1 1 1 1 1 1 1 1 0.0099747736504231105 0.0099768932362708264 1 1 1 1 1 1 1 1 1 1 1 0.0090726896731810266 1 1 1 1 1 0.0090160190089865373 1 0.0077363123789071231 0.0090576372973935754 1 0.0099309141321800506 0.0082799882902306124 1 1 0.0099886525837532061 1 1 1 1 1 1 0.0061930409142537043 1 0.010083976836195529 0.010032622977186899 1 1 1 1 1 0.01005321072567817 1 1 1 1 1 1 1 1 0.0072452407845269608 1 1 1 1 0.0093177462420565918 1 1 1 1 1 0.010057318979495931 1 1 0.0064537204334653153 1 1 1 1 1 1 1 0.0079532230919821117 1 0.0096650048905852701 1 1 1 1 1 1 1 0.0082230008433534021 0.0096816147341899205 1 1 1 1 1 1 1 0.0098559597532678414 1 1 1 1 1 1 0.0094265816870711377 1 1 1 1 1 1 1 1 1 1 1 1 1 1 0.010693778632058538 1 1 0.0102258290569162 1 1 1 1 0.010028046719954373 1 1 1 1 0.0043830472277604088 1 1 1 1 1 1 0.0056699882451481873 1 1 1 1 1 1 1 0.010000356895925882 1 1 1 0.010933304922001875 1 1 1 1 0.0069929753080030244 1 1 0.011784788816955875 1 1 1 1 1 1 1 0.010939826715551033 1 1 1 1 0.011608267157855821 1 0.010052936820187888 1 1 1 1 1 1 1 1 1 1 1 1 1 1 0.0089717850766087917 1 1 1 1 1 1 1 0.0085628489289469728 1 1 0.0076100806601617846 1 1 0.010019990179524057 1 1 1 1 1 1 1 1 1 0.014070037434514689 1 1 1 0.012437072047106769 1 1 1 1 1 1 1 1 1 0.01110624380269614 1 1 1 1 1 1 1 1 1 1 1 0.0086559369284208779 1 1 1 0.010274114498435523 1 1 1 1 1 1 1 1 1 1 1 0.0064554611914702797 1 1 1 1 1 1 1 1 1 1 0.0048937866293528656 1 1 1 1 1 0.01116371887187859 1 1 1 1 1 1 1 1 0.0097119502526495996 1 1 0.010788558913336237 1 1 0.010950057902160554 1 1 1 1 0.010551667057699918 0.0069919368319122099 1 1 1 1 0.010025292647104177 1 1 1 1 0.0080725943075250148 1 1 0.0093125315974180167 1 1 1 1 -4.23041724567641e-09 1 1 0.00035614707862394526 1 1 1 1 1 0.00092982417733145084 1 1 1 1 1 1 1 1 0.0018038350033184151 1 0.010131837771781524 1 1 1 1 1 1 1 1 1 0.013395952774560321 0.003073477272497533 1 1 1 1 1 1 2.3240787905276505e-09 1 1 0.010881339725174155 1 1 0.011123308983034439 1 0.0094641893692341654 1 1 1 7.6861751269197143e-09 1 1 0.0098046400819174675 1 1 1 1 1 1 1 1 0.010229146738526635 0.0089978518748433586 1 1 0.00015195981737769343 0.014089246369395696 1 1 1 1 0.0014570625338583346 1 1 1 0.013416840268389858 1 0.0010067967212502027 1 0.01691537731841259 1.370563844707573e-10 0.0034040661243001299 1 0.0011070749185569592 1 1 1 0.0092901464491283187 1 1 1 1 1 1 1 1 1 -4.8822431861217375e-10 1 1 1.7468016269561737e-09 1 1 1 1 1 1 -9.3092106939751673e-10 1 1 1 1 1 1 0.0096860920680757329 0.0097100522811083834 2.9860445296958638e-09 1 1 1 1 1 1 1 1 1 1 1 0.0079643933840040041 1 1 1 1 0.00027019490667562485 1 1 1 1 1 1 1 1 0.00065833622933107174 1 1 0.0024588041081876656 1 1 1 0.011879655538498523 1 1 1 1 1 1 1 1 1 0.010211540537733715 1 1 1 1 1 1 1 1 1.7755548940845411e-10 1 1 1 1.7449524550988693e-09 1 1 0.0050093889322589142 1 1 1 0.010646048809992037 1 0.0032662683180930212 1 1 0.0025277567468430275 1 5.162739822456297e-09 1 1 0.0082655748718800468 1 1 1 1 1 1 0.0049331861424115053 1 1 0.0055924967484433739 1 1 1 1 1 1 1 1 1 1 1 1 1 1 1 1 1 1 1 1 1 1 1 1 1 1 1 1 1 1 1 1 1 1 1 1 1 1 1 1 1 1 1 1 1 1 1 1 1 1 1 1 1 1 1 1 1 1 1 1 1 1 1 1 1 1 1 1 1 1 1 1 1 1 1 1 1 1 1 1 1 1 1 1 1 1 1 1 1 1 1 1 1 1 1 1 0.0083329903253356544 1 1 1 1 9.7436832040276311e-10 1 1 1 1 1 1 1 1 1 1 1 1 0.0052027501166621443 -5.2030573773065303e-10 1 1 1 1 1 1 1 1 1 1 1 1 1 1 1 0.0099927159419364447 1 1 1 0.0090756170951073554 1 1 1 1 1 1 1 1 1 1 0.0019833257026353138 1 0.0059727851603974622 1 1 1 1 1 1 1 1 1 1 1 1 1 1 1 1 1 1 1 1 1 1 1 1 0.010127829071826957 1 1 1 1 0.01035184763034883 1 1 1 1 1 1 1 1 0.010027460237952401 1 1 1 1 1 1 1 1 1 1 1 1 1 1 1 1 1 1 1 1 1 1 1 1 1 1 1 1 1 1 1 1 1 1 1 1 1 1 1 1 1 1 1 1 1 1 1 1 1 0.010171860842445904 1 1 1 1 1 1 1 1 1 1 1 1 1 1 1 1 1 1 1 1 1 1 1 1 1 1 1 1 1 1 1 1 0.01071549724532106 1 1 1 1 1 1 0.0076694657825227049 1 1 1 1 1 1 0.0091830961098672732 1 1 0.009420479654615262 1 0.0077195480261723903 1 0.0055844843855882807 1 1 1 1 0.01077708958417199 1 1 1 1 1 0.010307699888846569 1 1 1 -1.3963726355759043e-10 0.009538976372778233 1 1 1 0.0045892618939264041 1 1 1 1 0.0079600646906638449 0.0015134742860028125 1 1 1 1 1 1 1 1 1 1 1 1 1 1 0.010207520093537745 1 1 0.0091678565132236947 1 1 0.010459109241266447 0.012931965362997842 1 1 1 1 1 1 1 1 1 1 0.015493868955219574 1 0.013682588069427282 1 1 1 1 1 1 1 1 1 1 1 0.0052028175263478752 1 1 1 1 1 1 1 0.0053899484507962522 1 1 1 1 1 1 1 1 1 1 1 1 1 1 1 1 1 1 0.0089135545218336464 0.008715001881246201 1 1 1 1 1 1 1 1 1 1 1 1 1 1 1 1 1 0.011455187039468455 1 1 1 1 1 1 1 1 1 0.008127484454491159 1 1 1 1 1 1 1 1 1 1 1 1 2.0880181542115572e-09 1 1 1 1 0.0099236090060414936 1 0.0065533013820768694 1 1 1 1 1 1 1 1 1 0.0083632518040660606 1 1 1 1 0.009159117161945389 1 1 1 1 0.0094229415226946018 1 0.0022540908345673114 1 1 1 1 1 1 1 1 1 1 1 1 0.0095223863362478775 1 1 1 1 1 1 1 1 1 1 1 1 1 1 1 0.0092267071192089004 1 0.0051137584576823204 1 1 0.0082120765608723802 1 1 1 0.0099959550104109854 1 4.399308618565495e-05 1 1 -1.9296675438096322e-09 1 1 0.0099983263405028795 1 0.0094530255054049855 1 1 1 1 1 1 1 -3.3699484869309515e-10 0.0014545255253921863 1 1 1 1 0.0075282004771095104 0.011481017365388138 1 1 0.0055615425094094721 0.0074916435074560278 1 0.0030192639996389631 1 1 0.0090707054367807904 0.010896498509365976 1 1 0.010714145152201662 1 1 0.0032274286359097182 1 1 1 1 1 1 1 1 0.001173255082720163 1 1 0.01037337868133055 1 0.011509437056105139 1 1 1 0.0043721340265511152 1 1 1 1 1 1 1 1 0.0091645365345822145 1 1 1 1 1 1 1 1 1 1 1 1 1 1 1 1 1 1 1 1 1 1 0.0078246296329894278 1 1 1 1 1 1 1 1 1 1 1 1 1 1 1 1 1 1 
</DataArray>
</CellData>
</Piece>
</UnstructuredGrid>
</VTKFile>
